NAME CRUDEBLEND_12
ROWS
 N  OBJ
 E  DEMAND
 L  SULFUR
 G  APILO
 L  APIHI
 L  RESMAX
COLUMNS
    X_CR00 OBJ 57.167912615864374
    X_CR00 DEMAND 1.0
    X_CR00 SULFUR 1.5270445845054217
    X_CR00 APILO -5.043986629527172
    X_CR00 APIHI -13.043986629527172
    X_CR00 RESMAX 0.06147542808042036
    X_CR01 OBJ 73.51307547067121
    X_CR01 DEMAND 1.0
    X_CR01 SULFUR 0.24157791050566568
    X_CR01 APILO 10.386832286237137
    X_CR01 APIHI 2.386832286237137
    X_CR01 RESMAX -0.05808663124346283
    X_CR02 OBJ 59.95229974273646
    X_CR02 DEMAND 1.0
    X_CR02 SULFUR 0.5783786656598395
    X_CR02 APILO -7.4401910581438635
    X_CR02 APIHI -15.440191058143864
    X_CR02 RESMAX 0.06865018467744247
    X_CR03 OBJ 66.3988333587986
    X_CR03 DEMAND 1.0
    X_CR03 SULFUR -0.3843137212229486
    X_CR03 APILO -2.8721420943334017
    X_CR03 APIHI -10.872142094333402
    X_CR03 RESMAX 0.0374207532597324
    X_CR04 OBJ 71.32421309602516
    X_CR04 DEMAND 1.0
    X_CR04 SULFUR 1.565834239265399
    X_CR04 APILO 13.835955067873428
    X_CR04 APIHI 5.835955067873428
    X_CR04 RESMAX -0.1053709628909003
    X_CR05 OBJ 64.62958169739663
    X_CR05 DEMAND 1.0
    X_CR05 SULFUR 0.7214998790450344
    X_CR05 APILO -1.3258927594758134
    X_CR05 APIHI -9.325892759475813
    X_CR05 RESMAX 0.013160648164340344
    X_CR06 OBJ 62.16362289038622
    X_CR06 DEMAND 1.0
    X_CR06 SULFUR 0.6012761603032744
    X_CR06 APILO -4.193837165260881
    X_CR06 APIHI -12.19383716526088
    X_CR06 RESMAX 0.05409150113061165
    X_CR07 OBJ 71.0978615389435
    X_CR07 DEMAND 1.0
    X_CR07 SULFUR -1.008317611702588
    X_CR07 APILO 2.7732574501696803
    X_CR07 APIHI -5.22674254983032
    X_CR07 RESMAX -0.026317958603710556
    X_CR08 OBJ 69.12958108494931
    X_CR08 DEMAND 1.0
    X_CR08 SULFUR 0.5728140901943144
    X_CR08 APILO 8.951509076277617
    X_CR08 APIHI 0.9515090762776168
    X_CR08 RESMAX -0.06507185059152978
    X_CR09 OBJ 77.72627147049985
    X_CR09 DEMAND 1.0
    X_CR09 SULFUR -1.082301698703782
    X_CR09 APILO 13.056558192124996
    X_CR09 APIHI 5.056558192124996
    X_CR09 RESMAX -0.10041771634626336
    X_CR10 OBJ 57.7036482670824
    X_CR10 DEMAND 1.0
    X_CR10 SULFUR 1.5970314810475836
    X_CR10 APILO -6.76528745454371
    X_CR10 APIHI -14.76528745454371
    X_CR10 RESMAX 0.062175888142064734
    X_CR11 OBJ 69.91199754474653
    X_CR11 DEMAND 1.0
    X_CR11 SULFUR 0.32025508030914596
    X_CR11 APILO 5.473954225219963
    X_CR11 APIHI -2.5260457747800373
    X_CR11 RESMAX -0.02510238181174418
RHS
    RHS DEMAND 1000.0
BOUNDS
 UP BND X_CR00 264.88231803928767
 UP BND X_CR01 528.7851745233431
 UP BND X_CR02 452.90108644741815
 UP BND X_CR03 187.45536201175406
 UP BND X_CR04 157.5107835520018
 UP BND X_CR05 156.55198871616554
 UP BND X_CR06 490.01404886348917
 UP BND X_CR07 262.3016515440403
 UP BND X_CR08 199.2698822824617
 UP BND X_CR09 431.1609378686143
 UP BND X_CR10 304.9902888434227
 UP BND X_CR11 181.2819203388813
ENDATA
