NAME CRUDEBLEND_30_MIP
ROWS
 N  OBJ
 G  LIFTMIN_CR00
 L  LIFTMAX_CR00
 G  LIFTMIN_CR01
 L  LIFTMAX_CR01
 G  LIFTMIN_CR02
 L  LIFTMAX_CR02
 G  LIFTMIN_CR03
 L  LIFTMAX_CR03
 G  LIFTMIN_CR04
 L  LIFTMAX_CR04
 G  LIFTMIN_CR05
 L  LIFTMAX_CR05
 G  LIFTMIN_CR06
 L  LIFTMAX_CR06
 G  LIFTMIN_CR07
 L  LIFTMAX_CR07
 G  LIFTMIN_CR08
 L  LIFTMAX_CR08
 G  LIFTMIN_CR09
 L  LIFTMAX_CR09
 G  LIFTMIN_CR10
 L  LIFTMAX_CR10
 G  LIFTMIN_CR11
 L  LIFTMAX_CR11
 G  LIFTMIN_CR12
 L  LIFTMAX_CR12
 G  LIFTMIN_CR13
 L  LIFTMAX_CR13
 G  LIFTMIN_CR14
 L  LIFTMAX_CR14
 G  LIFTMIN_CR15
 L  LIFTMAX_CR15
 G  LIFTMIN_CR16
 L  LIFTMAX_CR16
 G  LIFTMIN_CR17
 L  LIFTMAX_CR17
 G  LIFTMIN_CR18
 L  LIFTMAX_CR18
 G  LIFTMIN_CR19
 L  LIFTMAX_CR19
 G  LIFTMIN_CR20
 L  LIFTMAX_CR20
 G  LIFTMIN_CR21
 L  LIFTMAX_CR21
 G  LIFTMIN_CR22
 L  LIFTMAX_CR22
 G  LIFTMIN_CR23
 L  LIFTMAX_CR23
 G  LIFTMIN_CR24
 L  LIFTMAX_CR24
 G  LIFTMIN_CR25
 L  LIFTMAX_CR25
 G  LIFTMIN_CR26
 L  LIFTMAX_CR26
 G  LIFTMIN_CR27
 L  LIFTMAX_CR27
 G  LIFTMIN_CR28
 L  LIFTMAX_CR28
 G  LIFTMIN_CR29
 L  LIFTMAX_CR29
 E  DEMAND
 L  SULFUR
 G  APILO
 L  APIHI
 L  RESMAX
COLUMNS
    X_CR00 OBJ 57.167912615864374
    X_CR00 LIFTMIN_CR00 1.0
    X_CR00 LIFTMAX_CR00 1.0
    X_CR00 DEMAND 1.0
    X_CR00 SULFUR 1.5270445845054217
    X_CR00 APILO -5.043986629527172
    X_CR00 APIHI -13.043986629527172
    X_CR00 RESMAX 0.06147542808042036
    M77 'MARKER' 'INTORG'
    Y_CR00 OBJ 250.0
    Y_CR00 LIFTMIN_CR00 -60.0
    Y_CR00 LIFTMAX_CR00 -288.29450301563105
    M81 'MARKER' 'INTEND'
    X_CR01 OBJ 73.51307547067121
    X_CR01 LIFTMIN_CR01 1.0
    X_CR01 LIFTMAX_CR01 1.0
    X_CR01 DEMAND 1.0
    X_CR01 SULFUR 0.24157791050566568
    X_CR01 APILO 10.386832286237137
    X_CR01 APIHI 2.386832286237137
    X_CR01 RESMAX -0.05808663124346283
    M90 'MARKER' 'INTORG'
    Y_CR01 OBJ 250.0
    Y_CR01 LIFTMIN_CR01 -60.0
    Y_CR01 LIFTMAX_CR01 -260.8715382382915
    M94 'MARKER' 'INTEND'
    X_CR02 OBJ 59.95229974273646
    X_CR02 LIFTMIN_CR02 1.0
    X_CR02 LIFTMAX_CR02 1.0
    X_CR02 DEMAND 1.0
    X_CR02 SULFUR 0.5783786656598395
    X_CR02 APILO -7.4401910581438635
    X_CR02 APIHI -15.440191058143864
    X_CR02 RESMAX 0.06865018467744247
    M103 'MARKER' 'INTORG'
    Y_CR02 OBJ 250.0
    Y_CR02 LIFTMIN_CR02 -60.0
    Y_CR02 LIFTMAX_CR02 -186.6159444227045
    M107 'MARKER' 'INTEND'
    X_CR03 OBJ 66.3988333587986
    X_CR03 LIFTMIN_CR03 1.0
    X_CR03 LIFTMAX_CR03 1.0
    X_CR03 DEMAND 1.0
    X_CR03 SULFUR -0.3843137212229486
    X_CR03 APILO -2.8721420943334017
    X_CR03 APIHI -10.872142094333402
    X_CR03 RESMAX 0.0374207532597324
    M116 'MARKER' 'INTORG'
    Y_CR03 OBJ 250.0
    Y_CR03 LIFTMIN_CR03 -60.0
    Y_CR03 LIFTMAX_CR03 -276.354025604104
    M120 'MARKER' 'INTEND'
    X_CR04 OBJ 71.32421309602516
    X_CR04 LIFTMIN_CR04 1.0
    X_CR04 LIFTMAX_CR04 1.0
    X_CR04 DEMAND 1.0
    X_CR04 SULFUR 1.565834239265399
    X_CR04 APILO 13.835955067873428
    X_CR04 APIHI 5.835955067873428
    X_CR04 RESMAX -0.1053709628909003
    M129 'MARKER' 'INTORG'
    Y_CR04 OBJ 250.0
    Y_CR04 LIFTMIN_CR04 -60.0
    Y_CR04 LIFTMAX_CR04 -592.5195227487311
    M133 'MARKER' 'INTEND'
    X_CR05 OBJ 64.62958169739663
    X_CR05 LIFTMIN_CR05 1.0
    X_CR05 LIFTMAX_CR05 1.0
    X_CR05 DEMAND 1.0
    X_CR05 SULFUR 0.7214998790450344
    X_CR05 APILO -1.3258927594758134
    X_CR05 APIHI -9.325892759475813
    X_CR05 RESMAX 0.013160648164340344
    M142 'MARKER' 'INTORG'
    Y_CR05 OBJ 250.0
    Y_CR05 LIFTMIN_CR05 -60.0
    Y_CR05 LIFTMAX_CR05 -351.556008239983
    M146 'MARKER' 'INTEND'
    X_CR06 OBJ 62.16362289038622
    X_CR06 LIFTMIN_CR06 1.0
    X_CR06 LIFTMAX_CR06 1.0
    X_CR06 DEMAND 1.0
    X_CR06 SULFUR 0.6012761603032744
    X_CR06 APILO -4.193837165260881
    X_CR06 APIHI -12.19383716526088
    X_CR06 RESMAX 0.05409150113061165
    M155 'MARKER' 'INTORG'
    Y_CR06 OBJ 250.0
    Y_CR06 LIFTMIN_CR06 -60.0
    Y_CR06 LIFTMAX_CR06 -443.40474053070176
    M159 'MARKER' 'INTEND'
    X_CR07 OBJ 71.0978615389435
    X_CR07 LIFTMIN_CR07 1.0
    X_CR07 LIFTMAX_CR07 1.0
    X_CR07 DEMAND 1.0
    X_CR07 SULFUR -1.008317611702588
    X_CR07 APILO 2.7732574501696803
    X_CR07 APIHI -5.22674254983032
    X_CR07 RESMAX -0.026317958603710556
    M168 'MARKER' 'INTORG'
    Y_CR07 OBJ 250.0
    Y_CR07 LIFTMIN_CR07 -60.0
    Y_CR07 LIFTMAX_CR07 -439.5597361214287
    M172 'MARKER' 'INTEND'
    X_CR08 OBJ 69.12958108494931
    X_CR08 LIFTMIN_CR08 1.0
    X_CR08 LIFTMAX_CR08 1.0
    X_CR08 DEMAND 1.0
    X_CR08 SULFUR 0.5728140901943144
    X_CR08 APILO 8.951509076277617
    X_CR08 APIHI 0.9515090762776168
    X_CR08 RESMAX -0.06507185059152978
    M181 'MARKER' 'INTORG'
    Y_CR08 OBJ 250.0
    Y_CR08 LIFTMIN_CR08 -60.0
    Y_CR08 LIFTMAX_CR08 -573.33053501205
    M185 'MARKER' 'INTEND'
    X_CR09 OBJ 77.72627147049985
    X_CR09 LIFTMIN_CR09 1.0
    X_CR09 LIFTMAX_CR09 1.0
    X_CR09 DEMAND 1.0
    X_CR09 SULFUR -1.082301698703782
    X_CR09 APILO 13.056558192124996
    X_CR09 APIHI 5.056558192124996
    X_CR09 RESMAX -0.10041771634626336
    M194 'MARKER' 'INTORG'
    Y_CR09 OBJ 250.0
    Y_CR09 LIFTMIN_CR09 -60.0
    Y_CR09 LIFTMAX_CR09 -325.7153480125154
    M198 'MARKER' 'INTEND'
    X_CR10 OBJ 57.7036482670824
    X_CR10 LIFTMIN_CR10 1.0
    X_CR10 LIFTMAX_CR10 1.0
    X_CR10 DEMAND 1.0
    X_CR10 SULFUR 1.5970314810475836
    X_CR10 APILO -6.76528745454371
    X_CR10 APIHI -14.76528745454371
    X_CR10 RESMAX 0.062175888142064734
    M207 'MARKER' 'INTORG'
    Y_CR10 OBJ 250.0
    Y_CR10 LIFTMIN_CR10 -60.0
    Y_CR10 LIFTMAX_CR10 -288.0529326831811
    M211 'MARKER' 'INTEND'
    X_CR11 OBJ 69.91199754474653
    X_CR11 LIFTMIN_CR11 1.0
    X_CR11 LIFTMAX_CR11 1.0
    X_CR11 DEMAND 1.0
    X_CR11 SULFUR 0.32025508030914596
    X_CR11 APILO 5.473954225219963
    X_CR11 APIHI -2.5260457747800373
    X_CR11 RESMAX -0.02510238181174418
    M220 'MARKER' 'INTORG'
    Y_CR11 OBJ 250.0
    Y_CR11 LIFTMIN_CR11 -60.0
    Y_CR11 LIFTMAX_CR11 -297.25863660920993
    M224 'MARKER' 'INTEND'
    X_CR12 OBJ 58.879608898180784
    X_CR12 LIFTMIN_CR12 1.0
    X_CR12 LIFTMAX_CR12 1.0
    X_CR12 DEMAND 1.0
    X_CR12 SULFUR 1.5094089800496977
    X_CR12 APILO -2.3835311180792687
    X_CR12 APIHI -10.383531118079269
    X_CR12 RESMAX 0.02699298336765721
    M233 'MARKER' 'INTORG'
    Y_CR12 OBJ 250.0
    Y_CR12 LIFTMIN_CR12 -60.0
    Y_CR12 LIFTMAX_CR12 -292.530816098521
    M237 'MARKER' 'INTEND'
    X_CR13 OBJ 68.08789585128616
    X_CR13 LIFTMIN_CR13 1.0
    X_CR13 LIFTMAX_CR13 1.0
    X_CR13 DEMAND 1.0
    X_CR13 SULFUR -0.8845023265543732
    X_CR13 APILO -0.42269698987711024
    X_CR13 APIHI -8.42269698987711
    X_CR13 RESMAX 0.013328421403269758
    M246 'MARKER' 'INTORG'
    Y_CR13 OBJ 250.0
    Y_CR13 LIFTMIN_CR13 -60.0
    Y_CR13 LIFTMAX_CR13 -531.2106446217967
    M250 'MARKER' 'INTEND'
    X_CR14 OBJ 62.039589910596625
    X_CR14 LIFTMIN_CR14 1.0
    X_CR14 LIFTMAX_CR14 1.0
    X_CR14 DEMAND 1.0
    X_CR14 SULFUR 0.09832702476055677
    X_CR14 APILO -7.480039292096286
    X_CR14 APIHI -15.480039292096286
    X_CR14 RESMAX 0.057274429578982905
    M259 'MARKER' 'INTORG'
    Y_CR14 OBJ 250.0
    Y_CR14 LIFTMIN_CR14 -60.0
    Y_CR14 LIFTMAX_CR14 -552.0751104847204
    M263 'MARKER' 'INTEND'
    X_CR15 OBJ 63.8910579807148
    X_CR15 LIFTMIN_CR15 1.0
    X_CR15 LIFTMAX_CR15 1.0
    X_CR15 DEMAND 1.0
    X_CR15 SULFUR -1.0446199854338345
    X_CR15 APILO -7.54200161279568
    X_CR15 APIHI -15.54200161279568
    X_CR15 RESMAX 0.06778735201782102
    M272 'MARKER' 'INTORG'
    Y_CR15 OBJ 250.0
    Y_CR15 LIFTMIN_CR15 -60.0
    Y_CR15 LIFTMAX_CR15 -286.2641983526323
    M276 'MARKER' 'INTEND'
    X_CR16 OBJ 68.8618682789178
    X_CR16 LIFTMIN_CR16 1.0
    X_CR16 LIFTMAX_CR16 1.0
    X_CR16 DEMAND 1.0
    X_CR16 SULFUR 0.5014585025431184
    X_CR16 APILO 9.551838869535324
    X_CR16 APIHI 1.5518388695353238
    X_CR16 RESMAX -0.06260178375943659
    M285 'MARKER' 'INTORG'
    Y_CR16 OBJ 250.0
    Y_CR16 LIFTMIN_CR16 -60.0
    Y_CR16 LIFTMAX_CR16 -300.45003254284285
    M289 'MARKER' 'INTEND'
    X_CR17 OBJ 68.5432876317241
    X_CR17 LIFTMIN_CR17 1.0
    X_CR17 LIFTMAX_CR17 1.0
    X_CR17 DEMAND 1.0
    X_CR17 SULFUR 1.614156157128994
    X_CR17 APILO 13.29387282331956
    X_CR17 APIHI 5.29387282331956
    X_CR17 RESMAX -0.1032381770379783
    M298 'MARKER' 'INTORG'
    Y_CR17 OBJ 250.0
    Y_CR17 LIFTMIN_CR17 -60.0
    Y_CR17 LIFTMAX_CR17 -394.9014363819829
    M302 'MARKER' 'INTEND'
    X_CR18 OBJ 76.96254509111026
    X_CR18 LIFTMIN_CR18 1.0
    X_CR18 LIFTMAX_CR18 1.0
    X_CR18 DEMAND 1.0
    X_CR18 SULFUR -0.9824587551444002
    X_CR18 APILO 11.331793760594621
    X_CR18 APIHI 3.3317937605946213
    X_CR18 RESMAX -0.073277641190158
    M311 'MARKER' 'INTORG'
    Y_CR18 OBJ 250.0
    Y_CR18 LIFTMIN_CR18 -60.0
    Y_CR18 LIFTMAX_CR18 -410.54344634268773
    M315 'MARKER' 'INTEND'
    X_CR19 OBJ 65.84702207923586
    X_CR19 LIFTMIN_CR19 1.0
    X_CR19 LIFTMAX_CR19 1.0
    X_CR19 DEMAND 1.0
    X_CR19 SULFUR -0.02451425785587258
    X_CR19 APILO 0.3153143555593765
    X_CR19 APIHI -7.6846856444406235
    X_CR19 RESMAX 0.020605683491711546
    M324 'MARKER' 'INTORG'
    Y_CR19 OBJ 250.0
    Y_CR19 LIFTMIN_CR19 -60.0
    Y_CR19 LIFTMAX_CR19 -418.18314300045193
    M328 'MARKER' 'INTEND'
    X_CR20 OBJ 60.44486521672783
    X_CR20 LIFTMIN_CR20 1.0
    X_CR20 LIFTMAX_CR20 1.0
    X_CR20 DEMAND 1.0
    X_CR20 SULFUR 1.602026673013021
    X_CR20 APILO -0.8423955927280815
    X_CR20 APIHI -8.842395592728082
    X_CR20 RESMAX 0.02742325866673978
    M337 'MARKER' 'INTORG'
    Y_CR20 OBJ 250.0
    Y_CR20 LIFTMIN_CR20 -60.0
    Y_CR20 LIFTMAX_CR20 -260.2941017528619
    M341 'MARKER' 'INTEND'
    X_CR21 OBJ 64.95074870740596
    X_CR21 LIFTMIN_CR21 1.0
    X_CR21 LIFTMAX_CR21 1.0
    X_CR21 DEMAND 1.0
    X_CR21 SULFUR 1.4968733174772895
    X_CR21 APILO 6.838011533922796
    X_CR21 APIHI -1.1619884660772044
    X_CR21 RESMAX -0.03330998889249137
    M350 'MARKER' 'INTORG'
    Y_CR21 OBJ 250.0
    Y_CR21 LIFTMIN_CR21 -60.0
    Y_CR21 LIFTMAX_CR21 -159.16831280081357
    M354 'MARKER' 'INTEND'
    X_CR22 OBJ 63.80076446281773
    X_CR22 LIFTMIN_CR22 1.0
    X_CR22 LIFTMAX_CR22 1.0
    X_CR22 DEMAND 1.0
    X_CR22 SULFUR -0.5739481604373985
    X_CR22 APILO -6.137034930837348
    X_CR22 APIHI -14.137034930837348
    X_CR22 RESMAX 0.047763234272198224
    M363 'MARKER' 'INTORG'
    Y_CR22 OBJ 250.0
    Y_CR22 LIFTMIN_CR22 -60.0
    Y_CR22 LIFTMAX_CR22 -259.6916849225621
    M367 'MARKER' 'INTEND'
    X_CR23 OBJ 69.02567782798359
    X_CR23 LIFTMIN_CR23 1.0
    X_CR23 LIFTMAX_CR23 1.0
    X_CR23 DEMAND 1.0
    X_CR23 SULFUR 0.772345839564305
    X_CR23 APILO 11.083236118911856
    X_CR23 APIHI 3.083236118911856
    X_CR23 RESMAX -0.08913177596244046
    M376 'MARKER' 'INTORG'
    Y_CR23 OBJ 250.0
    Y_CR23 LIFTMIN_CR23 -60.0
    Y_CR23 LIFTMAX_CR23 -182.5473902421349
    M380 'MARKER' 'INTEND'
    X_CR24 OBJ 65.9250046379198
    X_CR24 LIFTMIN_CR24 1.0
    X_CR24 LIFTMAX_CR24 1.0
    X_CR24 DEMAND 1.0
    X_CR24 SULFUR 1.468368511554252
    X_CR24 APILO 9.33856187195498
    X_CR24 APIHI 1.3385618719549797
    X_CR24 RESMAX -0.07341761792175056
    M389 'MARKER' 'INTORG'
    Y_CR24 OBJ 250.0
    Y_CR24 LIFTMIN_CR24 -60.0
    Y_CR24 LIFTMAX_CR24 -398.0421397119777
    M393 'MARKER' 'INTEND'
    X_CR25 OBJ 72.09043029465192
    X_CR25 LIFTMIN_CR25 1.0
    X_CR25 LIFTMAX_CR25 1.0
    X_CR25 DEMAND 1.0
    X_CR25 SULFUR 0.6497851830446122
    X_CR25 APILO 11.596898812816718
    X_CR25 APIHI 3.5968988128167183
    X_CR25 RESMAX -0.09735515230774291
    M402 'MARKER' 'INTORG'
    Y_CR25 OBJ 250.0
    Y_CR25 LIFTMIN_CR25 -60.0
    Y_CR25 LIFTMAX_CR25 -181.9123653927905
    M406 'MARKER' 'INTEND'
    X_CR26 OBJ 57.15397546510916
    X_CR26 LIFTMIN_CR26 1.0
    X_CR26 LIFTMAX_CR26 1.0
    X_CR26 DEMAND 1.0
    X_CR26 SULFUR 1.6436862181769494
    X_CR26 APILO -5.467745034585597
    X_CR26 APIHI -13.467745034585597
    X_CR26 RESMAX 0.046079514735297616
    M415 'MARKER' 'INTORG'
    Y_CR26 OBJ 250.0
    Y_CR26 LIFTMIN_CR26 -60.0
    Y_CR26 LIFTMAX_CR26 -183.80840651453533
    M419 'MARKER' 'INTEND'
    X_CR27 OBJ 56.187818212823295
    X_CR27 LIFTMIN_CR27 1.0
    X_CR27 LIFTMAX_CR27 1.0
    X_CR27 DEMAND 1.0
    X_CR27 SULFUR 1.7233696966659335
    X_CR27 APILO -5.737648788301186
    X_CR27 APIHI -13.737648788301186
    X_CR27 RESMAX 0.055438274724431386
    M428 'MARKER' 'INTORG'
    Y_CR27 OBJ 250.0
    Y_CR27 LIFTMIN_CR27 -60.0
    Y_CR27 LIFTMAX_CR27 -435.9219421033757
    M432 'MARKER' 'INTEND'
    X_CR28 OBJ 66.978847676601
    X_CR28 LIFTMIN_CR28 1.0
    X_CR28 LIFTMAX_CR28 1.0
    X_CR28 DEMAND 1.0
    X_CR28 SULFUR -1.0674309302921159
    X_CR28 APILO -7.128355304898502
    X_CR28 APIHI -15.128355304898502
    X_CR28 RESMAX 0.05256997539198108
    M441 'MARKER' 'INTORG'
    Y_CR28 OBJ 250.0
    Y_CR28 LIFTMIN_CR28 -60.0
    Y_CR28 LIFTMAX_CR28 -280.869697688728
    M445 'MARKER' 'INTEND'
    X_CR29 OBJ 75.70198834258788
    X_CR29 LIFTMIN_CR29 1.0
    X_CR29 LIFTMAX_CR29 1.0
    X_CR29 DEMAND 1.0
    X_CR29 SULFUR -0.754776838606635
    X_CR29 APILO 13.335523098922337
    X_CR29 APIHI 5.335523098922337
    X_CR29 RESMAX -0.09668280759558423
    M454 'MARKER' 'INTORG'
    Y_CR29 OBJ 250.0
    Y_CR29 LIFTMIN_CR29 -60.0
    Y_CR29 LIFTMAX_CR29 -506.48314104703155
    M458 'MARKER' 'INTEND'
RHS
    RHS DEMAND 1000.0
BOUNDS
 UP BND X_CR00 288.29450301563105
 UP BND Y_CR00 1.0
 UP BND X_CR01 260.8715382382915
 UP BND Y_CR01 1.0
 UP BND X_CR02 186.6159444227045
 UP BND Y_CR02 1.0
 UP BND X_CR03 276.354025604104
 UP BND Y_CR03 1.0
 UP BND X_CR04 592.5195227487311
 UP BND Y_CR04 1.0
 UP BND X_CR05 351.556008239983
 UP BND Y_CR05 1.0
 UP BND X_CR06 443.40474053070176
 UP BND Y_CR06 1.0
 UP BND X_CR07 439.5597361214287
 UP BND Y_CR07 1.0
 UP BND X_CR08 573.33053501205
 UP BND Y_CR08 1.0
 UP BND X_CR09 325.7153480125154
 UP BND Y_CR09 1.0
 UP BND X_CR10 288.0529326831811
 UP BND Y_CR10 1.0
 UP BND X_CR11 297.25863660920993
 UP BND Y_CR11 1.0
 UP BND X_CR12 292.530816098521
 UP BND Y_CR12 1.0
 UP BND X_CR13 531.2106446217967
 UP BND Y_CR13 1.0
 UP BND X_CR14 552.0751104847204
 UP BND Y_CR14 1.0
 UP BND X_CR15 286.2641983526323
 UP BND Y_CR15 1.0
 UP BND X_CR16 300.45003254284285
 UP BND Y_CR16 1.0
 UP BND X_CR17 394.9014363819829
 UP BND Y_CR17 1.0
 UP BND X_CR18 410.54344634268773
 UP BND Y_CR18 1.0
 UP BND X_CR19 418.18314300045193
 UP BND Y_CR19 1.0
 UP BND X_CR20 260.2941017528619
 UP BND Y_CR20 1.0
 UP BND X_CR21 159.16831280081357
 UP BND Y_CR21 1.0
 UP BND X_CR22 259.6916849225621
 UP BND Y_CR22 1.0
 UP BND X_CR23 182.5473902421349
 UP BND Y_CR23 1.0
 UP BND X_CR24 398.0421397119777
 UP BND Y_CR24 1.0
 UP BND X_CR25 181.9123653927905
 UP BND Y_CR25 1.0
 UP BND X_CR26 183.80840651453533
 UP BND Y_CR26 1.0
 UP BND X_CR27 435.9219421033757
 UP BND Y_CR27 1.0
 UP BND X_CR28 280.869697688728
 UP BND Y_CR28 1.0
 UP BND X_CR29 506.48314104703155
 UP BND Y_CR29 1.0
ENDATA
