NAME REFPLAN_6x4
OBJSENSE
    MAX
ROWS
 N  OBJ
 E  CBAL_CR00_0
 E  CBAL_CR01_0
 E  CBAL_CR02_0
 E  CBAL_CR03_0
 E  CBAL_CR04_0
 E  CBAL_CR05_0
 L  CDUCAP_0
 E  YLPG_CR00_0
 E  YNAP_CR00_0
 E  YKER_CR00_0
 E  YDSL_CR00_0
 E  YVGO_CR00_0
 E  YRES_CR00_0
 E  YLPG_CR01_0
 E  YNAP_CR01_0
 E  YKER_CR01_0
 E  YDSL_CR01_0
 E  YVGO_CR01_0
 E  YRES_CR01_0
 E  YLPG_CR02_0
 E  YNAP_CR02_0
 E  YKER_CR02_0
 E  YDSL_CR02_0
 E  YVGO_CR02_0
 E  YRES_CR02_0
 E  YLPG_CR03_0
 E  YNAP_CR03_0
 E  YKER_CR03_0
 E  YDSL_CR03_0
 E  YVGO_CR03_0
 E  YRES_CR03_0
 E  YLPG_CR04_0
 E  YNAP_CR04_0
 E  YKER_CR04_0
 E  YDSL_CR04_0
 E  YVGO_CR04_0
 E  YRES_CR04_0
 E  YLPG_CR05_0
 E  YNAP_CR05_0
 E  YKER_CR05_0
 E  YDSL_CR05_0
 E  YVGO_CR05_0
 E  YRES_CR05_0
 E  RESSPLIT_CR00_0
 E  VDUY1_CR00_0
 E  VDUY2_CR00_0
 E  RESSPLIT_CR01_0
 E  VDUY1_CR01_0
 E  VDUY2_CR01_0
 E  RESSPLIT_CR02_0
 E  VDUY1_CR02_0
 E  VDUY2_CR02_0
 E  RESSPLIT_CR03_0
 E  VDUY1_CR03_0
 E  VDUY2_CR03_0
 E  RESSPLIT_CR04_0
 E  VDUY1_CR04_0
 E  VDUY2_CR04_0
 E  RESSPLIT_CR05_0
 E  VDUY1_CR05_0
 E  VDUY2_CR05_0
 L  VDUCAP_0
 E  VGOBAL_CR00_0
 E  VGOBAL_CR01_0
 E  VGOBAL_CR02_0
 E  VGOBAL_CR03_0
 E  VGOBAL_CR04_0
 E  VGOBAL_CR05_0
 L  FCCCAP_0
 E  FCCY_FCCG_0
 E  FCCY_LCO_0
 E  FCCY_FLPG_0
 E  FCCY_SLURRY_0
 E  NAPBAL_CR00_0
 E  NAPBAL_CR01_0
 E  NAPBAL_CR02_0
 E  NAPBAL_CR03_0
 E  NAPBAL_CR04_0
 E  NAPBAL_CR05_0
 L  REFCAP_0
 E  REFY_0
 E  DSLBAL_CR00_0
 E  DSLBAL_CR01_0
 E  DSLBAL_CR02_0
 E  DSLBAL_CR03_0
 E  DSLBAL_CR04_0
 E  DSLBAL_CR05_0
 E  LCOBAL_0
 L  DHTCAP_0
 E  DHTY_0
 E  GASBAL_0
 G  GASRON_0
 E  KERBAL_CR00_0
 E  KERBAL_CR01_0
 E  KERBAL_CR02_0
 E  KERBAL_CR03_0
 E  KERBAL_CR04_0
 E  KERBAL_CR05_0
 E  JETBAL_0
 L  JETSUL_0
 E  DSLPB_0
 L  DSLSUL_0
 E  LPGBAL_0
 E  FOBAL_0
 L  FOSUL_0
 E  PBAL_LPG_0
 L  DMAX_LPG_0
 G  DMIN_LPG_0
 E  PBAL_GAS_0
 L  DMAX_GAS_0
 G  DMIN_GAS_0
 E  PBAL_JET_0
 L  DMAX_JET_0
 G  DMIN_JET_0
 E  PBAL_DSL_0
 L  DMAX_DSL_0
 G  DMIN_DSL_0
 E  PBAL_FO_0
 L  DMAX_FO_0
 G  DMIN_FO_0
 E  CBAL_CR00_1
 E  CBAL_CR01_1
 E  CBAL_CR02_1
 E  CBAL_CR03_1
 E  CBAL_CR04_1
 E  CBAL_CR05_1
 L  CDUCAP_1
 E  YLPG_CR00_1
 E  YNAP_CR00_1
 E  YKER_CR00_1
 E  YDSL_CR00_1
 E  YVGO_CR00_1
 E  YRES_CR00_1
 E  YLPG_CR01_1
 E  YNAP_CR01_1
 E  YKER_CR01_1
 E  YDSL_CR01_1
 E  YVGO_CR01_1
 E  YRES_CR01_1
 E  YLPG_CR02_1
 E  YNAP_CR02_1
 E  YKER_CR02_1
 E  YDSL_CR02_1
 E  YVGO_CR02_1
 E  YRES_CR02_1
 E  YLPG_CR03_1
 E  YNAP_CR03_1
 E  YKER_CR03_1
 E  YDSL_CR03_1
 E  YVGO_CR03_1
 E  YRES_CR03_1
 E  YLPG_CR04_1
 E  YNAP_CR04_1
 E  YKER_CR04_1
 E  YDSL_CR04_1
 E  YVGO_CR04_1
 E  YRES_CR04_1
 E  YLPG_CR05_1
 E  YNAP_CR05_1
 E  YKER_CR05_1
 E  YDSL_CR05_1
 E  YVGO_CR05_1
 E  YRES_CR05_1
 E  RESSPLIT_CR00_1
 E  VDUY1_CR00_1
 E  VDUY2_CR00_1
 E  RESSPLIT_CR01_1
 E  VDUY1_CR01_1
 E  VDUY2_CR01_1
 E  RESSPLIT_CR02_1
 E  VDUY1_CR02_1
 E  VDUY2_CR02_1
 E  RESSPLIT_CR03_1
 E  VDUY1_CR03_1
 E  VDUY2_CR03_1
 E  RESSPLIT_CR04_1
 E  VDUY1_CR04_1
 E  VDUY2_CR04_1
 E  RESSPLIT_CR05_1
 E  VDUY1_CR05_1
 E  VDUY2_CR05_1
 L  VDUCAP_1
 E  VGOBAL_CR00_1
 E  VGOBAL_CR01_1
 E  VGOBAL_CR02_1
 E  VGOBAL_CR03_1
 E  VGOBAL_CR04_1
 E  VGOBAL_CR05_1
 L  FCCCAP_1
 E  FCCY_FCCG_1
 E  FCCY_LCO_1
 E  FCCY_FLPG_1
 E  FCCY_SLURRY_1
 E  NAPBAL_CR00_1
 E  NAPBAL_CR01_1
 E  NAPBAL_CR02_1
 E  NAPBAL_CR03_1
 E  NAPBAL_CR04_1
 E  NAPBAL_CR05_1
 L  REFCAP_1
 E  REFY_1
 E  DSLBAL_CR00_1
 E  DSLBAL_CR01_1
 E  DSLBAL_CR02_1
 E  DSLBAL_CR03_1
 E  DSLBAL_CR04_1
 E  DSLBAL_CR05_1
 E  LCOBAL_1
 L  DHTCAP_1
 E  DHTY_1
 E  GASBAL_1
 G  GASRON_1
 E  KERBAL_CR00_1
 E  KERBAL_CR01_1
 E  KERBAL_CR02_1
 E  KERBAL_CR03_1
 E  KERBAL_CR04_1
 E  KERBAL_CR05_1
 E  JETBAL_1
 L  JETSUL_1
 E  DSLPB_1
 L  DSLSUL_1
 E  LPGBAL_1
 E  FOBAL_1
 L  FOSUL_1
 E  PBAL_LPG_1
 L  DMAX_LPG_1
 G  DMIN_LPG_1
 E  PBAL_GAS_1
 L  DMAX_GAS_1
 G  DMIN_GAS_1
 E  PBAL_JET_1
 L  DMAX_JET_1
 G  DMIN_JET_1
 E  PBAL_DSL_1
 L  DMAX_DSL_1
 G  DMIN_DSL_1
 E  PBAL_FO_1
 L  DMAX_FO_1
 G  DMIN_FO_1
 E  CBAL_CR00_2
 E  CBAL_CR01_2
 E  CBAL_CR02_2
 E  CBAL_CR03_2
 E  CBAL_CR04_2
 E  CBAL_CR05_2
 L  CDUCAP_2
 E  YLPG_CR00_2
 E  YNAP_CR00_2
 E  YKER_CR00_2
 E  YDSL_CR00_2
 E  YVGO_CR00_2
 E  YRES_CR00_2
 E  YLPG_CR01_2
 E  YNAP_CR01_2
 E  YKER_CR01_2
 E  YDSL_CR01_2
 E  YVGO_CR01_2
 E  YRES_CR01_2
 E  YLPG_CR02_2
 E  YNAP_CR02_2
 E  YKER_CR02_2
 E  YDSL_CR02_2
 E  YVGO_CR02_2
 E  YRES_CR02_2
 E  YLPG_CR03_2
 E  YNAP_CR03_2
 E  YKER_CR03_2
 E  YDSL_CR03_2
 E  YVGO_CR03_2
 E  YRES_CR03_2
 E  YLPG_CR04_2
 E  YNAP_CR04_2
 E  YKER_CR04_2
 E  YDSL_CR04_2
 E  YVGO_CR04_2
 E  YRES_CR04_2
 E  YLPG_CR05_2
 E  YNAP_CR05_2
 E  YKER_CR05_2
 E  YDSL_CR05_2
 E  YVGO_CR05_2
 E  YRES_CR05_2
 E  RESSPLIT_CR00_2
 E  VDUY1_CR00_2
 E  VDUY2_CR00_2
 E  RESSPLIT_CR01_2
 E  VDUY1_CR01_2
 E  VDUY2_CR01_2
 E  RESSPLIT_CR02_2
 E  VDUY1_CR02_2
 E  VDUY2_CR02_2
 E  RESSPLIT_CR03_2
 E  VDUY1_CR03_2
 E  VDUY2_CR03_2
 E  RESSPLIT_CR04_2
 E  VDUY1_CR04_2
 E  VDUY2_CR04_2
 E  RESSPLIT_CR05_2
 E  VDUY1_CR05_2
 E  VDUY2_CR05_2
 L  VDUCAP_2
 E  VGOBAL_CR00_2
 E  VGOBAL_CR01_2
 E  VGOBAL_CR02_2
 E  VGOBAL_CR03_2
 E  VGOBAL_CR04_2
 E  VGOBAL_CR05_2
 L  FCCCAP_2
 E  FCCY_FCCG_2
 E  FCCY_LCO_2
 E  FCCY_FLPG_2
 E  FCCY_SLURRY_2
 E  NAPBAL_CR00_2
 E  NAPBAL_CR01_2
 E  NAPBAL_CR02_2
 E  NAPBAL_CR03_2
 E  NAPBAL_CR04_2
 E  NAPBAL_CR05_2
 L  REFCAP_2
 E  REFY_2
 E  DSLBAL_CR00_2
 E  DSLBAL_CR01_2
 E  DSLBAL_CR02_2
 E  DSLBAL_CR03_2
 E  DSLBAL_CR04_2
 E  DSLBAL_CR05_2
 E  LCOBAL_2
 L  DHTCAP_2
 E  DHTY_2
 E  GASBAL_2
 G  GASRON_2
 E  KERBAL_CR00_2
 E  KERBAL_CR01_2
 E  KERBAL_CR02_2
 E  KERBAL_CR03_2
 E  KERBAL_CR04_2
 E  KERBAL_CR05_2
 E  JETBAL_2
 L  JETSUL_2
 E  DSLPB_2
 L  DSLSUL_2
 E  LPGBAL_2
 E  FOBAL_2
 L  FOSUL_2
 E  PBAL_LPG_2
 L  DMAX_LPG_2
 G  DMIN_LPG_2
 E  PBAL_GAS_2
 L  DMAX_GAS_2
 G  DMIN_GAS_2
 E  PBAL_JET_2
 L  DMAX_JET_2
 G  DMIN_JET_2
 E  PBAL_DSL_2
 L  DMAX_DSL_2
 G  DMIN_DSL_2
 E  PBAL_FO_2
 L  DMAX_FO_2
 G  DMIN_FO_2
 E  CBAL_CR00_3
 E  CBAL_CR01_3
 E  CBAL_CR02_3
 E  CBAL_CR03_3
 E  CBAL_CR04_3
 E  CBAL_CR05_3
 L  CDUCAP_3
 E  YLPG_CR00_3
 E  YNAP_CR00_3
 E  YKER_CR00_3
 E  YDSL_CR00_3
 E  YVGO_CR00_3
 E  YRES_CR00_3
 E  YLPG_CR01_3
 E  YNAP_CR01_3
 E  YKER_CR01_3
 E  YDSL_CR01_3
 E  YVGO_CR01_3
 E  YRES_CR01_3
 E  YLPG_CR02_3
 E  YNAP_CR02_3
 E  YKER_CR02_3
 E  YDSL_CR02_3
 E  YVGO_CR02_3
 E  YRES_CR02_3
 E  YLPG_CR03_3
 E  YNAP_CR03_3
 E  YKER_CR03_3
 E  YDSL_CR03_3
 E  YVGO_CR03_3
 E  YRES_CR03_3
 E  YLPG_CR04_3
 E  YNAP_CR04_3
 E  YKER_CR04_3
 E  YDSL_CR04_3
 E  YVGO_CR04_3
 E  YRES_CR04_3
 E  YLPG_CR05_3
 E  YNAP_CR05_3
 E  YKER_CR05_3
 E  YDSL_CR05_3
 E  YVGO_CR05_3
 E  YRES_CR05_3
 E  RESSPLIT_CR00_3
 E  VDUY1_CR00_3
 E  VDUY2_CR00_3
 E  RESSPLIT_CR01_3
 E  VDUY1_CR01_3
 E  VDUY2_CR01_3
 E  RESSPLIT_CR02_3
 E  VDUY1_CR02_3
 E  VDUY2_CR02_3
 E  RESSPLIT_CR03_3
 E  VDUY1_CR03_3
 E  VDUY2_CR03_3
 E  RESSPLIT_CR04_3
 E  VDUY1_CR04_3
 E  VDUY2_CR04_3
 E  RESSPLIT_CR05_3
 E  VDUY1_CR05_3
 E  VDUY2_CR05_3
 L  VDUCAP_3
 E  VGOBAL_CR00_3
 E  VGOBAL_CR01_3
 E  VGOBAL_CR02_3
 E  VGOBAL_CR03_3
 E  VGOBAL_CR04_3
 E  VGOBAL_CR05_3
 L  FCCCAP_3
 E  FCCY_FCCG_3
 E  FCCY_LCO_3
 E  FCCY_FLPG_3
 E  FCCY_SLURRY_3
 E  NAPBAL_CR00_3
 E  NAPBAL_CR01_3
 E  NAPBAL_CR02_3
 E  NAPBAL_CR03_3
 E  NAPBAL_CR04_3
 E  NAPBAL_CR05_3
 L  REFCAP_3
 E  REFY_3
 E  DSLBAL_CR00_3
 E  DSLBAL_CR01_3
 E  DSLBAL_CR02_3
 E  DSLBAL_CR03_3
 E  DSLBAL_CR04_3
 E  DSLBAL_CR05_3
 E  LCOBAL_3
 L  DHTCAP_3
 E  DHTY_3
 E  GASBAL_3
 G  GASRON_3
 E  KERBAL_CR00_3
 E  KERBAL_CR01_3
 E  KERBAL_CR02_3
 E  KERBAL_CR03_3
 E  KERBAL_CR04_3
 E  KERBAL_CR05_3
 E  JETBAL_3
 L  JETSUL_3
 E  DSLPB_3
 L  DSLSUL_3
 E  LPGBAL_3
 E  FOBAL_3
 L  FOSUL_3
 E  PBAL_LPG_3
 L  DMAX_LPG_3
 G  DMIN_LPG_3
 E  PBAL_GAS_3
 L  DMAX_GAS_3
 G  DMIN_GAS_3
 E  PBAL_JET_3
 L  DMAX_JET_3
 G  DMIN_JET_3
 E  PBAL_DSL_3
 L  DMAX_DSL_3
 G  DMIN_DSL_3
 E  PBAL_FO_3
 L  DMAX_FO_3
 G  DMIN_FO_3
COLUMNS
    BUY_CR00_0 OBJ -57.978016874456664
    BUY_CR00_0 CBAL_CR00_0 1.0
    CINV_CR00_0 OBJ -0.3
    CINV_CR00_0 CBAL_CR00_0 -1.0
    CINV_CR00_0 CBAL_CR00_1 1.0
    CDU_CR00_0 CBAL_CR00_0 -1.0
    CDU_CR00_0 CDUCAP_0 1.0
    CDU_CR00_0 YLPG_CR00_0 -0.013786055933968056
    CDU_CR00_0 YNAP_CR00_0 -0.1214444916358349
    CDU_CR00_0 YKER_CR00_0 -0.10646372452567733
    CDU_CR00_0 YDSL_CR00_0 -0.20292085263352289
    CDU_CR00_0 YVGO_CR00_0 -0.27390944719057636
    CDU_CR00_0 YRES_CR00_0 -0.28147542808042036
    BUY_CR01_0 OBJ -74.78435350045783
    BUY_CR01_0 CBAL_CR01_0 1.0
    CINV_CR01_0 OBJ -0.3
    CINV_CR01_0 CBAL_CR01_0 -1.0
    CINV_CR01_0 CBAL_CR01_1 1.0
    CDU_CR01_0 CBAL_CR01_0 -1.0
    CDU_CR01_0 CDUCAP_0 1.0
    CDU_CR01_0 YLPG_CR01_0 -0.025127543584387436
    CDU_CR01_0 YNAP_CR01_0 -0.2025917905849106
    CDU_CR01_0 YKER_CR01_0 -0.13410952106049506
    CDU_CR01_0 YDSL_CR01_0 -0.24728591651278542
    CDU_CR01_0 YVGO_CR01_0 -0.22897185950088417
    CDU_CR01_0 YRES_CR01_0 -0.16191336875653717
    BUY_CR02_0 OBJ -60.635220921546484
    BUY_CR02_0 CBAL_CR02_0 1.0
    CINV_CR02_0 OBJ -0.3
    CINV_CR02_0 CBAL_CR02_0 -1.0
    CINV_CR02_0 CBAL_CR02_1 1.0
    CDU_CR02_0 CBAL_CR02_0 -1.0
    CDU_CR02_0 CDUCAP_0 1.0
    CDU_CR02_0 YLPG_CR02_0 -0.013444753666275039
    CDU_CR02_0 YNAP_CR02_0 -0.11889710072836579
    CDU_CR02_0 YKER_CR02_0 -0.103840437143255
    CDU_CR02_0 YDSL_CR02_0 -0.21229612809407214
    CDU_CR02_0 YVGO_CR02_0 -0.2628713956905896
    CDU_CR02_0 YRES_CR02_0 -0.28865018467744247
    BUY_CR03_0 OBJ -67.7148561788218
    BUY_CR03_0 CBAL_CR03_0 1.0
    CINV_CR03_0 OBJ -0.3
    CINV_CR03_0 CBAL_CR03_0 -1.0
    CINV_CR03_0 CBAL_CR03_1 1.0
    CDU_CR03_0 CBAL_CR03_0 -1.0
    CDU_CR03_0 CDUCAP_0 1.0
    CDU_CR03_0 YLPG_CR03_0 -0.01400858068810675
    CDU_CR03_0 YNAP_CR03_0 -0.1424923117986131
    CDU_CR03_0 YKER_CR03_0 -0.10784088582669263
    CDU_CR03_0 YDSL_CR03_0 -0.19279120630762445
    CDU_CR03_0 YVGO_CR03_0 -0.28544626211923063
    CDU_CR03_0 YRES_CR03_0 -0.2574207532597324
    BUY_CR04_0 OBJ -72.0533460900009
    BUY_CR04_0 CBAL_CR04_0 1.0
    CINV_CR04_0 OBJ -0.3
    CINV_CR04_0 CBAL_CR04_0 -1.0
    CINV_CR04_0 CBAL_CR04_1 1.0
    CDU_CR04_0 CBAL_CR04_0 -1.0
    CDU_CR04_0 CDUCAP_0 1.0
    CDU_CR04_0 YLPG_CR04_0 -0.02335213093765316
    CDU_CR04_0 YNAP_CR04_0 -0.2292355396921612
    CDU_CR04_0 YKER_CR04_0 -0.14240695851543803
    CDU_CR04_0 YDSL_CR04_0 -0.24384363627499198
    CDU_CR04_0 YVGO_CR04_0 -0.2465326974706559
    CDU_CR04_0 YRES_CR04_0 -0.1146290371090997
    BUY_CR05_0 OBJ -64.67962049191206
    BUY_CR05_0 CBAL_CR05_0 1.0
    CINV_CR05_0 OBJ -0.3
    CINV_CR05_0 CBAL_CR05_0 -1.0
    CINV_CR05_0 CBAL_CR05_1 1.0
    CDU_CR05_0 CBAL_CR05_0 -1.0
    CDU_CR05_0 CDUCAP_0 1.0
    CDU_CR05_0 YLPG_CR05_0 -0.01735729802728813
    CDU_CR05_0 YNAP_CR05_0 -0.16608619710065003
    CDU_CR05_0 YKER_CR05_0 -0.1170544437563835
    CDU_CR05_0 YDSL_CR05_0 -0.22299235889970878
    CDU_CR05_0 YVGO_CR05_0 -0.2433490540516293
    CDU_CR05_0 YRES_CR05_0 -0.23316064816434035
    LPG_CR00_0 YLPG_CR00_0 1.0
    LPG_CR00_0 LPGBAL_0 -1.0
    NAP_CR00_0 YNAP_CR00_0 1.0
    NAP_CR00_0 NAPBAL_CR00_0 1.0
    KER_CR00_0 YKER_CR00_0 1.0
    KER_CR00_0 KERBAL_CR00_0 1.0
    DSL_CR00_0 YDSL_CR00_0 1.0
    DSL_CR00_0 DSLBAL_CR00_0 1.0
    VGO_CR00_0 YVGO_CR00_0 1.0
    VGO_CR00_0 VGOBAL_CR00_0 1.0
    RES_CR00_0 YRES_CR00_0 1.0
    RES_CR00_0 RESSPLIT_CR00_0 1.0
    LPG_CR01_0 YLPG_CR01_0 1.0
    LPG_CR01_0 LPGBAL_0 -1.0
    NAP_CR01_0 YNAP_CR01_0 1.0
    NAP_CR01_0 NAPBAL_CR01_0 1.0
    KER_CR01_0 YKER_CR01_0 1.0
    KER_CR01_0 KERBAL_CR01_0 1.0
    DSL_CR01_0 YDSL_CR01_0 1.0
    DSL_CR01_0 DSLBAL_CR01_0 1.0
    VGO_CR01_0 YVGO_CR01_0 1.0
    VGO_CR01_0 VGOBAL_CR01_0 1.0
    RES_CR01_0 YRES_CR01_0 1.0
    RES_CR01_0 RESSPLIT_CR01_0 1.0
    LPG_CR02_0 YLPG_CR02_0 1.0
    LPG_CR02_0 LPGBAL_0 -1.0
    NAP_CR02_0 YNAP_CR02_0 1.0
    NAP_CR02_0 NAPBAL_CR02_0 1.0
    KER_CR02_0 YKER_CR02_0 1.0
    KER_CR02_0 KERBAL_CR02_0 1.0
    DSL_CR02_0 YDSL_CR02_0 1.0
    DSL_CR02_0 DSLBAL_CR02_0 1.0
    VGO_CR02_0 YVGO_CR02_0 1.0
    VGO_CR02_0 VGOBAL_CR02_0 1.0
    RES_CR02_0 YRES_CR02_0 1.0
    RES_CR02_0 RESSPLIT_CR02_0 1.0
    LPG_CR03_0 YLPG_CR03_0 1.0
    LPG_CR03_0 LPGBAL_0 -1.0
    NAP_CR03_0 YNAP_CR03_0 1.0
    NAP_CR03_0 NAPBAL_CR03_0 1.0
    KER_CR03_0 YKER_CR03_0 1.0
    KER_CR03_0 KERBAL_CR03_0 1.0
    DSL_CR03_0 YDSL_CR03_0 1.0
    DSL_CR03_0 DSLBAL_CR03_0 1.0
    VGO_CR03_0 YVGO_CR03_0 1.0
    VGO_CR03_0 VGOBAL_CR03_0 1.0
    RES_CR03_0 YRES_CR03_0 1.0
    RES_CR03_0 RESSPLIT_CR03_0 1.0
    LPG_CR04_0 YLPG_CR04_0 1.0
    LPG_CR04_0 LPGBAL_0 -1.0
    NAP_CR04_0 YNAP_CR04_0 1.0
    NAP_CR04_0 NAPBAL_CR04_0 1.0
    KER_CR04_0 YKER_CR04_0 1.0
    KER_CR04_0 KERBAL_CR04_0 1.0
    DSL_CR04_0 YDSL_CR04_0 1.0
    DSL_CR04_0 DSLBAL_CR04_0 1.0
    VGO_CR04_0 YVGO_CR04_0 1.0
    VGO_CR04_0 VGOBAL_CR04_0 1.0
    RES_CR04_0 YRES_CR04_0 1.0
    RES_CR04_0 RESSPLIT_CR04_0 1.0
    LPG_CR05_0 YLPG_CR05_0 1.0
    LPG_CR05_0 LPGBAL_0 -1.0
    NAP_CR05_0 YNAP_CR05_0 1.0
    NAP_CR05_0 NAPBAL_CR05_0 1.0
    KER_CR05_0 YKER_CR05_0 1.0
    KER_CR05_0 KERBAL_CR05_0 1.0
    DSL_CR05_0 YDSL_CR05_0 1.0
    DSL_CR05_0 DSLBAL_CR05_0 1.0
    VGO_CR05_0 YVGO_CR05_0 1.0
    VGO_CR05_0 VGOBAL_CR05_0 1.0
    RES_CR05_0 YRES_CR05_0 1.0
    RES_CR05_0 RESSPLIT_CR05_0 1.0
    VDUIN_CR00_0 RESSPLIT_CR00_0 -1.0
    VDUIN_CR00_0 VDUY1_CR00_0 -0.45
    VDUIN_CR00_0 VDUY2_CR00_0 -0.55
    VDUIN_CR00_0 VDUCAP_0 1.0
    RESFO_CR00_0 RESSPLIT_CR00_0 -1.0
    RESFO_CR00_0 FOBAL_0 -1.0
    RESFO_CR00_0 FOSUL_0 1.9540891690108433
    VGO2_CR00_0 VDUY1_CR00_0 1.0
    VGO2_CR00_0 VGOBAL_CR00_0 1.0
    VR_CR00_0 VDUY2_CR00_0 1.0
    VR_CR00_0 FOBAL_0 -1.0
    VR_CR00_0 FOSUL_0 3.5903159197140964
    VDUIN_CR01_0 RESSPLIT_CR01_0 -1.0
    VDUIN_CR01_0 VDUY1_CR01_0 -0.45
    VDUIN_CR01_0 VDUY2_CR01_0 -0.55
    VDUIN_CR01_0 VDUCAP_0 1.0
    RESFO_CR01_0 RESSPLIT_CR01_0 -1.0
    RESFO_CR01_0 FOBAL_0 -1.0
    RESFO_CR01_0 FOSUL_0 -0.6168441789886687
    VGO2_CR01_0 VDUY1_CR01_0 1.0
    VGO2_CR01_0 VGOBAL_CR01_0 1.0
    VR_CR01_0 VDUY2_CR01_0 1.0
    VR_CR01_0 FOBAL_0 -1.0
    VR_CR01_0 FOSUL_0 0.24810256731473057
    VDUIN_CR02_0 RESSPLIT_CR02_0 -1.0
    VDUIN_CR02_0 VDUY1_CR02_0 -0.45
    VDUIN_CR02_0 VDUY2_CR02_0 -0.55
    VDUIN_CR02_0 VDUCAP_0 1.0
    RESFO_CR02_0 RESSPLIT_CR02_0 -1.0
    RESFO_CR02_0 FOBAL_0 -1.0
    RESFO_CR02_0 FOSUL_0 0.05675733131967897
    VGO2_CR02_0 VDUY1_CR02_0 1.0
    VGO2_CR02_0 VGOBAL_CR02_0 1.0
    VR_CR02_0 VDUY2_CR02_0 1.0
    VR_CR02_0 FOBAL_0 -1.0
    VR_CR02_0 FOSUL_0 1.1237845307155832
    VDUIN_CR03_0 RESSPLIT_CR03_0 -1.0
    VDUIN_CR03_0 VDUY1_CR03_0 -0.45
    VDUIN_CR03_0 VDUY2_CR03_0 -0.55
    VDUIN_CR03_0 VDUCAP_0 1.0
    RESFO_CR03_0 RESSPLIT_CR03_0 -1.0
    RESFO_CR03_0 FOBAL_0 -1.0
    RESFO_CR03_0 FOSUL_0 -1.8686274424458973
    VGO2_CR03_0 VDUY1_CR03_0 1.0
    VGO2_CR03_0 VGOBAL_CR03_0 1.0
    VR_CR03_0 VDUY2_CR03_0 1.0
    VR_CR03_0 FOBAL_0 -1.0
    VR_CR03_0 FOSUL_0 -1.3792156751796663
    VDUIN_CR04_0 RESSPLIT_CR04_0 -1.0
    VDUIN_CR04_0 VDUY1_CR04_0 -0.45
    VDUIN_CR04_0 VDUY2_CR04_0 -0.55
    VDUIN_CR04_0 VDUCAP_0 1.0
    RESFO_CR04_0 RESSPLIT_CR04_0 -1.0
    RESFO_CR04_0 FOBAL_0 -1.0
    RESFO_CR04_0 FOSUL_0 2.031668478530798
    VGO2_CR04_0 VDUY1_CR04_0 1.0
    VGO2_CR04_0 VGOBAL_CR04_0 1.0
    VR_CR04_0 VDUY2_CR04_0 1.0
    VR_CR04_0 FOBAL_0 -1.0
    VR_CR04_0 FOSUL_0 3.6911690220900377
    VDUIN_CR05_0 RESSPLIT_CR05_0 -1.0
    VDUIN_CR05_0 VDUY1_CR05_0 -0.45
    VDUIN_CR05_0 VDUY2_CR05_0 -0.55
    VDUIN_CR05_0 VDUCAP_0 1.0
    RESFO_CR05_0 RESSPLIT_CR05_0 -1.0
    RESFO_CR05_0 FOBAL_0 -1.0
    RESFO_CR05_0 FOSUL_0 0.3429997580900688
    VGO2_CR05_0 VDUY1_CR05_0 1.0
    VGO2_CR05_0 VGOBAL_CR05_0 1.0
    VR_CR05_0 VDUY2_CR05_0 1.0
    VR_CR05_0 FOBAL_0 -1.0
    VR_CR05_0 FOSUL_0 1.4958996855170898
    FCCIN_CR00_0 OBJ -2.5
    FCCIN_CR00_0 VGOBAL_CR00_0 -1.0
    FCCIN_CR00_0 FCCCAP_0 1.0
    FCCIN_CR00_0 FCCY_FCCG_0 -0.55
    FCCIN_CR00_0 FCCY_LCO_0 -0.2
    FCCIN_CR00_0 FCCY_FLPG_0 -0.15
    FCCIN_CR00_0 FCCY_SLURRY_0 -0.07
    FCCIN_CR01_0 OBJ -2.5
    FCCIN_CR01_0 VGOBAL_CR01_0 -1.0
    FCCIN_CR01_0 FCCCAP_0 1.0
    FCCIN_CR01_0 FCCY_FCCG_0 -0.55
    FCCIN_CR01_0 FCCY_LCO_0 -0.2
    FCCIN_CR01_0 FCCY_FLPG_0 -0.15
    FCCIN_CR01_0 FCCY_SLURRY_0 -0.07
    FCCIN_CR02_0 OBJ -2.5
    FCCIN_CR02_0 VGOBAL_CR02_0 -1.0
    FCCIN_CR02_0 FCCCAP_0 1.0
    FCCIN_CR02_0 FCCY_FCCG_0 -0.55
    FCCIN_CR02_0 FCCY_LCO_0 -0.2
    FCCIN_CR02_0 FCCY_FLPG_0 -0.15
    FCCIN_CR02_0 FCCY_SLURRY_0 -0.07
    FCCIN_CR03_0 OBJ -2.5
    FCCIN_CR03_0 VGOBAL_CR03_0 -1.0
    FCCIN_CR03_0 FCCCAP_0 1.0
    FCCIN_CR03_0 FCCY_FCCG_0 -0.55
    FCCIN_CR03_0 FCCY_LCO_0 -0.2
    FCCIN_CR03_0 FCCY_FLPG_0 -0.15
    FCCIN_CR03_0 FCCY_SLURRY_0 -0.07
    FCCIN_CR04_0 OBJ -2.5
    FCCIN_CR04_0 VGOBAL_CR04_0 -1.0
    FCCIN_CR04_0 FCCCAP_0 1.0
    FCCIN_CR04_0 FCCY_FCCG_0 -0.55
    FCCIN_CR04_0 FCCY_LCO_0 -0.2
    FCCIN_CR04_0 FCCY_FLPG_0 -0.15
    FCCIN_CR04_0 FCCY_SLURRY_0 -0.07
    FCCIN_CR05_0 OBJ -2.5
    FCCIN_CR05_0 VGOBAL_CR05_0 -1.0
    FCCIN_CR05_0 FCCCAP_0 1.0
    FCCIN_CR05_0 FCCY_FCCG_0 -0.55
    FCCIN_CR05_0 FCCY_LCO_0 -0.2
    FCCIN_CR05_0 FCCY_FLPG_0 -0.15
    FCCIN_CR05_0 FCCY_SLURRY_0 -0.07
    FCCG_0 FCCY_FCCG_0 1.0
    FCCG_0 GASBAL_0 -1.0
    FCCG_0 GASRON_0 1.0
    LCO_0 FCCY_LCO_0 1.0
    LCO_0 LCOBAL_0 1.0
    FLPG_0 FCCY_FLPG_0 1.0
    FLPG_0 LPGBAL_0 -1.0
    SLURRY_0 FCCY_SLURRY_0 1.0
    SLURRY_0 FOBAL_0 -1.0
    SLURRY_0 FOSUL_0 -1.5
    REFIN_CR00_0 OBJ -3.0
    REFIN_CR00_0 NAPBAL_CR00_0 -1.0
    REFIN_CR00_0 REFCAP_0 1.0
    REFIN_CR00_0 REFY_0 -0.85
    NAPGAS_CR00_0 NAPBAL_CR00_0 -1.0
    NAPGAS_CR00_0 GASBAL_0 -1.0
    NAPGAS_CR00_0 GASRON_0 -41.351908455631545
    REFIN_CR01_0 OBJ -3.0
    REFIN_CR01_0 NAPBAL_CR01_0 -1.0
    REFIN_CR01_0 REFCAP_0 1.0
    REFIN_CR01_0 REFY_0 -0.85
    NAPGAS_CR01_0 NAPBAL_CR01_0 -1.0
    NAPGAS_CR01_0 GASBAL_0 -1.0
    NAPGAS_CR01_0 GASRON_0 -33.623043958680114
    REFIN_CR02_0 OBJ -3.0
    REFIN_CR02_0 NAPBAL_CR02_0 -1.0
    REFIN_CR02_0 REFCAP_0 1.0
    REFIN_CR02_0 REFY_0 -0.85
    NAPGAS_CR02_0 NAPBAL_CR02_0 -1.0
    NAPGAS_CR02_0 GASBAL_0 -1.0
    NAPGAS_CR02_0 GASRON_0 -39.74522208078083
    REFIN_CR03_0 OBJ -3.0
    REFIN_CR03_0 NAPBAL_CR03_0 -1.0
    REFIN_CR03_0 REFCAP_0 1.0
    REFIN_CR03_0 REFY_0 -0.85
    NAPGAS_CR03_0 NAPBAL_CR03_0 -1.0
    NAPGAS_CR03_0 GASBAL_0 -1.0
    NAPGAS_CR03_0 GASRON_0 -39.32063345179839
    REFIN_CR04_0 OBJ -3.0
    REFIN_CR04_0 NAPBAL_CR04_0 -1.0
    REFIN_CR04_0 REFCAP_0 1.0
    REFIN_CR04_0 REFY_0 -0.85
    NAPGAS_CR04_0 NAPBAL_CR04_0 -1.0
    NAPGAS_CR04_0 GASBAL_0 -1.0
    NAPGAS_CR04_0 GASRON_0 -28.06018906757886
    REFIN_CR05_0 OBJ -3.0
    REFIN_CR05_0 NAPBAL_CR05_0 -1.0
    REFIN_CR05_0 REFCAP_0 1.0
    REFIN_CR05_0 REFY_0 -0.85
    NAPGAS_CR05_0 NAPBAL_CR05_0 -1.0
    NAPGAS_CR05_0 GASBAL_0 -1.0
    NAPGAS_CR05_0 GASRON_0 -37.177062383933254
    REFORMATE_0 REFY_0 1.0
    REFORMATE_0 GASBAL_0 -1.0
    REFORMATE_0 GASRON_0 7.0
    DHTIN_CR00_0 OBJ -2.0
    DHTIN_CR00_0 DSLBAL_CR00_0 -1.0
    DHTIN_CR00_0 DHTCAP_0 1.0
    DHTIN_CR00_0 DHTY_0 -0.98
    DSLDIR_CR00_0 DSLBAL_CR00_0 -1.0
    DSLDIR_CR00_0 DSLPB_0 -1.0
    DSLDIR_CR00_0 DSLSUL_0 1.5862267507032528
    DHTIN_CR01_0 OBJ -2.0
    DHTIN_CR01_0 DSLBAL_CR01_0 -1.0
    DHTIN_CR01_0 DHTCAP_0 1.0
    DHTIN_CR01_0 DHTY_0 -0.98
    DSLDIR_CR01_0 DSLBAL_CR01_0 -1.0
    DSLDIR_CR01_0 DSLPB_0 -1.0
    DSLDIR_CR01_0 DSLSUL_0 0.8149467463033994
    DHTIN_CR02_0 OBJ -2.0
    DHTIN_CR02_0 DSLBAL_CR02_0 -1.0
    DHTIN_CR02_0 DHTCAP_0 1.0
    DHTIN_CR02_0 DHTY_0 -0.98
    DSLDIR_CR02_0 DSLBAL_CR02_0 -1.0
    DSLDIR_CR02_0 DSLPB_0 -1.0
    DSLDIR_CR02_0 DSLSUL_0 1.0170271993959037
    DHTIN_CR03_0 OBJ -2.0
    DHTIN_CR03_0 DSLBAL_CR03_0 -1.0
    DHTIN_CR03_0 DHTCAP_0 1.0
    DHTIN_CR03_0 DHTY_0 -0.98
    DSLDIR_CR03_0 DSLBAL_CR03_0 -1.0
    DSLDIR_CR03_0 DSLPB_0 -1.0
    DSLDIR_CR03_0 DSLSUL_0 0.4394117672662308
    DHTIN_CR04_0 OBJ -2.0
    DHTIN_CR04_0 DSLBAL_CR04_0 -1.0
    DHTIN_CR04_0 DHTCAP_0 1.0
    DHTIN_CR04_0 DHTY_0 -0.98
    DSLDIR_CR04_0 DSLBAL_CR04_0 -1.0
    DSLDIR_CR04_0 DSLPB_0 -1.0
    DSLDIR_CR04_0 DSLSUL_0 1.6095005435592393
    DHTIN_CR05_0 OBJ -2.0
    DHTIN_CR05_0 DSLBAL_CR05_0 -1.0
    DHTIN_CR05_0 DHTCAP_0 1.0
    DHTIN_CR05_0 DHTY_0 -0.98
    DSLDIR_CR05_0 DSLBAL_CR05_0 -1.0
    DSLDIR_CR05_0 DSLPB_0 -1.0
    DSLDIR_CR05_0 DSLSUL_0 1.1028999274270206
    LCODHT_0 LCOBAL_0 -1.0
    LCODHT_0 DHTCAP_0 1.0
    LCODHT_0 DHTY_0 -0.95
    LCOFO_0 LCOBAL_0 -1.0
    LCOFO_0 FOBAL_0 -1.0
    LCOFO_0 FOSUL_0 -2.5
    ULSD_0 DHTY_0 1.0
    ULSD_0 DSLPB_0 -1.0
    ULSD_0 DSLSUL_0 -0.049
    SELL_LPG_0 OBJ 55.0
    SELL_LPG_0 PBAL_LPG_0 -1.0
    SELL_LPG_0 DMAX_LPG_0 1.0
    SELL_LPG_0 DMIN_LPG_0 1.0
    SELL_GAS_0 OBJ 105.0
    SELL_GAS_0 PBAL_GAS_0 -1.0
    SELL_GAS_0 DMAX_GAS_0 1.0
    SELL_GAS_0 DMIN_GAS_0 1.0
    SELL_JET_0 OBJ 100.0
    SELL_JET_0 PBAL_JET_0 -1.0
    SELL_JET_0 DMAX_JET_0 1.0
    SELL_JET_0 DMIN_JET_0 1.0
    SELL_DSL_0 OBJ 98.0
    SELL_DSL_0 PBAL_DSL_0 -1.0
    SELL_DSL_0 DMAX_DSL_0 1.0
    SELL_DSL_0 DMIN_DSL_0 1.0
    SELL_FO_0 OBJ 60.0
    SELL_FO_0 PBAL_FO_0 -1.0
    SELL_FO_0 DMAX_FO_0 1.0
    SELL_FO_0 DMIN_FO_0 1.0
    PINV_LPG_0 OBJ -0.5
    PINV_LPG_0 PBAL_LPG_0 -1.0
    PINV_LPG_0 PBAL_LPG_1 1.0
    PINV_GAS_0 OBJ -0.5
    PINV_GAS_0 PBAL_GAS_0 -1.0
    PINV_GAS_0 PBAL_GAS_1 1.0
    PINV_JET_0 OBJ -0.5
    PINV_JET_0 PBAL_JET_0 -1.0
    PINV_JET_0 PBAL_JET_1 1.0
    PINV_DSL_0 OBJ -0.5
    PINV_DSL_0 PBAL_DSL_0 -1.0
    PINV_DSL_0 PBAL_DSL_1 1.0
    PINV_FO_0 OBJ -0.5
    PINV_FO_0 PBAL_FO_0 -1.0
    PINV_FO_0 PBAL_FO_1 1.0
    SHORT_LPG_0 OBJ -400.0
    SHORT_LPG_0 DMIN_LPG_0 1.0
    SHORT_GAS_0 OBJ -400.0
    SHORT_GAS_0 DMIN_GAS_0 1.0
    SHORT_JET_0 OBJ -400.0
    SHORT_JET_0 DMIN_JET_0 1.0
    SHORT_DSL_0 OBJ -400.0
    SHORT_DSL_0 DMIN_DSL_0 1.0
    SHORT_FO_0 OBJ -400.0
    SHORT_FO_0 DMIN_FO_0 1.0
    GASPOOL_0 GASBAL_0 1.0
    GASPOOL_0 PBAL_GAS_0 1.0
    JETPOOL_0 JETBAL_0 1.0
    JETPOOL_0 PBAL_JET_0 1.0
    KERJET_CR00_0 KERBAL_CR00_0 -1.0
    KERJET_CR00_0 JETBAL_0 -1.0
    KERJET_CR00_0 JETSUL_0 0.10905668767581322
    KERDSL_CR00_0 KERBAL_CR00_0 -1.0
    KERDSL_CR00_0 DSLPB_0 -1.0
    KERDSL_CR00_0 DSLSUL_0 0.3590566876758132
    KERJET_CR01_0 KERBAL_CR01_0 -1.0
    KERJET_CR01_0 JETBAL_0 -1.0
    KERJET_CR01_0 JETSUL_0 -0.08376331342415014
    KERDSL_CR01_0 KERBAL_CR01_0 -1.0
    KERDSL_CR01_0 DSLPB_0 -1.0
    KERDSL_CR01_0 DSLSUL_0 0.16623668657584983
    KERJET_CR02_0 KERBAL_CR02_0 -1.0
    KERJET_CR02_0 JETBAL_0 -1.0
    KERJET_CR02_0 JETSUL_0 -0.033243200151024055
    KERDSL_CR02_0 KERBAL_CR02_0 -1.0
    KERDSL_CR02_0 DSLPB_0 -1.0
    KERDSL_CR02_0 DSLSUL_0 0.21675679984897595
    KERJET_CR03_0 KERBAL_CR03_0 -1.0
    KERJET_CR03_0 JETBAL_0 -1.0
    KERJET_CR03_0 JETSUL_0 -0.17764705818344229
    KERDSL_CR03_0 KERBAL_CR03_0 -1.0
    KERDSL_CR03_0 DSLPB_0 -1.0
    KERDSL_CR03_0 DSLSUL_0 0.0723529418165577
    KERJET_CR04_0 KERBAL_CR04_0 -1.0
    KERJET_CR04_0 JETBAL_0 -1.0
    KERJET_CR04_0 JETSUL_0 0.11487513588980985
    KERDSL_CR04_0 KERBAL_CR04_0 -1.0
    KERDSL_CR04_0 DSLPB_0 -1.0
    KERDSL_CR04_0 DSLSUL_0 0.36487513588980985
    KERJET_CR05_0 KERBAL_CR05_0 -1.0
    KERJET_CR05_0 JETBAL_0 -1.0
    KERJET_CR05_0 JETSUL_0 -0.011775018143244831
    KERDSL_CR05_0 KERBAL_CR05_0 -1.0
    KERDSL_CR05_0 DSLPB_0 -1.0
    KERDSL_CR05_0 DSLSUL_0 0.23822498185675517
    DSLPOOL_0 DSLPB_0 1.0
    DSLPOOL_0 PBAL_DSL_0 1.0
    LPGPOOL_0 LPGBAL_0 1.0
    LPGPOOL_0 PBAL_LPG_0 1.0
    FOPOOL_0 FOBAL_0 1.0
    FOPOOL_0 PBAL_FO_0 1.0
    BUY_CR00_1 OBJ -59.392485252853945
    BUY_CR00_1 CBAL_CR00_1 1.0
    CINV_CR00_1 OBJ -0.3
    CINV_CR00_1 CBAL_CR00_1 -1.0
    CINV_CR00_1 CBAL_CR00_2 1.0
    CDU_CR00_1 CBAL_CR00_1 -1.0
    CDU_CR00_1 CDUCAP_1 1.0
    CDU_CR00_1 YLPG_CR00_1 -0.013786055933968056
    CDU_CR00_1 YNAP_CR00_1 -0.1214444916358349
    CDU_CR00_1 YKER_CR00_1 -0.10646372452567733
    CDU_CR00_1 YDSL_CR00_1 -0.20292085263352289
    CDU_CR00_1 YVGO_CR00_1 -0.27390944719057636
    CDU_CR00_1 YRES_CR00_1 -0.28147542808042036
    BUY_CR01_1 OBJ -76.23582326962674
    BUY_CR01_1 CBAL_CR01_1 1.0
    CINV_CR01_1 OBJ -0.3
    CINV_CR01_1 CBAL_CR01_1 -1.0
    CINV_CR01_1 CBAL_CR01_2 1.0
    CDU_CR01_1 CBAL_CR01_1 -1.0
    CDU_CR01_1 CDUCAP_1 1.0
    CDU_CR01_1 YLPG_CR01_1 -0.025127543584387436
    CDU_CR01_1 YNAP_CR01_1 -0.2025917905849106
    CDU_CR01_1 YKER_CR01_1 -0.13410952106049506
    CDU_CR01_1 YDSL_CR01_1 -0.24728591651278542
    CDU_CR01_1 YVGO_CR01_1 -0.22897185950088417
    CDU_CR01_1 YRES_CR01_1 -0.16191336875653717
    BUY_CR02_1 OBJ -61.67639248749871
    BUY_CR02_1 CBAL_CR02_1 1.0
    CINV_CR02_1 OBJ -0.3
    CINV_CR02_1 CBAL_CR02_1 -1.0
    CINV_CR02_1 CBAL_CR02_2 1.0
    CDU_CR02_1 CBAL_CR02_1 -1.0
    CDU_CR02_1 CDUCAP_1 1.0
    CDU_CR02_1 YLPG_CR02_1 -0.013444753666275039
    CDU_CR02_1 YNAP_CR02_1 -0.11889710072836579
    CDU_CR02_1 YKER_CR02_1 -0.103840437143255
    CDU_CR02_1 YDSL_CR02_1 -0.21229612809407214
    CDU_CR02_1 YVGO_CR02_1 -0.2628713956905896
    CDU_CR02_1 YRES_CR02_1 -0.28865018467744247
    BUY_CR03_1 OBJ -69.25828255576789
    BUY_CR03_1 CBAL_CR03_1 1.0
    CINV_CR03_1 OBJ -0.3
    CINV_CR03_1 CBAL_CR03_1 -1.0
    CINV_CR03_1 CBAL_CR03_2 1.0
    CDU_CR03_1 CBAL_CR03_1 -1.0
    CDU_CR03_1 CDUCAP_1 1.0
    CDU_CR03_1 YLPG_CR03_1 -0.01400858068810675
    CDU_CR03_1 YNAP_CR03_1 -0.1424923117986131
    CDU_CR03_1 YKER_CR03_1 -0.10784088582669263
    CDU_CR03_1 YDSL_CR03_1 -0.19279120630762445
    CDU_CR03_1 YVGO_CR03_1 -0.28544626211923063
    CDU_CR03_1 YRES_CR03_1 -0.2574207532597324
    BUY_CR04_1 OBJ -73.89766764518185
    BUY_CR04_1 CBAL_CR04_1 1.0
    CINV_CR04_1 OBJ -0.3
    CINV_CR04_1 CBAL_CR04_1 -1.0
    CINV_CR04_1 CBAL_CR04_2 1.0
    CDU_CR04_1 CBAL_CR04_1 -1.0
    CDU_CR04_1 CDUCAP_1 1.0
    CDU_CR04_1 YLPG_CR04_1 -0.02335213093765316
    CDU_CR04_1 YNAP_CR04_1 -0.2292355396921612
    CDU_CR04_1 YKER_CR04_1 -0.14240695851543803
    CDU_CR04_1 YDSL_CR04_1 -0.24384363627499198
    CDU_CR04_1 YVGO_CR04_1 -0.2465326974706559
    CDU_CR04_1 YRES_CR04_1 -0.1146290371090997
    BUY_CR05_1 OBJ -66.57277028078066
    BUY_CR05_1 CBAL_CR05_1 1.0
    CINV_CR05_1 OBJ -0.3
    CINV_CR05_1 CBAL_CR05_1 -1.0
    CINV_CR05_1 CBAL_CR05_2 1.0
    CDU_CR05_1 CBAL_CR05_1 -1.0
    CDU_CR05_1 CDUCAP_1 1.0
    CDU_CR05_1 YLPG_CR05_1 -0.01735729802728813
    CDU_CR05_1 YNAP_CR05_1 -0.16608619710065003
    CDU_CR05_1 YKER_CR05_1 -0.1170544437563835
    CDU_CR05_1 YDSL_CR05_1 -0.22299235889970878
    CDU_CR05_1 YVGO_CR05_1 -0.2433490540516293
    CDU_CR05_1 YRES_CR05_1 -0.23316064816434035
    LPG_CR00_1 YLPG_CR00_1 1.0
    LPG_CR00_1 LPGBAL_1 -1.0
    NAP_CR00_1 YNAP_CR00_1 1.0
    NAP_CR00_1 NAPBAL_CR00_1 1.0
    KER_CR00_1 YKER_CR00_1 1.0
    KER_CR00_1 KERBAL_CR00_1 1.0
    DSL_CR00_1 YDSL_CR00_1 1.0
    DSL_CR00_1 DSLBAL_CR00_1 1.0
    VGO_CR00_1 YVGO_CR00_1 1.0
    VGO_CR00_1 VGOBAL_CR00_1 1.0
    RES_CR00_1 YRES_CR00_1 1.0
    RES_CR00_1 RESSPLIT_CR00_1 1.0
    LPG_CR01_1 YLPG_CR01_1 1.0
    LPG_CR01_1 LPGBAL_1 -1.0
    NAP_CR01_1 YNAP_CR01_1 1.0
    NAP_CR01_1 NAPBAL_CR01_1 1.0
    KER_CR01_1 YKER_CR01_1 1.0
    KER_CR01_1 KERBAL_CR01_1 1.0
    DSL_CR01_1 YDSL_CR01_1 1.0
    DSL_CR01_1 DSLBAL_CR01_1 1.0
    VGO_CR01_1 YVGO_CR01_1 1.0
    VGO_CR01_1 VGOBAL_CR01_1 1.0
    RES_CR01_1 YRES_CR01_1 1.0
    RES_CR01_1 RESSPLIT_CR01_1 1.0
    LPG_CR02_1 YLPG_CR02_1 1.0
    LPG_CR02_1 LPGBAL_1 -1.0
    NAP_CR02_1 YNAP_CR02_1 1.0
    NAP_CR02_1 NAPBAL_CR02_1 1.0
    KER_CR02_1 YKER_CR02_1 1.0
    KER_CR02_1 KERBAL_CR02_1 1.0
    DSL_CR02_1 YDSL_CR02_1 1.0
    DSL_CR02_1 DSLBAL_CR02_1 1.0
    VGO_CR02_1 YVGO_CR02_1 1.0
    VGO_CR02_1 VGOBAL_CR02_1 1.0
    RES_CR02_1 YRES_CR02_1 1.0
    RES_CR02_1 RESSPLIT_CR02_1 1.0
    LPG_CR03_1 YLPG_CR03_1 1.0
    LPG_CR03_1 LPGBAL_1 -1.0
    NAP_CR03_1 YNAP_CR03_1 1.0
    NAP_CR03_1 NAPBAL_CR03_1 1.0
    KER_CR03_1 YKER_CR03_1 1.0
    KER_CR03_1 KERBAL_CR03_1 1.0
    DSL_CR03_1 YDSL_CR03_1 1.0
    DSL_CR03_1 DSLBAL_CR03_1 1.0
    VGO_CR03_1 YVGO_CR03_1 1.0
    VGO_CR03_1 VGOBAL_CR03_1 1.0
    RES_CR03_1 YRES_CR03_1 1.0
    RES_CR03_1 RESSPLIT_CR03_1 1.0
    LPG_CR04_1 YLPG_CR04_1 1.0
    LPG_CR04_1 LPGBAL_1 -1.0
    NAP_CR04_1 YNAP_CR04_1 1.0
    NAP_CR04_1 NAPBAL_CR04_1 1.0
    KER_CR04_1 YKER_CR04_1 1.0
    KER_CR04_1 KERBAL_CR04_1 1.0
    DSL_CR04_1 YDSL_CR04_1 1.0
    DSL_CR04_1 DSLBAL_CR04_1 1.0
    VGO_CR04_1 YVGO_CR04_1 1.0
    VGO_CR04_1 VGOBAL_CR04_1 1.0
    RES_CR04_1 YRES_CR04_1 1.0
    RES_CR04_1 RESSPLIT_CR04_1 1.0
    LPG_CR05_1 YLPG_CR05_1 1.0
    LPG_CR05_1 LPGBAL_1 -1.0
    NAP_CR05_1 YNAP_CR05_1 1.0
    NAP_CR05_1 NAPBAL_CR05_1 1.0
    KER_CR05_1 YKER_CR05_1 1.0
    KER_CR05_1 KERBAL_CR05_1 1.0
    DSL_CR05_1 YDSL_CR05_1 1.0
    DSL_CR05_1 DSLBAL_CR05_1 1.0
    VGO_CR05_1 YVGO_CR05_1 1.0
    VGO_CR05_1 VGOBAL_CR05_1 1.0
    RES_CR05_1 YRES_CR05_1 1.0
    RES_CR05_1 RESSPLIT_CR05_1 1.0
    VDUIN_CR00_1 RESSPLIT_CR00_1 -1.0
    VDUIN_CR00_1 VDUY1_CR00_1 -0.45
    VDUIN_CR00_1 VDUY2_CR00_1 -0.55
    VDUIN_CR00_1 VDUCAP_1 1.0
    RESFO_CR00_1 RESSPLIT_CR00_1 -1.0
    RESFO_CR00_1 FOBAL_1 -1.0
    RESFO_CR00_1 FOSUL_1 1.9540891690108433
    VGO2_CR00_1 VDUY1_CR00_1 1.0
    VGO2_CR00_1 VGOBAL_CR00_1 1.0
    VR_CR00_1 VDUY2_CR00_1 1.0
    VR_CR00_1 FOBAL_1 -1.0
    VR_CR00_1 FOSUL_1 3.5903159197140964
    VDUIN_CR01_1 RESSPLIT_CR01_1 -1.0
    VDUIN_CR01_1 VDUY1_CR01_1 -0.45
    VDUIN_CR01_1 VDUY2_CR01_1 -0.55
    VDUIN_CR01_1 VDUCAP_1 1.0
    RESFO_CR01_1 RESSPLIT_CR01_1 -1.0
    RESFO_CR01_1 FOBAL_1 -1.0
    RESFO_CR01_1 FOSUL_1 -0.6168441789886687
    VGO2_CR01_1 VDUY1_CR01_1 1.0
    VGO2_CR01_1 VGOBAL_CR01_1 1.0
    VR_CR01_1 VDUY2_CR01_1 1.0
    VR_CR01_1 FOBAL_1 -1.0
    VR_CR01_1 FOSUL_1 0.24810256731473057
    VDUIN_CR02_1 RESSPLIT_CR02_1 -1.0
    VDUIN_CR02_1 VDUY1_CR02_1 -0.45
    VDUIN_CR02_1 VDUY2_CR02_1 -0.55
    VDUIN_CR02_1 VDUCAP_1 1.0
    RESFO_CR02_1 RESSPLIT_CR02_1 -1.0
    RESFO_CR02_1 FOBAL_1 -1.0
    RESFO_CR02_1 FOSUL_1 0.05675733131967897
    VGO2_CR02_1 VDUY1_CR02_1 1.0
    VGO2_CR02_1 VGOBAL_CR02_1 1.0
    VR_CR02_1 VDUY2_CR02_1 1.0
    VR_CR02_1 FOBAL_1 -1.0
    VR_CR02_1 FOSUL_1 1.1237845307155832
    VDUIN_CR03_1 RESSPLIT_CR03_1 -1.0
    VDUIN_CR03_1 VDUY1_CR03_1 -0.45
    VDUIN_CR03_1 VDUY2_CR03_1 -0.55
    VDUIN_CR03_1 VDUCAP_1 1.0
    RESFO_CR03_1 RESSPLIT_CR03_1 -1.0
    RESFO_CR03_1 FOBAL_1 -1.0
    RESFO_CR03_1 FOSUL_1 -1.8686274424458973
    VGO2_CR03_1 VDUY1_CR03_1 1.0
    VGO2_CR03_1 VGOBAL_CR03_1 1.0
    VR_CR03_1 VDUY2_CR03_1 1.0
    VR_CR03_1 FOBAL_1 -1.0
    VR_CR03_1 FOSUL_1 -1.3792156751796663
    VDUIN_CR04_1 RESSPLIT_CR04_1 -1.0
    VDUIN_CR04_1 VDUY1_CR04_1 -0.45
    VDUIN_CR04_1 VDUY2_CR04_1 -0.55
    VDUIN_CR04_1 VDUCAP_1 1.0
    RESFO_CR04_1 RESSPLIT_CR04_1 -1.0
    RESFO_CR04_1 FOBAL_1 -1.0
    RESFO_CR04_1 FOSUL_1 2.031668478530798
    VGO2_CR04_1 VDUY1_CR04_1 1.0
    VGO2_CR04_1 VGOBAL_CR04_1 1.0
    VR_CR04_1 VDUY2_CR04_1 1.0
    VR_CR04_1 FOBAL_1 -1.0
    VR_CR04_1 FOSUL_1 3.6911690220900377
    VDUIN_CR05_1 RESSPLIT_CR05_1 -1.0
    VDUIN_CR05_1 VDUY1_CR05_1 -0.45
    VDUIN_CR05_1 VDUY2_CR05_1 -0.55
    VDUIN_CR05_1 VDUCAP_1 1.0
    RESFO_CR05_1 RESSPLIT_CR05_1 -1.0
    RESFO_CR05_1 FOBAL_1 -1.0
    RESFO_CR05_1 FOSUL_1 0.3429997580900688
    VGO2_CR05_1 VDUY1_CR05_1 1.0
    VGO2_CR05_1 VGOBAL_CR05_1 1.0
    VR_CR05_1 VDUY2_CR05_1 1.0
    VR_CR05_1 FOBAL_1 -1.0
    VR_CR05_1 FOSUL_1 1.4958996855170898
    FCCIN_CR00_1 OBJ -2.5
    FCCIN_CR00_1 VGOBAL_CR00_1 -1.0
    FCCIN_CR00_1 FCCCAP_1 1.0
    FCCIN_CR00_1 FCCY_FCCG_1 -0.55
    FCCIN_CR00_1 FCCY_LCO_1 -0.2
    FCCIN_CR00_1 FCCY_FLPG_1 -0.15
    FCCIN_CR00_1 FCCY_SLURRY_1 -0.07
    FCCIN_CR01_1 OBJ -2.5
    FCCIN_CR01_1 VGOBAL_CR01_1 -1.0
    FCCIN_CR01_1 FCCCAP_1 1.0
    FCCIN_CR01_1 FCCY_FCCG_1 -0.55
    FCCIN_CR01_1 FCCY_LCO_1 -0.2
    FCCIN_CR01_1 FCCY_FLPG_1 -0.15
    FCCIN_CR01_1 FCCY_SLURRY_1 -0.07
    FCCIN_CR02_1 OBJ -2.5
    FCCIN_CR02_1 VGOBAL_CR02_1 -1.0
    FCCIN_CR02_1 FCCCAP_1 1.0
    FCCIN_CR02_1 FCCY_FCCG_1 -0.55
    FCCIN_CR02_1 FCCY_LCO_1 -0.2
    FCCIN_CR02_1 FCCY_FLPG_1 -0.15
    FCCIN_CR02_1 FCCY_SLURRY_1 -0.07
    FCCIN_CR03_1 OBJ -2.5
    FCCIN_CR03_1 VGOBAL_CR03_1 -1.0
    FCCIN_CR03_1 FCCCAP_1 1.0
    FCCIN_CR03_1 FCCY_FCCG_1 -0.55
    FCCIN_CR03_1 FCCY_LCO_1 -0.2
    FCCIN_CR03_1 FCCY_FLPG_1 -0.15
    FCCIN_CR03_1 FCCY_SLURRY_1 -0.07
    FCCIN_CR04_1 OBJ -2.5
    FCCIN_CR04_1 VGOBAL_CR04_1 -1.0
    FCCIN_CR04_1 FCCCAP_1 1.0
    FCCIN_CR04_1 FCCY_FCCG_1 -0.55
    FCCIN_CR04_1 FCCY_LCO_1 -0.2
    FCCIN_CR04_1 FCCY_FLPG_1 -0.15
    FCCIN_CR04_1 FCCY_SLURRY_1 -0.07
    FCCIN_CR05_1 OBJ -2.5
    FCCIN_CR05_1 VGOBAL_CR05_1 -1.0
    FCCIN_CR05_1 FCCCAP_1 1.0
    FCCIN_CR05_1 FCCY_FCCG_1 -0.55
    FCCIN_CR05_1 FCCY_LCO_1 -0.2
    FCCIN_CR05_1 FCCY_FLPG_1 -0.15
    FCCIN_CR05_1 FCCY_SLURRY_1 -0.07
    FCCG_1 FCCY_FCCG_1 1.0
    FCCG_1 GASBAL_1 -1.0
    FCCG_1 GASRON_1 1.0
    LCO_1 FCCY_LCO_1 1.0
    LCO_1 LCOBAL_1 1.0
    FLPG_1 FCCY_FLPG_1 1.0
    FLPG_1 LPGBAL_1 -1.0
    SLURRY_1 FCCY_SLURRY_1 1.0
    SLURRY_1 FOBAL_1 -1.0
    SLURRY_1 FOSUL_1 -1.5
    REFIN_CR00_1 OBJ -3.0
    REFIN_CR00_1 NAPBAL_CR00_1 -1.0
    REFIN_CR00_1 REFCAP_1 1.0
    REFIN_CR00_1 REFY_1 -0.85
    NAPGAS_CR00_1 NAPBAL_CR00_1 -1.0
    NAPGAS_CR00_1 GASBAL_1 -1.0
    NAPGAS_CR00_1 GASRON_1 -41.351908455631545
    REFIN_CR01_1 OBJ -3.0
    REFIN_CR01_1 NAPBAL_CR01_1 -1.0
    REFIN_CR01_1 REFCAP_1 1.0
    REFIN_CR01_1 REFY_1 -0.85
    NAPGAS_CR01_1 NAPBAL_CR01_1 -1.0
    NAPGAS_CR01_1 GASBAL_1 -1.0
    NAPGAS_CR01_1 GASRON_1 -33.623043958680114
    REFIN_CR02_1 OBJ -3.0
    REFIN_CR02_1 NAPBAL_CR02_1 -1.0
    REFIN_CR02_1 REFCAP_1 1.0
    REFIN_CR02_1 REFY_1 -0.85
    NAPGAS_CR02_1 NAPBAL_CR02_1 -1.0
    NAPGAS_CR02_1 GASBAL_1 -1.0
    NAPGAS_CR02_1 GASRON_1 -39.74522208078083
    REFIN_CR03_1 OBJ -3.0
    REFIN_CR03_1 NAPBAL_CR03_1 -1.0
    REFIN_CR03_1 REFCAP_1 1.0
    REFIN_CR03_1 REFY_1 -0.85
    NAPGAS_CR03_1 NAPBAL_CR03_1 -1.0
    NAPGAS_CR03_1 GASBAL_1 -1.0
    NAPGAS_CR03_1 GASRON_1 -39.32063345179839
    REFIN_CR04_1 OBJ -3.0
    REFIN_CR04_1 NAPBAL_CR04_1 -1.0
    REFIN_CR04_1 REFCAP_1 1.0
    REFIN_CR04_1 REFY_1 -0.85
    NAPGAS_CR04_1 NAPBAL_CR04_1 -1.0
    NAPGAS_CR04_1 GASBAL_1 -1.0
    NAPGAS_CR04_1 GASRON_1 -28.06018906757886
    REFIN_CR05_1 OBJ -3.0
    REFIN_CR05_1 NAPBAL_CR05_1 -1.0
    REFIN_CR05_1 REFCAP_1 1.0
    REFIN_CR05_1 REFY_1 -0.85
    NAPGAS_CR05_1 NAPBAL_CR05_1 -1.0
    NAPGAS_CR05_1 GASBAL_1 -1.0
    NAPGAS_CR05_1 GASRON_1 -37.177062383933254
    REFORMATE_1 REFY_1 1.0
    REFORMATE_1 GASBAL_1 -1.0
    REFORMATE_1 GASRON_1 7.0
    DHTIN_CR00_1 OBJ -2.0
    DHTIN_CR00_1 DSLBAL_CR00_1 -1.0
    DHTIN_CR00_1 DHTCAP_1 1.0
    DHTIN_CR00_1 DHTY_1 -0.98
    DSLDIR_CR00_1 DSLBAL_CR00_1 -1.0
    DSLDIR_CR00_1 DSLPB_1 -1.0
    DSLDIR_CR00_1 DSLSUL_1 1.5862267507032528
    DHTIN_CR01_1 OBJ -2.0
    DHTIN_CR01_1 DSLBAL_CR01_1 -1.0
    DHTIN_CR01_1 DHTCAP_1 1.0
    DHTIN_CR01_1 DHTY_1 -0.98
    DSLDIR_CR01_1 DSLBAL_CR01_1 -1.0
    DSLDIR_CR01_1 DSLPB_1 -1.0
    DSLDIR_CR01_1 DSLSUL_1 0.8149467463033994
    DHTIN_CR02_1 OBJ -2.0
    DHTIN_CR02_1 DSLBAL_CR02_1 -1.0
    DHTIN_CR02_1 DHTCAP_1 1.0
    DHTIN_CR02_1 DHTY_1 -0.98
    DSLDIR_CR02_1 DSLBAL_CR02_1 -1.0
    DSLDIR_CR02_1 DSLPB_1 -1.0
    DSLDIR_CR02_1 DSLSUL_1 1.0170271993959037
    DHTIN_CR03_1 OBJ -2.0
    DHTIN_CR03_1 DSLBAL_CR03_1 -1.0
    DHTIN_CR03_1 DHTCAP_1 1.0
    DHTIN_CR03_1 DHTY_1 -0.98
    DSLDIR_CR03_1 DSLBAL_CR03_1 -1.0
    DSLDIR_CR03_1 DSLPB_1 -1.0
    DSLDIR_CR03_1 DSLSUL_1 0.4394117672662308
    DHTIN_CR04_1 OBJ -2.0
    DHTIN_CR04_1 DSLBAL_CR04_1 -1.0
    DHTIN_CR04_1 DHTCAP_1 1.0
    DHTIN_CR04_1 DHTY_1 -0.98
    DSLDIR_CR04_1 DSLBAL_CR04_1 -1.0
    DSLDIR_CR04_1 DSLPB_1 -1.0
    DSLDIR_CR04_1 DSLSUL_1 1.6095005435592393
    DHTIN_CR05_1 OBJ -2.0
    DHTIN_CR05_1 DSLBAL_CR05_1 -1.0
    DHTIN_CR05_1 DHTCAP_1 1.0
    DHTIN_CR05_1 DHTY_1 -0.98
    DSLDIR_CR05_1 DSLBAL_CR05_1 -1.0
    DSLDIR_CR05_1 DSLPB_1 -1.0
    DSLDIR_CR05_1 DSLSUL_1 1.1028999274270206
    LCODHT_1 LCOBAL_1 -1.0
    LCODHT_1 DHTCAP_1 1.0
    LCODHT_1 DHTY_1 -0.95
    LCOFO_1 LCOBAL_1 -1.0
    LCOFO_1 FOBAL_1 -1.0
    LCOFO_1 FOSUL_1 -2.5
    ULSD_1 DHTY_1 1.0
    ULSD_1 DSLPB_1 -1.0
    ULSD_1 DSLSUL_1 -0.049
    SELL_LPG_1 OBJ 60.50000000000001
    SELL_LPG_1 PBAL_LPG_1 -1.0
    SELL_LPG_1 DMAX_LPG_1 1.0
    SELL_LPG_1 DMIN_LPG_1 1.0
    SELL_GAS_1 OBJ 115.50000000000001
    SELL_GAS_1 PBAL_GAS_1 -1.0
    SELL_GAS_1 DMAX_GAS_1 1.0
    SELL_GAS_1 DMIN_GAS_1 1.0
    SELL_JET_1 OBJ 110.00000000000001
    SELL_JET_1 PBAL_JET_1 -1.0
    SELL_JET_1 DMAX_JET_1 1.0
    SELL_JET_1 DMIN_JET_1 1.0
    SELL_DSL_1 OBJ 107.80000000000001
    SELL_DSL_1 PBAL_DSL_1 -1.0
    SELL_DSL_1 DMAX_DSL_1 1.0
    SELL_DSL_1 DMIN_DSL_1 1.0
    SELL_FO_1 OBJ 66.0
    SELL_FO_1 PBAL_FO_1 -1.0
    SELL_FO_1 DMAX_FO_1 1.0
    SELL_FO_1 DMIN_FO_1 1.0
    PINV_LPG_1 OBJ -0.5
    PINV_LPG_1 PBAL_LPG_1 -1.0
    PINV_LPG_1 PBAL_LPG_2 1.0
    PINV_GAS_1 OBJ -0.5
    PINV_GAS_1 PBAL_GAS_1 -1.0
    PINV_GAS_1 PBAL_GAS_2 1.0
    PINV_JET_1 OBJ -0.5
    PINV_JET_1 PBAL_JET_1 -1.0
    PINV_JET_1 PBAL_JET_2 1.0
    PINV_DSL_1 OBJ -0.5
    PINV_DSL_1 PBAL_DSL_1 -1.0
    PINV_DSL_1 PBAL_DSL_2 1.0
    PINV_FO_1 OBJ -0.5
    PINV_FO_1 PBAL_FO_1 -1.0
    PINV_FO_1 PBAL_FO_2 1.0
    SHORT_LPG_1 OBJ -400.0
    SHORT_LPG_1 DMIN_LPG_1 1.0
    SHORT_GAS_1 OBJ -400.0
    SHORT_GAS_1 DMIN_GAS_1 1.0
    SHORT_JET_1 OBJ -400.0
    SHORT_JET_1 DMIN_JET_1 1.0
    SHORT_DSL_1 OBJ -400.0
    SHORT_DSL_1 DMIN_DSL_1 1.0
    SHORT_FO_1 OBJ -400.0
    SHORT_FO_1 DMIN_FO_1 1.0
    GASPOOL_1 GASBAL_1 1.0
    GASPOOL_1 PBAL_GAS_1 1.0
    JETPOOL_1 JETBAL_1 1.0
    JETPOOL_1 PBAL_JET_1 1.0
    KERJET_CR00_1 KERBAL_CR00_1 -1.0
    KERJET_CR00_1 JETBAL_1 -1.0
    KERJET_CR00_1 JETSUL_1 0.10905668767581322
    KERDSL_CR00_1 KERBAL_CR00_1 -1.0
    KERDSL_CR00_1 DSLPB_1 -1.0
    KERDSL_CR00_1 DSLSUL_1 0.3590566876758132
    KERJET_CR01_1 KERBAL_CR01_1 -1.0
    KERJET_CR01_1 JETBAL_1 -1.0
    KERJET_CR01_1 JETSUL_1 -0.08376331342415014
    KERDSL_CR01_1 KERBAL_CR01_1 -1.0
    KERDSL_CR01_1 DSLPB_1 -1.0
    KERDSL_CR01_1 DSLSUL_1 0.16623668657584983
    KERJET_CR02_1 KERBAL_CR02_1 -1.0
    KERJET_CR02_1 JETBAL_1 -1.0
    KERJET_CR02_1 JETSUL_1 -0.033243200151024055
    KERDSL_CR02_1 KERBAL_CR02_1 -1.0
    KERDSL_CR02_1 DSLPB_1 -1.0
    KERDSL_CR02_1 DSLSUL_1 0.21675679984897595
    KERJET_CR03_1 KERBAL_CR03_1 -1.0
    KERJET_CR03_1 JETBAL_1 -1.0
    KERJET_CR03_1 JETSUL_1 -0.17764705818344229
    KERDSL_CR03_1 KERBAL_CR03_1 -1.0
    KERDSL_CR03_1 DSLPB_1 -1.0
    KERDSL_CR03_1 DSLSUL_1 0.0723529418165577
    KERJET_CR04_1 KERBAL_CR04_1 -1.0
    KERJET_CR04_1 JETBAL_1 -1.0
    KERJET_CR04_1 JETSUL_1 0.11487513588980985
    KERDSL_CR04_1 KERBAL_CR04_1 -1.0
    KERDSL_CR04_1 DSLPB_1 -1.0
    KERDSL_CR04_1 DSLSUL_1 0.36487513588980985
    KERJET_CR05_1 KERBAL_CR05_1 -1.0
    KERJET_CR05_1 JETBAL_1 -1.0
    KERJET_CR05_1 JETSUL_1 -0.011775018143244831
    KERDSL_CR05_1 KERBAL_CR05_1 -1.0
    KERDSL_CR05_1 DSLPB_1 -1.0
    KERDSL_CR05_1 DSLSUL_1 0.23822498185675517
    DSLPOOL_1 DSLPB_1 1.0
    DSLPOOL_1 PBAL_DSL_1 1.0
    LPGPOOL_1 LPGBAL_1 1.0
    LPGPOOL_1 PBAL_LPG_1 1.0
    FOPOOL_1 FOBAL_1 1.0
    FOPOOL_1 PBAL_FO_1 1.0
    BUY_CR00_2 OBJ -60.02542302806633
    BUY_CR00_2 CBAL_CR00_2 1.0
    CINV_CR00_2 OBJ -0.3
    CINV_CR00_2 CBAL_CR00_2 -1.0
    CINV_CR00_2 CBAL_CR00_3 1.0
    CDU_CR00_2 CBAL_CR00_2 -1.0
    CDU_CR00_2 CDUCAP_2 1.0
    CDU_CR00_2 YLPG_CR00_2 -0.013786055933968056
    CDU_CR00_2 YNAP_CR00_2 -0.1214444916358349
    CDU_CR00_2 YKER_CR00_2 -0.10646372452567733
    CDU_CR00_2 YDSL_CR00_2 -0.20292085263352289
    CDU_CR00_2 YVGO_CR00_2 -0.27390944719057636
    CDU_CR00_2 YRES_CR00_2 -0.28147542808042036
    BUY_CR01_2 OBJ -77.04231600985425
    BUY_CR01_2 CBAL_CR01_2 1.0
    CINV_CR01_2 OBJ -0.3
    CINV_CR01_2 CBAL_CR01_2 -1.0
    CINV_CR01_2 CBAL_CR01_3 1.0
    CDU_CR01_2 CBAL_CR01_2 -1.0
    CDU_CR01_2 CDUCAP_2 1.0
    CDU_CR01_2 YLPG_CR01_2 -0.025127543584387436
    CDU_CR01_2 YNAP_CR01_2 -0.2025917905849106
    CDU_CR01_2 YKER_CR01_2 -0.13410952106049506
    CDU_CR01_2 YDSL_CR01_2 -0.24728591651278542
    CDU_CR01_2 YVGO_CR01_2 -0.22897185950088417
    CDU_CR01_2 YRES_CR01_2 -0.16191336875653717
    BUY_CR02_2 OBJ -62.86635462576333
    BUY_CR02_2 CBAL_CR02_2 1.0
    CINV_CR02_2 OBJ -0.3
    CINV_CR02_2 CBAL_CR02_2 -1.0
    CINV_CR02_2 CBAL_CR02_3 1.0
    CDU_CR02_2 CBAL_CR02_2 -1.0
    CDU_CR02_2 CDUCAP_2 1.0
    CDU_CR02_2 YLPG_CR02_2 -0.013444753666275039
    CDU_CR02_2 YNAP_CR02_2 -0.11889710072836579
    CDU_CR02_2 YKER_CR02_2 -0.103840437143255
    CDU_CR02_2 YDSL_CR02_2 -0.21229612809407214
    CDU_CR02_2 YVGO_CR02_2 -0.2628713956905896
    CDU_CR02_2 YRES_CR02_2 -0.28865018467744247
    BUY_CR03_2 OBJ -69.27893646844014
    BUY_CR03_2 CBAL_CR03_2 1.0
    CINV_CR03_2 OBJ -0.3
    CINV_CR03_2 CBAL_CR03_2 -1.0
    CINV_CR03_2 CBAL_CR03_3 1.0
    CDU_CR03_2 CBAL_CR03_2 -1.0
    CDU_CR03_2 CDUCAP_2 1.0
    CDU_CR03_2 YLPG_CR03_2 -0.01400858068810675
    CDU_CR03_2 YNAP_CR03_2 -0.1424923117986131
    CDU_CR03_2 YKER_CR03_2 -0.10784088582669263
    CDU_CR03_2 YDSL_CR03_2 -0.19279120630762445
    CDU_CR03_2 YVGO_CR03_2 -0.28544626211923063
    CDU_CR03_2 YRES_CR03_2 -0.2574207532597324
    BUY_CR04_2 OBJ -74.87468205368025
    BUY_CR04_2 CBAL_CR04_2 1.0
    CINV_CR04_2 OBJ -0.3
    CINV_CR04_2 CBAL_CR04_2 -1.0
    CINV_CR04_2 CBAL_CR04_3 1.0
    CDU_CR04_2 CBAL_CR04_2 -1.0
    CDU_CR04_2 CDUCAP_2 1.0
    CDU_CR04_2 YLPG_CR04_2 -0.02335213093765316
    CDU_CR04_2 YNAP_CR04_2 -0.2292355396921612
    CDU_CR04_2 YKER_CR04_2 -0.14240695851543803
    CDU_CR04_2 YDSL_CR04_2 -0.24384363627499198
    CDU_CR04_2 YVGO_CR04_2 -0.2465326974706559
    CDU_CR04_2 YRES_CR04_2 -0.1146290371090997
    BUY_CR05_2 OBJ -67.8312781097729
    BUY_CR05_2 CBAL_CR05_2 1.0
    CINV_CR05_2 OBJ -0.3
    CINV_CR05_2 CBAL_CR05_2 -1.0
    CINV_CR05_2 CBAL_CR05_3 1.0
    CDU_CR05_2 CBAL_CR05_2 -1.0
    CDU_CR05_2 CDUCAP_2 1.0
    CDU_CR05_2 YLPG_CR05_2 -0.01735729802728813
    CDU_CR05_2 YNAP_CR05_2 -0.16608619710065003
    CDU_CR05_2 YKER_CR05_2 -0.1170544437563835
    CDU_CR05_2 YDSL_CR05_2 -0.22299235889970878
    CDU_CR05_2 YVGO_CR05_2 -0.2433490540516293
    CDU_CR05_2 YRES_CR05_2 -0.23316064816434035
    LPG_CR00_2 YLPG_CR00_2 1.0
    LPG_CR00_2 LPGBAL_2 -1.0
    NAP_CR00_2 YNAP_CR00_2 1.0
    NAP_CR00_2 NAPBAL_CR00_2 1.0
    KER_CR00_2 YKER_CR00_2 1.0
    KER_CR00_2 KERBAL_CR00_2 1.0
    DSL_CR00_2 YDSL_CR00_2 1.0
    DSL_CR00_2 DSLBAL_CR00_2 1.0
    VGO_CR00_2 YVGO_CR00_2 1.0
    VGO_CR00_2 VGOBAL_CR00_2 1.0
    RES_CR00_2 YRES_CR00_2 1.0
    RES_CR00_2 RESSPLIT_CR00_2 1.0
    LPG_CR01_2 YLPG_CR01_2 1.0
    LPG_CR01_2 LPGBAL_2 -1.0
    NAP_CR01_2 YNAP_CR01_2 1.0
    NAP_CR01_2 NAPBAL_CR01_2 1.0
    KER_CR01_2 YKER_CR01_2 1.0
    KER_CR01_2 KERBAL_CR01_2 1.0
    DSL_CR01_2 YDSL_CR01_2 1.0
    DSL_CR01_2 DSLBAL_CR01_2 1.0
    VGO_CR01_2 YVGO_CR01_2 1.0
    VGO_CR01_2 VGOBAL_CR01_2 1.0
    RES_CR01_2 YRES_CR01_2 1.0
    RES_CR01_2 RESSPLIT_CR01_2 1.0
    LPG_CR02_2 YLPG_CR02_2 1.0
    LPG_CR02_2 LPGBAL_2 -1.0
    NAP_CR02_2 YNAP_CR02_2 1.0
    NAP_CR02_2 NAPBAL_CR02_2 1.0
    KER_CR02_2 YKER_CR02_2 1.0
    KER_CR02_2 KERBAL_CR02_2 1.0
    DSL_CR02_2 YDSL_CR02_2 1.0
    DSL_CR02_2 DSLBAL_CR02_2 1.0
    VGO_CR02_2 YVGO_CR02_2 1.0
    VGO_CR02_2 VGOBAL_CR02_2 1.0
    RES_CR02_2 YRES_CR02_2 1.0
    RES_CR02_2 RESSPLIT_CR02_2 1.0
    LPG_CR03_2 YLPG_CR03_2 1.0
    LPG_CR03_2 LPGBAL_2 -1.0
    NAP_CR03_2 YNAP_CR03_2 1.0
    NAP_CR03_2 NAPBAL_CR03_2 1.0
    KER_CR03_2 YKER_CR03_2 1.0
    KER_CR03_2 KERBAL_CR03_2 1.0
    DSL_CR03_2 YDSL_CR03_2 1.0
    DSL_CR03_2 DSLBAL_CR03_2 1.0
    VGO_CR03_2 YVGO_CR03_2 1.0
    VGO_CR03_2 VGOBAL_CR03_2 1.0
    RES_CR03_2 YRES_CR03_2 1.0
    RES_CR03_2 RESSPLIT_CR03_2 1.0
    LPG_CR04_2 YLPG_CR04_2 1.0
    LPG_CR04_2 LPGBAL_2 -1.0
    NAP_CR04_2 YNAP_CR04_2 1.0
    NAP_CR04_2 NAPBAL_CR04_2 1.0
    KER_CR04_2 YKER_CR04_2 1.0
    KER_CR04_2 KERBAL_CR04_2 1.0
    DSL_CR04_2 YDSL_CR04_2 1.0
    DSL_CR04_2 DSLBAL_CR04_2 1.0
    VGO_CR04_2 YVGO_CR04_2 1.0
    VGO_CR04_2 VGOBAL_CR04_2 1.0
    RES_CR04_2 YRES_CR04_2 1.0
    RES_CR04_2 RESSPLIT_CR04_2 1.0
    LPG_CR05_2 YLPG_CR05_2 1.0
    LPG_CR05_2 LPGBAL_2 -1.0
    NAP_CR05_2 YNAP_CR05_2 1.0
    NAP_CR05_2 NAPBAL_CR05_2 1.0
    KER_CR05_2 YKER_CR05_2 1.0
    KER_CR05_2 KERBAL_CR05_2 1.0
    DSL_CR05_2 YDSL_CR05_2 1.0
    DSL_CR05_2 DSLBAL_CR05_2 1.0
    VGO_CR05_2 YVGO_CR05_2 1.0
    VGO_CR05_2 VGOBAL_CR05_2 1.0
    RES_CR05_2 YRES_CR05_2 1.0
    RES_CR05_2 RESSPLIT_CR05_2 1.0
    VDUIN_CR00_2 RESSPLIT_CR00_2 -1.0
    VDUIN_CR00_2 VDUY1_CR00_2 -0.45
    VDUIN_CR00_2 VDUY2_CR00_2 -0.55
    VDUIN_CR00_2 VDUCAP_2 1.0
    RESFO_CR00_2 RESSPLIT_CR00_2 -1.0
    RESFO_CR00_2 FOBAL_2 -1.0
    RESFO_CR00_2 FOSUL_2 1.9540891690108433
    VGO2_CR00_2 VDUY1_CR00_2 1.0
    VGO2_CR00_2 VGOBAL_CR00_2 1.0
    VR_CR00_2 VDUY2_CR00_2 1.0
    VR_CR00_2 FOBAL_2 -1.0
    VR_CR00_2 FOSUL_2 3.5903159197140964
    VDUIN_CR01_2 RESSPLIT_CR01_2 -1.0
    VDUIN_CR01_2 VDUY1_CR01_2 -0.45
    VDUIN_CR01_2 VDUY2_CR01_2 -0.55
    VDUIN_CR01_2 VDUCAP_2 1.0
    RESFO_CR01_2 RESSPLIT_CR01_2 -1.0
    RESFO_CR01_2 FOBAL_2 -1.0
    RESFO_CR01_2 FOSUL_2 -0.6168441789886687
    VGO2_CR01_2 VDUY1_CR01_2 1.0
    VGO2_CR01_2 VGOBAL_CR01_2 1.0
    VR_CR01_2 VDUY2_CR01_2 1.0
    VR_CR01_2 FOBAL_2 -1.0
    VR_CR01_2 FOSUL_2 0.24810256731473057
    VDUIN_CR02_2 RESSPLIT_CR02_2 -1.0
    VDUIN_CR02_2 VDUY1_CR02_2 -0.45
    VDUIN_CR02_2 VDUY2_CR02_2 -0.55
    VDUIN_CR02_2 VDUCAP_2 1.0
    RESFO_CR02_2 RESSPLIT_CR02_2 -1.0
    RESFO_CR02_2 FOBAL_2 -1.0
    RESFO_CR02_2 FOSUL_2 0.05675733131967897
    VGO2_CR02_2 VDUY1_CR02_2 1.0
    VGO2_CR02_2 VGOBAL_CR02_2 1.0
    VR_CR02_2 VDUY2_CR02_2 1.0
    VR_CR02_2 FOBAL_2 -1.0
    VR_CR02_2 FOSUL_2 1.1237845307155832
    VDUIN_CR03_2 RESSPLIT_CR03_2 -1.0
    VDUIN_CR03_2 VDUY1_CR03_2 -0.45
    VDUIN_CR03_2 VDUY2_CR03_2 -0.55
    VDUIN_CR03_2 VDUCAP_2 1.0
    RESFO_CR03_2 RESSPLIT_CR03_2 -1.0
    RESFO_CR03_2 FOBAL_2 -1.0
    RESFO_CR03_2 FOSUL_2 -1.8686274424458973
    VGO2_CR03_2 VDUY1_CR03_2 1.0
    VGO2_CR03_2 VGOBAL_CR03_2 1.0
    VR_CR03_2 VDUY2_CR03_2 1.0
    VR_CR03_2 FOBAL_2 -1.0
    VR_CR03_2 FOSUL_2 -1.3792156751796663
    VDUIN_CR04_2 RESSPLIT_CR04_2 -1.0
    VDUIN_CR04_2 VDUY1_CR04_2 -0.45
    VDUIN_CR04_2 VDUY2_CR04_2 -0.55
    VDUIN_CR04_2 VDUCAP_2 1.0
    RESFO_CR04_2 RESSPLIT_CR04_2 -1.0
    RESFO_CR04_2 FOBAL_2 -1.0
    RESFO_CR04_2 FOSUL_2 2.031668478530798
    VGO2_CR04_2 VDUY1_CR04_2 1.0
    VGO2_CR04_2 VGOBAL_CR04_2 1.0
    VR_CR04_2 VDUY2_CR04_2 1.0
    VR_CR04_2 FOBAL_2 -1.0
    VR_CR04_2 FOSUL_2 3.6911690220900377
    VDUIN_CR05_2 RESSPLIT_CR05_2 -1.0
    VDUIN_CR05_2 VDUY1_CR05_2 -0.45
    VDUIN_CR05_2 VDUY2_CR05_2 -0.55
    VDUIN_CR05_2 VDUCAP_2 1.0
    RESFO_CR05_2 RESSPLIT_CR05_2 -1.0
    RESFO_CR05_2 FOBAL_2 -1.0
    RESFO_CR05_2 FOSUL_2 0.3429997580900688
    VGO2_CR05_2 VDUY1_CR05_2 1.0
    VGO2_CR05_2 VGOBAL_CR05_2 1.0
    VR_CR05_2 VDUY2_CR05_2 1.0
    VR_CR05_2 FOBAL_2 -1.0
    VR_CR05_2 FOSUL_2 1.4958996855170898
    FCCIN_CR00_2 OBJ -2.5
    FCCIN_CR00_2 VGOBAL_CR00_2 -1.0
    FCCIN_CR00_2 FCCCAP_2 1.0
    FCCIN_CR00_2 FCCY_FCCG_2 -0.55
    FCCIN_CR00_2 FCCY_LCO_2 -0.2
    FCCIN_CR00_2 FCCY_FLPG_2 -0.15
    FCCIN_CR00_2 FCCY_SLURRY_2 -0.07
    FCCIN_CR01_2 OBJ -2.5
    FCCIN_CR01_2 VGOBAL_CR01_2 -1.0
    FCCIN_CR01_2 FCCCAP_2 1.0
    FCCIN_CR01_2 FCCY_FCCG_2 -0.55
    FCCIN_CR01_2 FCCY_LCO_2 -0.2
    FCCIN_CR01_2 FCCY_FLPG_2 -0.15
    FCCIN_CR01_2 FCCY_SLURRY_2 -0.07
    FCCIN_CR02_2 OBJ -2.5
    FCCIN_CR02_2 VGOBAL_CR02_2 -1.0
    FCCIN_CR02_2 FCCCAP_2 1.0
    FCCIN_CR02_2 FCCY_FCCG_2 -0.55
    FCCIN_CR02_2 FCCY_LCO_2 -0.2
    FCCIN_CR02_2 FCCY_FLPG_2 -0.15
    FCCIN_CR02_2 FCCY_SLURRY_2 -0.07
    FCCIN_CR03_2 OBJ -2.5
    FCCIN_CR03_2 VGOBAL_CR03_2 -1.0
    FCCIN_CR03_2 FCCCAP_2 1.0
    FCCIN_CR03_2 FCCY_FCCG_2 -0.55
    FCCIN_CR03_2 FCCY_LCO_2 -0.2
    FCCIN_CR03_2 FCCY_FLPG_2 -0.15
    FCCIN_CR03_2 FCCY_SLURRY_2 -0.07
    FCCIN_CR04_2 OBJ -2.5
    FCCIN_CR04_2 VGOBAL_CR04_2 -1.0
    FCCIN_CR04_2 FCCCAP_2 1.0
    FCCIN_CR04_2 FCCY_FCCG_2 -0.55
    FCCIN_CR04_2 FCCY_LCO_2 -0.2
    FCCIN_CR04_2 FCCY_FLPG_2 -0.15
    FCCIN_CR04_2 FCCY_SLURRY_2 -0.07
    FCCIN_CR05_2 OBJ -2.5
    FCCIN_CR05_2 VGOBAL_CR05_2 -1.0
    FCCIN_CR05_2 FCCCAP_2 1.0
    FCCIN_CR05_2 FCCY_FCCG_2 -0.55
    FCCIN_CR05_2 FCCY_LCO_2 -0.2
    FCCIN_CR05_2 FCCY_FLPG_2 -0.15
    FCCIN_CR05_2 FCCY_SLURRY_2 -0.07
    FCCG_2 FCCY_FCCG_2 1.0
    FCCG_2 GASBAL_2 -1.0
    FCCG_2 GASRON_2 1.0
    LCO_2 FCCY_LCO_2 1.0
    LCO_2 LCOBAL_2 1.0
    FLPG_2 FCCY_FLPG_2 1.0
    FLPG_2 LPGBAL_2 -1.0
    SLURRY_2 FCCY_SLURRY_2 1.0
    SLURRY_2 FOBAL_2 -1.0
    SLURRY_2 FOSUL_2 -1.5
    REFIN_CR00_2 OBJ -3.0
    REFIN_CR00_2 NAPBAL_CR00_2 -1.0
    REFIN_CR00_2 REFCAP_2 1.0
    REFIN_CR00_2 REFY_2 -0.85
    NAPGAS_CR00_2 NAPBAL_CR00_2 -1.0
    NAPGAS_CR00_2 GASBAL_2 -1.0
    NAPGAS_CR00_2 GASRON_2 -41.351908455631545
    REFIN_CR01_2 OBJ -3.0
    REFIN_CR01_2 NAPBAL_CR01_2 -1.0
    REFIN_CR01_2 REFCAP_2 1.0
    REFIN_CR01_2 REFY_2 -0.85
    NAPGAS_CR01_2 NAPBAL_CR01_2 -1.0
    NAPGAS_CR01_2 GASBAL_2 -1.0
    NAPGAS_CR01_2 GASRON_2 -33.623043958680114
    REFIN_CR02_2 OBJ -3.0
    REFIN_CR02_2 NAPBAL_CR02_2 -1.0
    REFIN_CR02_2 REFCAP_2 1.0
    REFIN_CR02_2 REFY_2 -0.85
    NAPGAS_CR02_2 NAPBAL_CR02_2 -1.0
    NAPGAS_CR02_2 GASBAL_2 -1.0
    NAPGAS_CR02_2 GASRON_2 -39.74522208078083
    REFIN_CR03_2 OBJ -3.0
    REFIN_CR03_2 NAPBAL_CR03_2 -1.0
    REFIN_CR03_2 REFCAP_2 1.0
    REFIN_CR03_2 REFY_2 -0.85
    NAPGAS_CR03_2 NAPBAL_CR03_2 -1.0
    NAPGAS_CR03_2 GASBAL_2 -1.0
    NAPGAS_CR03_2 GASRON_2 -39.32063345179839
    REFIN_CR04_2 OBJ -3.0
    REFIN_CR04_2 NAPBAL_CR04_2 -1.0
    REFIN_CR04_2 REFCAP_2 1.0
    REFIN_CR04_2 REFY_2 -0.85
    NAPGAS_CR04_2 NAPBAL_CR04_2 -1.0
    NAPGAS_CR04_2 GASBAL_2 -1.0
    NAPGAS_CR04_2 GASRON_2 -28.06018906757886
    REFIN_CR05_2 OBJ -3.0
    REFIN_CR05_2 NAPBAL_CR05_2 -1.0
    REFIN_CR05_2 REFCAP_2 1.0
    REFIN_CR05_2 REFY_2 -0.85
    NAPGAS_CR05_2 NAPBAL_CR05_2 -1.0
    NAPGAS_CR05_2 GASBAL_2 -1.0
    NAPGAS_CR05_2 GASRON_2 -37.177062383933254
    REFORMATE_2 REFY_2 1.0
    REFORMATE_2 GASBAL_2 -1.0
    REFORMATE_2 GASRON_2 7.0
    DHTIN_CR00_2 OBJ -2.0
    DHTIN_CR00_2 DSLBAL_CR00_2 -1.0
    DHTIN_CR00_2 DHTCAP_2 1.0
    DHTIN_CR00_2 DHTY_2 -0.98
    DSLDIR_CR00_2 DSLBAL_CR00_2 -1.0
    DSLDIR_CR00_2 DSLPB_2 -1.0
    DSLDIR_CR00_2 DSLSUL_2 1.5862267507032528
    DHTIN_CR01_2 OBJ -2.0
    DHTIN_CR01_2 DSLBAL_CR01_2 -1.0
    DHTIN_CR01_2 DHTCAP_2 1.0
    DHTIN_CR01_2 DHTY_2 -0.98
    DSLDIR_CR01_2 DSLBAL_CR01_2 -1.0
    DSLDIR_CR01_2 DSLPB_2 -1.0
    DSLDIR_CR01_2 DSLSUL_2 0.8149467463033994
    DHTIN_CR02_2 OBJ -2.0
    DHTIN_CR02_2 DSLBAL_CR02_2 -1.0
    DHTIN_CR02_2 DHTCAP_2 1.0
    DHTIN_CR02_2 DHTY_2 -0.98
    DSLDIR_CR02_2 DSLBAL_CR02_2 -1.0
    DSLDIR_CR02_2 DSLPB_2 -1.0
    DSLDIR_CR02_2 DSLSUL_2 1.0170271993959037
    DHTIN_CR03_2 OBJ -2.0
    DHTIN_CR03_2 DSLBAL_CR03_2 -1.0
    DHTIN_CR03_2 DHTCAP_2 1.0
    DHTIN_CR03_2 DHTY_2 -0.98
    DSLDIR_CR03_2 DSLBAL_CR03_2 -1.0
    DSLDIR_CR03_2 DSLPB_2 -1.0
    DSLDIR_CR03_2 DSLSUL_2 0.4394117672662308
    DHTIN_CR04_2 OBJ -2.0
    DHTIN_CR04_2 DSLBAL_CR04_2 -1.0
    DHTIN_CR04_2 DHTCAP_2 1.0
    DHTIN_CR04_2 DHTY_2 -0.98
    DSLDIR_CR04_2 DSLBAL_CR04_2 -1.0
    DSLDIR_CR04_2 DSLPB_2 -1.0
    DSLDIR_CR04_2 DSLSUL_2 1.6095005435592393
    DHTIN_CR05_2 OBJ -2.0
    DHTIN_CR05_2 DSLBAL_CR05_2 -1.0
    DHTIN_CR05_2 DHTCAP_2 1.0
    DHTIN_CR05_2 DHTY_2 -0.98
    DSLDIR_CR05_2 DSLBAL_CR05_2 -1.0
    DSLDIR_CR05_2 DSLPB_2 -1.0
    DSLDIR_CR05_2 DSLSUL_2 1.1028999274270206
    LCODHT_2 LCOBAL_2 -1.0
    LCODHT_2 DHTCAP_2 1.0
    LCODHT_2 DHTY_2 -0.95
    LCOFO_2 LCOBAL_2 -1.0
    LCOFO_2 FOBAL_2 -1.0
    LCOFO_2 FOSUL_2 -2.5
    ULSD_2 DHTY_2 1.0
    ULSD_2 DSLPB_2 -1.0
    ULSD_2 DSLSUL_2 -0.049
    SELL_LPG_2 OBJ 55.0
    SELL_LPG_2 PBAL_LPG_2 -1.0
    SELL_LPG_2 DMAX_LPG_2 1.0
    SELL_LPG_2 DMIN_LPG_2 1.0
    SELL_GAS_2 OBJ 105.0
    SELL_GAS_2 PBAL_GAS_2 -1.0
    SELL_GAS_2 DMAX_GAS_2 1.0
    SELL_GAS_2 DMIN_GAS_2 1.0
    SELL_JET_2 OBJ 100.0
    SELL_JET_2 PBAL_JET_2 -1.0
    SELL_JET_2 DMAX_JET_2 1.0
    SELL_JET_2 DMIN_JET_2 1.0
    SELL_DSL_2 OBJ 98.0
    SELL_DSL_2 PBAL_DSL_2 -1.0
    SELL_DSL_2 DMAX_DSL_2 1.0
    SELL_DSL_2 DMIN_DSL_2 1.0
    SELL_FO_2 OBJ 60.0
    SELL_FO_2 PBAL_FO_2 -1.0
    SELL_FO_2 DMAX_FO_2 1.0
    SELL_FO_2 DMIN_FO_2 1.0
    PINV_LPG_2 OBJ -0.5
    PINV_LPG_2 PBAL_LPG_2 -1.0
    PINV_LPG_2 PBAL_LPG_3 1.0
    PINV_GAS_2 OBJ -0.5
    PINV_GAS_2 PBAL_GAS_2 -1.0
    PINV_GAS_2 PBAL_GAS_3 1.0
    PINV_JET_2 OBJ -0.5
    PINV_JET_2 PBAL_JET_2 -1.0
    PINV_JET_2 PBAL_JET_3 1.0
    PINV_DSL_2 OBJ -0.5
    PINV_DSL_2 PBAL_DSL_2 -1.0
    PINV_DSL_2 PBAL_DSL_3 1.0
    PINV_FO_2 OBJ -0.5
    PINV_FO_2 PBAL_FO_2 -1.0
    PINV_FO_2 PBAL_FO_3 1.0
    SHORT_LPG_2 OBJ -400.0
    SHORT_LPG_2 DMIN_LPG_2 1.0
    SHORT_GAS_2 OBJ -400.0
    SHORT_GAS_2 DMIN_GAS_2 1.0
    SHORT_JET_2 OBJ -400.0
    SHORT_JET_2 DMIN_JET_2 1.0
    SHORT_DSL_2 OBJ -400.0
    SHORT_DSL_2 DMIN_DSL_2 1.0
    SHORT_FO_2 OBJ -400.0
    SHORT_FO_2 DMIN_FO_2 1.0
    GASPOOL_2 GASBAL_2 1.0
    GASPOOL_2 PBAL_GAS_2 1.0
    JETPOOL_2 JETBAL_2 1.0
    JETPOOL_2 PBAL_JET_2 1.0
    KERJET_CR00_2 KERBAL_CR00_2 -1.0
    KERJET_CR00_2 JETBAL_2 -1.0
    KERJET_CR00_2 JETSUL_2 0.10905668767581322
    KERDSL_CR00_2 KERBAL_CR00_2 -1.0
    KERDSL_CR00_2 DSLPB_2 -1.0
    KERDSL_CR00_2 DSLSUL_2 0.3590566876758132
    KERJET_CR01_2 KERBAL_CR01_2 -1.0
    KERJET_CR01_2 JETBAL_2 -1.0
    KERJET_CR01_2 JETSUL_2 -0.08376331342415014
    KERDSL_CR01_2 KERBAL_CR01_2 -1.0
    KERDSL_CR01_2 DSLPB_2 -1.0
    KERDSL_CR01_2 DSLSUL_2 0.16623668657584983
    KERJET_CR02_2 KERBAL_CR02_2 -1.0
    KERJET_CR02_2 JETBAL_2 -1.0
    KERJET_CR02_2 JETSUL_2 -0.033243200151024055
    KERDSL_CR02_2 KERBAL_CR02_2 -1.0
    KERDSL_CR02_2 DSLPB_2 -1.0
    KERDSL_CR02_2 DSLSUL_2 0.21675679984897595
    KERJET_CR03_2 KERBAL_CR03_2 -1.0
    KERJET_CR03_2 JETBAL_2 -1.0
    KERJET_CR03_2 JETSUL_2 -0.17764705818344229
    KERDSL_CR03_2 KERBAL_CR03_2 -1.0
    KERDSL_CR03_2 DSLPB_2 -1.0
    KERDSL_CR03_2 DSLSUL_2 0.0723529418165577
    KERJET_CR04_2 KERBAL_CR04_2 -1.0
    KERJET_CR04_2 JETBAL_2 -1.0
    KERJET_CR04_2 JETSUL_2 0.11487513588980985
    KERDSL_CR04_2 KERBAL_CR04_2 -1.0
    KERDSL_CR04_2 DSLPB_2 -1.0
    KERDSL_CR04_2 DSLSUL_2 0.36487513588980985
    KERJET_CR05_2 KERBAL_CR05_2 -1.0
    KERJET_CR05_2 JETBAL_2 -1.0
    KERJET_CR05_2 JETSUL_2 -0.011775018143244831
    KERDSL_CR05_2 KERBAL_CR05_2 -1.0
    KERDSL_CR05_2 DSLPB_2 -1.0
    KERDSL_CR05_2 DSLSUL_2 0.23822498185675517
    DSLPOOL_2 DSLPB_2 1.0
    DSLPOOL_2 PBAL_DSL_2 1.0
    LPGPOOL_2 LPGBAL_2 1.0
    LPGPOOL_2 PBAL_LPG_2 1.0
    FOPOOL_2 FOBAL_2 1.0
    FOPOOL_2 PBAL_FO_2 1.0
    BUY_CR00_3 OBJ -59.92154359302494
    BUY_CR00_3 CBAL_CR00_3 1.0
    CINV_CR00_3 OBJ -0.3
    CINV_CR00_3 CBAL_CR00_3 -1.0
    CDU_CR00_3 CBAL_CR00_3 -1.0
    CDU_CR00_3 CDUCAP_3 1.0
    CDU_CR00_3 YLPG_CR00_3 -0.013786055933968056
    CDU_CR00_3 YNAP_CR00_3 -0.1214444916358349
    CDU_CR00_3 YKER_CR00_3 -0.10646372452567733
    CDU_CR00_3 YDSL_CR00_3 -0.20292085263352289
    CDU_CR00_3 YVGO_CR00_3 -0.27390944719057636
    CDU_CR00_3 YRES_CR00_3 -0.28147542808042036
    BUY_CR01_3 OBJ -77.09763230384561
    BUY_CR01_3 CBAL_CR01_3 1.0
    CINV_CR01_3 OBJ -0.3
    CINV_CR01_3 CBAL_CR01_3 -1.0
    CDU_CR01_3 CBAL_CR01_3 -1.0
    CDU_CR01_3 CDUCAP_3 1.0
    CDU_CR01_3 YLPG_CR01_3 -0.025127543584387436
    CDU_CR01_3 YNAP_CR01_3 -0.2025917905849106
    CDU_CR01_3 YKER_CR01_3 -0.13410952106049506
    CDU_CR01_3 YDSL_CR01_3 -0.24728591651278542
    CDU_CR01_3 YVGO_CR01_3 -0.22897185950088417
    CDU_CR01_3 YRES_CR01_3 -0.16191336875653717
    BUY_CR02_3 OBJ -62.64423365045585
    BUY_CR02_3 CBAL_CR02_3 1.0
    CINV_CR02_3 OBJ -0.3
    CINV_CR02_3 CBAL_CR02_3 -1.0
    CDU_CR02_3 CBAL_CR02_3 -1.0
    CDU_CR02_3 CDUCAP_3 1.0
    CDU_CR02_3 YLPG_CR02_3 -0.013444753666275039
    CDU_CR02_3 YNAP_CR02_3 -0.11889710072836579
    CDU_CR02_3 YKER_CR02_3 -0.103840437143255
    CDU_CR02_3 YDSL_CR02_3 -0.21229612809407214
    CDU_CR02_3 YVGO_CR02_3 -0.2628713956905896
    CDU_CR02_3 YRES_CR02_3 -0.28865018467744247
    BUY_CR03_3 OBJ -69.7006172051789
    BUY_CR03_3 CBAL_CR03_3 1.0
    CINV_CR03_3 OBJ -0.3
    CINV_CR03_3 CBAL_CR03_3 -1.0
    CDU_CR03_3 CBAL_CR03_3 -1.0
    CDU_CR03_3 CDUCAP_3 1.0
    CDU_CR03_3 YLPG_CR03_3 -0.01400858068810675
    CDU_CR03_3 YNAP_CR03_3 -0.1424923117986131
    CDU_CR03_3 YKER_CR03_3 -0.10784088582669263
    CDU_CR03_3 YDSL_CR03_3 -0.19279120630762445
    CDU_CR03_3 YVGO_CR03_3 -0.28544626211923063
    CDU_CR03_3 YRES_CR03_3 -0.2574207532597324
    BUY_CR04_3 OBJ -74.77608613033175
    BUY_CR04_3 CBAL_CR04_3 1.0
    CINV_CR04_3 OBJ -0.3
    CINV_CR04_3 CBAL_CR04_3 -1.0
    CDU_CR04_3 CBAL_CR04_3 -1.0
    CDU_CR04_3 CDUCAP_3 1.0
    CDU_CR04_3 YLPG_CR04_3 -0.02335213093765316
    CDU_CR04_3 YNAP_CR04_3 -0.2292355396921612
    CDU_CR04_3 YKER_CR04_3 -0.14240695851543803
    CDU_CR04_3 YDSL_CR04_3 -0.24384363627499198
    CDU_CR04_3 YVGO_CR04_3 -0.2465326974706559
    CDU_CR04_3 YRES_CR04_3 -0.1146290371090997
    BUY_CR05_3 OBJ -67.8081520087583
    BUY_CR05_3 CBAL_CR05_3 1.0
    CINV_CR05_3 OBJ -0.3
    CINV_CR05_3 CBAL_CR05_3 -1.0
    CDU_CR05_3 CBAL_CR05_3 -1.0
    CDU_CR05_3 CDUCAP_3 1.0
    CDU_CR05_3 YLPG_CR05_3 -0.01735729802728813
    CDU_CR05_3 YNAP_CR05_3 -0.16608619710065003
    CDU_CR05_3 YKER_CR05_3 -0.1170544437563835
    CDU_CR05_3 YDSL_CR05_3 -0.22299235889970878
    CDU_CR05_3 YVGO_CR05_3 -0.2433490540516293
    CDU_CR05_3 YRES_CR05_3 -0.23316064816434035
    LPG_CR00_3 YLPG_CR00_3 1.0
    LPG_CR00_3 LPGBAL_3 -1.0
    NAP_CR00_3 YNAP_CR00_3 1.0
    NAP_CR00_3 NAPBAL_CR00_3 1.0
    KER_CR00_3 YKER_CR00_3 1.0
    KER_CR00_3 KERBAL_CR00_3 1.0
    DSL_CR00_3 YDSL_CR00_3 1.0
    DSL_CR00_3 DSLBAL_CR00_3 1.0
    VGO_CR00_3 YVGO_CR00_3 1.0
    VGO_CR00_3 VGOBAL_CR00_3 1.0
    RES_CR00_3 YRES_CR00_3 1.0
    RES_CR00_3 RESSPLIT_CR00_3 1.0
    LPG_CR01_3 YLPG_CR01_3 1.0
    LPG_CR01_3 LPGBAL_3 -1.0
    NAP_CR01_3 YNAP_CR01_3 1.0
    NAP_CR01_3 NAPBAL_CR01_3 1.0
    KER_CR01_3 YKER_CR01_3 1.0
    KER_CR01_3 KERBAL_CR01_3 1.0
    DSL_CR01_3 YDSL_CR01_3 1.0
    DSL_CR01_3 DSLBAL_CR01_3 1.0
    VGO_CR01_3 YVGO_CR01_3 1.0
    VGO_CR01_3 VGOBAL_CR01_3 1.0
    RES_CR01_3 YRES_CR01_3 1.0
    RES_CR01_3 RESSPLIT_CR01_3 1.0
    LPG_CR02_3 YLPG_CR02_3 1.0
    LPG_CR02_3 LPGBAL_3 -1.0
    NAP_CR02_3 YNAP_CR02_3 1.0
    NAP_CR02_3 NAPBAL_CR02_3 1.0
    KER_CR02_3 YKER_CR02_3 1.0
    KER_CR02_3 KERBAL_CR02_3 1.0
    DSL_CR02_3 YDSL_CR02_3 1.0
    DSL_CR02_3 DSLBAL_CR02_3 1.0
    VGO_CR02_3 YVGO_CR02_3 1.0
    VGO_CR02_3 VGOBAL_CR02_3 1.0
    RES_CR02_3 YRES_CR02_3 1.0
    RES_CR02_3 RESSPLIT_CR02_3 1.0
    LPG_CR03_3 YLPG_CR03_3 1.0
    LPG_CR03_3 LPGBAL_3 -1.0
    NAP_CR03_3 YNAP_CR03_3 1.0
    NAP_CR03_3 NAPBAL_CR03_3 1.0
    KER_CR03_3 YKER_CR03_3 1.0
    KER_CR03_3 KERBAL_CR03_3 1.0
    DSL_CR03_3 YDSL_CR03_3 1.0
    DSL_CR03_3 DSLBAL_CR03_3 1.0
    VGO_CR03_3 YVGO_CR03_3 1.0
    VGO_CR03_3 VGOBAL_CR03_3 1.0
    RES_CR03_3 YRES_CR03_3 1.0
    RES_CR03_3 RESSPLIT_CR03_3 1.0
    LPG_CR04_3 YLPG_CR04_3 1.0
    LPG_CR04_3 LPGBAL_3 -1.0
    NAP_CR04_3 YNAP_CR04_3 1.0
    NAP_CR04_3 NAPBAL_CR04_3 1.0
    KER_CR04_3 YKER_CR04_3 1.0
    KER_CR04_3 KERBAL_CR04_3 1.0
    DSL_CR04_3 YDSL_CR04_3 1.0
    DSL_CR04_3 DSLBAL_CR04_3 1.0
    VGO_CR04_3 YVGO_CR04_3 1.0
    VGO_CR04_3 VGOBAL_CR04_3 1.0
    RES_CR04_3 YRES_CR04_3 1.0
    RES_CR04_3 RESSPLIT_CR04_3 1.0
    LPG_CR05_3 YLPG_CR05_3 1.0
    LPG_CR05_3 LPGBAL_3 -1.0
    NAP_CR05_3 YNAP_CR05_3 1.0
    NAP_CR05_3 NAPBAL_CR05_3 1.0
    KER_CR05_3 YKER_CR05_3 1.0
    KER_CR05_3 KERBAL_CR05_3 1.0
    DSL_CR05_3 YDSL_CR05_3 1.0
    DSL_CR05_3 DSLBAL_CR05_3 1.0
    VGO_CR05_3 YVGO_CR05_3 1.0
    VGO_CR05_3 VGOBAL_CR05_3 1.0
    RES_CR05_3 YRES_CR05_3 1.0
    RES_CR05_3 RESSPLIT_CR05_3 1.0
    VDUIN_CR00_3 RESSPLIT_CR00_3 -1.0
    VDUIN_CR00_3 VDUY1_CR00_3 -0.45
    VDUIN_CR00_3 VDUY2_CR00_3 -0.55
    VDUIN_CR00_3 VDUCAP_3 1.0
    RESFO_CR00_3 RESSPLIT_CR00_3 -1.0
    RESFO_CR00_3 FOBAL_3 -1.0
    RESFO_CR00_3 FOSUL_3 1.9540891690108433
    VGO2_CR00_3 VDUY1_CR00_3 1.0
    VGO2_CR00_3 VGOBAL_CR00_3 1.0
    VR_CR00_3 VDUY2_CR00_3 1.0
    VR_CR00_3 FOBAL_3 -1.0
    VR_CR00_3 FOSUL_3 3.5903159197140964
    VDUIN_CR01_3 RESSPLIT_CR01_3 -1.0
    VDUIN_CR01_3 VDUY1_CR01_3 -0.45
    VDUIN_CR01_3 VDUY2_CR01_3 -0.55
    VDUIN_CR01_3 VDUCAP_3 1.0
    RESFO_CR01_3 RESSPLIT_CR01_3 -1.0
    RESFO_CR01_3 FOBAL_3 -1.0
    RESFO_CR01_3 FOSUL_3 -0.6168441789886687
    VGO2_CR01_3 VDUY1_CR01_3 1.0
    VGO2_CR01_3 VGOBAL_CR01_3 1.0
    VR_CR01_3 VDUY2_CR01_3 1.0
    VR_CR01_3 FOBAL_3 -1.0
    VR_CR01_3 FOSUL_3 0.24810256731473057
    VDUIN_CR02_3 RESSPLIT_CR02_3 -1.0
    VDUIN_CR02_3 VDUY1_CR02_3 -0.45
    VDUIN_CR02_3 VDUY2_CR02_3 -0.55
    VDUIN_CR02_3 VDUCAP_3 1.0
    RESFO_CR02_3 RESSPLIT_CR02_3 -1.0
    RESFO_CR02_3 FOBAL_3 -1.0
    RESFO_CR02_3 FOSUL_3 0.05675733131967897
    VGO2_CR02_3 VDUY1_CR02_3 1.0
    VGO2_CR02_3 VGOBAL_CR02_3 1.0
    VR_CR02_3 VDUY2_CR02_3 1.0
    VR_CR02_3 FOBAL_3 -1.0
    VR_CR02_3 FOSUL_3 1.1237845307155832
    VDUIN_CR03_3 RESSPLIT_CR03_3 -1.0
    VDUIN_CR03_3 VDUY1_CR03_3 -0.45
    VDUIN_CR03_3 VDUY2_CR03_3 -0.55
    VDUIN_CR03_3 VDUCAP_3 1.0
    RESFO_CR03_3 RESSPLIT_CR03_3 -1.0
    RESFO_CR03_3 FOBAL_3 -1.0
    RESFO_CR03_3 FOSUL_3 -1.8686274424458973
    VGO2_CR03_3 VDUY1_CR03_3 1.0
    VGO2_CR03_3 VGOBAL_CR03_3 1.0
    VR_CR03_3 VDUY2_CR03_3 1.0
    VR_CR03_3 FOBAL_3 -1.0
    VR_CR03_3 FOSUL_3 -1.3792156751796663
    VDUIN_CR04_3 RESSPLIT_CR04_3 -1.0
    VDUIN_CR04_3 VDUY1_CR04_3 -0.45
    VDUIN_CR04_3 VDUY2_CR04_3 -0.55
    VDUIN_CR04_3 VDUCAP_3 1.0
    RESFO_CR04_3 RESSPLIT_CR04_3 -1.0
    RESFO_CR04_3 FOBAL_3 -1.0
    RESFO_CR04_3 FOSUL_3 2.031668478530798
    VGO2_CR04_3 VDUY1_CR04_3 1.0
    VGO2_CR04_3 VGOBAL_CR04_3 1.0
    VR_CR04_3 VDUY2_CR04_3 1.0
    VR_CR04_3 FOBAL_3 -1.0
    VR_CR04_3 FOSUL_3 3.6911690220900377
    VDUIN_CR05_3 RESSPLIT_CR05_3 -1.0
    VDUIN_CR05_3 VDUY1_CR05_3 -0.45
    VDUIN_CR05_3 VDUY2_CR05_3 -0.55
    VDUIN_CR05_3 VDUCAP_3 1.0
    RESFO_CR05_3 RESSPLIT_CR05_3 -1.0
    RESFO_CR05_3 FOBAL_3 -1.0
    RESFO_CR05_3 FOSUL_3 0.3429997580900688
    VGO2_CR05_3 VDUY1_CR05_3 1.0
    VGO2_CR05_3 VGOBAL_CR05_3 1.0
    VR_CR05_3 VDUY2_CR05_3 1.0
    VR_CR05_3 FOBAL_3 -1.0
    VR_CR05_3 FOSUL_3 1.4958996855170898
    FCCIN_CR00_3 OBJ -2.5
    FCCIN_CR00_3 VGOBAL_CR00_3 -1.0
    FCCIN_CR00_3 FCCCAP_3 1.0
    FCCIN_CR00_3 FCCY_FCCG_3 -0.55
    FCCIN_CR00_3 FCCY_LCO_3 -0.2
    FCCIN_CR00_3 FCCY_FLPG_3 -0.15
    FCCIN_CR00_3 FCCY_SLURRY_3 -0.07
    FCCIN_CR01_3 OBJ -2.5
    FCCIN_CR01_3 VGOBAL_CR01_3 -1.0
    FCCIN_CR01_3 FCCCAP_3 1.0
    FCCIN_CR01_3 FCCY_FCCG_3 -0.55
    FCCIN_CR01_3 FCCY_LCO_3 -0.2
    FCCIN_CR01_3 FCCY_FLPG_3 -0.15
    FCCIN_CR01_3 FCCY_SLURRY_3 -0.07
    FCCIN_CR02_3 OBJ -2.5
    FCCIN_CR02_3 VGOBAL_CR02_3 -1.0
    FCCIN_CR02_3 FCCCAP_3 1.0
    FCCIN_CR02_3 FCCY_FCCG_3 -0.55
    FCCIN_CR02_3 FCCY_LCO_3 -0.2
    FCCIN_CR02_3 FCCY_FLPG_3 -0.15
    FCCIN_CR02_3 FCCY_SLURRY_3 -0.07
    FCCIN_CR03_3 OBJ -2.5
    FCCIN_CR03_3 VGOBAL_CR03_3 -1.0
    FCCIN_CR03_3 FCCCAP_3 1.0
    FCCIN_CR03_3 FCCY_FCCG_3 -0.55
    FCCIN_CR03_3 FCCY_LCO_3 -0.2
    FCCIN_CR03_3 FCCY_FLPG_3 -0.15
    FCCIN_CR03_3 FCCY_SLURRY_3 -0.07
    FCCIN_CR04_3 OBJ -2.5
    FCCIN_CR04_3 VGOBAL_CR04_3 -1.0
    FCCIN_CR04_3 FCCCAP_3 1.0
    FCCIN_CR04_3 FCCY_FCCG_3 -0.55
    FCCIN_CR04_3 FCCY_LCO_3 -0.2
    FCCIN_CR04_3 FCCY_FLPG_3 -0.15
    FCCIN_CR04_3 FCCY_SLURRY_3 -0.07
    FCCIN_CR05_3 OBJ -2.5
    FCCIN_CR05_3 VGOBAL_CR05_3 -1.0
    FCCIN_CR05_3 FCCCAP_3 1.0
    FCCIN_CR05_3 FCCY_FCCG_3 -0.55
    FCCIN_CR05_3 FCCY_LCO_3 -0.2
    FCCIN_CR05_3 FCCY_FLPG_3 -0.15
    FCCIN_CR05_3 FCCY_SLURRY_3 -0.07
    FCCG_3 FCCY_FCCG_3 1.0
    FCCG_3 GASBAL_3 -1.0
    FCCG_3 GASRON_3 1.0
    LCO_3 FCCY_LCO_3 1.0
    LCO_3 LCOBAL_3 1.0
    FLPG_3 FCCY_FLPG_3 1.0
    FLPG_3 LPGBAL_3 -1.0
    SLURRY_3 FCCY_SLURRY_3 1.0
    SLURRY_3 FOBAL_3 -1.0
    SLURRY_3 FOSUL_3 -1.5
    REFIN_CR00_3 OBJ -3.0
    REFIN_CR00_3 NAPBAL_CR00_3 -1.0
    REFIN_CR00_3 REFCAP_3 1.0
    REFIN_CR00_3 REFY_3 -0.85
    NAPGAS_CR00_3 NAPBAL_CR00_3 -1.0
    NAPGAS_CR00_3 GASBAL_3 -1.0
    NAPGAS_CR00_3 GASRON_3 -41.351908455631545
    REFIN_CR01_3 OBJ -3.0
    REFIN_CR01_3 NAPBAL_CR01_3 -1.0
    REFIN_CR01_3 REFCAP_3 1.0
    REFIN_CR01_3 REFY_3 -0.85
    NAPGAS_CR01_3 NAPBAL_CR01_3 -1.0
    NAPGAS_CR01_3 GASBAL_3 -1.0
    NAPGAS_CR01_3 GASRON_3 -33.623043958680114
    REFIN_CR02_3 OBJ -3.0
    REFIN_CR02_3 NAPBAL_CR02_3 -1.0
    REFIN_CR02_3 REFCAP_3 1.0
    REFIN_CR02_3 REFY_3 -0.85
    NAPGAS_CR02_3 NAPBAL_CR02_3 -1.0
    NAPGAS_CR02_3 GASBAL_3 -1.0
    NAPGAS_CR02_3 GASRON_3 -39.74522208078083
    REFIN_CR03_3 OBJ -3.0
    REFIN_CR03_3 NAPBAL_CR03_3 -1.0
    REFIN_CR03_3 REFCAP_3 1.0
    REFIN_CR03_3 REFY_3 -0.85
    NAPGAS_CR03_3 NAPBAL_CR03_3 -1.0
    NAPGAS_CR03_3 GASBAL_3 -1.0
    NAPGAS_CR03_3 GASRON_3 -39.32063345179839
    REFIN_CR04_3 OBJ -3.0
    REFIN_CR04_3 NAPBAL_CR04_3 -1.0
    REFIN_CR04_3 REFCAP_3 1.0
    REFIN_CR04_3 REFY_3 -0.85
    NAPGAS_CR04_3 NAPBAL_CR04_3 -1.0
    NAPGAS_CR04_3 GASBAL_3 -1.0
    NAPGAS_CR04_3 GASRON_3 -28.06018906757886
    REFIN_CR05_3 OBJ -3.0
    REFIN_CR05_3 NAPBAL_CR05_3 -1.0
    REFIN_CR05_3 REFCAP_3 1.0
    REFIN_CR05_3 REFY_3 -0.85
    NAPGAS_CR05_3 NAPBAL_CR05_3 -1.0
    NAPGAS_CR05_3 GASBAL_3 -1.0
    NAPGAS_CR05_3 GASRON_3 -37.177062383933254
    REFORMATE_3 REFY_3 1.0
    REFORMATE_3 GASBAL_3 -1.0
    REFORMATE_3 GASRON_3 7.0
    DHTIN_CR00_3 OBJ -2.0
    DHTIN_CR00_3 DSLBAL_CR00_3 -1.0
    DHTIN_CR00_3 DHTCAP_3 1.0
    DHTIN_CR00_3 DHTY_3 -0.98
    DSLDIR_CR00_3 DSLBAL_CR00_3 -1.0
    DSLDIR_CR00_3 DSLPB_3 -1.0
    DSLDIR_CR00_3 DSLSUL_3 1.5862267507032528
    DHTIN_CR01_3 OBJ -2.0
    DHTIN_CR01_3 DSLBAL_CR01_3 -1.0
    DHTIN_CR01_3 DHTCAP_3 1.0
    DHTIN_CR01_3 DHTY_3 -0.98
    DSLDIR_CR01_3 DSLBAL_CR01_3 -1.0
    DSLDIR_CR01_3 DSLPB_3 -1.0
    DSLDIR_CR01_3 DSLSUL_3 0.8149467463033994
    DHTIN_CR02_3 OBJ -2.0
    DHTIN_CR02_3 DSLBAL_CR02_3 -1.0
    DHTIN_CR02_3 DHTCAP_3 1.0
    DHTIN_CR02_3 DHTY_3 -0.98
    DSLDIR_CR02_3 DSLBAL_CR02_3 -1.0
    DSLDIR_CR02_3 DSLPB_3 -1.0
    DSLDIR_CR02_3 DSLSUL_3 1.0170271993959037
    DHTIN_CR03_3 OBJ -2.0
    DHTIN_CR03_3 DSLBAL_CR03_3 -1.0
    DHTIN_CR03_3 DHTCAP_3 1.0
    DHTIN_CR03_3 DHTY_3 -0.98
    DSLDIR_CR03_3 DSLBAL_CR03_3 -1.0
    DSLDIR_CR03_3 DSLPB_3 -1.0
    DSLDIR_CR03_3 DSLSUL_3 0.4394117672662308
    DHTIN_CR04_3 OBJ -2.0
    DHTIN_CR04_3 DSLBAL_CR04_3 -1.0
    DHTIN_CR04_3 DHTCAP_3 1.0
    DHTIN_CR04_3 DHTY_3 -0.98
    DSLDIR_CR04_3 DSLBAL_CR04_3 -1.0
    DSLDIR_CR04_3 DSLPB_3 -1.0
    DSLDIR_CR04_3 DSLSUL_3 1.6095005435592393
    DHTIN_CR05_3 OBJ -2.0
    DHTIN_CR05_3 DSLBAL_CR05_3 -1.0
    DHTIN_CR05_3 DHTCAP_3 1.0
    DHTIN_CR05_3 DHTY_3 -0.98
    DSLDIR_CR05_3 DSLBAL_CR05_3 -1.0
    DSLDIR_CR05_3 DSLPB_3 -1.0
    DSLDIR_CR05_3 DSLSUL_3 1.1028999274270206
    LCODHT_3 LCOBAL_3 -1.0
    LCODHT_3 DHTCAP_3 1.0
    LCODHT_3 DHTY_3 -0.95
    LCOFO_3 LCOBAL_3 -1.0
    LCOFO_3 FOBAL_3 -1.0
    LCOFO_3 FOSUL_3 -2.5
    ULSD_3 DHTY_3 1.0
    ULSD_3 DSLPB_3 -1.0
    ULSD_3 DSLSUL_3 -0.049
    SELL_LPG_3 OBJ 49.5
    SELL_LPG_3 PBAL_LPG_3 -1.0
    SELL_LPG_3 DMAX_LPG_3 1.0
    SELL_LPG_3 DMIN_LPG_3 1.0
    SELL_GAS_3 OBJ 94.5
    SELL_GAS_3 PBAL_GAS_3 -1.0
    SELL_GAS_3 DMAX_GAS_3 1.0
    SELL_GAS_3 DMIN_GAS_3 1.0
    SELL_JET_3 OBJ 90.0
    SELL_JET_3 PBAL_JET_3 -1.0
    SELL_JET_3 DMAX_JET_3 1.0
    SELL_JET_3 DMIN_JET_3 1.0
    SELL_DSL_3 OBJ 88.2
    SELL_DSL_3 PBAL_DSL_3 -1.0
    SELL_DSL_3 DMAX_DSL_3 1.0
    SELL_DSL_3 DMIN_DSL_3 1.0
    SELL_FO_3 OBJ 54.0
    SELL_FO_3 PBAL_FO_3 -1.0
    SELL_FO_3 DMAX_FO_3 1.0
    SELL_FO_3 DMIN_FO_3 1.0
    PINV_LPG_3 OBJ -0.5
    PINV_LPG_3 PBAL_LPG_3 -1.0
    PINV_GAS_3 OBJ -0.5
    PINV_GAS_3 PBAL_GAS_3 -1.0
    PINV_JET_3 OBJ -0.5
    PINV_JET_3 PBAL_JET_3 -1.0
    PINV_DSL_3 OBJ -0.5
    PINV_DSL_3 PBAL_DSL_3 -1.0
    PINV_FO_3 OBJ -0.5
    PINV_FO_3 PBAL_FO_3 -1.0
    SHORT_LPG_3 OBJ -400.0
    SHORT_LPG_3 DMIN_LPG_3 1.0
    SHORT_GAS_3 OBJ -400.0
    SHORT_GAS_3 DMIN_GAS_3 1.0
    SHORT_JET_3 OBJ -400.0
    SHORT_JET_3 DMIN_JET_3 1.0
    SHORT_DSL_3 OBJ -400.0
    SHORT_DSL_3 DMIN_DSL_3 1.0
    SHORT_FO_3 OBJ -400.0
    SHORT_FO_3 DMIN_FO_3 1.0
    GASPOOL_3 GASBAL_3 1.0
    GASPOOL_3 PBAL_GAS_3 1.0
    JETPOOL_3 JETBAL_3 1.0
    JETPOOL_3 PBAL_JET_3 1.0
    KERJET_CR00_3 KERBAL_CR00_3 -1.0
    KERJET_CR00_3 JETBAL_3 -1.0
    KERJET_CR00_3 JETSUL_3 0.10905668767581322
    KERDSL_CR00_3 KERBAL_CR00_3 -1.0
    KERDSL_CR00_3 DSLPB_3 -1.0
    KERDSL_CR00_3 DSLSUL_3 0.3590566876758132
    KERJET_CR01_3 KERBAL_CR01_3 -1.0
    KERJET_CR01_3 JETBAL_3 -1.0
    KERJET_CR01_3 JETSUL_3 -0.08376331342415014
    KERDSL_CR01_3 KERBAL_CR01_3 -1.0
    KERDSL_CR01_3 DSLPB_3 -1.0
    KERDSL_CR01_3 DSLSUL_3 0.16623668657584983
    KERJET_CR02_3 KERBAL_CR02_3 -1.0
    KERJET_CR02_3 JETBAL_3 -1.0
    KERJET_CR02_3 JETSUL_3 -0.033243200151024055
    KERDSL_CR02_3 KERBAL_CR02_3 -1.0
    KERDSL_CR02_3 DSLPB_3 -1.0
    KERDSL_CR02_3 DSLSUL_3 0.21675679984897595
    KERJET_CR03_3 KERBAL_CR03_3 -1.0
    KERJET_CR03_3 JETBAL_3 -1.0
    KERJET_CR03_3 JETSUL_3 -0.17764705818344229
    KERDSL_CR03_3 KERBAL_CR03_3 -1.0
    KERDSL_CR03_3 DSLPB_3 -1.0
    KERDSL_CR03_3 DSLSUL_3 0.0723529418165577
    KERJET_CR04_3 KERBAL_CR04_3 -1.0
    KERJET_CR04_3 JETBAL_3 -1.0
    KERJET_CR04_3 JETSUL_3 0.11487513588980985
    KERDSL_CR04_3 KERBAL_CR04_3 -1.0
    KERDSL_CR04_3 DSLPB_3 -1.0
    KERDSL_CR04_3 DSLSUL_3 0.36487513588980985
    KERJET_CR05_3 KERBAL_CR05_3 -1.0
    KERJET_CR05_3 JETBAL_3 -1.0
    KERJET_CR05_3 JETSUL_3 -0.011775018143244831
    KERDSL_CR05_3 KERBAL_CR05_3 -1.0
    KERDSL_CR05_3 DSLPB_3 -1.0
    KERDSL_CR05_3 DSLSUL_3 0.23822498185675517
    DSLPOOL_3 DSLPB_3 1.0
    DSLPOOL_3 PBAL_DSL_3 1.0
    LPGPOOL_3 LPGBAL_3 1.0
    LPGPOOL_3 PBAL_LPG_3 1.0
    FOPOOL_3 FOBAL_3 1.0
    FOPOOL_3 PBAL_FO_3 1.0
RHS
    RHS CBAL_CR00_0 -7.5
    RHS CBAL_CR01_0 -7.5
    RHS CBAL_CR02_0 -7.5
    RHS CBAL_CR03_0 -7.5
    RHS CBAL_CR04_0 -7.5
    RHS CBAL_CR05_0 -7.5
    RHS CDUCAP_0 150.0
    RHS VDUCAP_0 37.5
    RHS FCCCAP_0 52.5
    RHS REFCAP_0 30.0
    RHS DHTCAP_0 45.0
    RHS DMAX_LPG_0 7.199999999999999
    RHS DMIN_LPG_0 3.0
    RHS DMAX_GAS_0 54.0
    RHS DMIN_GAS_0 22.5
    RHS DMAX_JET_0 18.0
    RHS DMIN_JET_0 7.5
    RHS DMAX_DSL_0 63.0
    RHS DMIN_DSL_0 26.25
    RHS DMAX_FO_0 36.0
    RHS DMIN_FO_0 15.0
    RHS CDUCAP_1 150.0
    RHS VDUCAP_1 37.5
    RHS FCCCAP_1 52.5
    RHS REFCAP_1 30.0
    RHS DHTCAP_1 45.0
    RHS DMAX_LPG_1 7.92
    RHS DMIN_LPG_1 3.3000000000000003
    RHS DMAX_GAS_1 59.400000000000006
    RHS DMIN_GAS_1 24.750000000000004
    RHS DMAX_JET_1 19.8
    RHS DMIN_JET_1 8.25
    RHS DMAX_DSL_1 69.30000000000001
    RHS DMIN_DSL_1 28.875000000000004
    RHS DMAX_FO_1 39.6
    RHS DMIN_FO_1 16.5
    RHS CDUCAP_2 150.0
    RHS VDUCAP_2 37.5
    RHS FCCCAP_2 52.5
    RHS REFCAP_2 30.0
    RHS DHTCAP_2 45.0
    RHS DMAX_LPG_2 7.199999999999999
    RHS DMIN_LPG_2 3.0
    RHS DMAX_GAS_2 54.0
    RHS DMIN_GAS_2 22.5
    RHS DMAX_JET_2 18.0
    RHS DMIN_JET_2 7.5
    RHS DMAX_DSL_2 63.0
    RHS DMIN_DSL_2 26.25
    RHS DMAX_FO_2 36.0
    RHS DMIN_FO_2 15.0
    RHS CDUCAP_3 150.0
    RHS VDUCAP_3 37.5
    RHS FCCCAP_3 52.5
    RHS REFCAP_3 30.0
    RHS DHTCAP_3 45.0
    RHS DMAX_LPG_3 6.48
    RHS DMIN_LPG_3 2.7
    RHS DMAX_GAS_3 48.6
    RHS DMIN_GAS_3 20.25
    RHS DMAX_JET_3 16.2
    RHS DMIN_JET_3 6.75
    RHS DMAX_DSL_3 56.699999999999996
    RHS DMIN_DSL_3 23.625
    RHS DMAX_FO_3 32.4
    RHS DMIN_FO_3 13.5
BOUNDS
 UP BND BUY_CR00_0 34.177999606585935
 UP BND CINV_CR00_0 75.0
 UP BND BUY_CR01_0 69.95525143943011
 UP BND CINV_CR01_0 75.0
 UP BND BUY_CR02_0 47.792453883860716
 UP BND CINV_CR02_0 75.0
 UP BND BUY_CR03_0 56.81878795687377
 UP BND CINV_CR03_0 75.0
 UP BND BUY_CR04_0 57.663343188887296
 UP BND CINV_CR04_0 75.0
 UP BND BUY_CR05_0 55.55431263120243
 UP BND CINV_CR05_0 75.0
 UP BND PINV_LPG_0 15.0
 UP BND PINV_GAS_0 15.0
 UP BND PINV_JET_0 15.0
 UP BND PINV_DSL_0 15.0
 UP BND PINV_FO_0 15.0
 UP BND BUY_CR00_1 25.4353920990656
 UP BND CINV_CR00_1 75.0
 UP BND BUY_CR01_1 88.86517091840298
 UP BND CINV_CR01_1 75.0
 UP BND BUY_CR02_1 49.06797883050918
 UP BND CINV_CR02_1 75.0
 UP BND BUY_CR03_1 56.4011026942601
 UP BND CINV_CR03_1 75.0
 UP BND BUY_CR04_1 74.51031193857904
 UP BND CINV_CR04_1 75.0
 UP BND BUY_CR05_1 80.5695600771371
 UP BND CINV_CR05_1 75.0
 UP BND PINV_LPG_1 15.0
 UP BND PINV_GAS_1 15.0
 UP BND PINV_JET_1 15.0
 UP BND PINV_DSL_1 15.0
 UP BND PINV_FO_1 15.0
 UP BND BUY_CR00_2 57.17958726516549
 UP BND CINV_CR00_2 75.0
 UP BND BUY_CR01_2 61.501149526581194
 UP BND CINV_CR01_2 75.0
 UP BND BUY_CR02_2 40.67636472729593
 UP BND CINV_CR02_2 75.0
 UP BND BUY_CR03_2 87.10534899856532
 UP BND CINV_CR03_2 75.0
 UP BND BUY_CR04_2 75.39672820153882
 UP BND CINV_CR04_2 75.0
 UP BND BUY_CR05_2 82.31712170575555
 UP BND CINV_CR05_2 75.0
 UP BND PINV_LPG_2 15.0
 UP BND PINV_GAS_2 15.0
 UP BND PINV_JET_2 15.0
 UP BND PINV_DSL_2 15.0
 UP BND PINV_FO_2 15.0
 UP BND BUY_CR00_3 77.11694330889237
 UP BND CINV_CR00_3 75.0
 UP BND BUY_CR01_3 60.391655872540575
 UP BND CINV_CR01_3 75.0
 UP BND BUY_CR02_3 26.288322582649975
 UP BND CINV_CR02_3 75.0
 UP BND BUY_CR03_3 60.974955036655665
 UP BND CINV_CR03_3 75.0
 UP BND BUY_CR04_3 56.56863155144827
 UP BND CINV_CR04_3 75.0
 UP BND BUY_CR05_3 46.583322606784506
 UP BND CINV_CR05_3 75.0
 UP BND PINV_LPG_3 15.0
 UP BND PINV_GAS_3 15.0
 UP BND PINV_JET_3 15.0
 UP BND PINV_DSL_3 15.0
 UP BND PINV_FO_3 15.0
ENDATA
