NAME REFPLAN_10x12_MIP
OBJSENSE
    MAX
ROWS
 N  OBJ
 E  PARCEL_CR00_0
 E  CBAL_CR00_0
 E  PARCEL_CR01_0
 E  CBAL_CR01_0
 E  PARCEL_CR02_0
 E  CBAL_CR02_0
 E  PARCEL_CR03_0
 E  CBAL_CR03_0
 E  PARCEL_CR04_0
 E  CBAL_CR04_0
 E  PARCEL_CR05_0
 E  CBAL_CR05_0
 E  PARCEL_CR06_0
 E  CBAL_CR06_0
 E  PARCEL_CR07_0
 E  CBAL_CR07_0
 E  PARCEL_CR08_0
 E  CBAL_CR08_0
 E  PARCEL_CR09_0
 E  CBAL_CR09_0
 L  CDUCAP_0
 G  CDUMIN_0
 E  YLPG_CR00_0
 E  YNAP_CR00_0
 E  YKER_CR00_0
 E  YDSL_CR00_0
 E  YVGO_CR00_0
 E  YRES_CR00_0
 E  YLPG_CR01_0
 E  YNAP_CR01_0
 E  YKER_CR01_0
 E  YDSL_CR01_0
 E  YVGO_CR01_0
 E  YRES_CR01_0
 E  YLPG_CR02_0
 E  YNAP_CR02_0
 E  YKER_CR02_0
 E  YDSL_CR02_0
 E  YVGO_CR02_0
 E  YRES_CR02_0
 E  YLPG_CR03_0
 E  YNAP_CR03_0
 E  YKER_CR03_0
 E  YDSL_CR03_0
 E  YVGO_CR03_0
 E  YRES_CR03_0
 E  YLPG_CR04_0
 E  YNAP_CR04_0
 E  YKER_CR04_0
 E  YDSL_CR04_0
 E  YVGO_CR04_0
 E  YRES_CR04_0
 E  YLPG_CR05_0
 E  YNAP_CR05_0
 E  YKER_CR05_0
 E  YDSL_CR05_0
 E  YVGO_CR05_0
 E  YRES_CR05_0
 E  YLPG_CR06_0
 E  YNAP_CR06_0
 E  YKER_CR06_0
 E  YDSL_CR06_0
 E  YVGO_CR06_0
 E  YRES_CR06_0
 E  YLPG_CR07_0
 E  YNAP_CR07_0
 E  YKER_CR07_0
 E  YDSL_CR07_0
 E  YVGO_CR07_0
 E  YRES_CR07_0
 E  YLPG_CR08_0
 E  YNAP_CR08_0
 E  YKER_CR08_0
 E  YDSL_CR08_0
 E  YVGO_CR08_0
 E  YRES_CR08_0
 E  YLPG_CR09_0
 E  YNAP_CR09_0
 E  YKER_CR09_0
 E  YDSL_CR09_0
 E  YVGO_CR09_0
 E  YRES_CR09_0
 E  RESSPLIT_CR00_0
 E  VDUY1_CR00_0
 E  VDUY2_CR00_0
 E  RESSPLIT_CR01_0
 E  VDUY1_CR01_0
 E  VDUY2_CR01_0
 E  RESSPLIT_CR02_0
 E  VDUY1_CR02_0
 E  VDUY2_CR02_0
 E  RESSPLIT_CR03_0
 E  VDUY1_CR03_0
 E  VDUY2_CR03_0
 E  RESSPLIT_CR04_0
 E  VDUY1_CR04_0
 E  VDUY2_CR04_0
 E  RESSPLIT_CR05_0
 E  VDUY1_CR05_0
 E  VDUY2_CR05_0
 E  RESSPLIT_CR06_0
 E  VDUY1_CR06_0
 E  VDUY2_CR06_0
 E  RESSPLIT_CR07_0
 E  VDUY1_CR07_0
 E  VDUY2_CR07_0
 E  RESSPLIT_CR08_0
 E  VDUY1_CR08_0
 E  VDUY2_CR08_0
 E  RESSPLIT_CR09_0
 E  VDUY1_CR09_0
 E  VDUY2_CR09_0
 L  VDUCAP_0
 E  VGOBAL_CR00_0
 E  VGOBAL_CR01_0
 E  VGOBAL_CR02_0
 E  VGOBAL_CR03_0
 E  VGOBAL_CR04_0
 E  VGOBAL_CR05_0
 E  VGOBAL_CR06_0
 E  VGOBAL_CR07_0
 E  VGOBAL_CR08_0
 E  VGOBAL_CR09_0
 L  FCCCAP_0
 E  FCCY_FCCG_0
 E  FCCY_LCO_0
 E  FCCY_FLPG_0
 E  FCCY_SLURRY_0
 E  NAPBAL_CR00_0
 E  NAPBAL_CR01_0
 E  NAPBAL_CR02_0
 E  NAPBAL_CR03_0
 E  NAPBAL_CR04_0
 E  NAPBAL_CR05_0
 E  NAPBAL_CR06_0
 E  NAPBAL_CR07_0
 E  NAPBAL_CR08_0
 E  NAPBAL_CR09_0
 L  REFCAP_0
 E  REFY_0
 E  DSLBAL_CR00_0
 E  DSLBAL_CR01_0
 E  DSLBAL_CR02_0
 E  DSLBAL_CR03_0
 E  DSLBAL_CR04_0
 E  DSLBAL_CR05_0
 E  DSLBAL_CR06_0
 E  DSLBAL_CR07_0
 E  DSLBAL_CR08_0
 E  DSLBAL_CR09_0
 E  LCOBAL_0
 L  DHTCAP_0
 E  DHTY_0
 E  GASBAL_0
 G  GASRON_0
 E  KERBAL_CR00_0
 E  KERBAL_CR01_0
 E  KERBAL_CR02_0
 E  KERBAL_CR03_0
 E  KERBAL_CR04_0
 E  KERBAL_CR05_0
 E  KERBAL_CR06_0
 E  KERBAL_CR07_0
 E  KERBAL_CR08_0
 E  KERBAL_CR09_0
 E  JETBAL_0
 L  JETSUL_0
 E  DSLPB_0
 L  DSLSUL_0
 E  LPGBAL_0
 E  FOBAL_0
 L  FOSUL_0
 E  PBAL_LPG_0
 L  DMAX_LPG_0
 G  DMIN_LPG_0
 E  PBAL_GAS_0
 L  DMAX_GAS_0
 G  DMIN_GAS_0
 E  PBAL_JET_0
 L  DMAX_JET_0
 G  DMIN_JET_0
 E  PBAL_DSL_0
 L  DMAX_DSL_0
 G  DMIN_DSL_0
 E  PBAL_FO_0
 L  DMAX_FO_0
 G  DMIN_FO_0
 E  PARCEL_CR00_1
 E  CBAL_CR00_1
 E  PARCEL_CR01_1
 E  CBAL_CR01_1
 E  PARCEL_CR02_1
 E  CBAL_CR02_1
 E  PARCEL_CR03_1
 E  CBAL_CR03_1
 E  PARCEL_CR04_1
 E  CBAL_CR04_1
 E  PARCEL_CR05_1
 E  CBAL_CR05_1
 E  PARCEL_CR06_1
 E  CBAL_CR06_1
 E  PARCEL_CR07_1
 E  CBAL_CR07_1
 E  PARCEL_CR08_1
 E  CBAL_CR08_1
 E  PARCEL_CR09_1
 E  CBAL_CR09_1
 L  CDUCAP_1
 G  CDUMIN_1
 E  YLPG_CR00_1
 E  YNAP_CR00_1
 E  YKER_CR00_1
 E  YDSL_CR00_1
 E  YVGO_CR00_1
 E  YRES_CR00_1
 E  YLPG_CR01_1
 E  YNAP_CR01_1
 E  YKER_CR01_1
 E  YDSL_CR01_1
 E  YVGO_CR01_1
 E  YRES_CR01_1
 E  YLPG_CR02_1
 E  YNAP_CR02_1
 E  YKER_CR02_1
 E  YDSL_CR02_1
 E  YVGO_CR02_1
 E  YRES_CR02_1
 E  YLPG_CR03_1
 E  YNAP_CR03_1
 E  YKER_CR03_1
 E  YDSL_CR03_1
 E  YVGO_CR03_1
 E  YRES_CR03_1
 E  YLPG_CR04_1
 E  YNAP_CR04_1
 E  YKER_CR04_1
 E  YDSL_CR04_1
 E  YVGO_CR04_1
 E  YRES_CR04_1
 E  YLPG_CR05_1
 E  YNAP_CR05_1
 E  YKER_CR05_1
 E  YDSL_CR05_1
 E  YVGO_CR05_1
 E  YRES_CR05_1
 E  YLPG_CR06_1
 E  YNAP_CR06_1
 E  YKER_CR06_1
 E  YDSL_CR06_1
 E  YVGO_CR06_1
 E  YRES_CR06_1
 E  YLPG_CR07_1
 E  YNAP_CR07_1
 E  YKER_CR07_1
 E  YDSL_CR07_1
 E  YVGO_CR07_1
 E  YRES_CR07_1
 E  YLPG_CR08_1
 E  YNAP_CR08_1
 E  YKER_CR08_1
 E  YDSL_CR08_1
 E  YVGO_CR08_1
 E  YRES_CR08_1
 E  YLPG_CR09_1
 E  YNAP_CR09_1
 E  YKER_CR09_1
 E  YDSL_CR09_1
 E  YVGO_CR09_1
 E  YRES_CR09_1
 E  RESSPLIT_CR00_1
 E  VDUY1_CR00_1
 E  VDUY2_CR00_1
 E  RESSPLIT_CR01_1
 E  VDUY1_CR01_1
 E  VDUY2_CR01_1
 E  RESSPLIT_CR02_1
 E  VDUY1_CR02_1
 E  VDUY2_CR02_1
 E  RESSPLIT_CR03_1
 E  VDUY1_CR03_1
 E  VDUY2_CR03_1
 E  RESSPLIT_CR04_1
 E  VDUY1_CR04_1
 E  VDUY2_CR04_1
 E  RESSPLIT_CR05_1
 E  VDUY1_CR05_1
 E  VDUY2_CR05_1
 E  RESSPLIT_CR06_1
 E  VDUY1_CR06_1
 E  VDUY2_CR06_1
 E  RESSPLIT_CR07_1
 E  VDUY1_CR07_1
 E  VDUY2_CR07_1
 E  RESSPLIT_CR08_1
 E  VDUY1_CR08_1
 E  VDUY2_CR08_1
 E  RESSPLIT_CR09_1
 E  VDUY1_CR09_1
 E  VDUY2_CR09_1
 L  VDUCAP_1
 E  VGOBAL_CR00_1
 E  VGOBAL_CR01_1
 E  VGOBAL_CR02_1
 E  VGOBAL_CR03_1
 E  VGOBAL_CR04_1
 E  VGOBAL_CR05_1
 E  VGOBAL_CR06_1
 E  VGOBAL_CR07_1
 E  VGOBAL_CR08_1
 E  VGOBAL_CR09_1
 L  FCCCAP_1
 E  FCCY_FCCG_1
 E  FCCY_LCO_1
 E  FCCY_FLPG_1
 E  FCCY_SLURRY_1
 E  NAPBAL_CR00_1
 E  NAPBAL_CR01_1
 E  NAPBAL_CR02_1
 E  NAPBAL_CR03_1
 E  NAPBAL_CR04_1
 E  NAPBAL_CR05_1
 E  NAPBAL_CR06_1
 E  NAPBAL_CR07_1
 E  NAPBAL_CR08_1
 E  NAPBAL_CR09_1
 L  REFCAP_1
 E  REFY_1
 E  DSLBAL_CR00_1
 E  DSLBAL_CR01_1
 E  DSLBAL_CR02_1
 E  DSLBAL_CR03_1
 E  DSLBAL_CR04_1
 E  DSLBAL_CR05_1
 E  DSLBAL_CR06_1
 E  DSLBAL_CR07_1
 E  DSLBAL_CR08_1
 E  DSLBAL_CR09_1
 E  LCOBAL_1
 L  DHTCAP_1
 E  DHTY_1
 E  GASBAL_1
 G  GASRON_1
 E  KERBAL_CR00_1
 E  KERBAL_CR01_1
 E  KERBAL_CR02_1
 E  KERBAL_CR03_1
 E  KERBAL_CR04_1
 E  KERBAL_CR05_1
 E  KERBAL_CR06_1
 E  KERBAL_CR07_1
 E  KERBAL_CR08_1
 E  KERBAL_CR09_1
 E  JETBAL_1
 L  JETSUL_1
 E  DSLPB_1
 L  DSLSUL_1
 E  LPGBAL_1
 E  FOBAL_1
 L  FOSUL_1
 E  PBAL_LPG_1
 L  DMAX_LPG_1
 G  DMIN_LPG_1
 E  PBAL_GAS_1
 L  DMAX_GAS_1
 G  DMIN_GAS_1
 E  PBAL_JET_1
 L  DMAX_JET_1
 G  DMIN_JET_1
 E  PBAL_DSL_1
 L  DMAX_DSL_1
 G  DMIN_DSL_1
 E  PBAL_FO_1
 L  DMAX_FO_1
 G  DMIN_FO_1
 E  PARCEL_CR00_2
 E  CBAL_CR00_2
 E  PARCEL_CR01_2
 E  CBAL_CR01_2
 E  PARCEL_CR02_2
 E  CBAL_CR02_2
 E  PARCEL_CR03_2
 E  CBAL_CR03_2
 E  PARCEL_CR04_2
 E  CBAL_CR04_2
 E  PARCEL_CR05_2
 E  CBAL_CR05_2
 E  PARCEL_CR06_2
 E  CBAL_CR06_2
 E  PARCEL_CR07_2
 E  CBAL_CR07_2
 E  PARCEL_CR08_2
 E  CBAL_CR08_2
 E  PARCEL_CR09_2
 E  CBAL_CR09_2
 L  CDUCAP_2
 G  CDUMIN_2
 E  YLPG_CR00_2
 E  YNAP_CR00_2
 E  YKER_CR00_2
 E  YDSL_CR00_2
 E  YVGO_CR00_2
 E  YRES_CR00_2
 E  YLPG_CR01_2
 E  YNAP_CR01_2
 E  YKER_CR01_2
 E  YDSL_CR01_2
 E  YVGO_CR01_2
 E  YRES_CR01_2
 E  YLPG_CR02_2
 E  YNAP_CR02_2
 E  YKER_CR02_2
 E  YDSL_CR02_2
 E  YVGO_CR02_2
 E  YRES_CR02_2
 E  YLPG_CR03_2
 E  YNAP_CR03_2
 E  YKER_CR03_2
 E  YDSL_CR03_2
 E  YVGO_CR03_2
 E  YRES_CR03_2
 E  YLPG_CR04_2
 E  YNAP_CR04_2
 E  YKER_CR04_2
 E  YDSL_CR04_2
 E  YVGO_CR04_2
 E  YRES_CR04_2
 E  YLPG_CR05_2
 E  YNAP_CR05_2
 E  YKER_CR05_2
 E  YDSL_CR05_2
 E  YVGO_CR05_2
 E  YRES_CR05_2
 E  YLPG_CR06_2
 E  YNAP_CR06_2
 E  YKER_CR06_2
 E  YDSL_CR06_2
 E  YVGO_CR06_2
 E  YRES_CR06_2
 E  YLPG_CR07_2
 E  YNAP_CR07_2
 E  YKER_CR07_2
 E  YDSL_CR07_2
 E  YVGO_CR07_2
 E  YRES_CR07_2
 E  YLPG_CR08_2
 E  YNAP_CR08_2
 E  YKER_CR08_2
 E  YDSL_CR08_2
 E  YVGO_CR08_2
 E  YRES_CR08_2
 E  YLPG_CR09_2
 E  YNAP_CR09_2
 E  YKER_CR09_2
 E  YDSL_CR09_2
 E  YVGO_CR09_2
 E  YRES_CR09_2
 E  RESSPLIT_CR00_2
 E  VDUY1_CR00_2
 E  VDUY2_CR00_2
 E  RESSPLIT_CR01_2
 E  VDUY1_CR01_2
 E  VDUY2_CR01_2
 E  RESSPLIT_CR02_2
 E  VDUY1_CR02_2
 E  VDUY2_CR02_2
 E  RESSPLIT_CR03_2
 E  VDUY1_CR03_2
 E  VDUY2_CR03_2
 E  RESSPLIT_CR04_2
 E  VDUY1_CR04_2
 E  VDUY2_CR04_2
 E  RESSPLIT_CR05_2
 E  VDUY1_CR05_2
 E  VDUY2_CR05_2
 E  RESSPLIT_CR06_2
 E  VDUY1_CR06_2
 E  VDUY2_CR06_2
 E  RESSPLIT_CR07_2
 E  VDUY1_CR07_2
 E  VDUY2_CR07_2
 E  RESSPLIT_CR08_2
 E  VDUY1_CR08_2
 E  VDUY2_CR08_2
 E  RESSPLIT_CR09_2
 E  VDUY1_CR09_2
 E  VDUY2_CR09_2
 L  VDUCAP_2
 E  VGOBAL_CR00_2
 E  VGOBAL_CR01_2
 E  VGOBAL_CR02_2
 E  VGOBAL_CR03_2
 E  VGOBAL_CR04_2
 E  VGOBAL_CR05_2
 E  VGOBAL_CR06_2
 E  VGOBAL_CR07_2
 E  VGOBAL_CR08_2
 E  VGOBAL_CR09_2
 L  FCCCAP_2
 E  FCCY_FCCG_2
 E  FCCY_LCO_2
 E  FCCY_FLPG_2
 E  FCCY_SLURRY_2
 E  NAPBAL_CR00_2
 E  NAPBAL_CR01_2
 E  NAPBAL_CR02_2
 E  NAPBAL_CR03_2
 E  NAPBAL_CR04_2
 E  NAPBAL_CR05_2
 E  NAPBAL_CR06_2
 E  NAPBAL_CR07_2
 E  NAPBAL_CR08_2
 E  NAPBAL_CR09_2
 L  REFCAP_2
 E  REFY_2
 E  DSLBAL_CR00_2
 E  DSLBAL_CR01_2
 E  DSLBAL_CR02_2
 E  DSLBAL_CR03_2
 E  DSLBAL_CR04_2
 E  DSLBAL_CR05_2
 E  DSLBAL_CR06_2
 E  DSLBAL_CR07_2
 E  DSLBAL_CR08_2
 E  DSLBAL_CR09_2
 E  LCOBAL_2
 L  DHTCAP_2
 E  DHTY_2
 E  GASBAL_2
 G  GASRON_2
 E  KERBAL_CR00_2
 E  KERBAL_CR01_2
 E  KERBAL_CR02_2
 E  KERBAL_CR03_2
 E  KERBAL_CR04_2
 E  KERBAL_CR05_2
 E  KERBAL_CR06_2
 E  KERBAL_CR07_2
 E  KERBAL_CR08_2
 E  KERBAL_CR09_2
 E  JETBAL_2
 L  JETSUL_2
 E  DSLPB_2
 L  DSLSUL_2
 E  LPGBAL_2
 E  FOBAL_2
 L  FOSUL_2
 E  PBAL_LPG_2
 L  DMAX_LPG_2
 G  DMIN_LPG_2
 E  PBAL_GAS_2
 L  DMAX_GAS_2
 G  DMIN_GAS_2
 E  PBAL_JET_2
 L  DMAX_JET_2
 G  DMIN_JET_2
 E  PBAL_DSL_2
 L  DMAX_DSL_2
 G  DMIN_DSL_2
 E  PBAL_FO_2
 L  DMAX_FO_2
 G  DMIN_FO_2
 E  PARCEL_CR00_3
 E  CBAL_CR00_3
 E  PARCEL_CR01_3
 E  CBAL_CR01_3
 E  PARCEL_CR02_3
 E  CBAL_CR02_3
 E  PARCEL_CR03_3
 E  CBAL_CR03_3
 E  PARCEL_CR04_3
 E  CBAL_CR04_3
 E  PARCEL_CR05_3
 E  CBAL_CR05_3
 E  PARCEL_CR06_3
 E  CBAL_CR06_3
 E  PARCEL_CR07_3
 E  CBAL_CR07_3
 E  PARCEL_CR08_3
 E  CBAL_CR08_3
 E  PARCEL_CR09_3
 E  CBAL_CR09_3
 L  CDUCAP_3
 G  CDUMIN_3
 E  YLPG_CR00_3
 E  YNAP_CR00_3
 E  YKER_CR00_3
 E  YDSL_CR00_3
 E  YVGO_CR00_3
 E  YRES_CR00_3
 E  YLPG_CR01_3
 E  YNAP_CR01_3
 E  YKER_CR01_3
 E  YDSL_CR01_3
 E  YVGO_CR01_3
 E  YRES_CR01_3
 E  YLPG_CR02_3
 E  YNAP_CR02_3
 E  YKER_CR02_3
 E  YDSL_CR02_3
 E  YVGO_CR02_3
 E  YRES_CR02_3
 E  YLPG_CR03_3
 E  YNAP_CR03_3
 E  YKER_CR03_3
 E  YDSL_CR03_3
 E  YVGO_CR03_3
 E  YRES_CR03_3
 E  YLPG_CR04_3
 E  YNAP_CR04_3
 E  YKER_CR04_3
 E  YDSL_CR04_3
 E  YVGO_CR04_3
 E  YRES_CR04_3
 E  YLPG_CR05_3
 E  YNAP_CR05_3
 E  YKER_CR05_3
 E  YDSL_CR05_3
 E  YVGO_CR05_3
 E  YRES_CR05_3
 E  YLPG_CR06_3
 E  YNAP_CR06_3
 E  YKER_CR06_3
 E  YDSL_CR06_3
 E  YVGO_CR06_3
 E  YRES_CR06_3
 E  YLPG_CR07_3
 E  YNAP_CR07_3
 E  YKER_CR07_3
 E  YDSL_CR07_3
 E  YVGO_CR07_3
 E  YRES_CR07_3
 E  YLPG_CR08_3
 E  YNAP_CR08_3
 E  YKER_CR08_3
 E  YDSL_CR08_3
 E  YVGO_CR08_3
 E  YRES_CR08_3
 E  YLPG_CR09_3
 E  YNAP_CR09_3
 E  YKER_CR09_3
 E  YDSL_CR09_3
 E  YVGO_CR09_3
 E  YRES_CR09_3
 E  RESSPLIT_CR00_3
 E  VDUY1_CR00_3
 E  VDUY2_CR00_3
 E  RESSPLIT_CR01_3
 E  VDUY1_CR01_3
 E  VDUY2_CR01_3
 E  RESSPLIT_CR02_3
 E  VDUY1_CR02_3
 E  VDUY2_CR02_3
 E  RESSPLIT_CR03_3
 E  VDUY1_CR03_3
 E  VDUY2_CR03_3
 E  RESSPLIT_CR04_3
 E  VDUY1_CR04_3
 E  VDUY2_CR04_3
 E  RESSPLIT_CR05_3
 E  VDUY1_CR05_3
 E  VDUY2_CR05_3
 E  RESSPLIT_CR06_3
 E  VDUY1_CR06_3
 E  VDUY2_CR06_3
 E  RESSPLIT_CR07_3
 E  VDUY1_CR07_3
 E  VDUY2_CR07_3
 E  RESSPLIT_CR08_3
 E  VDUY1_CR08_3
 E  VDUY2_CR08_3
 E  RESSPLIT_CR09_3
 E  VDUY1_CR09_3
 E  VDUY2_CR09_3
 L  VDUCAP_3
 E  VGOBAL_CR00_3
 E  VGOBAL_CR01_3
 E  VGOBAL_CR02_3
 E  VGOBAL_CR03_3
 E  VGOBAL_CR04_3
 E  VGOBAL_CR05_3
 E  VGOBAL_CR06_3
 E  VGOBAL_CR07_3
 E  VGOBAL_CR08_3
 E  VGOBAL_CR09_3
 L  FCCCAP_3
 E  FCCY_FCCG_3
 E  FCCY_LCO_3
 E  FCCY_FLPG_3
 E  FCCY_SLURRY_3
 E  NAPBAL_CR00_3
 E  NAPBAL_CR01_3
 E  NAPBAL_CR02_3
 E  NAPBAL_CR03_3
 E  NAPBAL_CR04_3
 E  NAPBAL_CR05_3
 E  NAPBAL_CR06_3
 E  NAPBAL_CR07_3
 E  NAPBAL_CR08_3
 E  NAPBAL_CR09_3
 L  REFCAP_3
 E  REFY_3
 E  DSLBAL_CR00_3
 E  DSLBAL_CR01_3
 E  DSLBAL_CR02_3
 E  DSLBAL_CR03_3
 E  DSLBAL_CR04_3
 E  DSLBAL_CR05_3
 E  DSLBAL_CR06_3
 E  DSLBAL_CR07_3
 E  DSLBAL_CR08_3
 E  DSLBAL_CR09_3
 E  LCOBAL_3
 L  DHTCAP_3
 E  DHTY_3
 E  GASBAL_3
 G  GASRON_3
 E  KERBAL_CR00_3
 E  KERBAL_CR01_3
 E  KERBAL_CR02_3
 E  KERBAL_CR03_3
 E  KERBAL_CR04_3
 E  KERBAL_CR05_3
 E  KERBAL_CR06_3
 E  KERBAL_CR07_3
 E  KERBAL_CR08_3
 E  KERBAL_CR09_3
 E  JETBAL_3
 L  JETSUL_3
 E  DSLPB_3
 L  DSLSUL_3
 E  LPGBAL_3
 E  FOBAL_3
 L  FOSUL_3
 E  PBAL_LPG_3
 L  DMAX_LPG_3
 G  DMIN_LPG_3
 E  PBAL_GAS_3
 L  DMAX_GAS_3
 G  DMIN_GAS_3
 E  PBAL_JET_3
 L  DMAX_JET_3
 G  DMIN_JET_3
 E  PBAL_DSL_3
 L  DMAX_DSL_3
 G  DMIN_DSL_3
 E  PBAL_FO_3
 L  DMAX_FO_3
 G  DMIN_FO_3
 E  PARCEL_CR00_4
 E  CBAL_CR00_4
 E  PARCEL_CR01_4
 E  CBAL_CR01_4
 E  PARCEL_CR02_4
 E  CBAL_CR02_4
 E  PARCEL_CR03_4
 E  CBAL_CR03_4
 E  PARCEL_CR04_4
 E  CBAL_CR04_4
 E  PARCEL_CR05_4
 E  CBAL_CR05_4
 E  PARCEL_CR06_4
 E  CBAL_CR06_4
 E  PARCEL_CR07_4
 E  CBAL_CR07_4
 E  PARCEL_CR08_4
 E  CBAL_CR08_4
 E  PARCEL_CR09_4
 E  CBAL_CR09_4
 L  CDUCAP_4
 G  CDUMIN_4
 E  YLPG_CR00_4
 E  YNAP_CR00_4
 E  YKER_CR00_4
 E  YDSL_CR00_4
 E  YVGO_CR00_4
 E  YRES_CR00_4
 E  YLPG_CR01_4
 E  YNAP_CR01_4
 E  YKER_CR01_4
 E  YDSL_CR01_4
 E  YVGO_CR01_4
 E  YRES_CR01_4
 E  YLPG_CR02_4
 E  YNAP_CR02_4
 E  YKER_CR02_4
 E  YDSL_CR02_4
 E  YVGO_CR02_4
 E  YRES_CR02_4
 E  YLPG_CR03_4
 E  YNAP_CR03_4
 E  YKER_CR03_4
 E  YDSL_CR03_4
 E  YVGO_CR03_4
 E  YRES_CR03_4
 E  YLPG_CR04_4
 E  YNAP_CR04_4
 E  YKER_CR04_4
 E  YDSL_CR04_4
 E  YVGO_CR04_4
 E  YRES_CR04_4
 E  YLPG_CR05_4
 E  YNAP_CR05_4
 E  YKER_CR05_4
 E  YDSL_CR05_4
 E  YVGO_CR05_4
 E  YRES_CR05_4
 E  YLPG_CR06_4
 E  YNAP_CR06_4
 E  YKER_CR06_4
 E  YDSL_CR06_4
 E  YVGO_CR06_4
 E  YRES_CR06_4
 E  YLPG_CR07_4
 E  YNAP_CR07_4
 E  YKER_CR07_4
 E  YDSL_CR07_4
 E  YVGO_CR07_4
 E  YRES_CR07_4
 E  YLPG_CR08_4
 E  YNAP_CR08_4
 E  YKER_CR08_4
 E  YDSL_CR08_4
 E  YVGO_CR08_4
 E  YRES_CR08_4
 E  YLPG_CR09_4
 E  YNAP_CR09_4
 E  YKER_CR09_4
 E  YDSL_CR09_4
 E  YVGO_CR09_4
 E  YRES_CR09_4
 E  RESSPLIT_CR00_4
 E  VDUY1_CR00_4
 E  VDUY2_CR00_4
 E  RESSPLIT_CR01_4
 E  VDUY1_CR01_4
 E  VDUY2_CR01_4
 E  RESSPLIT_CR02_4
 E  VDUY1_CR02_4
 E  VDUY2_CR02_4
 E  RESSPLIT_CR03_4
 E  VDUY1_CR03_4
 E  VDUY2_CR03_4
 E  RESSPLIT_CR04_4
 E  VDUY1_CR04_4
 E  VDUY2_CR04_4
 E  RESSPLIT_CR05_4
 E  VDUY1_CR05_4
 E  VDUY2_CR05_4
 E  RESSPLIT_CR06_4
 E  VDUY1_CR06_4
 E  VDUY2_CR06_4
 E  RESSPLIT_CR07_4
 E  VDUY1_CR07_4
 E  VDUY2_CR07_4
 E  RESSPLIT_CR08_4
 E  VDUY1_CR08_4
 E  VDUY2_CR08_4
 E  RESSPLIT_CR09_4
 E  VDUY1_CR09_4
 E  VDUY2_CR09_4
 L  VDUCAP_4
 E  VGOBAL_CR00_4
 E  VGOBAL_CR01_4
 E  VGOBAL_CR02_4
 E  VGOBAL_CR03_4
 E  VGOBAL_CR04_4
 E  VGOBAL_CR05_4
 E  VGOBAL_CR06_4
 E  VGOBAL_CR07_4
 E  VGOBAL_CR08_4
 E  VGOBAL_CR09_4
 L  FCCCAP_4
 E  FCCY_FCCG_4
 E  FCCY_LCO_4
 E  FCCY_FLPG_4
 E  FCCY_SLURRY_4
 E  NAPBAL_CR00_4
 E  NAPBAL_CR01_4
 E  NAPBAL_CR02_4
 E  NAPBAL_CR03_4
 E  NAPBAL_CR04_4
 E  NAPBAL_CR05_4
 E  NAPBAL_CR06_4
 E  NAPBAL_CR07_4
 E  NAPBAL_CR08_4
 E  NAPBAL_CR09_4
 L  REFCAP_4
 E  REFY_4
 E  DSLBAL_CR00_4
 E  DSLBAL_CR01_4
 E  DSLBAL_CR02_4
 E  DSLBAL_CR03_4
 E  DSLBAL_CR04_4
 E  DSLBAL_CR05_4
 E  DSLBAL_CR06_4
 E  DSLBAL_CR07_4
 E  DSLBAL_CR08_4
 E  DSLBAL_CR09_4
 E  LCOBAL_4
 L  DHTCAP_4
 E  DHTY_4
 E  GASBAL_4
 G  GASRON_4
 E  KERBAL_CR00_4
 E  KERBAL_CR01_4
 E  KERBAL_CR02_4
 E  KERBAL_CR03_4
 E  KERBAL_CR04_4
 E  KERBAL_CR05_4
 E  KERBAL_CR06_4
 E  KERBAL_CR07_4
 E  KERBAL_CR08_4
 E  KERBAL_CR09_4
 E  JETBAL_4
 L  JETSUL_4
 E  DSLPB_4
 L  DSLSUL_4
 E  LPGBAL_4
 E  FOBAL_4
 L  FOSUL_4
 E  PBAL_LPG_4
 L  DMAX_LPG_4
 G  DMIN_LPG_4
 E  PBAL_GAS_4
 L  DMAX_GAS_4
 G  DMIN_GAS_4
 E  PBAL_JET_4
 L  DMAX_JET_4
 G  DMIN_JET_4
 E  PBAL_DSL_4
 L  DMAX_DSL_4
 G  DMIN_DSL_4
 E  PBAL_FO_4
 L  DMAX_FO_4
 G  DMIN_FO_4
 E  PARCEL_CR00_5
 E  CBAL_CR00_5
 E  PARCEL_CR01_5
 E  CBAL_CR01_5
 E  PARCEL_CR02_5
 E  CBAL_CR02_5
 E  PARCEL_CR03_5
 E  CBAL_CR03_5
 E  PARCEL_CR04_5
 E  CBAL_CR04_5
 E  PARCEL_CR05_5
 E  CBAL_CR05_5
 E  PARCEL_CR06_5
 E  CBAL_CR06_5
 E  PARCEL_CR07_5
 E  CBAL_CR07_5
 E  PARCEL_CR08_5
 E  CBAL_CR08_5
 E  PARCEL_CR09_5
 E  CBAL_CR09_5
 L  CDUCAP_5
 G  CDUMIN_5
 E  YLPG_CR00_5
 E  YNAP_CR00_5
 E  YKER_CR00_5
 E  YDSL_CR00_5
 E  YVGO_CR00_5
 E  YRES_CR00_5
 E  YLPG_CR01_5
 E  YNAP_CR01_5
 E  YKER_CR01_5
 E  YDSL_CR01_5
 E  YVGO_CR01_5
 E  YRES_CR01_5
 E  YLPG_CR02_5
 E  YNAP_CR02_5
 E  YKER_CR02_5
 E  YDSL_CR02_5
 E  YVGO_CR02_5
 E  YRES_CR02_5
 E  YLPG_CR03_5
 E  YNAP_CR03_5
 E  YKER_CR03_5
 E  YDSL_CR03_5
 E  YVGO_CR03_5
 E  YRES_CR03_5
 E  YLPG_CR04_5
 E  YNAP_CR04_5
 E  YKER_CR04_5
 E  YDSL_CR04_5
 E  YVGO_CR04_5
 E  YRES_CR04_5
 E  YLPG_CR05_5
 E  YNAP_CR05_5
 E  YKER_CR05_5
 E  YDSL_CR05_5
 E  YVGO_CR05_5
 E  YRES_CR05_5
 E  YLPG_CR06_5
 E  YNAP_CR06_5
 E  YKER_CR06_5
 E  YDSL_CR06_5
 E  YVGO_CR06_5
 E  YRES_CR06_5
 E  YLPG_CR07_5
 E  YNAP_CR07_5
 E  YKER_CR07_5
 E  YDSL_CR07_5
 E  YVGO_CR07_5
 E  YRES_CR07_5
 E  YLPG_CR08_5
 E  YNAP_CR08_5
 E  YKER_CR08_5
 E  YDSL_CR08_5
 E  YVGO_CR08_5
 E  YRES_CR08_5
 E  YLPG_CR09_5
 E  YNAP_CR09_5
 E  YKER_CR09_5
 E  YDSL_CR09_5
 E  YVGO_CR09_5
 E  YRES_CR09_5
 E  RESSPLIT_CR00_5
 E  VDUY1_CR00_5
 E  VDUY2_CR00_5
 E  RESSPLIT_CR01_5
 E  VDUY1_CR01_5
 E  VDUY2_CR01_5
 E  RESSPLIT_CR02_5
 E  VDUY1_CR02_5
 E  VDUY2_CR02_5
 E  RESSPLIT_CR03_5
 E  VDUY1_CR03_5
 E  VDUY2_CR03_5
 E  RESSPLIT_CR04_5
 E  VDUY1_CR04_5
 E  VDUY2_CR04_5
 E  RESSPLIT_CR05_5
 E  VDUY1_CR05_5
 E  VDUY2_CR05_5
 E  RESSPLIT_CR06_5
 E  VDUY1_CR06_5
 E  VDUY2_CR06_5
 E  RESSPLIT_CR07_5
 E  VDUY1_CR07_5
 E  VDUY2_CR07_5
 E  RESSPLIT_CR08_5
 E  VDUY1_CR08_5
 E  VDUY2_CR08_5
 E  RESSPLIT_CR09_5
 E  VDUY1_CR09_5
 E  VDUY2_CR09_5
 L  VDUCAP_5
 E  VGOBAL_CR00_5
 E  VGOBAL_CR01_5
 E  VGOBAL_CR02_5
 E  VGOBAL_CR03_5
 E  VGOBAL_CR04_5
 E  VGOBAL_CR05_5
 E  VGOBAL_CR06_5
 E  VGOBAL_CR07_5
 E  VGOBAL_CR08_5
 E  VGOBAL_CR09_5
 L  FCCCAP_5
 E  FCCY_FCCG_5
 E  FCCY_LCO_5
 E  FCCY_FLPG_5
 E  FCCY_SLURRY_5
 E  NAPBAL_CR00_5
 E  NAPBAL_CR01_5
 E  NAPBAL_CR02_5
 E  NAPBAL_CR03_5
 E  NAPBAL_CR04_5
 E  NAPBAL_CR05_5
 E  NAPBAL_CR06_5
 E  NAPBAL_CR07_5
 E  NAPBAL_CR08_5
 E  NAPBAL_CR09_5
 L  REFCAP_5
 E  REFY_5
 E  DSLBAL_CR00_5
 E  DSLBAL_CR01_5
 E  DSLBAL_CR02_5
 E  DSLBAL_CR03_5
 E  DSLBAL_CR04_5
 E  DSLBAL_CR05_5
 E  DSLBAL_CR06_5
 E  DSLBAL_CR07_5
 E  DSLBAL_CR08_5
 E  DSLBAL_CR09_5
 E  LCOBAL_5
 L  DHTCAP_5
 E  DHTY_5
 E  GASBAL_5
 G  GASRON_5
 E  KERBAL_CR00_5
 E  KERBAL_CR01_5
 E  KERBAL_CR02_5
 E  KERBAL_CR03_5
 E  KERBAL_CR04_5
 E  KERBAL_CR05_5
 E  KERBAL_CR06_5
 E  KERBAL_CR07_5
 E  KERBAL_CR08_5
 E  KERBAL_CR09_5
 E  JETBAL_5
 L  JETSUL_5
 E  DSLPB_5
 L  DSLSUL_5
 E  LPGBAL_5
 E  FOBAL_5
 L  FOSUL_5
 E  PBAL_LPG_5
 L  DMAX_LPG_5
 G  DMIN_LPG_5
 E  PBAL_GAS_5
 L  DMAX_GAS_5
 G  DMIN_GAS_5
 E  PBAL_JET_5
 L  DMAX_JET_5
 G  DMIN_JET_5
 E  PBAL_DSL_5
 L  DMAX_DSL_5
 G  DMIN_DSL_5
 E  PBAL_FO_5
 L  DMAX_FO_5
 G  DMIN_FO_5
 E  PARCEL_CR00_6
 E  CBAL_CR00_6
 E  PARCEL_CR01_6
 E  CBAL_CR01_6
 E  PARCEL_CR02_6
 E  CBAL_CR02_6
 E  PARCEL_CR03_6
 E  CBAL_CR03_6
 E  PARCEL_CR04_6
 E  CBAL_CR04_6
 E  PARCEL_CR05_6
 E  CBAL_CR05_6
 E  PARCEL_CR06_6
 E  CBAL_CR06_6
 E  PARCEL_CR07_6
 E  CBAL_CR07_6
 E  PARCEL_CR08_6
 E  CBAL_CR08_6
 E  PARCEL_CR09_6
 E  CBAL_CR09_6
 L  CDUCAP_6
 G  CDUMIN_6
 E  YLPG_CR00_6
 E  YNAP_CR00_6
 E  YKER_CR00_6
 E  YDSL_CR00_6
 E  YVGO_CR00_6
 E  YRES_CR00_6
 E  YLPG_CR01_6
 E  YNAP_CR01_6
 E  YKER_CR01_6
 E  YDSL_CR01_6
 E  YVGO_CR01_6
 E  YRES_CR01_6
 E  YLPG_CR02_6
 E  YNAP_CR02_6
 E  YKER_CR02_6
 E  YDSL_CR02_6
 E  YVGO_CR02_6
 E  YRES_CR02_6
 E  YLPG_CR03_6
 E  YNAP_CR03_6
 E  YKER_CR03_6
 E  YDSL_CR03_6
 E  YVGO_CR03_6
 E  YRES_CR03_6
 E  YLPG_CR04_6
 E  YNAP_CR04_6
 E  YKER_CR04_6
 E  YDSL_CR04_6
 E  YVGO_CR04_6
 E  YRES_CR04_6
 E  YLPG_CR05_6
 E  YNAP_CR05_6
 E  YKER_CR05_6
 E  YDSL_CR05_6
 E  YVGO_CR05_6
 E  YRES_CR05_6
 E  YLPG_CR06_6
 E  YNAP_CR06_6
 E  YKER_CR06_6
 E  YDSL_CR06_6
 E  YVGO_CR06_6
 E  YRES_CR06_6
 E  YLPG_CR07_6
 E  YNAP_CR07_6
 E  YKER_CR07_6
 E  YDSL_CR07_6
 E  YVGO_CR07_6
 E  YRES_CR07_6
 E  YLPG_CR08_6
 E  YNAP_CR08_6
 E  YKER_CR08_6
 E  YDSL_CR08_6
 E  YVGO_CR08_6
 E  YRES_CR08_6
 E  YLPG_CR09_6
 E  YNAP_CR09_6
 E  YKER_CR09_6
 E  YDSL_CR09_6
 E  YVGO_CR09_6
 E  YRES_CR09_6
 E  RESSPLIT_CR00_6
 E  VDUY1_CR00_6
 E  VDUY2_CR00_6
 E  RESSPLIT_CR01_6
 E  VDUY1_CR01_6
 E  VDUY2_CR01_6
 E  RESSPLIT_CR02_6
 E  VDUY1_CR02_6
 E  VDUY2_CR02_6
 E  RESSPLIT_CR03_6
 E  VDUY1_CR03_6
 E  VDUY2_CR03_6
 E  RESSPLIT_CR04_6
 E  VDUY1_CR04_6
 E  VDUY2_CR04_6
 E  RESSPLIT_CR05_6
 E  VDUY1_CR05_6
 E  VDUY2_CR05_6
 E  RESSPLIT_CR06_6
 E  VDUY1_CR06_6
 E  VDUY2_CR06_6
 E  RESSPLIT_CR07_6
 E  VDUY1_CR07_6
 E  VDUY2_CR07_6
 E  RESSPLIT_CR08_6
 E  VDUY1_CR08_6
 E  VDUY2_CR08_6
 E  RESSPLIT_CR09_6
 E  VDUY1_CR09_6
 E  VDUY2_CR09_6
 L  VDUCAP_6
 E  VGOBAL_CR00_6
 E  VGOBAL_CR01_6
 E  VGOBAL_CR02_6
 E  VGOBAL_CR03_6
 E  VGOBAL_CR04_6
 E  VGOBAL_CR05_6
 E  VGOBAL_CR06_6
 E  VGOBAL_CR07_6
 E  VGOBAL_CR08_6
 E  VGOBAL_CR09_6
 L  FCCCAP_6
 E  FCCY_FCCG_6
 E  FCCY_LCO_6
 E  FCCY_FLPG_6
 E  FCCY_SLURRY_6
 E  NAPBAL_CR00_6
 E  NAPBAL_CR01_6
 E  NAPBAL_CR02_6
 E  NAPBAL_CR03_6
 E  NAPBAL_CR04_6
 E  NAPBAL_CR05_6
 E  NAPBAL_CR06_6
 E  NAPBAL_CR07_6
 E  NAPBAL_CR08_6
 E  NAPBAL_CR09_6
 L  REFCAP_6
 E  REFY_6
 E  DSLBAL_CR00_6
 E  DSLBAL_CR01_6
 E  DSLBAL_CR02_6
 E  DSLBAL_CR03_6
 E  DSLBAL_CR04_6
 E  DSLBAL_CR05_6
 E  DSLBAL_CR06_6
 E  DSLBAL_CR07_6
 E  DSLBAL_CR08_6
 E  DSLBAL_CR09_6
 E  LCOBAL_6
 L  DHTCAP_6
 E  DHTY_6
 E  GASBAL_6
 G  GASRON_6
 E  KERBAL_CR00_6
 E  KERBAL_CR01_6
 E  KERBAL_CR02_6
 E  KERBAL_CR03_6
 E  KERBAL_CR04_6
 E  KERBAL_CR05_6
 E  KERBAL_CR06_6
 E  KERBAL_CR07_6
 E  KERBAL_CR08_6
 E  KERBAL_CR09_6
 E  JETBAL_6
 L  JETSUL_6
 E  DSLPB_6
 L  DSLSUL_6
 E  LPGBAL_6
 E  FOBAL_6
 L  FOSUL_6
 E  PBAL_LPG_6
 L  DMAX_LPG_6
 G  DMIN_LPG_6
 E  PBAL_GAS_6
 L  DMAX_GAS_6
 G  DMIN_GAS_6
 E  PBAL_JET_6
 L  DMAX_JET_6
 G  DMIN_JET_6
 E  PBAL_DSL_6
 L  DMAX_DSL_6
 G  DMIN_DSL_6
 E  PBAL_FO_6
 L  DMAX_FO_6
 G  DMIN_FO_6
 E  PARCEL_CR00_7
 E  CBAL_CR00_7
 E  PARCEL_CR01_7
 E  CBAL_CR01_7
 E  PARCEL_CR02_7
 E  CBAL_CR02_7
 E  PARCEL_CR03_7
 E  CBAL_CR03_7
 E  PARCEL_CR04_7
 E  CBAL_CR04_7
 E  PARCEL_CR05_7
 E  CBAL_CR05_7
 E  PARCEL_CR06_7
 E  CBAL_CR06_7
 E  PARCEL_CR07_7
 E  CBAL_CR07_7
 E  PARCEL_CR08_7
 E  CBAL_CR08_7
 E  PARCEL_CR09_7
 E  CBAL_CR09_7
 L  CDUCAP_7
 G  CDUMIN_7
 E  YLPG_CR00_7
 E  YNAP_CR00_7
 E  YKER_CR00_7
 E  YDSL_CR00_7
 E  YVGO_CR00_7
 E  YRES_CR00_7
 E  YLPG_CR01_7
 E  YNAP_CR01_7
 E  YKER_CR01_7
 E  YDSL_CR01_7
 E  YVGO_CR01_7
 E  YRES_CR01_7
 E  YLPG_CR02_7
 E  YNAP_CR02_7
 E  YKER_CR02_7
 E  YDSL_CR02_7
 E  YVGO_CR02_7
 E  YRES_CR02_7
 E  YLPG_CR03_7
 E  YNAP_CR03_7
 E  YKER_CR03_7
 E  YDSL_CR03_7
 E  YVGO_CR03_7
 E  YRES_CR03_7
 E  YLPG_CR04_7
 E  YNAP_CR04_7
 E  YKER_CR04_7
 E  YDSL_CR04_7
 E  YVGO_CR04_7
 E  YRES_CR04_7
 E  YLPG_CR05_7
 E  YNAP_CR05_7
 E  YKER_CR05_7
 E  YDSL_CR05_7
 E  YVGO_CR05_7
 E  YRES_CR05_7
 E  YLPG_CR06_7
 E  YNAP_CR06_7
 E  YKER_CR06_7
 E  YDSL_CR06_7
 E  YVGO_CR06_7
 E  YRES_CR06_7
 E  YLPG_CR07_7
 E  YNAP_CR07_7
 E  YKER_CR07_7
 E  YDSL_CR07_7
 E  YVGO_CR07_7
 E  YRES_CR07_7
 E  YLPG_CR08_7
 E  YNAP_CR08_7
 E  YKER_CR08_7
 E  YDSL_CR08_7
 E  YVGO_CR08_7
 E  YRES_CR08_7
 E  YLPG_CR09_7
 E  YNAP_CR09_7
 E  YKER_CR09_7
 E  YDSL_CR09_7
 E  YVGO_CR09_7
 E  YRES_CR09_7
 E  RESSPLIT_CR00_7
 E  VDUY1_CR00_7
 E  VDUY2_CR00_7
 E  RESSPLIT_CR01_7
 E  VDUY1_CR01_7
 E  VDUY2_CR01_7
 E  RESSPLIT_CR02_7
 E  VDUY1_CR02_7
 E  VDUY2_CR02_7
 E  RESSPLIT_CR03_7
 E  VDUY1_CR03_7
 E  VDUY2_CR03_7
 E  RESSPLIT_CR04_7
 E  VDUY1_CR04_7
 E  VDUY2_CR04_7
 E  RESSPLIT_CR05_7
 E  VDUY1_CR05_7
 E  VDUY2_CR05_7
 E  RESSPLIT_CR06_7
 E  VDUY1_CR06_7
 E  VDUY2_CR06_7
 E  RESSPLIT_CR07_7
 E  VDUY1_CR07_7
 E  VDUY2_CR07_7
 E  RESSPLIT_CR08_7
 E  VDUY1_CR08_7
 E  VDUY2_CR08_7
 E  RESSPLIT_CR09_7
 E  VDUY1_CR09_7
 E  VDUY2_CR09_7
 L  VDUCAP_7
 E  VGOBAL_CR00_7
 E  VGOBAL_CR01_7
 E  VGOBAL_CR02_7
 E  VGOBAL_CR03_7
 E  VGOBAL_CR04_7
 E  VGOBAL_CR05_7
 E  VGOBAL_CR06_7
 E  VGOBAL_CR07_7
 E  VGOBAL_CR08_7
 E  VGOBAL_CR09_7
 L  FCCCAP_7
 E  FCCY_FCCG_7
 E  FCCY_LCO_7
 E  FCCY_FLPG_7
 E  FCCY_SLURRY_7
 E  NAPBAL_CR00_7
 E  NAPBAL_CR01_7
 E  NAPBAL_CR02_7
 E  NAPBAL_CR03_7
 E  NAPBAL_CR04_7
 E  NAPBAL_CR05_7
 E  NAPBAL_CR06_7
 E  NAPBAL_CR07_7
 E  NAPBAL_CR08_7
 E  NAPBAL_CR09_7
 L  REFCAP_7
 E  REFY_7
 E  DSLBAL_CR00_7
 E  DSLBAL_CR01_7
 E  DSLBAL_CR02_7
 E  DSLBAL_CR03_7
 E  DSLBAL_CR04_7
 E  DSLBAL_CR05_7
 E  DSLBAL_CR06_7
 E  DSLBAL_CR07_7
 E  DSLBAL_CR08_7
 E  DSLBAL_CR09_7
 E  LCOBAL_7
 L  DHTCAP_7
 E  DHTY_7
 E  GASBAL_7
 G  GASRON_7
 E  KERBAL_CR00_7
 E  KERBAL_CR01_7
 E  KERBAL_CR02_7
 E  KERBAL_CR03_7
 E  KERBAL_CR04_7
 E  KERBAL_CR05_7
 E  KERBAL_CR06_7
 E  KERBAL_CR07_7
 E  KERBAL_CR08_7
 E  KERBAL_CR09_7
 E  JETBAL_7
 L  JETSUL_7
 E  DSLPB_7
 L  DSLSUL_7
 E  LPGBAL_7
 E  FOBAL_7
 L  FOSUL_7
 E  PBAL_LPG_7
 L  DMAX_LPG_7
 G  DMIN_LPG_7
 E  PBAL_GAS_7
 L  DMAX_GAS_7
 G  DMIN_GAS_7
 E  PBAL_JET_7
 L  DMAX_JET_7
 G  DMIN_JET_7
 E  PBAL_DSL_7
 L  DMAX_DSL_7
 G  DMIN_DSL_7
 E  PBAL_FO_7
 L  DMAX_FO_7
 G  DMIN_FO_7
 E  PARCEL_CR00_8
 E  CBAL_CR00_8
 E  PARCEL_CR01_8
 E  CBAL_CR01_8
 E  PARCEL_CR02_8
 E  CBAL_CR02_8
 E  PARCEL_CR03_8
 E  CBAL_CR03_8
 E  PARCEL_CR04_8
 E  CBAL_CR04_8
 E  PARCEL_CR05_8
 E  CBAL_CR05_8
 E  PARCEL_CR06_8
 E  CBAL_CR06_8
 E  PARCEL_CR07_8
 E  CBAL_CR07_8
 E  PARCEL_CR08_8
 E  CBAL_CR08_8
 E  PARCEL_CR09_8
 E  CBAL_CR09_8
 L  CDUCAP_8
 G  CDUMIN_8
 E  YLPG_CR00_8
 E  YNAP_CR00_8
 E  YKER_CR00_8
 E  YDSL_CR00_8
 E  YVGO_CR00_8
 E  YRES_CR00_8
 E  YLPG_CR01_8
 E  YNAP_CR01_8
 E  YKER_CR01_8
 E  YDSL_CR01_8
 E  YVGO_CR01_8
 E  YRES_CR01_8
 E  YLPG_CR02_8
 E  YNAP_CR02_8
 E  YKER_CR02_8
 E  YDSL_CR02_8
 E  YVGO_CR02_8
 E  YRES_CR02_8
 E  YLPG_CR03_8
 E  YNAP_CR03_8
 E  YKER_CR03_8
 E  YDSL_CR03_8
 E  YVGO_CR03_8
 E  YRES_CR03_8
 E  YLPG_CR04_8
 E  YNAP_CR04_8
 E  YKER_CR04_8
 E  YDSL_CR04_8
 E  YVGO_CR04_8
 E  YRES_CR04_8
 E  YLPG_CR05_8
 E  YNAP_CR05_8
 E  YKER_CR05_8
 E  YDSL_CR05_8
 E  YVGO_CR05_8
 E  YRES_CR05_8
 E  YLPG_CR06_8
 E  YNAP_CR06_8
 E  YKER_CR06_8
 E  YDSL_CR06_8
 E  YVGO_CR06_8
 E  YRES_CR06_8
 E  YLPG_CR07_8
 E  YNAP_CR07_8
 E  YKER_CR07_8
 E  YDSL_CR07_8
 E  YVGO_CR07_8
 E  YRES_CR07_8
 E  YLPG_CR08_8
 E  YNAP_CR08_8
 E  YKER_CR08_8
 E  YDSL_CR08_8
 E  YVGO_CR08_8
 E  YRES_CR08_8
 E  YLPG_CR09_8
 E  YNAP_CR09_8
 E  YKER_CR09_8
 E  YDSL_CR09_8
 E  YVGO_CR09_8
 E  YRES_CR09_8
 E  RESSPLIT_CR00_8
 E  VDUY1_CR00_8
 E  VDUY2_CR00_8
 E  RESSPLIT_CR01_8
 E  VDUY1_CR01_8
 E  VDUY2_CR01_8
 E  RESSPLIT_CR02_8
 E  VDUY1_CR02_8
 E  VDUY2_CR02_8
 E  RESSPLIT_CR03_8
 E  VDUY1_CR03_8
 E  VDUY2_CR03_8
 E  RESSPLIT_CR04_8
 E  VDUY1_CR04_8
 E  VDUY2_CR04_8
 E  RESSPLIT_CR05_8
 E  VDUY1_CR05_8
 E  VDUY2_CR05_8
 E  RESSPLIT_CR06_8
 E  VDUY1_CR06_8
 E  VDUY2_CR06_8
 E  RESSPLIT_CR07_8
 E  VDUY1_CR07_8
 E  VDUY2_CR07_8
 E  RESSPLIT_CR08_8
 E  VDUY1_CR08_8
 E  VDUY2_CR08_8
 E  RESSPLIT_CR09_8
 E  VDUY1_CR09_8
 E  VDUY2_CR09_8
 L  VDUCAP_8
 E  VGOBAL_CR00_8
 E  VGOBAL_CR01_8
 E  VGOBAL_CR02_8
 E  VGOBAL_CR03_8
 E  VGOBAL_CR04_8
 E  VGOBAL_CR05_8
 E  VGOBAL_CR06_8
 E  VGOBAL_CR07_8
 E  VGOBAL_CR08_8
 E  VGOBAL_CR09_8
 L  FCCCAP_8
 E  FCCY_FCCG_8
 E  FCCY_LCO_8
 E  FCCY_FLPG_8
 E  FCCY_SLURRY_8
 E  NAPBAL_CR00_8
 E  NAPBAL_CR01_8
 E  NAPBAL_CR02_8
 E  NAPBAL_CR03_8
 E  NAPBAL_CR04_8
 E  NAPBAL_CR05_8
 E  NAPBAL_CR06_8
 E  NAPBAL_CR07_8
 E  NAPBAL_CR08_8
 E  NAPBAL_CR09_8
 L  REFCAP_8
 E  REFY_8
 E  DSLBAL_CR00_8
 E  DSLBAL_CR01_8
 E  DSLBAL_CR02_8
 E  DSLBAL_CR03_8
 E  DSLBAL_CR04_8
 E  DSLBAL_CR05_8
 E  DSLBAL_CR06_8
 E  DSLBAL_CR07_8
 E  DSLBAL_CR08_8
 E  DSLBAL_CR09_8
 E  LCOBAL_8
 L  DHTCAP_8
 E  DHTY_8
 E  GASBAL_8
 G  GASRON_8
 E  KERBAL_CR00_8
 E  KERBAL_CR01_8
 E  KERBAL_CR02_8
 E  KERBAL_CR03_8
 E  KERBAL_CR04_8
 E  KERBAL_CR05_8
 E  KERBAL_CR06_8
 E  KERBAL_CR07_8
 E  KERBAL_CR08_8
 E  KERBAL_CR09_8
 E  JETBAL_8
 L  JETSUL_8
 E  DSLPB_8
 L  DSLSUL_8
 E  LPGBAL_8
 E  FOBAL_8
 L  FOSUL_8
 E  PBAL_LPG_8
 L  DMAX_LPG_8
 G  DMIN_LPG_8
 E  PBAL_GAS_8
 L  DMAX_GAS_8
 G  DMIN_GAS_8
 E  PBAL_JET_8
 L  DMAX_JET_8
 G  DMIN_JET_8
 E  PBAL_DSL_8
 L  DMAX_DSL_8
 G  DMIN_DSL_8
 E  PBAL_FO_8
 L  DMAX_FO_8
 G  DMIN_FO_8
 E  PARCEL_CR00_9
 E  CBAL_CR00_9
 E  PARCEL_CR01_9
 E  CBAL_CR01_9
 E  PARCEL_CR02_9
 E  CBAL_CR02_9
 E  PARCEL_CR03_9
 E  CBAL_CR03_9
 E  PARCEL_CR04_9
 E  CBAL_CR04_9
 E  PARCEL_CR05_9
 E  CBAL_CR05_9
 E  PARCEL_CR06_9
 E  CBAL_CR06_9
 E  PARCEL_CR07_9
 E  CBAL_CR07_9
 E  PARCEL_CR08_9
 E  CBAL_CR08_9
 E  PARCEL_CR09_9
 E  CBAL_CR09_9
 L  CDUCAP_9
 G  CDUMIN_9
 E  YLPG_CR00_9
 E  YNAP_CR00_9
 E  YKER_CR00_9
 E  YDSL_CR00_9
 E  YVGO_CR00_9
 E  YRES_CR00_9
 E  YLPG_CR01_9
 E  YNAP_CR01_9
 E  YKER_CR01_9
 E  YDSL_CR01_9
 E  YVGO_CR01_9
 E  YRES_CR01_9
 E  YLPG_CR02_9
 E  YNAP_CR02_9
 E  YKER_CR02_9
 E  YDSL_CR02_9
 E  YVGO_CR02_9
 E  YRES_CR02_9
 E  YLPG_CR03_9
 E  YNAP_CR03_9
 E  YKER_CR03_9
 E  YDSL_CR03_9
 E  YVGO_CR03_9
 E  YRES_CR03_9
 E  YLPG_CR04_9
 E  YNAP_CR04_9
 E  YKER_CR04_9
 E  YDSL_CR04_9
 E  YVGO_CR04_9
 E  YRES_CR04_9
 E  YLPG_CR05_9
 E  YNAP_CR05_9
 E  YKER_CR05_9
 E  YDSL_CR05_9
 E  YVGO_CR05_9
 E  YRES_CR05_9
 E  YLPG_CR06_9
 E  YNAP_CR06_9
 E  YKER_CR06_9
 E  YDSL_CR06_9
 E  YVGO_CR06_9
 E  YRES_CR06_9
 E  YLPG_CR07_9
 E  YNAP_CR07_9
 E  YKER_CR07_9
 E  YDSL_CR07_9
 E  YVGO_CR07_9
 E  YRES_CR07_9
 E  YLPG_CR08_9
 E  YNAP_CR08_9
 E  YKER_CR08_9
 E  YDSL_CR08_9
 E  YVGO_CR08_9
 E  YRES_CR08_9
 E  YLPG_CR09_9
 E  YNAP_CR09_9
 E  YKER_CR09_9
 E  YDSL_CR09_9
 E  YVGO_CR09_9
 E  YRES_CR09_9
 E  RESSPLIT_CR00_9
 E  VDUY1_CR00_9
 E  VDUY2_CR00_9
 E  RESSPLIT_CR01_9
 E  VDUY1_CR01_9
 E  VDUY2_CR01_9
 E  RESSPLIT_CR02_9
 E  VDUY1_CR02_9
 E  VDUY2_CR02_9
 E  RESSPLIT_CR03_9
 E  VDUY1_CR03_9
 E  VDUY2_CR03_9
 E  RESSPLIT_CR04_9
 E  VDUY1_CR04_9
 E  VDUY2_CR04_9
 E  RESSPLIT_CR05_9
 E  VDUY1_CR05_9
 E  VDUY2_CR05_9
 E  RESSPLIT_CR06_9
 E  VDUY1_CR06_9
 E  VDUY2_CR06_9
 E  RESSPLIT_CR07_9
 E  VDUY1_CR07_9
 E  VDUY2_CR07_9
 E  RESSPLIT_CR08_9
 E  VDUY1_CR08_9
 E  VDUY2_CR08_9
 E  RESSPLIT_CR09_9
 E  VDUY1_CR09_9
 E  VDUY2_CR09_9
 L  VDUCAP_9
 E  VGOBAL_CR00_9
 E  VGOBAL_CR01_9
 E  VGOBAL_CR02_9
 E  VGOBAL_CR03_9
 E  VGOBAL_CR04_9
 E  VGOBAL_CR05_9
 E  VGOBAL_CR06_9
 E  VGOBAL_CR07_9
 E  VGOBAL_CR08_9
 E  VGOBAL_CR09_9
 L  FCCCAP_9
 E  FCCY_FCCG_9
 E  FCCY_LCO_9
 E  FCCY_FLPG_9
 E  FCCY_SLURRY_9
 E  NAPBAL_CR00_9
 E  NAPBAL_CR01_9
 E  NAPBAL_CR02_9
 E  NAPBAL_CR03_9
 E  NAPBAL_CR04_9
 E  NAPBAL_CR05_9
 E  NAPBAL_CR06_9
 E  NAPBAL_CR07_9
 E  NAPBAL_CR08_9
 E  NAPBAL_CR09_9
 L  REFCAP_9
 E  REFY_9
 E  DSLBAL_CR00_9
 E  DSLBAL_CR01_9
 E  DSLBAL_CR02_9
 E  DSLBAL_CR03_9
 E  DSLBAL_CR04_9
 E  DSLBAL_CR05_9
 E  DSLBAL_CR06_9
 E  DSLBAL_CR07_9
 E  DSLBAL_CR08_9
 E  DSLBAL_CR09_9
 E  LCOBAL_9
 L  DHTCAP_9
 E  DHTY_9
 E  GASBAL_9
 G  GASRON_9
 E  KERBAL_CR00_9
 E  KERBAL_CR01_9
 E  KERBAL_CR02_9
 E  KERBAL_CR03_9
 E  KERBAL_CR04_9
 E  KERBAL_CR05_9
 E  KERBAL_CR06_9
 E  KERBAL_CR07_9
 E  KERBAL_CR08_9
 E  KERBAL_CR09_9
 E  JETBAL_9
 L  JETSUL_9
 E  DSLPB_9
 L  DSLSUL_9
 E  LPGBAL_9
 E  FOBAL_9
 L  FOSUL_9
 E  PBAL_LPG_9
 L  DMAX_LPG_9
 G  DMIN_LPG_9
 E  PBAL_GAS_9
 L  DMAX_GAS_9
 G  DMIN_GAS_9
 E  PBAL_JET_9
 L  DMAX_JET_9
 G  DMIN_JET_9
 E  PBAL_DSL_9
 L  DMAX_DSL_9
 G  DMIN_DSL_9
 E  PBAL_FO_9
 L  DMAX_FO_9
 G  DMIN_FO_9
 E  PARCEL_CR00_10
 E  CBAL_CR00_10
 E  PARCEL_CR01_10
 E  CBAL_CR01_10
 E  PARCEL_CR02_10
 E  CBAL_CR02_10
 E  PARCEL_CR03_10
 E  CBAL_CR03_10
 E  PARCEL_CR04_10
 E  CBAL_CR04_10
 E  PARCEL_CR05_10
 E  CBAL_CR05_10
 E  PARCEL_CR06_10
 E  CBAL_CR06_10
 E  PARCEL_CR07_10
 E  CBAL_CR07_10
 E  PARCEL_CR08_10
 E  CBAL_CR08_10
 E  PARCEL_CR09_10
 E  CBAL_CR09_10
 L  CDUCAP_10
 G  CDUMIN_10
 E  YLPG_CR00_10
 E  YNAP_CR00_10
 E  YKER_CR00_10
 E  YDSL_CR00_10
 E  YVGO_CR00_10
 E  YRES_CR00_10
 E  YLPG_CR01_10
 E  YNAP_CR01_10
 E  YKER_CR01_10
 E  YDSL_CR01_10
 E  YVGO_CR01_10
 E  YRES_CR01_10
 E  YLPG_CR02_10
 E  YNAP_CR02_10
 E  YKER_CR02_10
 E  YDSL_CR02_10
 E  YVGO_CR02_10
 E  YRES_CR02_10
 E  YLPG_CR03_10
 E  YNAP_CR03_10
 E  YKER_CR03_10
 E  YDSL_CR03_10
 E  YVGO_CR03_10
 E  YRES_CR03_10
 E  YLPG_CR04_10
 E  YNAP_CR04_10
 E  YKER_CR04_10
 E  YDSL_CR04_10
 E  YVGO_CR04_10
 E  YRES_CR04_10
 E  YLPG_CR05_10
 E  YNAP_CR05_10
 E  YKER_CR05_10
 E  YDSL_CR05_10
 E  YVGO_CR05_10
 E  YRES_CR05_10
 E  YLPG_CR06_10
 E  YNAP_CR06_10
 E  YKER_CR06_10
 E  YDSL_CR06_10
 E  YVGO_CR06_10
 E  YRES_CR06_10
 E  YLPG_CR07_10
 E  YNAP_CR07_10
 E  YKER_CR07_10
 E  YDSL_CR07_10
 E  YVGO_CR07_10
 E  YRES_CR07_10
 E  YLPG_CR08_10
 E  YNAP_CR08_10
 E  YKER_CR08_10
 E  YDSL_CR08_10
 E  YVGO_CR08_10
 E  YRES_CR08_10
 E  YLPG_CR09_10
 E  YNAP_CR09_10
 E  YKER_CR09_10
 E  YDSL_CR09_10
 E  YVGO_CR09_10
 E  YRES_CR09_10
 E  RESSPLIT_CR00_10
 E  VDUY1_CR00_10
 E  VDUY2_CR00_10
 E  RESSPLIT_CR01_10
 E  VDUY1_CR01_10
 E  VDUY2_CR01_10
 E  RESSPLIT_CR02_10
 E  VDUY1_CR02_10
 E  VDUY2_CR02_10
 E  RESSPLIT_CR03_10
 E  VDUY1_CR03_10
 E  VDUY2_CR03_10
 E  RESSPLIT_CR04_10
 E  VDUY1_CR04_10
 E  VDUY2_CR04_10
 E  RESSPLIT_CR05_10
 E  VDUY1_CR05_10
 E  VDUY2_CR05_10
 E  RESSPLIT_CR06_10
 E  VDUY1_CR06_10
 E  VDUY2_CR06_10
 E  RESSPLIT_CR07_10
 E  VDUY1_CR07_10
 E  VDUY2_CR07_10
 E  RESSPLIT_CR08_10
 E  VDUY1_CR08_10
 E  VDUY2_CR08_10
 E  RESSPLIT_CR09_10
 E  VDUY1_CR09_10
 E  VDUY2_CR09_10
 L  VDUCAP_10
 E  VGOBAL_CR00_10
 E  VGOBAL_CR01_10
 E  VGOBAL_CR02_10
 E  VGOBAL_CR03_10
 E  VGOBAL_CR04_10
 E  VGOBAL_CR05_10
 E  VGOBAL_CR06_10
 E  VGOBAL_CR07_10
 E  VGOBAL_CR08_10
 E  VGOBAL_CR09_10
 L  FCCCAP_10
 E  FCCY_FCCG_10
 E  FCCY_LCO_10
 E  FCCY_FLPG_10
 E  FCCY_SLURRY_10
 E  NAPBAL_CR00_10
 E  NAPBAL_CR01_10
 E  NAPBAL_CR02_10
 E  NAPBAL_CR03_10
 E  NAPBAL_CR04_10
 E  NAPBAL_CR05_10
 E  NAPBAL_CR06_10
 E  NAPBAL_CR07_10
 E  NAPBAL_CR08_10
 E  NAPBAL_CR09_10
 L  REFCAP_10
 E  REFY_10
 E  DSLBAL_CR00_10
 E  DSLBAL_CR01_10
 E  DSLBAL_CR02_10
 E  DSLBAL_CR03_10
 E  DSLBAL_CR04_10
 E  DSLBAL_CR05_10
 E  DSLBAL_CR06_10
 E  DSLBAL_CR07_10
 E  DSLBAL_CR08_10
 E  DSLBAL_CR09_10
 E  LCOBAL_10
 L  DHTCAP_10
 E  DHTY_10
 E  GASBAL_10
 G  GASRON_10
 E  KERBAL_CR00_10
 E  KERBAL_CR01_10
 E  KERBAL_CR02_10
 E  KERBAL_CR03_10
 E  KERBAL_CR04_10
 E  KERBAL_CR05_10
 E  KERBAL_CR06_10
 E  KERBAL_CR07_10
 E  KERBAL_CR08_10
 E  KERBAL_CR09_10
 E  JETBAL_10
 L  JETSUL_10
 E  DSLPB_10
 L  DSLSUL_10
 E  LPGBAL_10
 E  FOBAL_10
 L  FOSUL_10
 E  PBAL_LPG_10
 L  DMAX_LPG_10
 G  DMIN_LPG_10
 E  PBAL_GAS_10
 L  DMAX_GAS_10
 G  DMIN_GAS_10
 E  PBAL_JET_10
 L  DMAX_JET_10
 G  DMIN_JET_10
 E  PBAL_DSL_10
 L  DMAX_DSL_10
 G  DMIN_DSL_10
 E  PBAL_FO_10
 L  DMAX_FO_10
 G  DMIN_FO_10
 E  PARCEL_CR00_11
 E  CBAL_CR00_11
 E  PARCEL_CR01_11
 E  CBAL_CR01_11
 E  PARCEL_CR02_11
 E  CBAL_CR02_11
 E  PARCEL_CR03_11
 E  CBAL_CR03_11
 E  PARCEL_CR04_11
 E  CBAL_CR04_11
 E  PARCEL_CR05_11
 E  CBAL_CR05_11
 E  PARCEL_CR06_11
 E  CBAL_CR06_11
 E  PARCEL_CR07_11
 E  CBAL_CR07_11
 E  PARCEL_CR08_11
 E  CBAL_CR08_11
 E  PARCEL_CR09_11
 E  CBAL_CR09_11
 L  CDUCAP_11
 G  CDUMIN_11
 E  YLPG_CR00_11
 E  YNAP_CR00_11
 E  YKER_CR00_11
 E  YDSL_CR00_11
 E  YVGO_CR00_11
 E  YRES_CR00_11
 E  YLPG_CR01_11
 E  YNAP_CR01_11
 E  YKER_CR01_11
 E  YDSL_CR01_11
 E  YVGO_CR01_11
 E  YRES_CR01_11
 E  YLPG_CR02_11
 E  YNAP_CR02_11
 E  YKER_CR02_11
 E  YDSL_CR02_11
 E  YVGO_CR02_11
 E  YRES_CR02_11
 E  YLPG_CR03_11
 E  YNAP_CR03_11
 E  YKER_CR03_11
 E  YDSL_CR03_11
 E  YVGO_CR03_11
 E  YRES_CR03_11
 E  YLPG_CR04_11
 E  YNAP_CR04_11
 E  YKER_CR04_11
 E  YDSL_CR04_11
 E  YVGO_CR04_11
 E  YRES_CR04_11
 E  YLPG_CR05_11
 E  YNAP_CR05_11
 E  YKER_CR05_11
 E  YDSL_CR05_11
 E  YVGO_CR05_11
 E  YRES_CR05_11
 E  YLPG_CR06_11
 E  YNAP_CR06_11
 E  YKER_CR06_11
 E  YDSL_CR06_11
 E  YVGO_CR06_11
 E  YRES_CR06_11
 E  YLPG_CR07_11
 E  YNAP_CR07_11
 E  YKER_CR07_11
 E  YDSL_CR07_11
 E  YVGO_CR07_11
 E  YRES_CR07_11
 E  YLPG_CR08_11
 E  YNAP_CR08_11
 E  YKER_CR08_11
 E  YDSL_CR08_11
 E  YVGO_CR08_11
 E  YRES_CR08_11
 E  YLPG_CR09_11
 E  YNAP_CR09_11
 E  YKER_CR09_11
 E  YDSL_CR09_11
 E  YVGO_CR09_11
 E  YRES_CR09_11
 E  RESSPLIT_CR00_11
 E  VDUY1_CR00_11
 E  VDUY2_CR00_11
 E  RESSPLIT_CR01_11
 E  VDUY1_CR01_11
 E  VDUY2_CR01_11
 E  RESSPLIT_CR02_11
 E  VDUY1_CR02_11
 E  VDUY2_CR02_11
 E  RESSPLIT_CR03_11
 E  VDUY1_CR03_11
 E  VDUY2_CR03_11
 E  RESSPLIT_CR04_11
 E  VDUY1_CR04_11
 E  VDUY2_CR04_11
 E  RESSPLIT_CR05_11
 E  VDUY1_CR05_11
 E  VDUY2_CR05_11
 E  RESSPLIT_CR06_11
 E  VDUY1_CR06_11
 E  VDUY2_CR06_11
 E  RESSPLIT_CR07_11
 E  VDUY1_CR07_11
 E  VDUY2_CR07_11
 E  RESSPLIT_CR08_11
 E  VDUY1_CR08_11
 E  VDUY2_CR08_11
 E  RESSPLIT_CR09_11
 E  VDUY1_CR09_11
 E  VDUY2_CR09_11
 L  VDUCAP_11
 E  VGOBAL_CR00_11
 E  VGOBAL_CR01_11
 E  VGOBAL_CR02_11
 E  VGOBAL_CR03_11
 E  VGOBAL_CR04_11
 E  VGOBAL_CR05_11
 E  VGOBAL_CR06_11
 E  VGOBAL_CR07_11
 E  VGOBAL_CR08_11
 E  VGOBAL_CR09_11
 L  FCCCAP_11
 E  FCCY_FCCG_11
 E  FCCY_LCO_11
 E  FCCY_FLPG_11
 E  FCCY_SLURRY_11
 E  NAPBAL_CR00_11
 E  NAPBAL_CR01_11
 E  NAPBAL_CR02_11
 E  NAPBAL_CR03_11
 E  NAPBAL_CR04_11
 E  NAPBAL_CR05_11
 E  NAPBAL_CR06_11
 E  NAPBAL_CR07_11
 E  NAPBAL_CR08_11
 E  NAPBAL_CR09_11
 L  REFCAP_11
 E  REFY_11
 E  DSLBAL_CR00_11
 E  DSLBAL_CR01_11
 E  DSLBAL_CR02_11
 E  DSLBAL_CR03_11
 E  DSLBAL_CR04_11
 E  DSLBAL_CR05_11
 E  DSLBAL_CR06_11
 E  DSLBAL_CR07_11
 E  DSLBAL_CR08_11
 E  DSLBAL_CR09_11
 E  LCOBAL_11
 L  DHTCAP_11
 E  DHTY_11
 E  GASBAL_11
 G  GASRON_11
 E  KERBAL_CR00_11
 E  KERBAL_CR01_11
 E  KERBAL_CR02_11
 E  KERBAL_CR03_11
 E  KERBAL_CR04_11
 E  KERBAL_CR05_11
 E  KERBAL_CR06_11
 E  KERBAL_CR07_11
 E  KERBAL_CR08_11
 E  KERBAL_CR09_11
 E  JETBAL_11
 L  JETSUL_11
 E  DSLPB_11
 L  DSLSUL_11
 E  LPGBAL_11
 E  FOBAL_11
 L  FOSUL_11
 E  PBAL_LPG_11
 L  DMAX_LPG_11
 G  DMIN_LPG_11
 E  PBAL_GAS_11
 L  DMAX_GAS_11
 G  DMIN_GAS_11
 E  PBAL_JET_11
 L  DMAX_JET_11
 G  DMIN_JET_11
 E  PBAL_DSL_11
 L  DMAX_DSL_11
 G  DMIN_DSL_11
 E  PBAL_FO_11
 L  DMAX_FO_11
 G  DMIN_FO_11
COLUMNS
    M2250 'MARKER' 'INTORG'
    NPAR_CR00_0 PARCEL_CR00_0 -20.0
    M2252 'MARKER' 'INTEND'
    BUY_CR00_0 OBJ -58.42544646569215
    BUY_CR00_0 PARCEL_CR00_0 1.0
    BUY_CR00_0 CBAL_CR00_0 1.0
    CINV_CR00_0 OBJ -0.3
    CINV_CR00_0 CBAL_CR00_0 -1.0
    CINV_CR00_0 CBAL_CR00_1 1.0
    CDU_CR00_0 CBAL_CR00_0 -1.0
    CDU_CR00_0 CDUCAP_0 1.0
    CDU_CR00_0 CDUMIN_0 1.0
    CDU_CR00_0 YLPG_CR00_0 -0.013786055933968056
    CDU_CR00_0 YNAP_CR00_0 -0.1214444916358349
    CDU_CR00_0 YKER_CR00_0 -0.10646372452567733
    CDU_CR00_0 YDSL_CR00_0 -0.20292085263352289
    CDU_CR00_0 YVGO_CR00_0 -0.27390944719057636
    CDU_CR00_0 YRES_CR00_0 -0.28147542808042036
    M2268 'MARKER' 'INTORG'
    NPAR_CR01_0 PARCEL_CR01_0 -20.0
    M2270 'MARKER' 'INTEND'
    BUY_CR01_0 OBJ -73.89697855599655
    BUY_CR01_0 PARCEL_CR01_0 1.0
    BUY_CR01_0 CBAL_CR01_0 1.0
    CINV_CR01_0 OBJ -0.3
    CINV_CR01_0 CBAL_CR01_0 -1.0
    CINV_CR01_0 CBAL_CR01_1 1.0
    CDU_CR01_0 CBAL_CR01_0 -1.0
    CDU_CR01_0 CDUCAP_0 1.0
    CDU_CR01_0 CDUMIN_0 1.0
    CDU_CR01_0 YLPG_CR01_0 -0.025127543584387436
    CDU_CR01_0 YNAP_CR01_0 -0.2025917905849106
    CDU_CR01_0 YKER_CR01_0 -0.13410952106049506
    CDU_CR01_0 YDSL_CR01_0 -0.24728591651278542
    CDU_CR01_0 YVGO_CR01_0 -0.22897185950088417
    CDU_CR01_0 YRES_CR01_0 -0.16191336875653717
    M2286 'MARKER' 'INTORG'
    NPAR_CR02_0 PARCEL_CR02_0 -20.0
    M2288 'MARKER' 'INTEND'
    BUY_CR02_0 OBJ -60.70526112798834
    BUY_CR02_0 PARCEL_CR02_0 1.0
    BUY_CR02_0 CBAL_CR02_0 1.0
    CINV_CR02_0 OBJ -0.3
    CINV_CR02_0 CBAL_CR02_0 -1.0
    CINV_CR02_0 CBAL_CR02_1 1.0
    CDU_CR02_0 CBAL_CR02_0 -1.0
    CDU_CR02_0 CDUCAP_0 1.0
    CDU_CR02_0 CDUMIN_0 1.0
    CDU_CR02_0 YLPG_CR02_0 -0.013444753666275039
    CDU_CR02_0 YNAP_CR02_0 -0.11889710072836579
    CDU_CR02_0 YKER_CR02_0 -0.103840437143255
    CDU_CR02_0 YDSL_CR02_0 -0.21229612809407214
    CDU_CR02_0 YVGO_CR02_0 -0.2628713956905896
    CDU_CR02_0 YRES_CR02_0 -0.28865018467744247
    M2304 'MARKER' 'INTORG'
    NPAR_CR03_0 PARCEL_CR03_0 -20.0
    M2306 'MARKER' 'INTEND'
    BUY_CR03_0 OBJ -66.99713974569379
    BUY_CR03_0 PARCEL_CR03_0 1.0
    BUY_CR03_0 CBAL_CR03_0 1.0
    CINV_CR03_0 OBJ -0.3
    CINV_CR03_0 CBAL_CR03_0 -1.0
    CINV_CR03_0 CBAL_CR03_1 1.0
    CDU_CR03_0 CBAL_CR03_0 -1.0
    CDU_CR03_0 CDUCAP_0 1.0
    CDU_CR03_0 CDUMIN_0 1.0
    CDU_CR03_0 YLPG_CR03_0 -0.01400858068810675
    CDU_CR03_0 YNAP_CR03_0 -0.1424923117986131
    CDU_CR03_0 YKER_CR03_0 -0.10784088582669263
    CDU_CR03_0 YDSL_CR03_0 -0.19279120630762445
    CDU_CR03_0 YVGO_CR03_0 -0.28544626211923063
    CDU_CR03_0 YRES_CR03_0 -0.2574207532597324
    M2322 'MARKER' 'INTORG'
    NPAR_CR04_0 PARCEL_CR04_0 -20.0
    M2324 'MARKER' 'INTEND'
    BUY_CR04_0 OBJ -72.467862682423
    BUY_CR04_0 PARCEL_CR04_0 1.0
    BUY_CR04_0 CBAL_CR04_0 1.0
    CINV_CR04_0 OBJ -0.3
    CINV_CR04_0 CBAL_CR04_0 -1.0
    CINV_CR04_0 CBAL_CR04_1 1.0
    CDU_CR04_0 CBAL_CR04_0 -1.0
    CDU_CR04_0 CDUCAP_0 1.0
    CDU_CR04_0 CDUMIN_0 1.0
    CDU_CR04_0 YLPG_CR04_0 -0.02335213093765316
    CDU_CR04_0 YNAP_CR04_0 -0.2292355396921612
    CDU_CR04_0 YKER_CR04_0 -0.14240695851543803
    CDU_CR04_0 YDSL_CR04_0 -0.24384363627499198
    CDU_CR04_0 YVGO_CR04_0 -0.2465326974706559
    CDU_CR04_0 YRES_CR04_0 -0.1146290371090997
    M2340 'MARKER' 'INTORG'
    NPAR_CR05_0 PARCEL_CR05_0 -20.0
    M2342 'MARKER' 'INTEND'
    BUY_CR05_0 OBJ -65.3973521144469
    BUY_CR05_0 PARCEL_CR05_0 1.0
    BUY_CR05_0 CBAL_CR05_0 1.0
    CINV_CR05_0 OBJ -0.3
    CINV_CR05_0 CBAL_CR05_0 -1.0
    CINV_CR05_0 CBAL_CR05_1 1.0
    CDU_CR05_0 CBAL_CR05_0 -1.0
    CDU_CR05_0 CDUCAP_0 1.0
    CDU_CR05_0 CDUMIN_0 1.0
    CDU_CR05_0 YLPG_CR05_0 -0.01735729802728813
    CDU_CR05_0 YNAP_CR05_0 -0.16608619710065003
    CDU_CR05_0 YKER_CR05_0 -0.1170544437563835
    CDU_CR05_0 YDSL_CR05_0 -0.22299235889970878
    CDU_CR05_0 YVGO_CR05_0 -0.2433490540516293
    CDU_CR05_0 YRES_CR05_0 -0.23316064816434035
    M2358 'MARKER' 'INTORG'
    NPAR_CR06_0 PARCEL_CR06_0 -20.0
    M2360 'MARKER' 'INTEND'
    BUY_CR06_0 OBJ -62.53639180729032
    BUY_CR06_0 PARCEL_CR06_0 1.0
    BUY_CR06_0 CBAL_CR06_0 1.0
    CINV_CR06_0 OBJ -0.3
    CINV_CR06_0 CBAL_CR06_0 -1.0
    CINV_CR06_0 CBAL_CR06_1 1.0
    CDU_CR06_0 CBAL_CR06_0 -1.0
    CDU_CR06_0 CDUCAP_0 1.0
    CDU_CR06_0 CDUMIN_0 1.0
    CDU_CR06_0 YLPG_CR06_0 -0.014219474855875663
    CDU_CR06_0 YNAP_CR06_0 -0.13746806025500902
    CDU_CR06_0 YKER_CR06_0 -0.10533897185985656
    CDU_CR06_0 YDSL_CR06_0 -0.20403840195434858
    CDU_CR06_0 YVGO_CR06_0 -0.26484358994429863
    CDU_CR06_0 YRES_CR06_0 -0.27409150113061165
    M2376 'MARKER' 'INTORG'
    NPAR_CR07_0 PARCEL_CR07_0 -20.0
    M2378 'MARKER' 'INTEND'
    BUY_CR07_0 OBJ -72.1688399097745
    BUY_CR07_0 PARCEL_CR07_0 1.0
    BUY_CR07_0 CBAL_CR07_0 1.0
    CINV_CR07_0 OBJ -0.3
    CINV_CR07_0 CBAL_CR07_0 -1.0
    CINV_CR07_0 CBAL_CR07_1 1.0
    CDU_CR07_0 CBAL_CR07_0 -1.0
    CDU_CR07_0 CDUCAP_0 1.0
    CDU_CR07_0 CDUMIN_0 1.0
    CDU_CR07_0 YLPG_CR07_0 -0.01678766142162217
    CDU_CR07_0 YNAP_CR07_0 -0.18341674311422207
    CDU_CR07_0 YKER_CR07_0 -0.13271469159016522
    CDU_CR07_0 YDSL_CR07_0 -0.2249127244045356
    CDU_CR07_0 YVGO_CR07_0 -0.24848613807316539
    CDU_CR07_0 YRES_CR07_0 -0.19368204139628944
    M2394 'MARKER' 'INTORG'
    NPAR_CR08_0 PARCEL_CR08_0 -20.0
    M2396 'MARKER' 'INTEND'
    BUY_CR08_0 OBJ -70.53287633779287
    BUY_CR08_0 PARCEL_CR08_0 1.0
    BUY_CR08_0 CBAL_CR08_0 1.0
    CINV_CR08_0 OBJ -0.3
    CINV_CR08_0 CBAL_CR08_0 -1.0
    CINV_CR08_0 CBAL_CR08_1 1.0
    CDU_CR08_0 CBAL_CR08_0 -1.0
    CDU_CR08_0 CDUCAP_0 1.0
    CDU_CR08_0 CDUMIN_0 1.0
    CDU_CR08_0 YLPG_CR08_0 -0.023930881960770135
    CDU_CR08_0 YNAP_CR08_0 -0.199474063989656
    CDU_CR08_0 YKER_CR08_0 -0.13012967624359006
    CDU_CR08_0 YDSL_CR08_0 -0.24906213509239003
    CDU_CR08_0 YVGO_CR08_0 -0.24247509330512357
    CDU_CR08_0 YRES_CR08_0 -0.15492814940847022
    M2412 'MARKER' 'INTORG'
    NPAR_CR09_0 PARCEL_CR09_0 -20.0
    M2414 'MARKER' 'INTEND'
    BUY_CR09_0 OBJ -79.33747486007482
    BUY_CR09_0 PARCEL_CR09_0 1.0
    BUY_CR09_0 CBAL_CR09_0 1.0
    CINV_CR09_0 OBJ -0.3
    CINV_CR09_0 CBAL_CR09_0 -1.0
    CINV_CR09_0 CBAL_CR09_1 1.0
    CDU_CR09_0 CBAL_CR09_0 -1.0
    CDU_CR09_0 CDUCAP_0 1.0
    CDU_CR09_0 CDUMIN_0 1.0
    CDU_CR09_0 YLPG_CR09_0 -0.0254414593142613
    CDU_CR09_0 YNAP_CR09_0 -0.2406668892422991
    CDU_CR09_0 YKER_CR09_0 -0.14150533274546892
    CDU_CR09_0 YDSL_CR09_0 -0.23713673044274025
    CDU_CR09_0 YVGO_CR09_0 -0.23566730460149374
    CDU_CR09_0 YRES_CR09_0 -0.11958228365373665
    M2430 'MARKER' 'INTORG'
    CDUMODE_0 OBJ -150.0
    CDUMODE_0 CDUCAP_0 -150.0
    CDUMODE_0 CDUMIN_0 -90.0
    M2434 'MARKER' 'INTEND'
    LPG_CR00_0 YLPG_CR00_0 1.0
    LPG_CR00_0 LPGBAL_0 -1.0
    NAP_CR00_0 YNAP_CR00_0 1.0
    NAP_CR00_0 NAPBAL_CR00_0 1.0
    KER_CR00_0 YKER_CR00_0 1.0
    KER_CR00_0 KERBAL_CR00_0 1.0
    DSL_CR00_0 YDSL_CR00_0 1.0
    DSL_CR00_0 DSLBAL_CR00_0 1.0
    VGO_CR00_0 YVGO_CR00_0 1.0
    VGO_CR00_0 VGOBAL_CR00_0 1.0
    RES_CR00_0 YRES_CR00_0 1.0
    RES_CR00_0 RESSPLIT_CR00_0 1.0
    LPG_CR01_0 YLPG_CR01_0 1.0
    LPG_CR01_0 LPGBAL_0 -1.0
    NAP_CR01_0 YNAP_CR01_0 1.0
    NAP_CR01_0 NAPBAL_CR01_0 1.0
    KER_CR01_0 YKER_CR01_0 1.0
    KER_CR01_0 KERBAL_CR01_0 1.0
    DSL_CR01_0 YDSL_CR01_0 1.0
    DSL_CR01_0 DSLBAL_CR01_0 1.0
    VGO_CR01_0 YVGO_CR01_0 1.0
    VGO_CR01_0 VGOBAL_CR01_0 1.0
    RES_CR01_0 YRES_CR01_0 1.0
    RES_CR01_0 RESSPLIT_CR01_0 1.0
    LPG_CR02_0 YLPG_CR02_0 1.0
    LPG_CR02_0 LPGBAL_0 -1.0
    NAP_CR02_0 YNAP_CR02_0 1.0
    NAP_CR02_0 NAPBAL_CR02_0 1.0
    KER_CR02_0 YKER_CR02_0 1.0
    KER_CR02_0 KERBAL_CR02_0 1.0
    DSL_CR02_0 YDSL_CR02_0 1.0
    DSL_CR02_0 DSLBAL_CR02_0 1.0
    VGO_CR02_0 YVGO_CR02_0 1.0
    VGO_CR02_0 VGOBAL_CR02_0 1.0
    RES_CR02_0 YRES_CR02_0 1.0
    RES_CR02_0 RESSPLIT_CR02_0 1.0
    LPG_CR03_0 YLPG_CR03_0 1.0
    LPG_CR03_0 LPGBAL_0 -1.0
    NAP_CR03_0 YNAP_CR03_0 1.0
    NAP_CR03_0 NAPBAL_CR03_0 1.0
    KER_CR03_0 YKER_CR03_0 1.0
    KER_CR03_0 KERBAL_CR03_0 1.0
    DSL_CR03_0 YDSL_CR03_0 1.0
    DSL_CR03_0 DSLBAL_CR03_0 1.0
    VGO_CR03_0 YVGO_CR03_0 1.0
    VGO_CR03_0 VGOBAL_CR03_0 1.0
    RES_CR03_0 YRES_CR03_0 1.0
    RES_CR03_0 RESSPLIT_CR03_0 1.0
    LPG_CR04_0 YLPG_CR04_0 1.0
    LPG_CR04_0 LPGBAL_0 -1.0
    NAP_CR04_0 YNAP_CR04_0 1.0
    NAP_CR04_0 NAPBAL_CR04_0 1.0
    KER_CR04_0 YKER_CR04_0 1.0
    KER_CR04_0 KERBAL_CR04_0 1.0
    DSL_CR04_0 YDSL_CR04_0 1.0
    DSL_CR04_0 DSLBAL_CR04_0 1.0
    VGO_CR04_0 YVGO_CR04_0 1.0
    VGO_CR04_0 VGOBAL_CR04_0 1.0
    RES_CR04_0 YRES_CR04_0 1.0
    RES_CR04_0 RESSPLIT_CR04_0 1.0
    LPG_CR05_0 YLPG_CR05_0 1.0
    LPG_CR05_0 LPGBAL_0 -1.0
    NAP_CR05_0 YNAP_CR05_0 1.0
    NAP_CR05_0 NAPBAL_CR05_0 1.0
    KER_CR05_0 YKER_CR05_0 1.0
    KER_CR05_0 KERBAL_CR05_0 1.0
    DSL_CR05_0 YDSL_CR05_0 1.0
    DSL_CR05_0 DSLBAL_CR05_0 1.0
    VGO_CR05_0 YVGO_CR05_0 1.0
    VGO_CR05_0 VGOBAL_CR05_0 1.0
    RES_CR05_0 YRES_CR05_0 1.0
    RES_CR05_0 RESSPLIT_CR05_0 1.0
    LPG_CR06_0 YLPG_CR06_0 1.0
    LPG_CR06_0 LPGBAL_0 -1.0
    NAP_CR06_0 YNAP_CR06_0 1.0
    NAP_CR06_0 NAPBAL_CR06_0 1.0
    KER_CR06_0 YKER_CR06_0 1.0
    KER_CR06_0 KERBAL_CR06_0 1.0
    DSL_CR06_0 YDSL_CR06_0 1.0
    DSL_CR06_0 DSLBAL_CR06_0 1.0
    VGO_CR06_0 YVGO_CR06_0 1.0
    VGO_CR06_0 VGOBAL_CR06_0 1.0
    RES_CR06_0 YRES_CR06_0 1.0
    RES_CR06_0 RESSPLIT_CR06_0 1.0
    LPG_CR07_0 YLPG_CR07_0 1.0
    LPG_CR07_0 LPGBAL_0 -1.0
    NAP_CR07_0 YNAP_CR07_0 1.0
    NAP_CR07_0 NAPBAL_CR07_0 1.0
    KER_CR07_0 YKER_CR07_0 1.0
    KER_CR07_0 KERBAL_CR07_0 1.0
    DSL_CR07_0 YDSL_CR07_0 1.0
    DSL_CR07_0 DSLBAL_CR07_0 1.0
    VGO_CR07_0 YVGO_CR07_0 1.0
    VGO_CR07_0 VGOBAL_CR07_0 1.0
    RES_CR07_0 YRES_CR07_0 1.0
    RES_CR07_0 RESSPLIT_CR07_0 1.0
    LPG_CR08_0 YLPG_CR08_0 1.0
    LPG_CR08_0 LPGBAL_0 -1.0
    NAP_CR08_0 YNAP_CR08_0 1.0
    NAP_CR08_0 NAPBAL_CR08_0 1.0
    KER_CR08_0 YKER_CR08_0 1.0
    KER_CR08_0 KERBAL_CR08_0 1.0
    DSL_CR08_0 YDSL_CR08_0 1.0
    DSL_CR08_0 DSLBAL_CR08_0 1.0
    VGO_CR08_0 YVGO_CR08_0 1.0
    VGO_CR08_0 VGOBAL_CR08_0 1.0
    RES_CR08_0 YRES_CR08_0 1.0
    RES_CR08_0 RESSPLIT_CR08_0 1.0
    LPG_CR09_0 YLPG_CR09_0 1.0
    LPG_CR09_0 LPGBAL_0 -1.0
    NAP_CR09_0 YNAP_CR09_0 1.0
    NAP_CR09_0 NAPBAL_CR09_0 1.0
    KER_CR09_0 YKER_CR09_0 1.0
    KER_CR09_0 KERBAL_CR09_0 1.0
    DSL_CR09_0 YDSL_CR09_0 1.0
    DSL_CR09_0 DSLBAL_CR09_0 1.0
    VGO_CR09_0 YVGO_CR09_0 1.0
    VGO_CR09_0 VGOBAL_CR09_0 1.0
    RES_CR09_0 YRES_CR09_0 1.0
    RES_CR09_0 RESSPLIT_CR09_0 1.0
    VDUIN_CR00_0 RESSPLIT_CR00_0 -1.0
    VDUIN_CR00_0 VDUY1_CR00_0 -0.45
    VDUIN_CR00_0 VDUY2_CR00_0 -0.55
    VDUIN_CR00_0 VDUCAP_0 1.0
    RESFO_CR00_0 RESSPLIT_CR00_0 -1.0
    RESFO_CR00_0 FOBAL_0 -1.0
    RESFO_CR00_0 FOSUL_0 1.9540891690108433
    VGO2_CR00_0 VDUY1_CR00_0 1.0
    VGO2_CR00_0 VGOBAL_CR00_0 1.0
    VR_CR00_0 VDUY2_CR00_0 1.0
    VR_CR00_0 FOBAL_0 -1.0
    VR_CR00_0 FOSUL_0 3.5903159197140964
    VDUIN_CR01_0 RESSPLIT_CR01_0 -1.0
    VDUIN_CR01_0 VDUY1_CR01_0 -0.45
    VDUIN_CR01_0 VDUY2_CR01_0 -0.55
    VDUIN_CR01_0 VDUCAP_0 1.0
    RESFO_CR01_0 RESSPLIT_CR01_0 -1.0
    RESFO_CR01_0 FOBAL_0 -1.0
    RESFO_CR01_0 FOSUL_0 -0.6168441789886687
    VGO2_CR01_0 VDUY1_CR01_0 1.0
    VGO2_CR01_0 VGOBAL_CR01_0 1.0
    VR_CR01_0 VDUY2_CR01_0 1.0
    VR_CR01_0 FOBAL_0 -1.0
    VR_CR01_0 FOSUL_0 0.24810256731473057
    VDUIN_CR02_0 RESSPLIT_CR02_0 -1.0
    VDUIN_CR02_0 VDUY1_CR02_0 -0.45
    VDUIN_CR02_0 VDUY2_CR02_0 -0.55
    VDUIN_CR02_0 VDUCAP_0 1.0
    RESFO_CR02_0 RESSPLIT_CR02_0 -1.0
    RESFO_CR02_0 FOBAL_0 -1.0
    RESFO_CR02_0 FOSUL_0 0.05675733131967897
    VGO2_CR02_0 VDUY1_CR02_0 1.0
    VGO2_CR02_0 VGOBAL_CR02_0 1.0
    VR_CR02_0 VDUY2_CR02_0 1.0
    VR_CR02_0 FOBAL_0 -1.0
    VR_CR02_0 FOSUL_0 1.1237845307155832
    VDUIN_CR03_0 RESSPLIT_CR03_0 -1.0
    VDUIN_CR03_0 VDUY1_CR03_0 -0.45
    VDUIN_CR03_0 VDUY2_CR03_0 -0.55
    VDUIN_CR03_0 VDUCAP_0 1.0
    RESFO_CR03_0 RESSPLIT_CR03_0 -1.0
    RESFO_CR03_0 FOBAL_0 -1.0
    RESFO_CR03_0 FOSUL_0 -1.8686274424458973
    VGO2_CR03_0 VDUY1_CR03_0 1.0
    VGO2_CR03_0 VGOBAL_CR03_0 1.0
    VR_CR03_0 VDUY2_CR03_0 1.0
    VR_CR03_0 FOBAL_0 -1.0
    VR_CR03_0 FOSUL_0 -1.3792156751796663
    VDUIN_CR04_0 RESSPLIT_CR04_0 -1.0
    VDUIN_CR04_0 VDUY1_CR04_0 -0.45
    VDUIN_CR04_0 VDUY2_CR04_0 -0.55
    VDUIN_CR04_0 VDUCAP_0 1.0
    RESFO_CR04_0 RESSPLIT_CR04_0 -1.0
    RESFO_CR04_0 FOBAL_0 -1.0
    RESFO_CR04_0 FOSUL_0 2.031668478530798
    VGO2_CR04_0 VDUY1_CR04_0 1.0
    VGO2_CR04_0 VGOBAL_CR04_0 1.0
    VR_CR04_0 VDUY2_CR04_0 1.0
    VR_CR04_0 FOBAL_0 -1.0
    VR_CR04_0 FOSUL_0 3.6911690220900377
    VDUIN_CR05_0 RESSPLIT_CR05_0 -1.0
    VDUIN_CR05_0 VDUY1_CR05_0 -0.45
    VDUIN_CR05_0 VDUY2_CR05_0 -0.55
    VDUIN_CR05_0 VDUCAP_0 1.0
    RESFO_CR05_0 RESSPLIT_CR05_0 -1.0
    RESFO_CR05_0 FOBAL_0 -1.0
    RESFO_CR05_0 FOSUL_0 0.3429997580900688
    VGO2_CR05_0 VDUY1_CR05_0 1.0
    VGO2_CR05_0 VGOBAL_CR05_0 1.0
    VR_CR05_0 VDUY2_CR05_0 1.0
    VR_CR05_0 FOBAL_0 -1.0
    VR_CR05_0 FOSUL_0 1.4958996855170898
    VDUIN_CR06_0 RESSPLIT_CR06_0 -1.0
    VDUIN_CR06_0 VDUY1_CR06_0 -0.45
    VDUIN_CR06_0 VDUY2_CR06_0 -0.55
    VDUIN_CR06_0 VDUCAP_0 1.0
    RESFO_CR06_0 RESSPLIT_CR06_0 -1.0
    RESFO_CR06_0 FOBAL_0 -1.0
    RESFO_CR06_0 FOSUL_0 0.10255232060654862
    VGO2_CR06_0 VDUY1_CR06_0 1.0
    VGO2_CR06_0 VGOBAL_CR06_0 1.0
    VR_CR06_0 VDUY2_CR06_0 1.0
    VR_CR06_0 FOBAL_0 -1.0
    VR_CR06_0 FOSUL_0 1.1833180167885136
    VDUIN_CR07_0 RESSPLIT_CR07_0 -1.0
    VDUIN_CR07_0 VDUY1_CR07_0 -0.45
    VDUIN_CR07_0 VDUY2_CR07_0 -0.55
    VDUIN_CR07_0 VDUCAP_0 1.0
    RESFO_CR07_0 RESSPLIT_CR07_0 -1.0
    RESFO_CR07_0 FOBAL_0 -1.0
    RESFO_CR07_0 FOSUL_0 -3.116635223405176
    VGO2_CR07_0 VDUY1_CR07_0 1.0
    VGO2_CR07_0 VGOBAL_CR07_0 1.0
    VR_CR07_0 VDUY2_CR07_0 1.0
    VR_CR07_0 FOBAL_0 -1.0
    VR_CR07_0 FOSUL_0 -3.001625790426729
    VDUIN_CR08_0 RESSPLIT_CR08_0 -1.0
    VDUIN_CR08_0 VDUY1_CR08_0 -0.45
    VDUIN_CR08_0 VDUY2_CR08_0 -0.55
    VDUIN_CR08_0 VDUCAP_0 1.0
    RESFO_CR08_0 RESSPLIT_CR08_0 -1.0
    RESFO_CR08_0 FOBAL_0 -1.0
    RESFO_CR08_0 FOSUL_0 0.0456281803886287
    VGO2_CR08_0 VDUY1_CR08_0 1.0
    VGO2_CR08_0 VGOBAL_CR08_0 1.0
    VR_CR08_0 VDUY2_CR08_0 1.0
    VR_CR08_0 FOBAL_0 -1.0
    VR_CR08_0 FOSUL_0 1.109316634505218
    VDUIN_CR09_0 RESSPLIT_CR09_0 -1.0
    VDUIN_CR09_0 VDUY1_CR09_0 -0.45
    VDUIN_CR09_0 VDUY2_CR09_0 -0.55
    VDUIN_CR09_0 VDUCAP_0 1.0
    RESFO_CR09_0 RESSPLIT_CR09_0 -1.0
    RESFO_CR09_0 FOBAL_0 -1.0
    RESFO_CR09_0 FOSUL_0 -3.264603397407564
    VGO2_CR09_0 VDUY1_CR09_0 1.0
    VGO2_CR09_0 VGOBAL_CR09_0 1.0
    VR_CR09_0 VDUY2_CR09_0 1.0
    VR_CR09_0 FOBAL_0 -1.0
    VR_CR09_0 FOSUL_0 -3.1939844166298332
    FCCIN_CR00_0 OBJ -2.5
    FCCIN_CR00_0 VGOBAL_CR00_0 -1.0
    FCCIN_CR00_0 FCCCAP_0 1.0
    FCCIN_CR00_0 FCCY_FCCG_0 -0.55
    FCCIN_CR00_0 FCCY_LCO_0 -0.2
    FCCIN_CR00_0 FCCY_FLPG_0 -0.15
    FCCIN_CR00_0 FCCY_SLURRY_0 -0.07
    FCCIN_CR01_0 OBJ -2.5
    FCCIN_CR01_0 VGOBAL_CR01_0 -1.0
    FCCIN_CR01_0 FCCCAP_0 1.0
    FCCIN_CR01_0 FCCY_FCCG_0 -0.55
    FCCIN_CR01_0 FCCY_LCO_0 -0.2
    FCCIN_CR01_0 FCCY_FLPG_0 -0.15
    FCCIN_CR01_0 FCCY_SLURRY_0 -0.07
    FCCIN_CR02_0 OBJ -2.5
    FCCIN_CR02_0 VGOBAL_CR02_0 -1.0
    FCCIN_CR02_0 FCCCAP_0 1.0
    FCCIN_CR02_0 FCCY_FCCG_0 -0.55
    FCCIN_CR02_0 FCCY_LCO_0 -0.2
    FCCIN_CR02_0 FCCY_FLPG_0 -0.15
    FCCIN_CR02_0 FCCY_SLURRY_0 -0.07
    FCCIN_CR03_0 OBJ -2.5
    FCCIN_CR03_0 VGOBAL_CR03_0 -1.0
    FCCIN_CR03_0 FCCCAP_0 1.0
    FCCIN_CR03_0 FCCY_FCCG_0 -0.55
    FCCIN_CR03_0 FCCY_LCO_0 -0.2
    FCCIN_CR03_0 FCCY_FLPG_0 -0.15
    FCCIN_CR03_0 FCCY_SLURRY_0 -0.07
    FCCIN_CR04_0 OBJ -2.5
    FCCIN_CR04_0 VGOBAL_CR04_0 -1.0
    FCCIN_CR04_0 FCCCAP_0 1.0
    FCCIN_CR04_0 FCCY_FCCG_0 -0.55
    FCCIN_CR04_0 FCCY_LCO_0 -0.2
    FCCIN_CR04_0 FCCY_FLPG_0 -0.15
    FCCIN_CR04_0 FCCY_SLURRY_0 -0.07
    FCCIN_CR05_0 OBJ -2.5
    FCCIN_CR05_0 VGOBAL_CR05_0 -1.0
    FCCIN_CR05_0 FCCCAP_0 1.0
    FCCIN_CR05_0 FCCY_FCCG_0 -0.55
    FCCIN_CR05_0 FCCY_LCO_0 -0.2
    FCCIN_CR05_0 FCCY_FLPG_0 -0.15
    FCCIN_CR05_0 FCCY_SLURRY_0 -0.07
    FCCIN_CR06_0 OBJ -2.5
    FCCIN_CR06_0 VGOBAL_CR06_0 -1.0
    FCCIN_CR06_0 FCCCAP_0 1.0
    FCCIN_CR06_0 FCCY_FCCG_0 -0.55
    FCCIN_CR06_0 FCCY_LCO_0 -0.2
    FCCIN_CR06_0 FCCY_FLPG_0 -0.15
    FCCIN_CR06_0 FCCY_SLURRY_0 -0.07
    FCCIN_CR07_0 OBJ -2.5
    FCCIN_CR07_0 VGOBAL_CR07_0 -1.0
    FCCIN_CR07_0 FCCCAP_0 1.0
    FCCIN_CR07_0 FCCY_FCCG_0 -0.55
    FCCIN_CR07_0 FCCY_LCO_0 -0.2
    FCCIN_CR07_0 FCCY_FLPG_0 -0.15
    FCCIN_CR07_0 FCCY_SLURRY_0 -0.07
    FCCIN_CR08_0 OBJ -2.5
    FCCIN_CR08_0 VGOBAL_CR08_0 -1.0
    FCCIN_CR08_0 FCCCAP_0 1.0
    FCCIN_CR08_0 FCCY_FCCG_0 -0.55
    FCCIN_CR08_0 FCCY_LCO_0 -0.2
    FCCIN_CR08_0 FCCY_FLPG_0 -0.15
    FCCIN_CR08_0 FCCY_SLURRY_0 -0.07
    FCCIN_CR09_0 OBJ -2.5
    FCCIN_CR09_0 VGOBAL_CR09_0 -1.0
    FCCIN_CR09_0 FCCCAP_0 1.0
    FCCIN_CR09_0 FCCY_FCCG_0 -0.55
    FCCIN_CR09_0 FCCY_LCO_0 -0.2
    FCCIN_CR09_0 FCCY_FLPG_0 -0.15
    FCCIN_CR09_0 FCCY_SLURRY_0 -0.07
    FCCG_0 FCCY_FCCG_0 1.0
    FCCG_0 GASBAL_0 -1.0
    FCCG_0 GASRON_0 1.0
    LCO_0 FCCY_LCO_0 1.0
    LCO_0 LCOBAL_0 1.0
    FLPG_0 FCCY_FLPG_0 1.0
    FLPG_0 LPGBAL_0 -1.0
    SLURRY_0 FCCY_SLURRY_0 1.0
    SLURRY_0 FOBAL_0 -1.0
    SLURRY_0 FOSUL_0 -1.5
    REFIN_CR00_0 OBJ -3.0
    REFIN_CR00_0 NAPBAL_CR00_0 -1.0
    REFIN_CR00_0 REFCAP_0 1.0
    REFIN_CR00_0 REFY_0 -0.85
    NAPGAS_CR00_0 NAPBAL_CR00_0 -1.0
    NAPGAS_CR00_0 GASBAL_0 -1.0
    NAPGAS_CR00_0 GASRON_0 -41.351908455631545
    REFIN_CR01_0 OBJ -3.0
    REFIN_CR01_0 NAPBAL_CR01_0 -1.0
    REFIN_CR01_0 REFCAP_0 1.0
    REFIN_CR01_0 REFY_0 -0.85
    NAPGAS_CR01_0 NAPBAL_CR01_0 -1.0
    NAPGAS_CR01_0 GASBAL_0 -1.0
    NAPGAS_CR01_0 GASRON_0 -33.623043958680114
    REFIN_CR02_0 OBJ -3.0
    REFIN_CR02_0 NAPBAL_CR02_0 -1.0
    REFIN_CR02_0 REFCAP_0 1.0
    REFIN_CR02_0 REFY_0 -0.85
    NAPGAS_CR02_0 NAPBAL_CR02_0 -1.0
    NAPGAS_CR02_0 GASBAL_0 -1.0
    NAPGAS_CR02_0 GASRON_0 -39.74522208078083
    REFIN_CR03_0 OBJ -3.0
    REFIN_CR03_0 NAPBAL_CR03_0 -1.0
    REFIN_CR03_0 REFCAP_0 1.0
    REFIN_CR03_0 REFY_0 -0.85
    NAPGAS_CR03_0 NAPBAL_CR03_0 -1.0
    NAPGAS_CR03_0 GASBAL_0 -1.0
    NAPGAS_CR03_0 GASRON_0 -39.32063345179839
    REFIN_CR04_0 OBJ -3.0
    REFIN_CR04_0 NAPBAL_CR04_0 -1.0
    REFIN_CR04_0 REFCAP_0 1.0
    REFIN_CR04_0 REFY_0 -0.85
    NAPGAS_CR04_0 NAPBAL_CR04_0 -1.0
    NAPGAS_CR04_0 GASBAL_0 -1.0
    NAPGAS_CR04_0 GASRON_0 -28.06018906757886
    REFIN_CR05_0 OBJ -3.0
    REFIN_CR05_0 NAPBAL_CR05_0 -1.0
    REFIN_CR05_0 REFCAP_0 1.0
    REFIN_CR05_0 REFY_0 -0.85
    NAPGAS_CR05_0 NAPBAL_CR05_0 -1.0
    NAPGAS_CR05_0 GASBAL_0 -1.0
    NAPGAS_CR05_0 GASRON_0 -37.177062383933254
    REFIN_CR06_0 OBJ -3.0
    REFIN_CR06_0 NAPBAL_CR06_0 -1.0
    REFIN_CR06_0 REFCAP_0 1.0
    REFIN_CR06_0 REFY_0 -0.85
    NAPGAS_CR06_0 NAPBAL_CR06_0 -1.0
    NAPGAS_CR06_0 GASBAL_0 -1.0
    NAPGAS_CR06_0 GASRON_0 -38.73738801284508
    REFIN_CR07_0 OBJ -3.0
    REFIN_CR07_0 NAPBAL_CR07_0 -1.0
    REFIN_CR07_0 REFCAP_0 1.0
    REFIN_CR07_0 REFY_0 -0.85
    NAPGAS_CR07_0 NAPBAL_CR07_0 -1.0
    NAPGAS_CR07_0 GASBAL_0 -1.0
    NAPGAS_CR07_0 GASRON_0 -31.720911449683953
    REFIN_CR08_0 OBJ -3.0
    REFIN_CR08_0 NAPBAL_CR08_0 -1.0
    REFIN_CR08_0 REFCAP_0 1.0
    REFIN_CR08_0 REFY_0 -0.85
    NAPGAS_CR08_0 NAPBAL_CR08_0 -1.0
    NAPGAS_CR08_0 GASBAL_0 -1.0
    NAPGAS_CR08_0 GASRON_0 -31.236267605063702
    REFIN_CR09_0 OBJ -3.0
    REFIN_CR09_0 NAPBAL_CR09_0 -1.0
    REFIN_CR09_0 REFCAP_0 1.0
    REFIN_CR09_0 REFY_0 -0.85
    NAPGAS_CR09_0 NAPBAL_CR09_0 -1.0
    NAPGAS_CR09_0 GASBAL_0 -1.0
    NAPGAS_CR09_0 GASRON_0 -29.9151768258086
    REFORMATE_0 REFY_0 1.0
    REFORMATE_0 GASBAL_0 -1.0
    REFORMATE_0 GASRON_0 7.0
    DHTIN_CR00_0 OBJ -2.0
    DHTIN_CR00_0 DSLBAL_CR00_0 -1.0
    DHTIN_CR00_0 DHTCAP_0 1.0
    DHTIN_CR00_0 DHTY_0 -0.98
    DSLDIR_CR00_0 DSLBAL_CR00_0 -1.0
    DSLDIR_CR00_0 DSLPB_0 -1.0
    DSLDIR_CR00_0 DSLSUL_0 1.5862267507032528
    DHTIN_CR01_0 OBJ -2.0
    DHTIN_CR01_0 DSLBAL_CR01_0 -1.0
    DHTIN_CR01_0 DHTCAP_0 1.0
    DHTIN_CR01_0 DHTY_0 -0.98
    DSLDIR_CR01_0 DSLBAL_CR01_0 -1.0
    DSLDIR_CR01_0 DSLPB_0 -1.0
    DSLDIR_CR01_0 DSLSUL_0 0.8149467463033994
    DHTIN_CR02_0 OBJ -2.0
    DHTIN_CR02_0 DSLBAL_CR02_0 -1.0
    DHTIN_CR02_0 DHTCAP_0 1.0
    DHTIN_CR02_0 DHTY_0 -0.98
    DSLDIR_CR02_0 DSLBAL_CR02_0 -1.0
    DSLDIR_CR02_0 DSLPB_0 -1.0
    DSLDIR_CR02_0 DSLSUL_0 1.0170271993959037
    DHTIN_CR03_0 OBJ -2.0
    DHTIN_CR03_0 DSLBAL_CR03_0 -1.0
    DHTIN_CR03_0 DHTCAP_0 1.0
    DHTIN_CR03_0 DHTY_0 -0.98
    DSLDIR_CR03_0 DSLBAL_CR03_0 -1.0
    DSLDIR_CR03_0 DSLPB_0 -1.0
    DSLDIR_CR03_0 DSLSUL_0 0.4394117672662308
    DHTIN_CR04_0 OBJ -2.0
    DHTIN_CR04_0 DSLBAL_CR04_0 -1.0
    DHTIN_CR04_0 DHTCAP_0 1.0
    DHTIN_CR04_0 DHTY_0 -0.98
    DSLDIR_CR04_0 DSLBAL_CR04_0 -1.0
    DSLDIR_CR04_0 DSLPB_0 -1.0
    DSLDIR_CR04_0 DSLSUL_0 1.6095005435592393
    DHTIN_CR05_0 OBJ -2.0
    DHTIN_CR05_0 DSLBAL_CR05_0 -1.0
    DHTIN_CR05_0 DHTCAP_0 1.0
    DHTIN_CR05_0 DHTY_0 -0.98
    DSLDIR_CR05_0 DSLBAL_CR05_0 -1.0
    DSLDIR_CR05_0 DSLPB_0 -1.0
    DSLDIR_CR05_0 DSLSUL_0 1.1028999274270206
    DHTIN_CR06_0 OBJ -2.0
    DHTIN_CR06_0 DSLBAL_CR06_0 -1.0
    DHTIN_CR06_0 DHTCAP_0 1.0
    DHTIN_CR06_0 DHTY_0 -0.98
    DSLDIR_CR06_0 DSLBAL_CR06_0 -1.0
    DSLDIR_CR06_0 DSLPB_0 -1.0
    DSLDIR_CR06_0 DSLSUL_0 1.0307656961819645
    DHTIN_CR07_0 OBJ -2.0
    DHTIN_CR07_0 DSLBAL_CR07_0 -1.0
    DHTIN_CR07_0 DHTCAP_0 1.0
    DHTIN_CR07_0 DHTY_0 -0.98
    DSLDIR_CR07_0 DSLBAL_CR07_0 -1.0
    DSLDIR_CR07_0 DSLPB_0 -1.0
    DSLDIR_CR07_0 DSLSUL_0 0.06500943297844713
    DHTIN_CR08_0 OBJ -2.0
    DHTIN_CR08_0 DSLBAL_CR08_0 -1.0
    DHTIN_CR08_0 DHTCAP_0 1.0
    DHTIN_CR08_0 DHTY_0 -0.98
    DSLDIR_CR08_0 DSLBAL_CR08_0 -1.0
    DSLDIR_CR08_0 DSLPB_0 -1.0
    DSLDIR_CR08_0 DSLSUL_0 1.0136884541165885
    DHTIN_CR09_0 OBJ -2.0
    DHTIN_CR09_0 DSLBAL_CR09_0 -1.0
    DHTIN_CR09_0 DHTCAP_0 1.0
    DHTIN_CR09_0 DHTY_0 -0.98
    DSLDIR_CR09_0 DSLBAL_CR09_0 -1.0
    DSLDIR_CR09_0 DSLPB_0 -1.0
    DSLDIR_CR09_0 DSLSUL_0 0.020618980777730833
    LCODHT_0 LCOBAL_0 -1.0
    LCODHT_0 DHTCAP_0 1.0
    LCODHT_0 DHTY_0 -0.95
    LCOFO_0 LCOBAL_0 -1.0
    LCOFO_0 FOBAL_0 -1.0
    LCOFO_0 FOSUL_0 -2.5
    ULSD_0 DHTY_0 1.0
    ULSD_0 DSLPB_0 -1.0
    ULSD_0 DSLSUL_0 -0.049
    SELL_LPG_0 OBJ 55.0
    SELL_LPG_0 PBAL_LPG_0 -1.0
    SELL_LPG_0 DMAX_LPG_0 1.0
    SELL_LPG_0 DMIN_LPG_0 1.0
    SELL_GAS_0 OBJ 105.0
    SELL_GAS_0 PBAL_GAS_0 -1.0
    SELL_GAS_0 DMAX_GAS_0 1.0
    SELL_GAS_0 DMIN_GAS_0 1.0
    SELL_JET_0 OBJ 100.0
    SELL_JET_0 PBAL_JET_0 -1.0
    SELL_JET_0 DMAX_JET_0 1.0
    SELL_JET_0 DMIN_JET_0 1.0
    SELL_DSL_0 OBJ 98.0
    SELL_DSL_0 PBAL_DSL_0 -1.0
    SELL_DSL_0 DMAX_DSL_0 1.0
    SELL_DSL_0 DMIN_DSL_0 1.0
    SELL_FO_0 OBJ 60.0
    SELL_FO_0 PBAL_FO_0 -1.0
    SELL_FO_0 DMAX_FO_0 1.0
    SELL_FO_0 DMIN_FO_0 1.0
    PINV_LPG_0 OBJ -0.5
    PINV_LPG_0 PBAL_LPG_0 -1.0
    PINV_LPG_0 PBAL_LPG_1 1.0
    PINV_GAS_0 OBJ -0.5
    PINV_GAS_0 PBAL_GAS_0 -1.0
    PINV_GAS_0 PBAL_GAS_1 1.0
    PINV_JET_0 OBJ -0.5
    PINV_JET_0 PBAL_JET_0 -1.0
    PINV_JET_0 PBAL_JET_1 1.0
    PINV_DSL_0 OBJ -0.5
    PINV_DSL_0 PBAL_DSL_0 -1.0
    PINV_DSL_0 PBAL_DSL_1 1.0
    PINV_FO_0 OBJ -0.5
    PINV_FO_0 PBAL_FO_0 -1.0
    PINV_FO_0 PBAL_FO_1 1.0
    SHORT_LPG_0 OBJ -400.0
    SHORT_LPG_0 DMIN_LPG_0 1.0
    SHORT_GAS_0 OBJ -400.0
    SHORT_GAS_0 DMIN_GAS_0 1.0
    SHORT_JET_0 OBJ -400.0
    SHORT_JET_0 DMIN_JET_0 1.0
    SHORT_DSL_0 OBJ -400.0
    SHORT_DSL_0 DMIN_DSL_0 1.0
    SHORT_FO_0 OBJ -400.0
    SHORT_FO_0 DMIN_FO_0 1.0
    GASPOOL_0 GASBAL_0 1.0
    GASPOOL_0 PBAL_GAS_0 1.0
    JETPOOL_0 JETBAL_0 1.0
    JETPOOL_0 PBAL_JET_0 1.0
    KERJET_CR00_0 KERBAL_CR00_0 -1.0
    KERJET_CR00_0 JETBAL_0 -1.0
    KERJET_CR00_0 JETSUL_0 0.10905668767581322
    KERDSL_CR00_0 KERBAL_CR00_0 -1.0
    KERDSL_CR00_0 DSLPB_0 -1.0
    KERDSL_CR00_0 DSLSUL_0 0.3590566876758132
    KERJET_CR01_0 KERBAL_CR01_0 -1.0
    KERJET_CR01_0 JETBAL_0 -1.0
    KERJET_CR01_0 JETSUL_0 -0.08376331342415014
    KERDSL_CR01_0 KERBAL_CR01_0 -1.0
    KERDSL_CR01_0 DSLPB_0 -1.0
    KERDSL_CR01_0 DSLSUL_0 0.16623668657584983
    KERJET_CR02_0 KERBAL_CR02_0 -1.0
    KERJET_CR02_0 JETBAL_0 -1.0
    KERJET_CR02_0 JETSUL_0 -0.033243200151024055
    KERDSL_CR02_0 KERBAL_CR02_0 -1.0
    KERDSL_CR02_0 DSLPB_0 -1.0
    KERDSL_CR02_0 DSLSUL_0 0.21675679984897595
    KERJET_CR03_0 KERBAL_CR03_0 -1.0
    KERJET_CR03_0 JETBAL_0 -1.0
    KERJET_CR03_0 JETSUL_0 -0.17764705818344229
    KERDSL_CR03_0 KERBAL_CR03_0 -1.0
    KERDSL_CR03_0 DSLPB_0 -1.0
    KERDSL_CR03_0 DSLSUL_0 0.0723529418165577
    KERJET_CR04_0 KERBAL_CR04_0 -1.0
    KERJET_CR04_0 JETBAL_0 -1.0
    KERJET_CR04_0 JETSUL_0 0.11487513588980985
    KERDSL_CR04_0 KERBAL_CR04_0 -1.0
    KERDSL_CR04_0 DSLPB_0 -1.0
    KERDSL_CR04_0 DSLSUL_0 0.36487513588980985
    KERJET_CR05_0 KERBAL_CR05_0 -1.0
    KERJET_CR05_0 JETBAL_0 -1.0
    KERJET_CR05_0 JETSUL_0 -0.011775018143244831
    KERDSL_CR05_0 KERBAL_CR05_0 -1.0
    KERDSL_CR05_0 DSLPB_0 -1.0
    KERDSL_CR05_0 DSLSUL_0 0.23822498185675517
    KERJET_CR06_0 KERBAL_CR06_0 -1.0
    KERJET_CR06_0 JETBAL_0 -1.0
    KERJET_CR06_0 JETSUL_0 -0.029808575954508865
    KERDSL_CR06_0 KERBAL_CR06_0 -1.0
    KERDSL_CR06_0 DSLPB_0 -1.0
    KERDSL_CR06_0 DSLSUL_0 0.22019142404549114
    KERJET_CR07_0 KERBAL_CR07_0 -1.0
    KERJET_CR07_0 JETBAL_0 -1.0
    KERJET_CR07_0 JETSUL_0 -0.2712476417553882
    KERDSL_CR07_0 KERBAL_CR07_0 -1.0
    KERDSL_CR07_0 DSLPB_0 -1.0
    KERDSL_CR07_0 DSLSUL_0 -0.02124764175538822
    KERJET_CR08_0 KERBAL_CR08_0 -1.0
    KERJET_CR08_0 JETBAL_0 -1.0
    KERJET_CR08_0 JETSUL_0 -0.03407788647085286
    KERDSL_CR08_0 KERBAL_CR08_0 -1.0
    KERDSL_CR08_0 DSLPB_0 -1.0
    KERDSL_CR08_0 DSLSUL_0 0.21592211352914714
    KERJET_CR09_0 KERBAL_CR09_0 -1.0
    KERJET_CR09_0 JETBAL_0 -1.0
    KERJET_CR09_0 JETSUL_0 -0.28234525480556727
    KERDSL_CR09_0 KERBAL_CR09_0 -1.0
    KERDSL_CR09_0 DSLPB_0 -1.0
    KERDSL_CR09_0 DSLSUL_0 -0.0323452548055673
    DSLPOOL_0 DSLPB_0 1.0
    DSLPOOL_0 PBAL_DSL_0 1.0
    LPGPOOL_0 LPGBAL_0 1.0
    LPGPOOL_0 PBAL_LPG_0 1.0
    FOPOOL_0 FOBAL_0 1.0
    FOPOOL_0 PBAL_FO_0 1.0
    M3022 'MARKER' 'INTORG'
    NPAR_CR00_1 PARCEL_CR00_1 -20.0
    M3024 'MARKER' 'INTEND'
    BUY_CR00_1 OBJ -59.516571313433516
    BUY_CR00_1 PARCEL_CR00_1 1.0
    BUY_CR00_1 CBAL_CR00_1 1.0
    CINV_CR00_1 OBJ -0.3
    CINV_CR00_1 CBAL_CR00_1 -1.0
    CINV_CR00_1 CBAL_CR00_2 1.0
    CDU_CR00_1 CBAL_CR00_1 -1.0
    CDU_CR00_1 CDUCAP_1 1.0
    CDU_CR00_1 CDUMIN_1 1.0
    CDU_CR00_1 YLPG_CR00_1 -0.013786055933968056
    CDU_CR00_1 YNAP_CR00_1 -0.1214444916358349
    CDU_CR00_1 YKER_CR00_1 -0.10646372452567733
    CDU_CR00_1 YDSL_CR00_1 -0.20292085263352289
    CDU_CR00_1 YVGO_CR00_1 -0.27390944719057636
    CDU_CR00_1 YRES_CR00_1 -0.28147542808042036
    M3040 'MARKER' 'INTORG'
    NPAR_CR01_1 PARCEL_CR01_1 -20.0
    M3042 'MARKER' 'INTEND'
    BUY_CR01_1 OBJ -75.48784179033004
    BUY_CR01_1 PARCEL_CR01_1 1.0
    BUY_CR01_1 CBAL_CR01_1 1.0
    CINV_CR01_1 OBJ -0.3
    CINV_CR01_1 CBAL_CR01_1 -1.0
    CINV_CR01_1 CBAL_CR01_2 1.0
    CDU_CR01_1 CBAL_CR01_1 -1.0
    CDU_CR01_1 CDUCAP_1 1.0
    CDU_CR01_1 CDUMIN_1 1.0
    CDU_CR01_1 YLPG_CR01_1 -0.025127543584387436
    CDU_CR01_1 YNAP_CR01_1 -0.2025917905849106
    CDU_CR01_1 YKER_CR01_1 -0.13410952106049506
    CDU_CR01_1 YDSL_CR01_1 -0.24728591651278542
    CDU_CR01_1 YVGO_CR01_1 -0.22897185950088417
    CDU_CR01_1 YRES_CR01_1 -0.16191336875653717
    M3058 'MARKER' 'INTORG'
    NPAR_CR02_1 PARCEL_CR02_1 -20.0
    M3060 'MARKER' 'INTEND'
    BUY_CR02_1 OBJ -61.47085439874937
    BUY_CR02_1 PARCEL_CR02_1 1.0
    BUY_CR02_1 CBAL_CR02_1 1.0
    CINV_CR02_1 OBJ -0.3
    CINV_CR02_1 CBAL_CR02_1 -1.0
    CINV_CR02_1 CBAL_CR02_2 1.0
    CDU_CR02_1 CBAL_CR02_1 -1.0
    CDU_CR02_1 CDUCAP_1 1.0
    CDU_CR02_1 CDUMIN_1 1.0
    CDU_CR02_1 YLPG_CR02_1 -0.013444753666275039
    CDU_CR02_1 YNAP_CR02_1 -0.11889710072836579
    CDU_CR02_1 YKER_CR02_1 -0.103840437143255
    CDU_CR02_1 YDSL_CR02_1 -0.21229612809407214
    CDU_CR02_1 YVGO_CR02_1 -0.2628713956905896
    CDU_CR02_1 YRES_CR02_1 -0.28865018467744247
    M3076 'MARKER' 'INTORG'
    NPAR_CR03_1 PARCEL_CR03_1 -20.0
    M3078 'MARKER' 'INTEND'
    BUY_CR03_1 OBJ -68.41927786711894
    BUY_CR03_1 PARCEL_CR03_1 1.0
    BUY_CR03_1 CBAL_CR03_1 1.0
    CINV_CR03_1 OBJ -0.3
    CINV_CR03_1 CBAL_CR03_1 -1.0
    CINV_CR03_1 CBAL_CR03_2 1.0
    CDU_CR03_1 CBAL_CR03_1 -1.0
    CDU_CR03_1 CDUCAP_1 1.0
    CDU_CR03_1 CDUMIN_1 1.0
    CDU_CR03_1 YLPG_CR03_1 -0.01400858068810675
    CDU_CR03_1 YNAP_CR03_1 -0.1424923117986131
    CDU_CR03_1 YKER_CR03_1 -0.10784088582669263
    CDU_CR03_1 YDSL_CR03_1 -0.19279120630762445
    CDU_CR03_1 YVGO_CR03_1 -0.28544626211923063
    CDU_CR03_1 YRES_CR03_1 -0.2574207532597324
    M3094 'MARKER' 'INTORG'
    NPAR_CR04_1 PARCEL_CR04_1 -20.0
    M3096 'MARKER' 'INTEND'
    BUY_CR04_1 OBJ -74.00518854523607
    BUY_CR04_1 PARCEL_CR04_1 1.0
    BUY_CR04_1 CBAL_CR04_1 1.0
    CINV_CR04_1 OBJ -0.3
    CINV_CR04_1 CBAL_CR04_1 -1.0
    CINV_CR04_1 CBAL_CR04_2 1.0
    CDU_CR04_1 CBAL_CR04_1 -1.0
    CDU_CR04_1 CDUCAP_1 1.0
    CDU_CR04_1 CDUMIN_1 1.0
    CDU_CR04_1 YLPG_CR04_1 -0.02335213093765316
    CDU_CR04_1 YNAP_CR04_1 -0.2292355396921612
    CDU_CR04_1 YKER_CR04_1 -0.14240695851543803
    CDU_CR04_1 YDSL_CR04_1 -0.24384363627499198
    CDU_CR04_1 YVGO_CR04_1 -0.2465326974706559
    CDU_CR04_1 YRES_CR04_1 -0.1146290371090997
    M3112 'MARKER' 'INTORG'
    NPAR_CR05_1 PARCEL_CR05_1 -20.0
    M3114 'MARKER' 'INTEND'
    BUY_CR05_1 OBJ -66.34609041555056
    BUY_CR05_1 PARCEL_CR05_1 1.0
    BUY_CR05_1 CBAL_CR05_1 1.0
    CINV_CR05_1 OBJ -0.3
    CINV_CR05_1 CBAL_CR05_1 -1.0
    CINV_CR05_1 CBAL_CR05_2 1.0
    CDU_CR05_1 CBAL_CR05_1 -1.0
    CDU_CR05_1 CDUCAP_1 1.0
    CDU_CR05_1 CDUMIN_1 1.0
    CDU_CR05_1 YLPG_CR05_1 -0.01735729802728813
    CDU_CR05_1 YNAP_CR05_1 -0.16608619710065003
    CDU_CR05_1 YKER_CR05_1 -0.1170544437563835
    CDU_CR05_1 YDSL_CR05_1 -0.22299235889970878
    CDU_CR05_1 YVGO_CR05_1 -0.2433490540516293
    CDU_CR05_1 YRES_CR05_1 -0.23316064816434035
    M3130 'MARKER' 'INTORG'
    NPAR_CR06_1 PARCEL_CR06_1 -20.0
    M3132 'MARKER' 'INTEND'
    BUY_CR06_1 OBJ -64.39272056443887
    BUY_CR06_1 PARCEL_CR06_1 1.0
    BUY_CR06_1 CBAL_CR06_1 1.0
    CINV_CR06_1 OBJ -0.3
    CINV_CR06_1 CBAL_CR06_1 -1.0
    CINV_CR06_1 CBAL_CR06_2 1.0
    CDU_CR06_1 CBAL_CR06_1 -1.0
    CDU_CR06_1 CDUCAP_1 1.0
    CDU_CR06_1 CDUMIN_1 1.0
    CDU_CR06_1 YLPG_CR06_1 -0.014219474855875663
    CDU_CR06_1 YNAP_CR06_1 -0.13746806025500902
    CDU_CR06_1 YKER_CR06_1 -0.10533897185985656
    CDU_CR06_1 YDSL_CR06_1 -0.20403840195434858
    CDU_CR06_1 YVGO_CR06_1 -0.26484358994429863
    CDU_CR06_1 YRES_CR06_1 -0.27409150113061165
    M3148 'MARKER' 'INTORG'
    NPAR_CR07_1 PARCEL_CR07_1 -20.0
    M3150 'MARKER' 'INTEND'
    BUY_CR07_1 OBJ -73.2956244706561
    BUY_CR07_1 PARCEL_CR07_1 1.0
    BUY_CR07_1 CBAL_CR07_1 1.0
    CINV_CR07_1 OBJ -0.3
    CINV_CR07_1 CBAL_CR07_1 -1.0
    CINV_CR07_1 CBAL_CR07_2 1.0
    CDU_CR07_1 CBAL_CR07_1 -1.0
    CDU_CR07_1 CDUCAP_1 1.0
    CDU_CR07_1 CDUMIN_1 1.0
    CDU_CR07_1 YLPG_CR07_1 -0.01678766142162217
    CDU_CR07_1 YNAP_CR07_1 -0.18341674311422207
    CDU_CR07_1 YKER_CR07_1 -0.13271469159016522
    CDU_CR07_1 YDSL_CR07_1 -0.2249127244045356
    CDU_CR07_1 YVGO_CR07_1 -0.24848613807316539
    CDU_CR07_1 YRES_CR07_1 -0.19368204139628944
    M3166 'MARKER' 'INTORG'
    NPAR_CR08_1 PARCEL_CR08_1 -20.0
    M3168 'MARKER' 'INTEND'
    BUY_CR08_1 OBJ -71.5150292876999
    BUY_CR08_1 PARCEL_CR08_1 1.0
    BUY_CR08_1 CBAL_CR08_1 1.0
    CINV_CR08_1 OBJ -0.3
    CINV_CR08_1 CBAL_CR08_1 -1.0
    CINV_CR08_1 CBAL_CR08_2 1.0
    CDU_CR08_1 CBAL_CR08_1 -1.0
    CDU_CR08_1 CDUCAP_1 1.0
    CDU_CR08_1 CDUMIN_1 1.0
    CDU_CR08_1 YLPG_CR08_1 -0.023930881960770135
    CDU_CR08_1 YNAP_CR08_1 -0.199474063989656
    CDU_CR08_1 YKER_CR08_1 -0.13012967624359006
    CDU_CR08_1 YDSL_CR08_1 -0.24906213509239003
    CDU_CR08_1 YVGO_CR08_1 -0.24247509330512357
    CDU_CR08_1 YRES_CR08_1 -0.15492814940847022
    M3184 'MARKER' 'INTORG'
    NPAR_CR09_1 PARCEL_CR09_1 -20.0
    M3186 'MARKER' 'INTEND'
    BUY_CR09_1 OBJ -80.43631209876388
    BUY_CR09_1 PARCEL_CR09_1 1.0
    BUY_CR09_1 CBAL_CR09_1 1.0
    CINV_CR09_1 OBJ -0.3
    CINV_CR09_1 CBAL_CR09_1 -1.0
    CINV_CR09_1 CBAL_CR09_2 1.0
    CDU_CR09_1 CBAL_CR09_1 -1.0
    CDU_CR09_1 CDUCAP_1 1.0
    CDU_CR09_1 CDUMIN_1 1.0
    CDU_CR09_1 YLPG_CR09_1 -0.0254414593142613
    CDU_CR09_1 YNAP_CR09_1 -0.2406668892422991
    CDU_CR09_1 YKER_CR09_1 -0.14150533274546892
    CDU_CR09_1 YDSL_CR09_1 -0.23713673044274025
    CDU_CR09_1 YVGO_CR09_1 -0.23566730460149374
    CDU_CR09_1 YRES_CR09_1 -0.11958228365373665
    M3202 'MARKER' 'INTORG'
    CDUMODE_1 OBJ -150.0
    CDUMODE_1 CDUCAP_1 -150.0
    CDUMODE_1 CDUMIN_1 -90.0
    M3206 'MARKER' 'INTEND'
    LPG_CR00_1 YLPG_CR00_1 1.0
    LPG_CR00_1 LPGBAL_1 -1.0
    NAP_CR00_1 YNAP_CR00_1 1.0
    NAP_CR00_1 NAPBAL_CR00_1 1.0
    KER_CR00_1 YKER_CR00_1 1.0
    KER_CR00_1 KERBAL_CR00_1 1.0
    DSL_CR00_1 YDSL_CR00_1 1.0
    DSL_CR00_1 DSLBAL_CR00_1 1.0
    VGO_CR00_1 YVGO_CR00_1 1.0
    VGO_CR00_1 VGOBAL_CR00_1 1.0
    RES_CR00_1 YRES_CR00_1 1.0
    RES_CR00_1 RESSPLIT_CR00_1 1.0
    LPG_CR01_1 YLPG_CR01_1 1.0
    LPG_CR01_1 LPGBAL_1 -1.0
    NAP_CR01_1 YNAP_CR01_1 1.0
    NAP_CR01_1 NAPBAL_CR01_1 1.0
    KER_CR01_1 YKER_CR01_1 1.0
    KER_CR01_1 KERBAL_CR01_1 1.0
    DSL_CR01_1 YDSL_CR01_1 1.0
    DSL_CR01_1 DSLBAL_CR01_1 1.0
    VGO_CR01_1 YVGO_CR01_1 1.0
    VGO_CR01_1 VGOBAL_CR01_1 1.0
    RES_CR01_1 YRES_CR01_1 1.0
    RES_CR01_1 RESSPLIT_CR01_1 1.0
    LPG_CR02_1 YLPG_CR02_1 1.0
    LPG_CR02_1 LPGBAL_1 -1.0
    NAP_CR02_1 YNAP_CR02_1 1.0
    NAP_CR02_1 NAPBAL_CR02_1 1.0
    KER_CR02_1 YKER_CR02_1 1.0
    KER_CR02_1 KERBAL_CR02_1 1.0
    DSL_CR02_1 YDSL_CR02_1 1.0
    DSL_CR02_1 DSLBAL_CR02_1 1.0
    VGO_CR02_1 YVGO_CR02_1 1.0
    VGO_CR02_1 VGOBAL_CR02_1 1.0
    RES_CR02_1 YRES_CR02_1 1.0
    RES_CR02_1 RESSPLIT_CR02_1 1.0
    LPG_CR03_1 YLPG_CR03_1 1.0
    LPG_CR03_1 LPGBAL_1 -1.0
    NAP_CR03_1 YNAP_CR03_1 1.0
    NAP_CR03_1 NAPBAL_CR03_1 1.0
    KER_CR03_1 YKER_CR03_1 1.0
    KER_CR03_1 KERBAL_CR03_1 1.0
    DSL_CR03_1 YDSL_CR03_1 1.0
    DSL_CR03_1 DSLBAL_CR03_1 1.0
    VGO_CR03_1 YVGO_CR03_1 1.0
    VGO_CR03_1 VGOBAL_CR03_1 1.0
    RES_CR03_1 YRES_CR03_1 1.0
    RES_CR03_1 RESSPLIT_CR03_1 1.0
    LPG_CR04_1 YLPG_CR04_1 1.0
    LPG_CR04_1 LPGBAL_1 -1.0
    NAP_CR04_1 YNAP_CR04_1 1.0
    NAP_CR04_1 NAPBAL_CR04_1 1.0
    KER_CR04_1 YKER_CR04_1 1.0
    KER_CR04_1 KERBAL_CR04_1 1.0
    DSL_CR04_1 YDSL_CR04_1 1.0
    DSL_CR04_1 DSLBAL_CR04_1 1.0
    VGO_CR04_1 YVGO_CR04_1 1.0
    VGO_CR04_1 VGOBAL_CR04_1 1.0
    RES_CR04_1 YRES_CR04_1 1.0
    RES_CR04_1 RESSPLIT_CR04_1 1.0
    LPG_CR05_1 YLPG_CR05_1 1.0
    LPG_CR05_1 LPGBAL_1 -1.0
    NAP_CR05_1 YNAP_CR05_1 1.0
    NAP_CR05_1 NAPBAL_CR05_1 1.0
    KER_CR05_1 YKER_CR05_1 1.0
    KER_CR05_1 KERBAL_CR05_1 1.0
    DSL_CR05_1 YDSL_CR05_1 1.0
    DSL_CR05_1 DSLBAL_CR05_1 1.0
    VGO_CR05_1 YVGO_CR05_1 1.0
    VGO_CR05_1 VGOBAL_CR05_1 1.0
    RES_CR05_1 YRES_CR05_1 1.0
    RES_CR05_1 RESSPLIT_CR05_1 1.0
    LPG_CR06_1 YLPG_CR06_1 1.0
    LPG_CR06_1 LPGBAL_1 -1.0
    NAP_CR06_1 YNAP_CR06_1 1.0
    NAP_CR06_1 NAPBAL_CR06_1 1.0
    KER_CR06_1 YKER_CR06_1 1.0
    KER_CR06_1 KERBAL_CR06_1 1.0
    DSL_CR06_1 YDSL_CR06_1 1.0
    DSL_CR06_1 DSLBAL_CR06_1 1.0
    VGO_CR06_1 YVGO_CR06_1 1.0
    VGO_CR06_1 VGOBAL_CR06_1 1.0
    RES_CR06_1 YRES_CR06_1 1.0
    RES_CR06_1 RESSPLIT_CR06_1 1.0
    LPG_CR07_1 YLPG_CR07_1 1.0
    LPG_CR07_1 LPGBAL_1 -1.0
    NAP_CR07_1 YNAP_CR07_1 1.0
    NAP_CR07_1 NAPBAL_CR07_1 1.0
    KER_CR07_1 YKER_CR07_1 1.0
    KER_CR07_1 KERBAL_CR07_1 1.0
    DSL_CR07_1 YDSL_CR07_1 1.0
    DSL_CR07_1 DSLBAL_CR07_1 1.0
    VGO_CR07_1 YVGO_CR07_1 1.0
    VGO_CR07_1 VGOBAL_CR07_1 1.0
    RES_CR07_1 YRES_CR07_1 1.0
    RES_CR07_1 RESSPLIT_CR07_1 1.0
    LPG_CR08_1 YLPG_CR08_1 1.0
    LPG_CR08_1 LPGBAL_1 -1.0
    NAP_CR08_1 YNAP_CR08_1 1.0
    NAP_CR08_1 NAPBAL_CR08_1 1.0
    KER_CR08_1 YKER_CR08_1 1.0
    KER_CR08_1 KERBAL_CR08_1 1.0
    DSL_CR08_1 YDSL_CR08_1 1.0
    DSL_CR08_1 DSLBAL_CR08_1 1.0
    VGO_CR08_1 YVGO_CR08_1 1.0
    VGO_CR08_1 VGOBAL_CR08_1 1.0
    RES_CR08_1 YRES_CR08_1 1.0
    RES_CR08_1 RESSPLIT_CR08_1 1.0
    LPG_CR09_1 YLPG_CR09_1 1.0
    LPG_CR09_1 LPGBAL_1 -1.0
    NAP_CR09_1 YNAP_CR09_1 1.0
    NAP_CR09_1 NAPBAL_CR09_1 1.0
    KER_CR09_1 YKER_CR09_1 1.0
    KER_CR09_1 KERBAL_CR09_1 1.0
    DSL_CR09_1 YDSL_CR09_1 1.0
    DSL_CR09_1 DSLBAL_CR09_1 1.0
    VGO_CR09_1 YVGO_CR09_1 1.0
    VGO_CR09_1 VGOBAL_CR09_1 1.0
    RES_CR09_1 YRES_CR09_1 1.0
    RES_CR09_1 RESSPLIT_CR09_1 1.0
    VDUIN_CR00_1 RESSPLIT_CR00_1 -1.0
    VDUIN_CR00_1 VDUY1_CR00_1 -0.45
    VDUIN_CR00_1 VDUY2_CR00_1 -0.55
    VDUIN_CR00_1 VDUCAP_1 1.0
    RESFO_CR00_1 RESSPLIT_CR00_1 -1.0
    RESFO_CR00_1 FOBAL_1 -1.0
    RESFO_CR00_1 FOSUL_1 1.9540891690108433
    VGO2_CR00_1 VDUY1_CR00_1 1.0
    VGO2_CR00_1 VGOBAL_CR00_1 1.0
    VR_CR00_1 VDUY2_CR00_1 1.0
    VR_CR00_1 FOBAL_1 -1.0
    VR_CR00_1 FOSUL_1 3.5903159197140964
    VDUIN_CR01_1 RESSPLIT_CR01_1 -1.0
    VDUIN_CR01_1 VDUY1_CR01_1 -0.45
    VDUIN_CR01_1 VDUY2_CR01_1 -0.55
    VDUIN_CR01_1 VDUCAP_1 1.0
    RESFO_CR01_1 RESSPLIT_CR01_1 -1.0
    RESFO_CR01_1 FOBAL_1 -1.0
    RESFO_CR01_1 FOSUL_1 -0.6168441789886687
    VGO2_CR01_1 VDUY1_CR01_1 1.0
    VGO2_CR01_1 VGOBAL_CR01_1 1.0
    VR_CR01_1 VDUY2_CR01_1 1.0
    VR_CR01_1 FOBAL_1 -1.0
    VR_CR01_1 FOSUL_1 0.24810256731473057
    VDUIN_CR02_1 RESSPLIT_CR02_1 -1.0
    VDUIN_CR02_1 VDUY1_CR02_1 -0.45
    VDUIN_CR02_1 VDUY2_CR02_1 -0.55
    VDUIN_CR02_1 VDUCAP_1 1.0
    RESFO_CR02_1 RESSPLIT_CR02_1 -1.0
    RESFO_CR02_1 FOBAL_1 -1.0
    RESFO_CR02_1 FOSUL_1 0.05675733131967897
    VGO2_CR02_1 VDUY1_CR02_1 1.0
    VGO2_CR02_1 VGOBAL_CR02_1 1.0
    VR_CR02_1 VDUY2_CR02_1 1.0
    VR_CR02_1 FOBAL_1 -1.0
    VR_CR02_1 FOSUL_1 1.1237845307155832
    VDUIN_CR03_1 RESSPLIT_CR03_1 -1.0
    VDUIN_CR03_1 VDUY1_CR03_1 -0.45
    VDUIN_CR03_1 VDUY2_CR03_1 -0.55
    VDUIN_CR03_1 VDUCAP_1 1.0
    RESFO_CR03_1 RESSPLIT_CR03_1 -1.0
    RESFO_CR03_1 FOBAL_1 -1.0
    RESFO_CR03_1 FOSUL_1 -1.8686274424458973
    VGO2_CR03_1 VDUY1_CR03_1 1.0
    VGO2_CR03_1 VGOBAL_CR03_1 1.0
    VR_CR03_1 VDUY2_CR03_1 1.0
    VR_CR03_1 FOBAL_1 -1.0
    VR_CR03_1 FOSUL_1 -1.3792156751796663
    VDUIN_CR04_1 RESSPLIT_CR04_1 -1.0
    VDUIN_CR04_1 VDUY1_CR04_1 -0.45
    VDUIN_CR04_1 VDUY2_CR04_1 -0.55
    VDUIN_CR04_1 VDUCAP_1 1.0
    RESFO_CR04_1 RESSPLIT_CR04_1 -1.0
    RESFO_CR04_1 FOBAL_1 -1.0
    RESFO_CR04_1 FOSUL_1 2.031668478530798
    VGO2_CR04_1 VDUY1_CR04_1 1.0
    VGO2_CR04_1 VGOBAL_CR04_1 1.0
    VR_CR04_1 VDUY2_CR04_1 1.0
    VR_CR04_1 FOBAL_1 -1.0
    VR_CR04_1 FOSUL_1 3.6911690220900377
    VDUIN_CR05_1 RESSPLIT_CR05_1 -1.0
    VDUIN_CR05_1 VDUY1_CR05_1 -0.45
    VDUIN_CR05_1 VDUY2_CR05_1 -0.55
    VDUIN_CR05_1 VDUCAP_1 1.0
    RESFO_CR05_1 RESSPLIT_CR05_1 -1.0
    RESFO_CR05_1 FOBAL_1 -1.0
    RESFO_CR05_1 FOSUL_1 0.3429997580900688
    VGO2_CR05_1 VDUY1_CR05_1 1.0
    VGO2_CR05_1 VGOBAL_CR05_1 1.0
    VR_CR05_1 VDUY2_CR05_1 1.0
    VR_CR05_1 FOBAL_1 -1.0
    VR_CR05_1 FOSUL_1 1.4958996855170898
    VDUIN_CR06_1 RESSPLIT_CR06_1 -1.0
    VDUIN_CR06_1 VDUY1_CR06_1 -0.45
    VDUIN_CR06_1 VDUY2_CR06_1 -0.55
    VDUIN_CR06_1 VDUCAP_1 1.0
    RESFO_CR06_1 RESSPLIT_CR06_1 -1.0
    RESFO_CR06_1 FOBAL_1 -1.0
    RESFO_CR06_1 FOSUL_1 0.10255232060654862
    VGO2_CR06_1 VDUY1_CR06_1 1.0
    VGO2_CR06_1 VGOBAL_CR06_1 1.0
    VR_CR06_1 VDUY2_CR06_1 1.0
    VR_CR06_1 FOBAL_1 -1.0
    VR_CR06_1 FOSUL_1 1.1833180167885136
    VDUIN_CR07_1 RESSPLIT_CR07_1 -1.0
    VDUIN_CR07_1 VDUY1_CR07_1 -0.45
    VDUIN_CR07_1 VDUY2_CR07_1 -0.55
    VDUIN_CR07_1 VDUCAP_1 1.0
    RESFO_CR07_1 RESSPLIT_CR07_1 -1.0
    RESFO_CR07_1 FOBAL_1 -1.0
    RESFO_CR07_1 FOSUL_1 -3.116635223405176
    VGO2_CR07_1 VDUY1_CR07_1 1.0
    VGO2_CR07_1 VGOBAL_CR07_1 1.0
    VR_CR07_1 VDUY2_CR07_1 1.0
    VR_CR07_1 FOBAL_1 -1.0
    VR_CR07_1 FOSUL_1 -3.001625790426729
    VDUIN_CR08_1 RESSPLIT_CR08_1 -1.0
    VDUIN_CR08_1 VDUY1_CR08_1 -0.45
    VDUIN_CR08_1 VDUY2_CR08_1 -0.55
    VDUIN_CR08_1 VDUCAP_1 1.0
    RESFO_CR08_1 RESSPLIT_CR08_1 -1.0
    RESFO_CR08_1 FOBAL_1 -1.0
    RESFO_CR08_1 FOSUL_1 0.0456281803886287
    VGO2_CR08_1 VDUY1_CR08_1 1.0
    VGO2_CR08_1 VGOBAL_CR08_1 1.0
    VR_CR08_1 VDUY2_CR08_1 1.0
    VR_CR08_1 FOBAL_1 -1.0
    VR_CR08_1 FOSUL_1 1.109316634505218
    VDUIN_CR09_1 RESSPLIT_CR09_1 -1.0
    VDUIN_CR09_1 VDUY1_CR09_1 -0.45
    VDUIN_CR09_1 VDUY2_CR09_1 -0.55
    VDUIN_CR09_1 VDUCAP_1 1.0
    RESFO_CR09_1 RESSPLIT_CR09_1 -1.0
    RESFO_CR09_1 FOBAL_1 -1.0
    RESFO_CR09_1 FOSUL_1 -3.264603397407564
    VGO2_CR09_1 VDUY1_CR09_1 1.0
    VGO2_CR09_1 VGOBAL_CR09_1 1.0
    VR_CR09_1 VDUY2_CR09_1 1.0
    VR_CR09_1 FOBAL_1 -1.0
    VR_CR09_1 FOSUL_1 -3.1939844166298332
    FCCIN_CR00_1 OBJ -2.5
    FCCIN_CR00_1 VGOBAL_CR00_1 -1.0
    FCCIN_CR00_1 FCCCAP_1 1.0
    FCCIN_CR00_1 FCCY_FCCG_1 -0.55
    FCCIN_CR00_1 FCCY_LCO_1 -0.2
    FCCIN_CR00_1 FCCY_FLPG_1 -0.15
    FCCIN_CR00_1 FCCY_SLURRY_1 -0.07
    FCCIN_CR01_1 OBJ -2.5
    FCCIN_CR01_1 VGOBAL_CR01_1 -1.0
    FCCIN_CR01_1 FCCCAP_1 1.0
    FCCIN_CR01_1 FCCY_FCCG_1 -0.55
    FCCIN_CR01_1 FCCY_LCO_1 -0.2
    FCCIN_CR01_1 FCCY_FLPG_1 -0.15
    FCCIN_CR01_1 FCCY_SLURRY_1 -0.07
    FCCIN_CR02_1 OBJ -2.5
    FCCIN_CR02_1 VGOBAL_CR02_1 -1.0
    FCCIN_CR02_1 FCCCAP_1 1.0
    FCCIN_CR02_1 FCCY_FCCG_1 -0.55
    FCCIN_CR02_1 FCCY_LCO_1 -0.2
    FCCIN_CR02_1 FCCY_FLPG_1 -0.15
    FCCIN_CR02_1 FCCY_SLURRY_1 -0.07
    FCCIN_CR03_1 OBJ -2.5
    FCCIN_CR03_1 VGOBAL_CR03_1 -1.0
    FCCIN_CR03_1 FCCCAP_1 1.0
    FCCIN_CR03_1 FCCY_FCCG_1 -0.55
    FCCIN_CR03_1 FCCY_LCO_1 -0.2
    FCCIN_CR03_1 FCCY_FLPG_1 -0.15
    FCCIN_CR03_1 FCCY_SLURRY_1 -0.07
    FCCIN_CR04_1 OBJ -2.5
    FCCIN_CR04_1 VGOBAL_CR04_1 -1.0
    FCCIN_CR04_1 FCCCAP_1 1.0
    FCCIN_CR04_1 FCCY_FCCG_1 -0.55
    FCCIN_CR04_1 FCCY_LCO_1 -0.2
    FCCIN_CR04_1 FCCY_FLPG_1 -0.15
    FCCIN_CR04_1 FCCY_SLURRY_1 -0.07
    FCCIN_CR05_1 OBJ -2.5
    FCCIN_CR05_1 VGOBAL_CR05_1 -1.0
    FCCIN_CR05_1 FCCCAP_1 1.0
    FCCIN_CR05_1 FCCY_FCCG_1 -0.55
    FCCIN_CR05_1 FCCY_LCO_1 -0.2
    FCCIN_CR05_1 FCCY_FLPG_1 -0.15
    FCCIN_CR05_1 FCCY_SLURRY_1 -0.07
    FCCIN_CR06_1 OBJ -2.5
    FCCIN_CR06_1 VGOBAL_CR06_1 -1.0
    FCCIN_CR06_1 FCCCAP_1 1.0
    FCCIN_CR06_1 FCCY_FCCG_1 -0.55
    FCCIN_CR06_1 FCCY_LCO_1 -0.2
    FCCIN_CR06_1 FCCY_FLPG_1 -0.15
    FCCIN_CR06_1 FCCY_SLURRY_1 -0.07
    FCCIN_CR07_1 OBJ -2.5
    FCCIN_CR07_1 VGOBAL_CR07_1 -1.0
    FCCIN_CR07_1 FCCCAP_1 1.0
    FCCIN_CR07_1 FCCY_FCCG_1 -0.55
    FCCIN_CR07_1 FCCY_LCO_1 -0.2
    FCCIN_CR07_1 FCCY_FLPG_1 -0.15
    FCCIN_CR07_1 FCCY_SLURRY_1 -0.07
    FCCIN_CR08_1 OBJ -2.5
    FCCIN_CR08_1 VGOBAL_CR08_1 -1.0
    FCCIN_CR08_1 FCCCAP_1 1.0
    FCCIN_CR08_1 FCCY_FCCG_1 -0.55
    FCCIN_CR08_1 FCCY_LCO_1 -0.2
    FCCIN_CR08_1 FCCY_FLPG_1 -0.15
    FCCIN_CR08_1 FCCY_SLURRY_1 -0.07
    FCCIN_CR09_1 OBJ -2.5
    FCCIN_CR09_1 VGOBAL_CR09_1 -1.0
    FCCIN_CR09_1 FCCCAP_1 1.0
    FCCIN_CR09_1 FCCY_FCCG_1 -0.55
    FCCIN_CR09_1 FCCY_LCO_1 -0.2
    FCCIN_CR09_1 FCCY_FLPG_1 -0.15
    FCCIN_CR09_1 FCCY_SLURRY_1 -0.07
    FCCG_1 FCCY_FCCG_1 1.0
    FCCG_1 GASBAL_1 -1.0
    FCCG_1 GASRON_1 1.0
    LCO_1 FCCY_LCO_1 1.0
    LCO_1 LCOBAL_1 1.0
    FLPG_1 FCCY_FLPG_1 1.0
    FLPG_1 LPGBAL_1 -1.0
    SLURRY_1 FCCY_SLURRY_1 1.0
    SLURRY_1 FOBAL_1 -1.0
    SLURRY_1 FOSUL_1 -1.5
    REFIN_CR00_1 OBJ -3.0
    REFIN_CR00_1 NAPBAL_CR00_1 -1.0
    REFIN_CR00_1 REFCAP_1 1.0
    REFIN_CR00_1 REFY_1 -0.85
    NAPGAS_CR00_1 NAPBAL_CR00_1 -1.0
    NAPGAS_CR00_1 GASBAL_1 -1.0
    NAPGAS_CR00_1 GASRON_1 -41.351908455631545
    REFIN_CR01_1 OBJ -3.0
    REFIN_CR01_1 NAPBAL_CR01_1 -1.0
    REFIN_CR01_1 REFCAP_1 1.0
    REFIN_CR01_1 REFY_1 -0.85
    NAPGAS_CR01_1 NAPBAL_CR01_1 -1.0
    NAPGAS_CR01_1 GASBAL_1 -1.0
    NAPGAS_CR01_1 GASRON_1 -33.623043958680114
    REFIN_CR02_1 OBJ -3.0
    REFIN_CR02_1 NAPBAL_CR02_1 -1.0
    REFIN_CR02_1 REFCAP_1 1.0
    REFIN_CR02_1 REFY_1 -0.85
    NAPGAS_CR02_1 NAPBAL_CR02_1 -1.0
    NAPGAS_CR02_1 GASBAL_1 -1.0
    NAPGAS_CR02_1 GASRON_1 -39.74522208078083
    REFIN_CR03_1 OBJ -3.0
    REFIN_CR03_1 NAPBAL_CR03_1 -1.0
    REFIN_CR03_1 REFCAP_1 1.0
    REFIN_CR03_1 REFY_1 -0.85
    NAPGAS_CR03_1 NAPBAL_CR03_1 -1.0
    NAPGAS_CR03_1 GASBAL_1 -1.0
    NAPGAS_CR03_1 GASRON_1 -39.32063345179839
    REFIN_CR04_1 OBJ -3.0
    REFIN_CR04_1 NAPBAL_CR04_1 -1.0
    REFIN_CR04_1 REFCAP_1 1.0
    REFIN_CR04_1 REFY_1 -0.85
    NAPGAS_CR04_1 NAPBAL_CR04_1 -1.0
    NAPGAS_CR04_1 GASBAL_1 -1.0
    NAPGAS_CR04_1 GASRON_1 -28.06018906757886
    REFIN_CR05_1 OBJ -3.0
    REFIN_CR05_1 NAPBAL_CR05_1 -1.0
    REFIN_CR05_1 REFCAP_1 1.0
    REFIN_CR05_1 REFY_1 -0.85
    NAPGAS_CR05_1 NAPBAL_CR05_1 -1.0
    NAPGAS_CR05_1 GASBAL_1 -1.0
    NAPGAS_CR05_1 GASRON_1 -37.177062383933254
    REFIN_CR06_1 OBJ -3.0
    REFIN_CR06_1 NAPBAL_CR06_1 -1.0
    REFIN_CR06_1 REFCAP_1 1.0
    REFIN_CR06_1 REFY_1 -0.85
    NAPGAS_CR06_1 NAPBAL_CR06_1 -1.0
    NAPGAS_CR06_1 GASBAL_1 -1.0
    NAPGAS_CR06_1 GASRON_1 -38.73738801284508
    REFIN_CR07_1 OBJ -3.0
    REFIN_CR07_1 NAPBAL_CR07_1 -1.0
    REFIN_CR07_1 REFCAP_1 1.0
    REFIN_CR07_1 REFY_1 -0.85
    NAPGAS_CR07_1 NAPBAL_CR07_1 -1.0
    NAPGAS_CR07_1 GASBAL_1 -1.0
    NAPGAS_CR07_1 GASRON_1 -31.720911449683953
    REFIN_CR08_1 OBJ -3.0
    REFIN_CR08_1 NAPBAL_CR08_1 -1.0
    REFIN_CR08_1 REFCAP_1 1.0
    REFIN_CR08_1 REFY_1 -0.85
    NAPGAS_CR08_1 NAPBAL_CR08_1 -1.0
    NAPGAS_CR08_1 GASBAL_1 -1.0
    NAPGAS_CR08_1 GASRON_1 -31.236267605063702
    REFIN_CR09_1 OBJ -3.0
    REFIN_CR09_1 NAPBAL_CR09_1 -1.0
    REFIN_CR09_1 REFCAP_1 1.0
    REFIN_CR09_1 REFY_1 -0.85
    NAPGAS_CR09_1 NAPBAL_CR09_1 -1.0
    NAPGAS_CR09_1 GASBAL_1 -1.0
    NAPGAS_CR09_1 GASRON_1 -29.9151768258086
    REFORMATE_1 REFY_1 1.0
    REFORMATE_1 GASBAL_1 -1.0
    REFORMATE_1 GASRON_1 7.0
    DHTIN_CR00_1 OBJ -2.0
    DHTIN_CR00_1 DSLBAL_CR00_1 -1.0
    DHTIN_CR00_1 DHTCAP_1 1.0
    DHTIN_CR00_1 DHTY_1 -0.98
    DSLDIR_CR00_1 DSLBAL_CR00_1 -1.0
    DSLDIR_CR00_1 DSLPB_1 -1.0
    DSLDIR_CR00_1 DSLSUL_1 1.5862267507032528
    DHTIN_CR01_1 OBJ -2.0
    DHTIN_CR01_1 DSLBAL_CR01_1 -1.0
    DHTIN_CR01_1 DHTCAP_1 1.0
    DHTIN_CR01_1 DHTY_1 -0.98
    DSLDIR_CR01_1 DSLBAL_CR01_1 -1.0
    DSLDIR_CR01_1 DSLPB_1 -1.0
    DSLDIR_CR01_1 DSLSUL_1 0.8149467463033994
    DHTIN_CR02_1 OBJ -2.0
    DHTIN_CR02_1 DSLBAL_CR02_1 -1.0
    DHTIN_CR02_1 DHTCAP_1 1.0
    DHTIN_CR02_1 DHTY_1 -0.98
    DSLDIR_CR02_1 DSLBAL_CR02_1 -1.0
    DSLDIR_CR02_1 DSLPB_1 -1.0
    DSLDIR_CR02_1 DSLSUL_1 1.0170271993959037
    DHTIN_CR03_1 OBJ -2.0
    DHTIN_CR03_1 DSLBAL_CR03_1 -1.0
    DHTIN_CR03_1 DHTCAP_1 1.0
    DHTIN_CR03_1 DHTY_1 -0.98
    DSLDIR_CR03_1 DSLBAL_CR03_1 -1.0
    DSLDIR_CR03_1 DSLPB_1 -1.0
    DSLDIR_CR03_1 DSLSUL_1 0.4394117672662308
    DHTIN_CR04_1 OBJ -2.0
    DHTIN_CR04_1 DSLBAL_CR04_1 -1.0
    DHTIN_CR04_1 DHTCAP_1 1.0
    DHTIN_CR04_1 DHTY_1 -0.98
    DSLDIR_CR04_1 DSLBAL_CR04_1 -1.0
    DSLDIR_CR04_1 DSLPB_1 -1.0
    DSLDIR_CR04_1 DSLSUL_1 1.6095005435592393
    DHTIN_CR05_1 OBJ -2.0
    DHTIN_CR05_1 DSLBAL_CR05_1 -1.0
    DHTIN_CR05_1 DHTCAP_1 1.0
    DHTIN_CR05_1 DHTY_1 -0.98
    DSLDIR_CR05_1 DSLBAL_CR05_1 -1.0
    DSLDIR_CR05_1 DSLPB_1 -1.0
    DSLDIR_CR05_1 DSLSUL_1 1.1028999274270206
    DHTIN_CR06_1 OBJ -2.0
    DHTIN_CR06_1 DSLBAL_CR06_1 -1.0
    DHTIN_CR06_1 DHTCAP_1 1.0
    DHTIN_CR06_1 DHTY_1 -0.98
    DSLDIR_CR06_1 DSLBAL_CR06_1 -1.0
    DSLDIR_CR06_1 DSLPB_1 -1.0
    DSLDIR_CR06_1 DSLSUL_1 1.0307656961819645
    DHTIN_CR07_1 OBJ -2.0
    DHTIN_CR07_1 DSLBAL_CR07_1 -1.0
    DHTIN_CR07_1 DHTCAP_1 1.0
    DHTIN_CR07_1 DHTY_1 -0.98
    DSLDIR_CR07_1 DSLBAL_CR07_1 -1.0
    DSLDIR_CR07_1 DSLPB_1 -1.0
    DSLDIR_CR07_1 DSLSUL_1 0.06500943297844713
    DHTIN_CR08_1 OBJ -2.0
    DHTIN_CR08_1 DSLBAL_CR08_1 -1.0
    DHTIN_CR08_1 DHTCAP_1 1.0
    DHTIN_CR08_1 DHTY_1 -0.98
    DSLDIR_CR08_1 DSLBAL_CR08_1 -1.0
    DSLDIR_CR08_1 DSLPB_1 -1.0
    DSLDIR_CR08_1 DSLSUL_1 1.0136884541165885
    DHTIN_CR09_1 OBJ -2.0
    DHTIN_CR09_1 DSLBAL_CR09_1 -1.0
    DHTIN_CR09_1 DHTCAP_1 1.0
    DHTIN_CR09_1 DHTY_1 -0.98
    DSLDIR_CR09_1 DSLBAL_CR09_1 -1.0
    DSLDIR_CR09_1 DSLPB_1 -1.0
    DSLDIR_CR09_1 DSLSUL_1 0.020618980777730833
    LCODHT_1 LCOBAL_1 -1.0
    LCODHT_1 DHTCAP_1 1.0
    LCODHT_1 DHTY_1 -0.95
    LCOFO_1 LCOBAL_1 -1.0
    LCOFO_1 FOBAL_1 -1.0
    LCOFO_1 FOSUL_1 -2.5
    ULSD_1 DHTY_1 1.0
    ULSD_1 DSLPB_1 -1.0
    ULSD_1 DSLSUL_1 -0.049
    SELL_LPG_1 OBJ 57.75
    SELL_LPG_1 PBAL_LPG_1 -1.0
    SELL_LPG_1 DMAX_LPG_1 1.0
    SELL_LPG_1 DMIN_LPG_1 1.0
    SELL_GAS_1 OBJ 110.25
    SELL_GAS_1 PBAL_GAS_1 -1.0
    SELL_GAS_1 DMAX_GAS_1 1.0
    SELL_GAS_1 DMIN_GAS_1 1.0
    SELL_JET_1 OBJ 105.0
    SELL_JET_1 PBAL_JET_1 -1.0
    SELL_JET_1 DMAX_JET_1 1.0
    SELL_JET_1 DMIN_JET_1 1.0
    SELL_DSL_1 OBJ 102.9
    SELL_DSL_1 PBAL_DSL_1 -1.0
    SELL_DSL_1 DMAX_DSL_1 1.0
    SELL_DSL_1 DMIN_DSL_1 1.0
    SELL_FO_1 OBJ 63.0
    SELL_FO_1 PBAL_FO_1 -1.0
    SELL_FO_1 DMAX_FO_1 1.0
    SELL_FO_1 DMIN_FO_1 1.0
    PINV_LPG_1 OBJ -0.5
    PINV_LPG_1 PBAL_LPG_1 -1.0
    PINV_LPG_1 PBAL_LPG_2 1.0
    PINV_GAS_1 OBJ -0.5
    PINV_GAS_1 PBAL_GAS_1 -1.0
    PINV_GAS_1 PBAL_GAS_2 1.0
    PINV_JET_1 OBJ -0.5
    PINV_JET_1 PBAL_JET_1 -1.0
    PINV_JET_1 PBAL_JET_2 1.0
    PINV_DSL_1 OBJ -0.5
    PINV_DSL_1 PBAL_DSL_1 -1.0
    PINV_DSL_1 PBAL_DSL_2 1.0
    PINV_FO_1 OBJ -0.5
    PINV_FO_1 PBAL_FO_1 -1.0
    PINV_FO_1 PBAL_FO_2 1.0
    SHORT_LPG_1 OBJ -400.0
    SHORT_LPG_1 DMIN_LPG_1 1.0
    SHORT_GAS_1 OBJ -400.0
    SHORT_GAS_1 DMIN_GAS_1 1.0
    SHORT_JET_1 OBJ -400.0
    SHORT_JET_1 DMIN_JET_1 1.0
    SHORT_DSL_1 OBJ -400.0
    SHORT_DSL_1 DMIN_DSL_1 1.0
    SHORT_FO_1 OBJ -400.0
    SHORT_FO_1 DMIN_FO_1 1.0
    GASPOOL_1 GASBAL_1 1.0
    GASPOOL_1 PBAL_GAS_1 1.0
    JETPOOL_1 JETBAL_1 1.0
    JETPOOL_1 PBAL_JET_1 1.0
    KERJET_CR00_1 KERBAL_CR00_1 -1.0
    KERJET_CR00_1 JETBAL_1 -1.0
    KERJET_CR00_1 JETSUL_1 0.10905668767581322
    KERDSL_CR00_1 KERBAL_CR00_1 -1.0
    KERDSL_CR00_1 DSLPB_1 -1.0
    KERDSL_CR00_1 DSLSUL_1 0.3590566876758132
    KERJET_CR01_1 KERBAL_CR01_1 -1.0
    KERJET_CR01_1 JETBAL_1 -1.0
    KERJET_CR01_1 JETSUL_1 -0.08376331342415014
    KERDSL_CR01_1 KERBAL_CR01_1 -1.0
    KERDSL_CR01_1 DSLPB_1 -1.0
    KERDSL_CR01_1 DSLSUL_1 0.16623668657584983
    KERJET_CR02_1 KERBAL_CR02_1 -1.0
    KERJET_CR02_1 JETBAL_1 -1.0
    KERJET_CR02_1 JETSUL_1 -0.033243200151024055
    KERDSL_CR02_1 KERBAL_CR02_1 -1.0
    KERDSL_CR02_1 DSLPB_1 -1.0
    KERDSL_CR02_1 DSLSUL_1 0.21675679984897595
    KERJET_CR03_1 KERBAL_CR03_1 -1.0
    KERJET_CR03_1 JETBAL_1 -1.0
    KERJET_CR03_1 JETSUL_1 -0.17764705818344229
    KERDSL_CR03_1 KERBAL_CR03_1 -1.0
    KERDSL_CR03_1 DSLPB_1 -1.0
    KERDSL_CR03_1 DSLSUL_1 0.0723529418165577
    KERJET_CR04_1 KERBAL_CR04_1 -1.0
    KERJET_CR04_1 JETBAL_1 -1.0
    KERJET_CR04_1 JETSUL_1 0.11487513588980985
    KERDSL_CR04_1 KERBAL_CR04_1 -1.0
    KERDSL_CR04_1 DSLPB_1 -1.0
    KERDSL_CR04_1 DSLSUL_1 0.36487513588980985
    KERJET_CR05_1 KERBAL_CR05_1 -1.0
    KERJET_CR05_1 JETBAL_1 -1.0
    KERJET_CR05_1 JETSUL_1 -0.011775018143244831
    KERDSL_CR05_1 KERBAL_CR05_1 -1.0
    KERDSL_CR05_1 DSLPB_1 -1.0
    KERDSL_CR05_1 DSLSUL_1 0.23822498185675517
    KERJET_CR06_1 KERBAL_CR06_1 -1.0
    KERJET_CR06_1 JETBAL_1 -1.0
    KERJET_CR06_1 JETSUL_1 -0.029808575954508865
    KERDSL_CR06_1 KERBAL_CR06_1 -1.0
    KERDSL_CR06_1 DSLPB_1 -1.0
    KERDSL_CR06_1 DSLSUL_1 0.22019142404549114
    KERJET_CR07_1 KERBAL_CR07_1 -1.0
    KERJET_CR07_1 JETBAL_1 -1.0
    KERJET_CR07_1 JETSUL_1 -0.2712476417553882
    KERDSL_CR07_1 KERBAL_CR07_1 -1.0
    KERDSL_CR07_1 DSLPB_1 -1.0
    KERDSL_CR07_1 DSLSUL_1 -0.02124764175538822
    KERJET_CR08_1 KERBAL_CR08_1 -1.0
    KERJET_CR08_1 JETBAL_1 -1.0
    KERJET_CR08_1 JETSUL_1 -0.03407788647085286
    KERDSL_CR08_1 KERBAL_CR08_1 -1.0
    KERDSL_CR08_1 DSLPB_1 -1.0
    KERDSL_CR08_1 DSLSUL_1 0.21592211352914714
    KERJET_CR09_1 KERBAL_CR09_1 -1.0
    KERJET_CR09_1 JETBAL_1 -1.0
    KERJET_CR09_1 JETSUL_1 -0.28234525480556727
    KERDSL_CR09_1 KERBAL_CR09_1 -1.0
    KERDSL_CR09_1 DSLPB_1 -1.0
    KERDSL_CR09_1 DSLSUL_1 -0.0323452548055673
    DSLPOOL_1 DSLPB_1 1.0
    DSLPOOL_1 PBAL_DSL_1 1.0
    LPGPOOL_1 LPGBAL_1 1.0
    LPGPOOL_1 PBAL_LPG_1 1.0
    FOPOOL_1 FOBAL_1 1.0
    FOPOOL_1 PBAL_FO_1 1.0
    M3794 'MARKER' 'INTORG'
    NPAR_CR00_2 PARCEL_CR00_2 -20.0
    M3796 'MARKER' 'INTEND'
    BUY_CR00_2 OBJ -59.880123898354434
    BUY_CR00_2 PARCEL_CR00_2 1.0
    BUY_CR00_2 CBAL_CR00_2 1.0
    CINV_CR00_2 OBJ -0.3
    CINV_CR00_2 CBAL_CR00_2 -1.0
    CINV_CR00_2 CBAL_CR00_3 1.0
    CDU_CR00_2 CBAL_CR00_2 -1.0
    CDU_CR00_2 CDUCAP_2 1.0
    CDU_CR00_2 CDUMIN_2 1.0
    CDU_CR00_2 YLPG_CR00_2 -0.013786055933968056
    CDU_CR00_2 YNAP_CR00_2 -0.1214444916358349
    CDU_CR00_2 YKER_CR00_2 -0.10646372452567733
    CDU_CR00_2 YDSL_CR00_2 -0.20292085263352289
    CDU_CR00_2 YVGO_CR00_2 -0.27390944719057636
    CDU_CR00_2 YRES_CR00_2 -0.28147542808042036
    M3812 'MARKER' 'INTORG'
    NPAR_CR01_2 PARCEL_CR01_2 -20.0
    M3814 'MARKER' 'INTEND'
    BUY_CR01_2 OBJ -76.86152375284598
    BUY_CR01_2 PARCEL_CR01_2 1.0
    BUY_CR01_2 CBAL_CR01_2 1.0
    CINV_CR01_2 OBJ -0.3
    CINV_CR01_2 CBAL_CR01_2 -1.0
    CINV_CR01_2 CBAL_CR01_3 1.0
    CDU_CR01_2 CBAL_CR01_2 -1.0
    CDU_CR01_2 CDUCAP_2 1.0
    CDU_CR01_2 CDUMIN_2 1.0
    CDU_CR01_2 YLPG_CR01_2 -0.025127543584387436
    CDU_CR01_2 YNAP_CR01_2 -0.2025917905849106
    CDU_CR01_2 YKER_CR01_2 -0.13410952106049506
    CDU_CR01_2 YDSL_CR01_2 -0.24728591651278542
    CDU_CR01_2 YVGO_CR01_2 -0.22897185950088417
    CDU_CR01_2 YRES_CR01_2 -0.16191336875653717
    M3830 'MARKER' 'INTORG'
    NPAR_CR02_2 PARCEL_CR02_2 -20.0
    M3832 'MARKER' 'INTEND'
    BUY_CR02_2 OBJ -62.94579168013145
    BUY_CR02_2 PARCEL_CR02_2 1.0
    BUY_CR02_2 CBAL_CR02_2 1.0
    CINV_CR02_2 OBJ -0.3
    CINV_CR02_2 CBAL_CR02_2 -1.0
    CINV_CR02_2 CBAL_CR02_3 1.0
    CDU_CR02_2 CBAL_CR02_2 -1.0
    CDU_CR02_2 CDUCAP_2 1.0
    CDU_CR02_2 CDUMIN_2 1.0
    CDU_CR02_2 YLPG_CR02_2 -0.013444753666275039
    CDU_CR02_2 YNAP_CR02_2 -0.11889710072836579
    CDU_CR02_2 YKER_CR02_2 -0.103840437143255
    CDU_CR02_2 YDSL_CR02_2 -0.21229612809407214
    CDU_CR02_2 YVGO_CR02_2 -0.2628713956905896
    CDU_CR02_2 YRES_CR02_2 -0.28865018467744247
    M3848 'MARKER' 'INTORG'
    NPAR_CR03_2 PARCEL_CR03_2 -20.0
    M3850 'MARKER' 'INTEND'
    BUY_CR03_2 OBJ -69.43814427675055
    BUY_CR03_2 PARCEL_CR03_2 1.0
    BUY_CR03_2 CBAL_CR03_2 1.0
    CINV_CR03_2 OBJ -0.3
    CINV_CR03_2 CBAL_CR03_2 -1.0
    CINV_CR03_2 CBAL_CR03_3 1.0
    CDU_CR03_2 CBAL_CR03_2 -1.0
    CDU_CR03_2 CDUCAP_2 1.0
    CDU_CR03_2 CDUMIN_2 1.0
    CDU_CR03_2 YLPG_CR03_2 -0.01400858068810675
    CDU_CR03_2 YNAP_CR03_2 -0.1424923117986131
    CDU_CR03_2 YKER_CR03_2 -0.10784088582669263
    CDU_CR03_2 YDSL_CR03_2 -0.19279120630762445
    CDU_CR03_2 YVGO_CR03_2 -0.28544626211923063
    CDU_CR03_2 YRES_CR03_2 -0.2574207532597324
    M3866 'MARKER' 'INTORG'
    NPAR_CR04_2 PARCEL_CR04_2 -20.0
    M3868 'MARKER' 'INTEND'
    BUY_CR04_2 OBJ -74.87407231253704
    BUY_CR04_2 PARCEL_CR04_2 1.0
    BUY_CR04_2 CBAL_CR04_2 1.0
    CINV_CR04_2 OBJ -0.3
    CINV_CR04_2 CBAL_CR04_2 -1.0
    CINV_CR04_2 CBAL_CR04_3 1.0
    CDU_CR04_2 CBAL_CR04_2 -1.0
    CDU_CR04_2 CDUCAP_2 1.0
    CDU_CR04_2 CDUMIN_2 1.0
    CDU_CR04_2 YLPG_CR04_2 -0.02335213093765316
    CDU_CR04_2 YNAP_CR04_2 -0.2292355396921612
    CDU_CR04_2 YKER_CR04_2 -0.14240695851543803
    CDU_CR04_2 YDSL_CR04_2 -0.24384363627499198
    CDU_CR04_2 YVGO_CR04_2 -0.2465326974706559
    CDU_CR04_2 YRES_CR04_2 -0.1146290371090997
    M3884 'MARKER' 'INTORG'
    NPAR_CR05_2 PARCEL_CR05_2 -20.0
    M3886 'MARKER' 'INTEND'
    BUY_CR05_2 OBJ -67.44311540000527
    BUY_CR05_2 PARCEL_CR05_2 1.0
    BUY_CR05_2 CBAL_CR05_2 1.0
    CINV_CR05_2 OBJ -0.3
    CINV_CR05_2 CBAL_CR05_2 -1.0
    CINV_CR05_2 CBAL_CR05_3 1.0
    CDU_CR05_2 CBAL_CR05_2 -1.0
    CDU_CR05_2 CDUCAP_2 1.0
    CDU_CR05_2 CDUMIN_2 1.0
    CDU_CR05_2 YLPG_CR05_2 -0.01735729802728813
    CDU_CR05_2 YNAP_CR05_2 -0.16608619710065003
    CDU_CR05_2 YKER_CR05_2 -0.1170544437563835
    CDU_CR05_2 YDSL_CR05_2 -0.22299235889970878
    CDU_CR05_2 YVGO_CR05_2 -0.2433490540516293
    CDU_CR05_2 YRES_CR05_2 -0.23316064816434035
    M3902 'MARKER' 'INTORG'
    NPAR_CR06_2 PARCEL_CR06_2 -20.0
    M3904 'MARKER' 'INTEND'
    BUY_CR06_2 OBJ -65.23818307465109
    BUY_CR06_2 PARCEL_CR06_2 1.0
    BUY_CR06_2 CBAL_CR06_2 1.0
    CINV_CR06_2 OBJ -0.3
    CINV_CR06_2 CBAL_CR06_2 -1.0
    CINV_CR06_2 CBAL_CR06_3 1.0
    CDU_CR06_2 CBAL_CR06_2 -1.0
    CDU_CR06_2 CDUCAP_2 1.0
    CDU_CR06_2 CDUMIN_2 1.0
    CDU_CR06_2 YLPG_CR06_2 -0.014219474855875663
    CDU_CR06_2 YNAP_CR06_2 -0.13746806025500902
    CDU_CR06_2 YKER_CR06_2 -0.10533897185985656
    CDU_CR06_2 YDSL_CR06_2 -0.20403840195434858
    CDU_CR06_2 YVGO_CR06_2 -0.26484358994429863
    CDU_CR06_2 YRES_CR06_2 -0.27409150113061165
    M3920 'MARKER' 'INTORG'
    NPAR_CR07_2 PARCEL_CR07_2 -20.0
    M3922 'MARKER' 'INTEND'
    BUY_CR07_2 OBJ -74.61031882718494
    BUY_CR07_2 PARCEL_CR07_2 1.0
    BUY_CR07_2 CBAL_CR07_2 1.0
    CINV_CR07_2 OBJ -0.3
    CINV_CR07_2 CBAL_CR07_2 -1.0
    CINV_CR07_2 CBAL_CR07_3 1.0
    CDU_CR07_2 CBAL_CR07_2 -1.0
    CDU_CR07_2 CDUCAP_2 1.0
    CDU_CR07_2 CDUMIN_2 1.0
    CDU_CR07_2 YLPG_CR07_2 -0.01678766142162217
    CDU_CR07_2 YNAP_CR07_2 -0.18341674311422207
    CDU_CR07_2 YKER_CR07_2 -0.13271469159016522
    CDU_CR07_2 YDSL_CR07_2 -0.2249127244045356
    CDU_CR07_2 YVGO_CR07_2 -0.24848613807316539
    CDU_CR07_2 YRES_CR07_2 -0.19368204139628944
    M3938 'MARKER' 'INTORG'
    NPAR_CR08_2 PARCEL_CR08_2 -20.0
    M3940 'MARKER' 'INTEND'
    BUY_CR08_2 OBJ -72.48830612975584
    BUY_CR08_2 PARCEL_CR08_2 1.0
    BUY_CR08_2 CBAL_CR08_2 1.0
    CINV_CR08_2 OBJ -0.3
    CINV_CR08_2 CBAL_CR08_2 -1.0
    CINV_CR08_2 CBAL_CR08_3 1.0
    CDU_CR08_2 CBAL_CR08_2 -1.0
    CDU_CR08_2 CDUCAP_2 1.0
    CDU_CR08_2 CDUMIN_2 1.0
    CDU_CR08_2 YLPG_CR08_2 -0.023930881960770135
    CDU_CR08_2 YNAP_CR08_2 -0.199474063989656
    CDU_CR08_2 YKER_CR08_2 -0.13012967624359006
    CDU_CR08_2 YDSL_CR08_2 -0.24906213509239003
    CDU_CR08_2 YVGO_CR08_2 -0.24247509330512357
    CDU_CR08_2 YRES_CR08_2 -0.15492814940847022
    M3956 'MARKER' 'INTORG'
    NPAR_CR09_2 PARCEL_CR09_2 -20.0
    M3958 'MARKER' 'INTEND'
    BUY_CR09_2 OBJ -81.61226774118173
    BUY_CR09_2 PARCEL_CR09_2 1.0
    BUY_CR09_2 CBAL_CR09_2 1.0
    CINV_CR09_2 OBJ -0.3
    CINV_CR09_2 CBAL_CR09_2 -1.0
    CINV_CR09_2 CBAL_CR09_3 1.0
    CDU_CR09_2 CBAL_CR09_2 -1.0
    CDU_CR09_2 CDUCAP_2 1.0
    CDU_CR09_2 CDUMIN_2 1.0
    CDU_CR09_2 YLPG_CR09_2 -0.0254414593142613
    CDU_CR09_2 YNAP_CR09_2 -0.2406668892422991
    CDU_CR09_2 YKER_CR09_2 -0.14150533274546892
    CDU_CR09_2 YDSL_CR09_2 -0.23713673044274025
    CDU_CR09_2 YVGO_CR09_2 -0.23566730460149374
    CDU_CR09_2 YRES_CR09_2 -0.11958228365373665
    M3974 'MARKER' 'INTORG'
    CDUMODE_2 OBJ -150.0
    CDUMODE_2 CDUCAP_2 -150.0
    CDUMODE_2 CDUMIN_2 -90.0
    M3978 'MARKER' 'INTEND'
    LPG_CR00_2 YLPG_CR00_2 1.0
    LPG_CR00_2 LPGBAL_2 -1.0
    NAP_CR00_2 YNAP_CR00_2 1.0
    NAP_CR00_2 NAPBAL_CR00_2 1.0
    KER_CR00_2 YKER_CR00_2 1.0
    KER_CR00_2 KERBAL_CR00_2 1.0
    DSL_CR00_2 YDSL_CR00_2 1.0
    DSL_CR00_2 DSLBAL_CR00_2 1.0
    VGO_CR00_2 YVGO_CR00_2 1.0
    VGO_CR00_2 VGOBAL_CR00_2 1.0
    RES_CR00_2 YRES_CR00_2 1.0
    RES_CR00_2 RESSPLIT_CR00_2 1.0
    LPG_CR01_2 YLPG_CR01_2 1.0
    LPG_CR01_2 LPGBAL_2 -1.0
    NAP_CR01_2 YNAP_CR01_2 1.0
    NAP_CR01_2 NAPBAL_CR01_2 1.0
    KER_CR01_2 YKER_CR01_2 1.0
    KER_CR01_2 KERBAL_CR01_2 1.0
    DSL_CR01_2 YDSL_CR01_2 1.0
    DSL_CR01_2 DSLBAL_CR01_2 1.0
    VGO_CR01_2 YVGO_CR01_2 1.0
    VGO_CR01_2 VGOBAL_CR01_2 1.0
    RES_CR01_2 YRES_CR01_2 1.0
    RES_CR01_2 RESSPLIT_CR01_2 1.0
    LPG_CR02_2 YLPG_CR02_2 1.0
    LPG_CR02_2 LPGBAL_2 -1.0
    NAP_CR02_2 YNAP_CR02_2 1.0
    NAP_CR02_2 NAPBAL_CR02_2 1.0
    KER_CR02_2 YKER_CR02_2 1.0
    KER_CR02_2 KERBAL_CR02_2 1.0
    DSL_CR02_2 YDSL_CR02_2 1.0
    DSL_CR02_2 DSLBAL_CR02_2 1.0
    VGO_CR02_2 YVGO_CR02_2 1.0
    VGO_CR02_2 VGOBAL_CR02_2 1.0
    RES_CR02_2 YRES_CR02_2 1.0
    RES_CR02_2 RESSPLIT_CR02_2 1.0
    LPG_CR03_2 YLPG_CR03_2 1.0
    LPG_CR03_2 LPGBAL_2 -1.0
    NAP_CR03_2 YNAP_CR03_2 1.0
    NAP_CR03_2 NAPBAL_CR03_2 1.0
    KER_CR03_2 YKER_CR03_2 1.0
    KER_CR03_2 KERBAL_CR03_2 1.0
    DSL_CR03_2 YDSL_CR03_2 1.0
    DSL_CR03_2 DSLBAL_CR03_2 1.0
    VGO_CR03_2 YVGO_CR03_2 1.0
    VGO_CR03_2 VGOBAL_CR03_2 1.0
    RES_CR03_2 YRES_CR03_2 1.0
    RES_CR03_2 RESSPLIT_CR03_2 1.0
    LPG_CR04_2 YLPG_CR04_2 1.0
    LPG_CR04_2 LPGBAL_2 -1.0
    NAP_CR04_2 YNAP_CR04_2 1.0
    NAP_CR04_2 NAPBAL_CR04_2 1.0
    KER_CR04_2 YKER_CR04_2 1.0
    KER_CR04_2 KERBAL_CR04_2 1.0
    DSL_CR04_2 YDSL_CR04_2 1.0
    DSL_CR04_2 DSLBAL_CR04_2 1.0
    VGO_CR04_2 YVGO_CR04_2 1.0
    VGO_CR04_2 VGOBAL_CR04_2 1.0
    RES_CR04_2 YRES_CR04_2 1.0
    RES_CR04_2 RESSPLIT_CR04_2 1.0
    LPG_CR05_2 YLPG_CR05_2 1.0
    LPG_CR05_2 LPGBAL_2 -1.0
    NAP_CR05_2 YNAP_CR05_2 1.0
    NAP_CR05_2 NAPBAL_CR05_2 1.0
    KER_CR05_2 YKER_CR05_2 1.0
    KER_CR05_2 KERBAL_CR05_2 1.0
    DSL_CR05_2 YDSL_CR05_2 1.0
    DSL_CR05_2 DSLBAL_CR05_2 1.0
    VGO_CR05_2 YVGO_CR05_2 1.0
    VGO_CR05_2 VGOBAL_CR05_2 1.0
    RES_CR05_2 YRES_CR05_2 1.0
    RES_CR05_2 RESSPLIT_CR05_2 1.0
    LPG_CR06_2 YLPG_CR06_2 1.0
    LPG_CR06_2 LPGBAL_2 -1.0
    NAP_CR06_2 YNAP_CR06_2 1.0
    NAP_CR06_2 NAPBAL_CR06_2 1.0
    KER_CR06_2 YKER_CR06_2 1.0
    KER_CR06_2 KERBAL_CR06_2 1.0
    DSL_CR06_2 YDSL_CR06_2 1.0
    DSL_CR06_2 DSLBAL_CR06_2 1.0
    VGO_CR06_2 YVGO_CR06_2 1.0
    VGO_CR06_2 VGOBAL_CR06_2 1.0
    RES_CR06_2 YRES_CR06_2 1.0
    RES_CR06_2 RESSPLIT_CR06_2 1.0
    LPG_CR07_2 YLPG_CR07_2 1.0
    LPG_CR07_2 LPGBAL_2 -1.0
    NAP_CR07_2 YNAP_CR07_2 1.0
    NAP_CR07_2 NAPBAL_CR07_2 1.0
    KER_CR07_2 YKER_CR07_2 1.0
    KER_CR07_2 KERBAL_CR07_2 1.0
    DSL_CR07_2 YDSL_CR07_2 1.0
    DSL_CR07_2 DSLBAL_CR07_2 1.0
    VGO_CR07_2 YVGO_CR07_2 1.0
    VGO_CR07_2 VGOBAL_CR07_2 1.0
    RES_CR07_2 YRES_CR07_2 1.0
    RES_CR07_2 RESSPLIT_CR07_2 1.0
    LPG_CR08_2 YLPG_CR08_2 1.0
    LPG_CR08_2 LPGBAL_2 -1.0
    NAP_CR08_2 YNAP_CR08_2 1.0
    NAP_CR08_2 NAPBAL_CR08_2 1.0
    KER_CR08_2 YKER_CR08_2 1.0
    KER_CR08_2 KERBAL_CR08_2 1.0
    DSL_CR08_2 YDSL_CR08_2 1.0
    DSL_CR08_2 DSLBAL_CR08_2 1.0
    VGO_CR08_2 YVGO_CR08_2 1.0
    VGO_CR08_2 VGOBAL_CR08_2 1.0
    RES_CR08_2 YRES_CR08_2 1.0
    RES_CR08_2 RESSPLIT_CR08_2 1.0
    LPG_CR09_2 YLPG_CR09_2 1.0
    LPG_CR09_2 LPGBAL_2 -1.0
    NAP_CR09_2 YNAP_CR09_2 1.0
    NAP_CR09_2 NAPBAL_CR09_2 1.0
    KER_CR09_2 YKER_CR09_2 1.0
    KER_CR09_2 KERBAL_CR09_2 1.0
    DSL_CR09_2 YDSL_CR09_2 1.0
    DSL_CR09_2 DSLBAL_CR09_2 1.0
    VGO_CR09_2 YVGO_CR09_2 1.0
    VGO_CR09_2 VGOBAL_CR09_2 1.0
    RES_CR09_2 YRES_CR09_2 1.0
    RES_CR09_2 RESSPLIT_CR09_2 1.0
    VDUIN_CR00_2 RESSPLIT_CR00_2 -1.0
    VDUIN_CR00_2 VDUY1_CR00_2 -0.45
    VDUIN_CR00_2 VDUY2_CR00_2 -0.55
    VDUIN_CR00_2 VDUCAP_2 1.0
    RESFO_CR00_2 RESSPLIT_CR00_2 -1.0
    RESFO_CR00_2 FOBAL_2 -1.0
    RESFO_CR00_2 FOSUL_2 1.9540891690108433
    VGO2_CR00_2 VDUY1_CR00_2 1.0
    VGO2_CR00_2 VGOBAL_CR00_2 1.0
    VR_CR00_2 VDUY2_CR00_2 1.0
    VR_CR00_2 FOBAL_2 -1.0
    VR_CR00_2 FOSUL_2 3.5903159197140964
    VDUIN_CR01_2 RESSPLIT_CR01_2 -1.0
    VDUIN_CR01_2 VDUY1_CR01_2 -0.45
    VDUIN_CR01_2 VDUY2_CR01_2 -0.55
    VDUIN_CR01_2 VDUCAP_2 1.0
    RESFO_CR01_2 RESSPLIT_CR01_2 -1.0
    RESFO_CR01_2 FOBAL_2 -1.0
    RESFO_CR01_2 FOSUL_2 -0.6168441789886687
    VGO2_CR01_2 VDUY1_CR01_2 1.0
    VGO2_CR01_2 VGOBAL_CR01_2 1.0
    VR_CR01_2 VDUY2_CR01_2 1.0
    VR_CR01_2 FOBAL_2 -1.0
    VR_CR01_2 FOSUL_2 0.24810256731473057
    VDUIN_CR02_2 RESSPLIT_CR02_2 -1.0
    VDUIN_CR02_2 VDUY1_CR02_2 -0.45
    VDUIN_CR02_2 VDUY2_CR02_2 -0.55
    VDUIN_CR02_2 VDUCAP_2 1.0
    RESFO_CR02_2 RESSPLIT_CR02_2 -1.0
    RESFO_CR02_2 FOBAL_2 -1.0
    RESFO_CR02_2 FOSUL_2 0.05675733131967897
    VGO2_CR02_2 VDUY1_CR02_2 1.0
    VGO2_CR02_2 VGOBAL_CR02_2 1.0
    VR_CR02_2 VDUY2_CR02_2 1.0
    VR_CR02_2 FOBAL_2 -1.0
    VR_CR02_2 FOSUL_2 1.1237845307155832
    VDUIN_CR03_2 RESSPLIT_CR03_2 -1.0
    VDUIN_CR03_2 VDUY1_CR03_2 -0.45
    VDUIN_CR03_2 VDUY2_CR03_2 -0.55
    VDUIN_CR03_2 VDUCAP_2 1.0
    RESFO_CR03_2 RESSPLIT_CR03_2 -1.0
    RESFO_CR03_2 FOBAL_2 -1.0
    RESFO_CR03_2 FOSUL_2 -1.8686274424458973
    VGO2_CR03_2 VDUY1_CR03_2 1.0
    VGO2_CR03_2 VGOBAL_CR03_2 1.0
    VR_CR03_2 VDUY2_CR03_2 1.0
    VR_CR03_2 FOBAL_2 -1.0
    VR_CR03_2 FOSUL_2 -1.3792156751796663
    VDUIN_CR04_2 RESSPLIT_CR04_2 -1.0
    VDUIN_CR04_2 VDUY1_CR04_2 -0.45
    VDUIN_CR04_2 VDUY2_CR04_2 -0.55
    VDUIN_CR04_2 VDUCAP_2 1.0
    RESFO_CR04_2 RESSPLIT_CR04_2 -1.0
    RESFO_CR04_2 FOBAL_2 -1.0
    RESFO_CR04_2 FOSUL_2 2.031668478530798
    VGO2_CR04_2 VDUY1_CR04_2 1.0
    VGO2_CR04_2 VGOBAL_CR04_2 1.0
    VR_CR04_2 VDUY2_CR04_2 1.0
    VR_CR04_2 FOBAL_2 -1.0
    VR_CR04_2 FOSUL_2 3.6911690220900377
    VDUIN_CR05_2 RESSPLIT_CR05_2 -1.0
    VDUIN_CR05_2 VDUY1_CR05_2 -0.45
    VDUIN_CR05_2 VDUY2_CR05_2 -0.55
    VDUIN_CR05_2 VDUCAP_2 1.0
    RESFO_CR05_2 RESSPLIT_CR05_2 -1.0
    RESFO_CR05_2 FOBAL_2 -1.0
    RESFO_CR05_2 FOSUL_2 0.3429997580900688
    VGO2_CR05_2 VDUY1_CR05_2 1.0
    VGO2_CR05_2 VGOBAL_CR05_2 1.0
    VR_CR05_2 VDUY2_CR05_2 1.0
    VR_CR05_2 FOBAL_2 -1.0
    VR_CR05_2 FOSUL_2 1.4958996855170898
    VDUIN_CR06_2 RESSPLIT_CR06_2 -1.0
    VDUIN_CR06_2 VDUY1_CR06_2 -0.45
    VDUIN_CR06_2 VDUY2_CR06_2 -0.55
    VDUIN_CR06_2 VDUCAP_2 1.0
    RESFO_CR06_2 RESSPLIT_CR06_2 -1.0
    RESFO_CR06_2 FOBAL_2 -1.0
    RESFO_CR06_2 FOSUL_2 0.10255232060654862
    VGO2_CR06_2 VDUY1_CR06_2 1.0
    VGO2_CR06_2 VGOBAL_CR06_2 1.0
    VR_CR06_2 VDUY2_CR06_2 1.0
    VR_CR06_2 FOBAL_2 -1.0
    VR_CR06_2 FOSUL_2 1.1833180167885136
    VDUIN_CR07_2 RESSPLIT_CR07_2 -1.0
    VDUIN_CR07_2 VDUY1_CR07_2 -0.45
    VDUIN_CR07_2 VDUY2_CR07_2 -0.55
    VDUIN_CR07_2 VDUCAP_2 1.0
    RESFO_CR07_2 RESSPLIT_CR07_2 -1.0
    RESFO_CR07_2 FOBAL_2 -1.0
    RESFO_CR07_2 FOSUL_2 -3.116635223405176
    VGO2_CR07_2 VDUY1_CR07_2 1.0
    VGO2_CR07_2 VGOBAL_CR07_2 1.0
    VR_CR07_2 VDUY2_CR07_2 1.0
    VR_CR07_2 FOBAL_2 -1.0
    VR_CR07_2 FOSUL_2 -3.001625790426729
    VDUIN_CR08_2 RESSPLIT_CR08_2 -1.0
    VDUIN_CR08_2 VDUY1_CR08_2 -0.45
    VDUIN_CR08_2 VDUY2_CR08_2 -0.55
    VDUIN_CR08_2 VDUCAP_2 1.0
    RESFO_CR08_2 RESSPLIT_CR08_2 -1.0
    RESFO_CR08_2 FOBAL_2 -1.0
    RESFO_CR08_2 FOSUL_2 0.0456281803886287
    VGO2_CR08_2 VDUY1_CR08_2 1.0
    VGO2_CR08_2 VGOBAL_CR08_2 1.0
    VR_CR08_2 VDUY2_CR08_2 1.0
    VR_CR08_2 FOBAL_2 -1.0
    VR_CR08_2 FOSUL_2 1.109316634505218
    VDUIN_CR09_2 RESSPLIT_CR09_2 -1.0
    VDUIN_CR09_2 VDUY1_CR09_2 -0.45
    VDUIN_CR09_2 VDUY2_CR09_2 -0.55
    VDUIN_CR09_2 VDUCAP_2 1.0
    RESFO_CR09_2 RESSPLIT_CR09_2 -1.0
    RESFO_CR09_2 FOBAL_2 -1.0
    RESFO_CR09_2 FOSUL_2 -3.264603397407564
    VGO2_CR09_2 VDUY1_CR09_2 1.0
    VGO2_CR09_2 VGOBAL_CR09_2 1.0
    VR_CR09_2 VDUY2_CR09_2 1.0
    VR_CR09_2 FOBAL_2 -1.0
    VR_CR09_2 FOSUL_2 -3.1939844166298332
    FCCIN_CR00_2 OBJ -2.5
    FCCIN_CR00_2 VGOBAL_CR00_2 -1.0
    FCCIN_CR00_2 FCCCAP_2 1.0
    FCCIN_CR00_2 FCCY_FCCG_2 -0.55
    FCCIN_CR00_2 FCCY_LCO_2 -0.2
    FCCIN_CR00_2 FCCY_FLPG_2 -0.15
    FCCIN_CR00_2 FCCY_SLURRY_2 -0.07
    FCCIN_CR01_2 OBJ -2.5
    FCCIN_CR01_2 VGOBAL_CR01_2 -1.0
    FCCIN_CR01_2 FCCCAP_2 1.0
    FCCIN_CR01_2 FCCY_FCCG_2 -0.55
    FCCIN_CR01_2 FCCY_LCO_2 -0.2
    FCCIN_CR01_2 FCCY_FLPG_2 -0.15
    FCCIN_CR01_2 FCCY_SLURRY_2 -0.07
    FCCIN_CR02_2 OBJ -2.5
    FCCIN_CR02_2 VGOBAL_CR02_2 -1.0
    FCCIN_CR02_2 FCCCAP_2 1.0
    FCCIN_CR02_2 FCCY_FCCG_2 -0.55
    FCCIN_CR02_2 FCCY_LCO_2 -0.2
    FCCIN_CR02_2 FCCY_FLPG_2 -0.15
    FCCIN_CR02_2 FCCY_SLURRY_2 -0.07
    FCCIN_CR03_2 OBJ -2.5
    FCCIN_CR03_2 VGOBAL_CR03_2 -1.0
    FCCIN_CR03_2 FCCCAP_2 1.0
    FCCIN_CR03_2 FCCY_FCCG_2 -0.55
    FCCIN_CR03_2 FCCY_LCO_2 -0.2
    FCCIN_CR03_2 FCCY_FLPG_2 -0.15
    FCCIN_CR03_2 FCCY_SLURRY_2 -0.07
    FCCIN_CR04_2 OBJ -2.5
    FCCIN_CR04_2 VGOBAL_CR04_2 -1.0
    FCCIN_CR04_2 FCCCAP_2 1.0
    FCCIN_CR04_2 FCCY_FCCG_2 -0.55
    FCCIN_CR04_2 FCCY_LCO_2 -0.2
    FCCIN_CR04_2 FCCY_FLPG_2 -0.15
    FCCIN_CR04_2 FCCY_SLURRY_2 -0.07
    FCCIN_CR05_2 OBJ -2.5
    FCCIN_CR05_2 VGOBAL_CR05_2 -1.0
    FCCIN_CR05_2 FCCCAP_2 1.0
    FCCIN_CR05_2 FCCY_FCCG_2 -0.55
    FCCIN_CR05_2 FCCY_LCO_2 -0.2
    FCCIN_CR05_2 FCCY_FLPG_2 -0.15
    FCCIN_CR05_2 FCCY_SLURRY_2 -0.07
    FCCIN_CR06_2 OBJ -2.5
    FCCIN_CR06_2 VGOBAL_CR06_2 -1.0
    FCCIN_CR06_2 FCCCAP_2 1.0
    FCCIN_CR06_2 FCCY_FCCG_2 -0.55
    FCCIN_CR06_2 FCCY_LCO_2 -0.2
    FCCIN_CR06_2 FCCY_FLPG_2 -0.15
    FCCIN_CR06_2 FCCY_SLURRY_2 -0.07
    FCCIN_CR07_2 OBJ -2.5
    FCCIN_CR07_2 VGOBAL_CR07_2 -1.0
    FCCIN_CR07_2 FCCCAP_2 1.0
    FCCIN_CR07_2 FCCY_FCCG_2 -0.55
    FCCIN_CR07_2 FCCY_LCO_2 -0.2
    FCCIN_CR07_2 FCCY_FLPG_2 -0.15
    FCCIN_CR07_2 FCCY_SLURRY_2 -0.07
    FCCIN_CR08_2 OBJ -2.5
    FCCIN_CR08_2 VGOBAL_CR08_2 -1.0
    FCCIN_CR08_2 FCCCAP_2 1.0
    FCCIN_CR08_2 FCCY_FCCG_2 -0.55
    FCCIN_CR08_2 FCCY_LCO_2 -0.2
    FCCIN_CR08_2 FCCY_FLPG_2 -0.15
    FCCIN_CR08_2 FCCY_SLURRY_2 -0.07
    FCCIN_CR09_2 OBJ -2.5
    FCCIN_CR09_2 VGOBAL_CR09_2 -1.0
    FCCIN_CR09_2 FCCCAP_2 1.0
    FCCIN_CR09_2 FCCY_FCCG_2 -0.55
    FCCIN_CR09_2 FCCY_LCO_2 -0.2
    FCCIN_CR09_2 FCCY_FLPG_2 -0.15
    FCCIN_CR09_2 FCCY_SLURRY_2 -0.07
    FCCG_2 FCCY_FCCG_2 1.0
    FCCG_2 GASBAL_2 -1.0
    FCCG_2 GASRON_2 1.0
    LCO_2 FCCY_LCO_2 1.0
    LCO_2 LCOBAL_2 1.0
    FLPG_2 FCCY_FLPG_2 1.0
    FLPG_2 LPGBAL_2 -1.0
    SLURRY_2 FCCY_SLURRY_2 1.0
    SLURRY_2 FOBAL_2 -1.0
    SLURRY_2 FOSUL_2 -1.5
    REFIN_CR00_2 OBJ -3.0
    REFIN_CR00_2 NAPBAL_CR00_2 -1.0
    REFIN_CR00_2 REFCAP_2 1.0
    REFIN_CR00_2 REFY_2 -0.85
    NAPGAS_CR00_2 NAPBAL_CR00_2 -1.0
    NAPGAS_CR00_2 GASBAL_2 -1.0
    NAPGAS_CR00_2 GASRON_2 -41.351908455631545
    REFIN_CR01_2 OBJ -3.0
    REFIN_CR01_2 NAPBAL_CR01_2 -1.0
    REFIN_CR01_2 REFCAP_2 1.0
    REFIN_CR01_2 REFY_2 -0.85
    NAPGAS_CR01_2 NAPBAL_CR01_2 -1.0
    NAPGAS_CR01_2 GASBAL_2 -1.0
    NAPGAS_CR01_2 GASRON_2 -33.623043958680114
    REFIN_CR02_2 OBJ -3.0
    REFIN_CR02_2 NAPBAL_CR02_2 -1.0
    REFIN_CR02_2 REFCAP_2 1.0
    REFIN_CR02_2 REFY_2 -0.85
    NAPGAS_CR02_2 NAPBAL_CR02_2 -1.0
    NAPGAS_CR02_2 GASBAL_2 -1.0
    NAPGAS_CR02_2 GASRON_2 -39.74522208078083
    REFIN_CR03_2 OBJ -3.0
    REFIN_CR03_2 NAPBAL_CR03_2 -1.0
    REFIN_CR03_2 REFCAP_2 1.0
    REFIN_CR03_2 REFY_2 -0.85
    NAPGAS_CR03_2 NAPBAL_CR03_2 -1.0
    NAPGAS_CR03_2 GASBAL_2 -1.0
    NAPGAS_CR03_2 GASRON_2 -39.32063345179839
    REFIN_CR04_2 OBJ -3.0
    REFIN_CR04_2 NAPBAL_CR04_2 -1.0
    REFIN_CR04_2 REFCAP_2 1.0
    REFIN_CR04_2 REFY_2 -0.85
    NAPGAS_CR04_2 NAPBAL_CR04_2 -1.0
    NAPGAS_CR04_2 GASBAL_2 -1.0
    NAPGAS_CR04_2 GASRON_2 -28.06018906757886
    REFIN_CR05_2 OBJ -3.0
    REFIN_CR05_2 NAPBAL_CR05_2 -1.0
    REFIN_CR05_2 REFCAP_2 1.0
    REFIN_CR05_2 REFY_2 -0.85
    NAPGAS_CR05_2 NAPBAL_CR05_2 -1.0
    NAPGAS_CR05_2 GASBAL_2 -1.0
    NAPGAS_CR05_2 GASRON_2 -37.177062383933254
    REFIN_CR06_2 OBJ -3.0
    REFIN_CR06_2 NAPBAL_CR06_2 -1.0
    REFIN_CR06_2 REFCAP_2 1.0
    REFIN_CR06_2 REFY_2 -0.85
    NAPGAS_CR06_2 NAPBAL_CR06_2 -1.0
    NAPGAS_CR06_2 GASBAL_2 -1.0
    NAPGAS_CR06_2 GASRON_2 -38.73738801284508
    REFIN_CR07_2 OBJ -3.0
    REFIN_CR07_2 NAPBAL_CR07_2 -1.0
    REFIN_CR07_2 REFCAP_2 1.0
    REFIN_CR07_2 REFY_2 -0.85
    NAPGAS_CR07_2 NAPBAL_CR07_2 -1.0
    NAPGAS_CR07_2 GASBAL_2 -1.0
    NAPGAS_CR07_2 GASRON_2 -31.720911449683953
    REFIN_CR08_2 OBJ -3.0
    REFIN_CR08_2 NAPBAL_CR08_2 -1.0
    REFIN_CR08_2 REFCAP_2 1.0
    REFIN_CR08_2 REFY_2 -0.85
    NAPGAS_CR08_2 NAPBAL_CR08_2 -1.0
    NAPGAS_CR08_2 GASBAL_2 -1.0
    NAPGAS_CR08_2 GASRON_2 -31.236267605063702
    REFIN_CR09_2 OBJ -3.0
    REFIN_CR09_2 NAPBAL_CR09_2 -1.0
    REFIN_CR09_2 REFCAP_2 1.0
    REFIN_CR09_2 REFY_2 -0.85
    NAPGAS_CR09_2 NAPBAL_CR09_2 -1.0
    NAPGAS_CR09_2 GASBAL_2 -1.0
    NAPGAS_CR09_2 GASRON_2 -29.9151768258086
    REFORMATE_2 REFY_2 1.0
    REFORMATE_2 GASBAL_2 -1.0
    REFORMATE_2 GASRON_2 7.0
    DHTIN_CR00_2 OBJ -2.0
    DHTIN_CR00_2 DSLBAL_CR00_2 -1.0
    DHTIN_CR00_2 DHTCAP_2 1.0
    DHTIN_CR00_2 DHTY_2 -0.98
    DSLDIR_CR00_2 DSLBAL_CR00_2 -1.0
    DSLDIR_CR00_2 DSLPB_2 -1.0
    DSLDIR_CR00_2 DSLSUL_2 1.5862267507032528
    DHTIN_CR01_2 OBJ -2.0
    DHTIN_CR01_2 DSLBAL_CR01_2 -1.0
    DHTIN_CR01_2 DHTCAP_2 1.0
    DHTIN_CR01_2 DHTY_2 -0.98
    DSLDIR_CR01_2 DSLBAL_CR01_2 -1.0
    DSLDIR_CR01_2 DSLPB_2 -1.0
    DSLDIR_CR01_2 DSLSUL_2 0.8149467463033994
    DHTIN_CR02_2 OBJ -2.0
    DHTIN_CR02_2 DSLBAL_CR02_2 -1.0
    DHTIN_CR02_2 DHTCAP_2 1.0
    DHTIN_CR02_2 DHTY_2 -0.98
    DSLDIR_CR02_2 DSLBAL_CR02_2 -1.0
    DSLDIR_CR02_2 DSLPB_2 -1.0
    DSLDIR_CR02_2 DSLSUL_2 1.0170271993959037
    DHTIN_CR03_2 OBJ -2.0
    DHTIN_CR03_2 DSLBAL_CR03_2 -1.0
    DHTIN_CR03_2 DHTCAP_2 1.0
    DHTIN_CR03_2 DHTY_2 -0.98
    DSLDIR_CR03_2 DSLBAL_CR03_2 -1.0
    DSLDIR_CR03_2 DSLPB_2 -1.0
    DSLDIR_CR03_2 DSLSUL_2 0.4394117672662308
    DHTIN_CR04_2 OBJ -2.0
    DHTIN_CR04_2 DSLBAL_CR04_2 -1.0
    DHTIN_CR04_2 DHTCAP_2 1.0
    DHTIN_CR04_2 DHTY_2 -0.98
    DSLDIR_CR04_2 DSLBAL_CR04_2 -1.0
    DSLDIR_CR04_2 DSLPB_2 -1.0
    DSLDIR_CR04_2 DSLSUL_2 1.6095005435592393
    DHTIN_CR05_2 OBJ -2.0
    DHTIN_CR05_2 DSLBAL_CR05_2 -1.0
    DHTIN_CR05_2 DHTCAP_2 1.0
    DHTIN_CR05_2 DHTY_2 -0.98
    DSLDIR_CR05_2 DSLBAL_CR05_2 -1.0
    DSLDIR_CR05_2 DSLPB_2 -1.0
    DSLDIR_CR05_2 DSLSUL_2 1.1028999274270206
    DHTIN_CR06_2 OBJ -2.0
    DHTIN_CR06_2 DSLBAL_CR06_2 -1.0
    DHTIN_CR06_2 DHTCAP_2 1.0
    DHTIN_CR06_2 DHTY_2 -0.98
    DSLDIR_CR06_2 DSLBAL_CR06_2 -1.0
    DSLDIR_CR06_2 DSLPB_2 -1.0
    DSLDIR_CR06_2 DSLSUL_2 1.0307656961819645
    DHTIN_CR07_2 OBJ -2.0
    DHTIN_CR07_2 DSLBAL_CR07_2 -1.0
    DHTIN_CR07_2 DHTCAP_2 1.0
    DHTIN_CR07_2 DHTY_2 -0.98
    DSLDIR_CR07_2 DSLBAL_CR07_2 -1.0
    DSLDIR_CR07_2 DSLPB_2 -1.0
    DSLDIR_CR07_2 DSLSUL_2 0.06500943297844713
    DHTIN_CR08_2 OBJ -2.0
    DHTIN_CR08_2 DSLBAL_CR08_2 -1.0
    DHTIN_CR08_2 DHTCAP_2 1.0
    DHTIN_CR08_2 DHTY_2 -0.98
    DSLDIR_CR08_2 DSLBAL_CR08_2 -1.0
    DSLDIR_CR08_2 DSLPB_2 -1.0
    DSLDIR_CR08_2 DSLSUL_2 1.0136884541165885
    DHTIN_CR09_2 OBJ -2.0
    DHTIN_CR09_2 DSLBAL_CR09_2 -1.0
    DHTIN_CR09_2 DHTCAP_2 1.0
    DHTIN_CR09_2 DHTY_2 -0.98
    DSLDIR_CR09_2 DSLBAL_CR09_2 -1.0
    DSLDIR_CR09_2 DSLPB_2 -1.0
    DSLDIR_CR09_2 DSLSUL_2 0.020618980777730833
    LCODHT_2 LCOBAL_2 -1.0
    LCODHT_2 DHTCAP_2 1.0
    LCODHT_2 DHTY_2 -0.95
    LCOFO_2 LCOBAL_2 -1.0
    LCOFO_2 FOBAL_2 -1.0
    LCOFO_2 FOSUL_2 -2.5
    ULSD_2 DHTY_2 1.0
    ULSD_2 DSLPB_2 -1.0
    ULSD_2 DSLSUL_2 -0.049
    SELL_LPG_2 OBJ 59.76313972081441
    SELL_LPG_2 PBAL_LPG_2 -1.0
    SELL_LPG_2 DMAX_LPG_2 1.0
    SELL_LPG_2 DMIN_LPG_2 1.0
    SELL_GAS_2 OBJ 114.0932667397366
    SELL_GAS_2 PBAL_GAS_2 -1.0
    SELL_GAS_2 DMAX_GAS_2 1.0
    SELL_GAS_2 DMIN_GAS_2 1.0
    SELL_JET_2 OBJ 108.66025403784438
    SELL_JET_2 PBAL_JET_2 -1.0
    SELL_JET_2 DMAX_JET_2 1.0
    SELL_JET_2 DMIN_JET_2 1.0
    SELL_DSL_2 OBJ 106.4870489570875
    SELL_DSL_2 PBAL_DSL_2 -1.0
    SELL_DSL_2 DMAX_DSL_2 1.0
    SELL_DSL_2 DMIN_DSL_2 1.0
    SELL_FO_2 OBJ 65.19615242270663
    SELL_FO_2 PBAL_FO_2 -1.0
    SELL_FO_2 DMAX_FO_2 1.0
    SELL_FO_2 DMIN_FO_2 1.0
    PINV_LPG_2 OBJ -0.5
    PINV_LPG_2 PBAL_LPG_2 -1.0
    PINV_LPG_2 PBAL_LPG_3 1.0
    PINV_GAS_2 OBJ -0.5
    PINV_GAS_2 PBAL_GAS_2 -1.0
    PINV_GAS_2 PBAL_GAS_3 1.0
    PINV_JET_2 OBJ -0.5
    PINV_JET_2 PBAL_JET_2 -1.0
    PINV_JET_2 PBAL_JET_3 1.0
    PINV_DSL_2 OBJ -0.5
    PINV_DSL_2 PBAL_DSL_2 -1.0
    PINV_DSL_2 PBAL_DSL_3 1.0
    PINV_FO_2 OBJ -0.5
    PINV_FO_2 PBAL_FO_2 -1.0
    PINV_FO_2 PBAL_FO_3 1.0
    SHORT_LPG_2 OBJ -400.0
    SHORT_LPG_2 DMIN_LPG_2 1.0
    SHORT_GAS_2 OBJ -400.0
    SHORT_GAS_2 DMIN_GAS_2 1.0
    SHORT_JET_2 OBJ -400.0
    SHORT_JET_2 DMIN_JET_2 1.0
    SHORT_DSL_2 OBJ -400.0
    SHORT_DSL_2 DMIN_DSL_2 1.0
    SHORT_FO_2 OBJ -400.0
    SHORT_FO_2 DMIN_FO_2 1.0
    GASPOOL_2 GASBAL_2 1.0
    GASPOOL_2 PBAL_GAS_2 1.0
    JETPOOL_2 JETBAL_2 1.0
    JETPOOL_2 PBAL_JET_2 1.0
    KERJET_CR00_2 KERBAL_CR00_2 -1.0
    KERJET_CR00_2 JETBAL_2 -1.0
    KERJET_CR00_2 JETSUL_2 0.10905668767581322
    KERDSL_CR00_2 KERBAL_CR00_2 -1.0
    KERDSL_CR00_2 DSLPB_2 -1.0
    KERDSL_CR00_2 DSLSUL_2 0.3590566876758132
    KERJET_CR01_2 KERBAL_CR01_2 -1.0
    KERJET_CR01_2 JETBAL_2 -1.0
    KERJET_CR01_2 JETSUL_2 -0.08376331342415014
    KERDSL_CR01_2 KERBAL_CR01_2 -1.0
    KERDSL_CR01_2 DSLPB_2 -1.0
    KERDSL_CR01_2 DSLSUL_2 0.16623668657584983
    KERJET_CR02_2 KERBAL_CR02_2 -1.0
    KERJET_CR02_2 JETBAL_2 -1.0
    KERJET_CR02_2 JETSUL_2 -0.033243200151024055
    KERDSL_CR02_2 KERBAL_CR02_2 -1.0
    KERDSL_CR02_2 DSLPB_2 -1.0
    KERDSL_CR02_2 DSLSUL_2 0.21675679984897595
    KERJET_CR03_2 KERBAL_CR03_2 -1.0
    KERJET_CR03_2 JETBAL_2 -1.0
    KERJET_CR03_2 JETSUL_2 -0.17764705818344229
    KERDSL_CR03_2 KERBAL_CR03_2 -1.0
    KERDSL_CR03_2 DSLPB_2 -1.0
    KERDSL_CR03_2 DSLSUL_2 0.0723529418165577
    KERJET_CR04_2 KERBAL_CR04_2 -1.0
    KERJET_CR04_2 JETBAL_2 -1.0
    KERJET_CR04_2 JETSUL_2 0.11487513588980985
    KERDSL_CR04_2 KERBAL_CR04_2 -1.0
    KERDSL_CR04_2 DSLPB_2 -1.0
    KERDSL_CR04_2 DSLSUL_2 0.36487513588980985
    KERJET_CR05_2 KERBAL_CR05_2 -1.0
    KERJET_CR05_2 JETBAL_2 -1.0
    KERJET_CR05_2 JETSUL_2 -0.011775018143244831
    KERDSL_CR05_2 KERBAL_CR05_2 -1.0
    KERDSL_CR05_2 DSLPB_2 -1.0
    KERDSL_CR05_2 DSLSUL_2 0.23822498185675517
    KERJET_CR06_2 KERBAL_CR06_2 -1.0
    KERJET_CR06_2 JETBAL_2 -1.0
    KERJET_CR06_2 JETSUL_2 -0.029808575954508865
    KERDSL_CR06_2 KERBAL_CR06_2 -1.0
    KERDSL_CR06_2 DSLPB_2 -1.0
    KERDSL_CR06_2 DSLSUL_2 0.22019142404549114
    KERJET_CR07_2 KERBAL_CR07_2 -1.0
    KERJET_CR07_2 JETBAL_2 -1.0
    KERJET_CR07_2 JETSUL_2 -0.2712476417553882
    KERDSL_CR07_2 KERBAL_CR07_2 -1.0
    KERDSL_CR07_2 DSLPB_2 -1.0
    KERDSL_CR07_2 DSLSUL_2 -0.02124764175538822
    KERJET_CR08_2 KERBAL_CR08_2 -1.0
    KERJET_CR08_2 JETBAL_2 -1.0
    KERJET_CR08_2 JETSUL_2 -0.03407788647085286
    KERDSL_CR08_2 KERBAL_CR08_2 -1.0
    KERDSL_CR08_2 DSLPB_2 -1.0
    KERDSL_CR08_2 DSLSUL_2 0.21592211352914714
    KERJET_CR09_2 KERBAL_CR09_2 -1.0
    KERJET_CR09_2 JETBAL_2 -1.0
    KERJET_CR09_2 JETSUL_2 -0.28234525480556727
    KERDSL_CR09_2 KERBAL_CR09_2 -1.0
    KERDSL_CR09_2 DSLPB_2 -1.0
    KERDSL_CR09_2 DSLSUL_2 -0.0323452548055673
    DSLPOOL_2 DSLPB_2 1.0
    DSLPOOL_2 PBAL_DSL_2 1.0
    LPGPOOL_2 LPGBAL_2 1.0
    LPGPOOL_2 PBAL_LPG_2 1.0
    FOPOOL_2 FOBAL_2 1.0
    FOPOOL_2 PBAL_FO_2 1.0
    M4566 'MARKER' 'INTORG'
    NPAR_CR00_3 PARCEL_CR00_3 -20.0
    M4568 'MARKER' 'INTEND'
    BUY_CR00_3 OBJ -59.922376548713096
    BUY_CR00_3 PARCEL_CR00_3 1.0
    BUY_CR00_3 CBAL_CR00_3 1.0
    CINV_CR00_3 OBJ -0.3
    CINV_CR00_3 CBAL_CR00_3 -1.0
    CINV_CR00_3 CBAL_CR00_4 1.0
    CDU_CR00_3 CBAL_CR00_3 -1.0
    CDU_CR00_3 CDUCAP_3 1.0
    CDU_CR00_3 CDUMIN_3 1.0
    CDU_CR00_3 YLPG_CR00_3 -0.013786055933968056
    CDU_CR00_3 YNAP_CR00_3 -0.1214444916358349
    CDU_CR00_3 YKER_CR00_3 -0.10646372452567733
    CDU_CR00_3 YDSL_CR00_3 -0.20292085263352289
    CDU_CR00_3 YVGO_CR00_3 -0.27390944719057636
    CDU_CR00_3 YRES_CR00_3 -0.28147542808042036
    M4584 'MARKER' 'INTORG'
    NPAR_CR01_3 PARCEL_CR01_3 -20.0
    M4586 'MARKER' 'INTEND'
    BUY_CR01_3 OBJ -76.97885769258421
    BUY_CR01_3 PARCEL_CR01_3 1.0
    BUY_CR01_3 CBAL_CR01_3 1.0
    CINV_CR01_3 OBJ -0.3
    CINV_CR01_3 CBAL_CR01_3 -1.0
    CINV_CR01_3 CBAL_CR01_4 1.0
    CDU_CR01_3 CBAL_CR01_3 -1.0
    CDU_CR01_3 CDUCAP_3 1.0
    CDU_CR01_3 CDUMIN_3 1.0
    CDU_CR01_3 YLPG_CR01_3 -0.025127543584387436
    CDU_CR01_3 YNAP_CR01_3 -0.2025917905849106
    CDU_CR01_3 YKER_CR01_3 -0.13410952106049506
    CDU_CR01_3 YDSL_CR01_3 -0.24728591651278542
    CDU_CR01_3 YVGO_CR01_3 -0.22897185950088417
    CDU_CR01_3 YRES_CR01_3 -0.16191336875653717
    M4602 'MARKER' 'INTORG'
    NPAR_CR02_3 PARCEL_CR02_3 -20.0
    M4604 'MARKER' 'INTEND'
    BUY_CR02_3 OBJ -62.814687818809716
    BUY_CR02_3 PARCEL_CR02_3 1.0
    BUY_CR02_3 CBAL_CR02_3 1.0
    CINV_CR02_3 OBJ -0.3
    CINV_CR02_3 CBAL_CR02_3 -1.0
    CINV_CR02_3 CBAL_CR02_4 1.0
    CDU_CR02_3 CBAL_CR02_3 -1.0
    CDU_CR02_3 CDUCAP_3 1.0
    CDU_CR02_3 CDUMIN_3 1.0
    CDU_CR02_3 YLPG_CR02_3 -0.013444753666275039
    CDU_CR02_3 YNAP_CR02_3 -0.11889710072836579
    CDU_CR02_3 YKER_CR02_3 -0.103840437143255
    CDU_CR02_3 YDSL_CR02_3 -0.21229612809407214
    CDU_CR02_3 YVGO_CR02_3 -0.2628713956905896
    CDU_CR02_3 YRES_CR02_3 -0.28865018467744247
    M4620 'MARKER' 'INTORG'
    NPAR_CR03_3 PARCEL_CR03_3 -20.0
    M4622 'MARKER' 'INTEND'
    BUY_CR03_3 OBJ -69.5392474627313
    BUY_CR03_3 PARCEL_CR03_3 1.0
    BUY_CR03_3 CBAL_CR03_3 1.0
    CINV_CR03_3 OBJ -0.3
    CINV_CR03_3 CBAL_CR03_3 -1.0
    CINV_CR03_3 CBAL_CR03_4 1.0
    CDU_CR03_3 CBAL_CR03_3 -1.0
    CDU_CR03_3 CDUCAP_3 1.0
    CDU_CR03_3 CDUMIN_3 1.0
    CDU_CR03_3 YLPG_CR03_3 -0.01400858068810675
    CDU_CR03_3 YNAP_CR03_3 -0.1424923117986131
    CDU_CR03_3 YKER_CR03_3 -0.10784088582669263
    CDU_CR03_3 YDSL_CR03_3 -0.19279120630762445
    CDU_CR03_3 YVGO_CR03_3 -0.28544626211923063
    CDU_CR03_3 YRES_CR03_3 -0.2574207532597324
    M4638 'MARKER' 'INTORG'
    NPAR_CR04_3 PARCEL_CR04_3 -20.0
    M4640 'MARKER' 'INTEND'
    BUY_CR04_3 OBJ -74.84692404973171
    BUY_CR04_3 PARCEL_CR04_3 1.0
    BUY_CR04_3 CBAL_CR04_3 1.0
    CINV_CR04_3 OBJ -0.3
    CINV_CR04_3 CBAL_CR04_3 -1.0
    CINV_CR04_3 CBAL_CR04_4 1.0
    CDU_CR04_3 CBAL_CR04_3 -1.0
    CDU_CR04_3 CDUCAP_3 1.0
    CDU_CR04_3 CDUMIN_3 1.0
    CDU_CR04_3 YLPG_CR04_3 -0.02335213093765316
    CDU_CR04_3 YNAP_CR04_3 -0.2292355396921612
    CDU_CR04_3 YKER_CR04_3 -0.14240695851543803
    CDU_CR04_3 YDSL_CR04_3 -0.24384363627499198
    CDU_CR04_3 YVGO_CR04_3 -0.2465326974706559
    CDU_CR04_3 YRES_CR04_3 -0.1146290371090997
    M4656 'MARKER' 'INTORG'
    NPAR_CR05_3 PARCEL_CR05_3 -20.0
    M4658 'MARKER' 'INTEND'
    BUY_CR05_3 OBJ -67.52740728743005
    BUY_CR05_3 PARCEL_CR05_3 1.0
    BUY_CR05_3 CBAL_CR05_3 1.0
    CINV_CR05_3 OBJ -0.3
    CINV_CR05_3 CBAL_CR05_3 -1.0
    CINV_CR05_3 CBAL_CR05_4 1.0
    CDU_CR05_3 CBAL_CR05_3 -1.0
    CDU_CR05_3 CDUCAP_3 1.0
    CDU_CR05_3 CDUMIN_3 1.0
    CDU_CR05_3 YLPG_CR05_3 -0.01735729802728813
    CDU_CR05_3 YNAP_CR05_3 -0.16608619710065003
    CDU_CR05_3 YKER_CR05_3 -0.1170544437563835
    CDU_CR05_3 YDSL_CR05_3 -0.22299235889970878
    CDU_CR05_3 YVGO_CR05_3 -0.2433490540516293
    CDU_CR05_3 YRES_CR05_3 -0.23316064816434035
    M4674 'MARKER' 'INTORG'
    NPAR_CR06_3 PARCEL_CR06_3 -20.0
    M4676 'MARKER' 'INTEND'
    BUY_CR06_3 OBJ -64.96302813747116
    BUY_CR06_3 PARCEL_CR06_3 1.0
    BUY_CR06_3 CBAL_CR06_3 1.0
    CINV_CR06_3 OBJ -0.3
    CINV_CR06_3 CBAL_CR06_3 -1.0
    CINV_CR06_3 CBAL_CR06_4 1.0
    CDU_CR06_3 CBAL_CR06_3 -1.0
    CDU_CR06_3 CDUCAP_3 1.0
    CDU_CR06_3 CDUMIN_3 1.0
    CDU_CR06_3 YLPG_CR06_3 -0.014219474855875663
    CDU_CR06_3 YNAP_CR06_3 -0.13746806025500902
    CDU_CR06_3 YKER_CR06_3 -0.10533897185985656
    CDU_CR06_3 YDSL_CR06_3 -0.20403840195434858
    CDU_CR06_3 YVGO_CR06_3 -0.26484358994429863
    CDU_CR06_3 YRES_CR06_3 -0.27409150113061165
    M4692 'MARKER' 'INTORG'
    NPAR_CR07_3 PARCEL_CR07_3 -20.0
    M4694 'MARKER' 'INTEND'
    BUY_CR07_3 OBJ -74.2314267403159
    BUY_CR07_3 PARCEL_CR07_3 1.0
    BUY_CR07_3 CBAL_CR07_3 1.0
    CINV_CR07_3 OBJ -0.3
    CINV_CR07_3 CBAL_CR07_3 -1.0
    CINV_CR07_3 CBAL_CR07_4 1.0
    CDU_CR07_3 CBAL_CR07_3 -1.0
    CDU_CR07_3 CDUCAP_3 1.0
    CDU_CR07_3 CDUMIN_3 1.0
    CDU_CR07_3 YLPG_CR07_3 -0.01678766142162217
    CDU_CR07_3 YNAP_CR07_3 -0.18341674311422207
    CDU_CR07_3 YKER_CR07_3 -0.13271469159016522
    CDU_CR07_3 YDSL_CR07_3 -0.2249127244045356
    CDU_CR07_3 YVGO_CR07_3 -0.24848613807316539
    CDU_CR07_3 YRES_CR07_3 -0.19368204139628944
    M4710 'MARKER' 'INTORG'
    NPAR_CR08_3 PARCEL_CR08_3 -20.0
    M4712 'MARKER' 'INTEND'
    BUY_CR08_3 OBJ -72.50432133625587
    BUY_CR08_3 PARCEL_CR08_3 1.0
    BUY_CR08_3 CBAL_CR08_3 1.0
    CINV_CR08_3 OBJ -0.3
    CINV_CR08_3 CBAL_CR08_3 -1.0
    CINV_CR08_3 CBAL_CR08_4 1.0
    CDU_CR08_3 CBAL_CR08_3 -1.0
    CDU_CR08_3 CDUCAP_3 1.0
    CDU_CR08_3 CDUMIN_3 1.0
    CDU_CR08_3 YLPG_CR08_3 -0.023930881960770135
    CDU_CR08_3 YNAP_CR08_3 -0.199474063989656
    CDU_CR08_3 YKER_CR08_3 -0.13012967624359006
    CDU_CR08_3 YDSL_CR08_3 -0.24906213509239003
    CDU_CR08_3 YVGO_CR08_3 -0.24247509330512357
    CDU_CR08_3 YRES_CR08_3 -0.15492814940847022
    M4728 'MARKER' 'INTORG'
    NPAR_CR09_3 PARCEL_CR09_3 -20.0
    M4730 'MARKER' 'INTEND'
    BUY_CR09_3 OBJ -81.61254673307121
    BUY_CR09_3 PARCEL_CR09_3 1.0
    BUY_CR09_3 CBAL_CR09_3 1.0
    CINV_CR09_3 OBJ -0.3
    CINV_CR09_3 CBAL_CR09_3 -1.0
    CINV_CR09_3 CBAL_CR09_4 1.0
    CDU_CR09_3 CBAL_CR09_3 -1.0
    CDU_CR09_3 CDUCAP_3 1.0
    CDU_CR09_3 CDUMIN_3 1.0
    CDU_CR09_3 YLPG_CR09_3 -0.0254414593142613
    CDU_CR09_3 YNAP_CR09_3 -0.2406668892422991
    CDU_CR09_3 YKER_CR09_3 -0.14150533274546892
    CDU_CR09_3 YDSL_CR09_3 -0.23713673044274025
    CDU_CR09_3 YVGO_CR09_3 -0.23566730460149374
    CDU_CR09_3 YRES_CR09_3 -0.11958228365373665
    M4746 'MARKER' 'INTORG'
    CDUMODE_3 OBJ -150.0
    CDUMODE_3 CDUCAP_3 -150.0
    CDUMODE_3 CDUMIN_3 -90.0
    M4750 'MARKER' 'INTEND'
    LPG_CR00_3 YLPG_CR00_3 1.0
    LPG_CR00_3 LPGBAL_3 -1.0
    NAP_CR00_3 YNAP_CR00_3 1.0
    NAP_CR00_3 NAPBAL_CR00_3 1.0
    KER_CR00_3 YKER_CR00_3 1.0
    KER_CR00_3 KERBAL_CR00_3 1.0
    DSL_CR00_3 YDSL_CR00_3 1.0
    DSL_CR00_3 DSLBAL_CR00_3 1.0
    VGO_CR00_3 YVGO_CR00_3 1.0
    VGO_CR00_3 VGOBAL_CR00_3 1.0
    RES_CR00_3 YRES_CR00_3 1.0
    RES_CR00_3 RESSPLIT_CR00_3 1.0
    LPG_CR01_3 YLPG_CR01_3 1.0
    LPG_CR01_3 LPGBAL_3 -1.0
    NAP_CR01_3 YNAP_CR01_3 1.0
    NAP_CR01_3 NAPBAL_CR01_3 1.0
    KER_CR01_3 YKER_CR01_3 1.0
    KER_CR01_3 KERBAL_CR01_3 1.0
    DSL_CR01_3 YDSL_CR01_3 1.0
    DSL_CR01_3 DSLBAL_CR01_3 1.0
    VGO_CR01_3 YVGO_CR01_3 1.0
    VGO_CR01_3 VGOBAL_CR01_3 1.0
    RES_CR01_3 YRES_CR01_3 1.0
    RES_CR01_3 RESSPLIT_CR01_3 1.0
    LPG_CR02_3 YLPG_CR02_3 1.0
    LPG_CR02_3 LPGBAL_3 -1.0
    NAP_CR02_3 YNAP_CR02_3 1.0
    NAP_CR02_3 NAPBAL_CR02_3 1.0
    KER_CR02_3 YKER_CR02_3 1.0
    KER_CR02_3 KERBAL_CR02_3 1.0
    DSL_CR02_3 YDSL_CR02_3 1.0
    DSL_CR02_3 DSLBAL_CR02_3 1.0
    VGO_CR02_3 YVGO_CR02_3 1.0
    VGO_CR02_3 VGOBAL_CR02_3 1.0
    RES_CR02_3 YRES_CR02_3 1.0
    RES_CR02_3 RESSPLIT_CR02_3 1.0
    LPG_CR03_3 YLPG_CR03_3 1.0
    LPG_CR03_3 LPGBAL_3 -1.0
    NAP_CR03_3 YNAP_CR03_3 1.0
    NAP_CR03_3 NAPBAL_CR03_3 1.0
    KER_CR03_3 YKER_CR03_3 1.0
    KER_CR03_3 KERBAL_CR03_3 1.0
    DSL_CR03_3 YDSL_CR03_3 1.0
    DSL_CR03_3 DSLBAL_CR03_3 1.0
    VGO_CR03_3 YVGO_CR03_3 1.0
    VGO_CR03_3 VGOBAL_CR03_3 1.0
    RES_CR03_3 YRES_CR03_3 1.0
    RES_CR03_3 RESSPLIT_CR03_3 1.0
    LPG_CR04_3 YLPG_CR04_3 1.0
    LPG_CR04_3 LPGBAL_3 -1.0
    NAP_CR04_3 YNAP_CR04_3 1.0
    NAP_CR04_3 NAPBAL_CR04_3 1.0
    KER_CR04_3 YKER_CR04_3 1.0
    KER_CR04_3 KERBAL_CR04_3 1.0
    DSL_CR04_3 YDSL_CR04_3 1.0
    DSL_CR04_3 DSLBAL_CR04_3 1.0
    VGO_CR04_3 YVGO_CR04_3 1.0
    VGO_CR04_3 VGOBAL_CR04_3 1.0
    RES_CR04_3 YRES_CR04_3 1.0
    RES_CR04_3 RESSPLIT_CR04_3 1.0
    LPG_CR05_3 YLPG_CR05_3 1.0
    LPG_CR05_3 LPGBAL_3 -1.0
    NAP_CR05_3 YNAP_CR05_3 1.0
    NAP_CR05_3 NAPBAL_CR05_3 1.0
    KER_CR05_3 YKER_CR05_3 1.0
    KER_CR05_3 KERBAL_CR05_3 1.0
    DSL_CR05_3 YDSL_CR05_3 1.0
    DSL_CR05_3 DSLBAL_CR05_3 1.0
    VGO_CR05_3 YVGO_CR05_3 1.0
    VGO_CR05_3 VGOBAL_CR05_3 1.0
    RES_CR05_3 YRES_CR05_3 1.0
    RES_CR05_3 RESSPLIT_CR05_3 1.0
    LPG_CR06_3 YLPG_CR06_3 1.0
    LPG_CR06_3 LPGBAL_3 -1.0
    NAP_CR06_3 YNAP_CR06_3 1.0
    NAP_CR06_3 NAPBAL_CR06_3 1.0
    KER_CR06_3 YKER_CR06_3 1.0
    KER_CR06_3 KERBAL_CR06_3 1.0
    DSL_CR06_3 YDSL_CR06_3 1.0
    DSL_CR06_3 DSLBAL_CR06_3 1.0
    VGO_CR06_3 YVGO_CR06_3 1.0
    VGO_CR06_3 VGOBAL_CR06_3 1.0
    RES_CR06_3 YRES_CR06_3 1.0
    RES_CR06_3 RESSPLIT_CR06_3 1.0
    LPG_CR07_3 YLPG_CR07_3 1.0
    LPG_CR07_3 LPGBAL_3 -1.0
    NAP_CR07_3 YNAP_CR07_3 1.0
    NAP_CR07_3 NAPBAL_CR07_3 1.0
    KER_CR07_3 YKER_CR07_3 1.0
    KER_CR07_3 KERBAL_CR07_3 1.0
    DSL_CR07_3 YDSL_CR07_3 1.0
    DSL_CR07_3 DSLBAL_CR07_3 1.0
    VGO_CR07_3 YVGO_CR07_3 1.0
    VGO_CR07_3 VGOBAL_CR07_3 1.0
    RES_CR07_3 YRES_CR07_3 1.0
    RES_CR07_3 RESSPLIT_CR07_3 1.0
    LPG_CR08_3 YLPG_CR08_3 1.0
    LPG_CR08_3 LPGBAL_3 -1.0
    NAP_CR08_3 YNAP_CR08_3 1.0
    NAP_CR08_3 NAPBAL_CR08_3 1.0
    KER_CR08_3 YKER_CR08_3 1.0
    KER_CR08_3 KERBAL_CR08_3 1.0
    DSL_CR08_3 YDSL_CR08_3 1.0
    DSL_CR08_3 DSLBAL_CR08_3 1.0
    VGO_CR08_3 YVGO_CR08_3 1.0
    VGO_CR08_3 VGOBAL_CR08_3 1.0
    RES_CR08_3 YRES_CR08_3 1.0
    RES_CR08_3 RESSPLIT_CR08_3 1.0
    LPG_CR09_3 YLPG_CR09_3 1.0
    LPG_CR09_3 LPGBAL_3 -1.0
    NAP_CR09_3 YNAP_CR09_3 1.0
    NAP_CR09_3 NAPBAL_CR09_3 1.0
    KER_CR09_3 YKER_CR09_3 1.0
    KER_CR09_3 KERBAL_CR09_3 1.0
    DSL_CR09_3 YDSL_CR09_3 1.0
    DSL_CR09_3 DSLBAL_CR09_3 1.0
    VGO_CR09_3 YVGO_CR09_3 1.0
    VGO_CR09_3 VGOBAL_CR09_3 1.0
    RES_CR09_3 YRES_CR09_3 1.0
    RES_CR09_3 RESSPLIT_CR09_3 1.0
    VDUIN_CR00_3 RESSPLIT_CR00_3 -1.0
    VDUIN_CR00_3 VDUY1_CR00_3 -0.45
    VDUIN_CR00_3 VDUY2_CR00_3 -0.55
    VDUIN_CR00_3 VDUCAP_3 1.0
    RESFO_CR00_3 RESSPLIT_CR00_3 -1.0
    RESFO_CR00_3 FOBAL_3 -1.0
    RESFO_CR00_3 FOSUL_3 1.9540891690108433
    VGO2_CR00_3 VDUY1_CR00_3 1.0
    VGO2_CR00_3 VGOBAL_CR00_3 1.0
    VR_CR00_3 VDUY2_CR00_3 1.0
    VR_CR00_3 FOBAL_3 -1.0
    VR_CR00_3 FOSUL_3 3.5903159197140964
    VDUIN_CR01_3 RESSPLIT_CR01_3 -1.0
    VDUIN_CR01_3 VDUY1_CR01_3 -0.45
    VDUIN_CR01_3 VDUY2_CR01_3 -0.55
    VDUIN_CR01_3 VDUCAP_3 1.0
    RESFO_CR01_3 RESSPLIT_CR01_3 -1.0
    RESFO_CR01_3 FOBAL_3 -1.0
    RESFO_CR01_3 FOSUL_3 -0.6168441789886687
    VGO2_CR01_3 VDUY1_CR01_3 1.0
    VGO2_CR01_3 VGOBAL_CR01_3 1.0
    VR_CR01_3 VDUY2_CR01_3 1.0
    VR_CR01_3 FOBAL_3 -1.0
    VR_CR01_3 FOSUL_3 0.24810256731473057
    VDUIN_CR02_3 RESSPLIT_CR02_3 -1.0
    VDUIN_CR02_3 VDUY1_CR02_3 -0.45
    VDUIN_CR02_3 VDUY2_CR02_3 -0.55
    VDUIN_CR02_3 VDUCAP_3 1.0
    RESFO_CR02_3 RESSPLIT_CR02_3 -1.0
    RESFO_CR02_3 FOBAL_3 -1.0
    RESFO_CR02_3 FOSUL_3 0.05675733131967897
    VGO2_CR02_3 VDUY1_CR02_3 1.0
    VGO2_CR02_3 VGOBAL_CR02_3 1.0
    VR_CR02_3 VDUY2_CR02_3 1.0
    VR_CR02_3 FOBAL_3 -1.0
    VR_CR02_3 FOSUL_3 1.1237845307155832
    VDUIN_CR03_3 RESSPLIT_CR03_3 -1.0
    VDUIN_CR03_3 VDUY1_CR03_3 -0.45
    VDUIN_CR03_3 VDUY2_CR03_3 -0.55
    VDUIN_CR03_3 VDUCAP_3 1.0
    RESFO_CR03_3 RESSPLIT_CR03_3 -1.0
    RESFO_CR03_3 FOBAL_3 -1.0
    RESFO_CR03_3 FOSUL_3 -1.8686274424458973
    VGO2_CR03_3 VDUY1_CR03_3 1.0
    VGO2_CR03_3 VGOBAL_CR03_3 1.0
    VR_CR03_3 VDUY2_CR03_3 1.0
    VR_CR03_3 FOBAL_3 -1.0
    VR_CR03_3 FOSUL_3 -1.3792156751796663
    VDUIN_CR04_3 RESSPLIT_CR04_3 -1.0
    VDUIN_CR04_3 VDUY1_CR04_3 -0.45
    VDUIN_CR04_3 VDUY2_CR04_3 -0.55
    VDUIN_CR04_3 VDUCAP_3 1.0
    RESFO_CR04_3 RESSPLIT_CR04_3 -1.0
    RESFO_CR04_3 FOBAL_3 -1.0
    RESFO_CR04_3 FOSUL_3 2.031668478530798
    VGO2_CR04_3 VDUY1_CR04_3 1.0
    VGO2_CR04_3 VGOBAL_CR04_3 1.0
    VR_CR04_3 VDUY2_CR04_3 1.0
    VR_CR04_3 FOBAL_3 -1.0
    VR_CR04_3 FOSUL_3 3.6911690220900377
    VDUIN_CR05_3 RESSPLIT_CR05_3 -1.0
    VDUIN_CR05_3 VDUY1_CR05_3 -0.45
    VDUIN_CR05_3 VDUY2_CR05_3 -0.55
    VDUIN_CR05_3 VDUCAP_3 1.0
    RESFO_CR05_3 RESSPLIT_CR05_3 -1.0
    RESFO_CR05_3 FOBAL_3 -1.0
    RESFO_CR05_3 FOSUL_3 0.3429997580900688
    VGO2_CR05_3 VDUY1_CR05_3 1.0
    VGO2_CR05_3 VGOBAL_CR05_3 1.0
    VR_CR05_3 VDUY2_CR05_3 1.0
    VR_CR05_3 FOBAL_3 -1.0
    VR_CR05_3 FOSUL_3 1.4958996855170898
    VDUIN_CR06_3 RESSPLIT_CR06_3 -1.0
    VDUIN_CR06_3 VDUY1_CR06_3 -0.45
    VDUIN_CR06_3 VDUY2_CR06_3 -0.55
    VDUIN_CR06_3 VDUCAP_3 1.0
    RESFO_CR06_3 RESSPLIT_CR06_3 -1.0
    RESFO_CR06_3 FOBAL_3 -1.0
    RESFO_CR06_3 FOSUL_3 0.10255232060654862
    VGO2_CR06_3 VDUY1_CR06_3 1.0
    VGO2_CR06_3 VGOBAL_CR06_3 1.0
    VR_CR06_3 VDUY2_CR06_3 1.0
    VR_CR06_3 FOBAL_3 -1.0
    VR_CR06_3 FOSUL_3 1.1833180167885136
    VDUIN_CR07_3 RESSPLIT_CR07_3 -1.0
    VDUIN_CR07_3 VDUY1_CR07_3 -0.45
    VDUIN_CR07_3 VDUY2_CR07_3 -0.55
    VDUIN_CR07_3 VDUCAP_3 1.0
    RESFO_CR07_3 RESSPLIT_CR07_3 -1.0
    RESFO_CR07_3 FOBAL_3 -1.0
    RESFO_CR07_3 FOSUL_3 -3.116635223405176
    VGO2_CR07_3 VDUY1_CR07_3 1.0
    VGO2_CR07_3 VGOBAL_CR07_3 1.0
    VR_CR07_3 VDUY2_CR07_3 1.0
    VR_CR07_3 FOBAL_3 -1.0
    VR_CR07_3 FOSUL_3 -3.001625790426729
    VDUIN_CR08_3 RESSPLIT_CR08_3 -1.0
    VDUIN_CR08_3 VDUY1_CR08_3 -0.45
    VDUIN_CR08_3 VDUY2_CR08_3 -0.55
    VDUIN_CR08_3 VDUCAP_3 1.0
    RESFO_CR08_3 RESSPLIT_CR08_3 -1.0
    RESFO_CR08_3 FOBAL_3 -1.0
    RESFO_CR08_3 FOSUL_3 0.0456281803886287
    VGO2_CR08_3 VDUY1_CR08_3 1.0
    VGO2_CR08_3 VGOBAL_CR08_3 1.0
    VR_CR08_3 VDUY2_CR08_3 1.0
    VR_CR08_3 FOBAL_3 -1.0
    VR_CR08_3 FOSUL_3 1.109316634505218
    VDUIN_CR09_3 RESSPLIT_CR09_3 -1.0
    VDUIN_CR09_3 VDUY1_CR09_3 -0.45
    VDUIN_CR09_3 VDUY2_CR09_3 -0.55
    VDUIN_CR09_3 VDUCAP_3 1.0
    RESFO_CR09_3 RESSPLIT_CR09_3 -1.0
    RESFO_CR09_3 FOBAL_3 -1.0
    RESFO_CR09_3 FOSUL_3 -3.264603397407564
    VGO2_CR09_3 VDUY1_CR09_3 1.0
    VGO2_CR09_3 VGOBAL_CR09_3 1.0
    VR_CR09_3 VDUY2_CR09_3 1.0
    VR_CR09_3 FOBAL_3 -1.0
    VR_CR09_3 FOSUL_3 -3.1939844166298332
    FCCIN_CR00_3 OBJ -2.5
    FCCIN_CR00_3 VGOBAL_CR00_3 -1.0
    FCCIN_CR00_3 FCCCAP_3 1.0
    FCCIN_CR00_3 FCCY_FCCG_3 -0.55
    FCCIN_CR00_3 FCCY_LCO_3 -0.2
    FCCIN_CR00_3 FCCY_FLPG_3 -0.15
    FCCIN_CR00_3 FCCY_SLURRY_3 -0.07
    FCCIN_CR01_3 OBJ -2.5
    FCCIN_CR01_3 VGOBAL_CR01_3 -1.0
    FCCIN_CR01_3 FCCCAP_3 1.0
    FCCIN_CR01_3 FCCY_FCCG_3 -0.55
    FCCIN_CR01_3 FCCY_LCO_3 -0.2
    FCCIN_CR01_3 FCCY_FLPG_3 -0.15
    FCCIN_CR01_3 FCCY_SLURRY_3 -0.07
    FCCIN_CR02_3 OBJ -2.5
    FCCIN_CR02_3 VGOBAL_CR02_3 -1.0
    FCCIN_CR02_3 FCCCAP_3 1.0
    FCCIN_CR02_3 FCCY_FCCG_3 -0.55
    FCCIN_CR02_3 FCCY_LCO_3 -0.2
    FCCIN_CR02_3 FCCY_FLPG_3 -0.15
    FCCIN_CR02_3 FCCY_SLURRY_3 -0.07
    FCCIN_CR03_3 OBJ -2.5
    FCCIN_CR03_3 VGOBAL_CR03_3 -1.0
    FCCIN_CR03_3 FCCCAP_3 1.0
    FCCIN_CR03_3 FCCY_FCCG_3 -0.55
    FCCIN_CR03_3 FCCY_LCO_3 -0.2
    FCCIN_CR03_3 FCCY_FLPG_3 -0.15
    FCCIN_CR03_3 FCCY_SLURRY_3 -0.07
    FCCIN_CR04_3 OBJ -2.5
    FCCIN_CR04_3 VGOBAL_CR04_3 -1.0
    FCCIN_CR04_3 FCCCAP_3 1.0
    FCCIN_CR04_3 FCCY_FCCG_3 -0.55
    FCCIN_CR04_3 FCCY_LCO_3 -0.2
    FCCIN_CR04_3 FCCY_FLPG_3 -0.15
    FCCIN_CR04_3 FCCY_SLURRY_3 -0.07
    FCCIN_CR05_3 OBJ -2.5
    FCCIN_CR05_3 VGOBAL_CR05_3 -1.0
    FCCIN_CR05_3 FCCCAP_3 1.0
    FCCIN_CR05_3 FCCY_FCCG_3 -0.55
    FCCIN_CR05_3 FCCY_LCO_3 -0.2
    FCCIN_CR05_3 FCCY_FLPG_3 -0.15
    FCCIN_CR05_3 FCCY_SLURRY_3 -0.07
    FCCIN_CR06_3 OBJ -2.5
    FCCIN_CR06_3 VGOBAL_CR06_3 -1.0
    FCCIN_CR06_3 FCCCAP_3 1.0
    FCCIN_CR06_3 FCCY_FCCG_3 -0.55
    FCCIN_CR06_3 FCCY_LCO_3 -0.2
    FCCIN_CR06_3 FCCY_FLPG_3 -0.15
    FCCIN_CR06_3 FCCY_SLURRY_3 -0.07
    FCCIN_CR07_3 OBJ -2.5
    FCCIN_CR07_3 VGOBAL_CR07_3 -1.0
    FCCIN_CR07_3 FCCCAP_3 1.0
    FCCIN_CR07_3 FCCY_FCCG_3 -0.55
    FCCIN_CR07_3 FCCY_LCO_3 -0.2
    FCCIN_CR07_3 FCCY_FLPG_3 -0.15
    FCCIN_CR07_3 FCCY_SLURRY_3 -0.07
    FCCIN_CR08_3 OBJ -2.5
    FCCIN_CR08_3 VGOBAL_CR08_3 -1.0
    FCCIN_CR08_3 FCCCAP_3 1.0
    FCCIN_CR08_3 FCCY_FCCG_3 -0.55
    FCCIN_CR08_3 FCCY_LCO_3 -0.2
    FCCIN_CR08_3 FCCY_FLPG_3 -0.15
    FCCIN_CR08_3 FCCY_SLURRY_3 -0.07
    FCCIN_CR09_3 OBJ -2.5
    FCCIN_CR09_3 VGOBAL_CR09_3 -1.0
    FCCIN_CR09_3 FCCCAP_3 1.0
    FCCIN_CR09_3 FCCY_FCCG_3 -0.55
    FCCIN_CR09_3 FCCY_LCO_3 -0.2
    FCCIN_CR09_3 FCCY_FLPG_3 -0.15
    FCCIN_CR09_3 FCCY_SLURRY_3 -0.07
    FCCG_3 FCCY_FCCG_3 1.0
    FCCG_3 GASBAL_3 -1.0
    FCCG_3 GASRON_3 1.0
    LCO_3 FCCY_LCO_3 1.0
    LCO_3 LCOBAL_3 1.0
    FLPG_3 FCCY_FLPG_3 1.0
    FLPG_3 LPGBAL_3 -1.0
    SLURRY_3 FCCY_SLURRY_3 1.0
    SLURRY_3 FOBAL_3 -1.0
    SLURRY_3 FOSUL_3 -1.5
    REFIN_CR00_3 OBJ -3.0
    REFIN_CR00_3 NAPBAL_CR00_3 -1.0
    REFIN_CR00_3 REFCAP_3 1.0
    REFIN_CR00_3 REFY_3 -0.85
    NAPGAS_CR00_3 NAPBAL_CR00_3 -1.0
    NAPGAS_CR00_3 GASBAL_3 -1.0
    NAPGAS_CR00_3 GASRON_3 -41.351908455631545
    REFIN_CR01_3 OBJ -3.0
    REFIN_CR01_3 NAPBAL_CR01_3 -1.0
    REFIN_CR01_3 REFCAP_3 1.0
    REFIN_CR01_3 REFY_3 -0.85
    NAPGAS_CR01_3 NAPBAL_CR01_3 -1.0
    NAPGAS_CR01_3 GASBAL_3 -1.0
    NAPGAS_CR01_3 GASRON_3 -33.623043958680114
    REFIN_CR02_3 OBJ -3.0
    REFIN_CR02_3 NAPBAL_CR02_3 -1.0
    REFIN_CR02_3 REFCAP_3 1.0
    REFIN_CR02_3 REFY_3 -0.85
    NAPGAS_CR02_3 NAPBAL_CR02_3 -1.0
    NAPGAS_CR02_3 GASBAL_3 -1.0
    NAPGAS_CR02_3 GASRON_3 -39.74522208078083
    REFIN_CR03_3 OBJ -3.0
    REFIN_CR03_3 NAPBAL_CR03_3 -1.0
    REFIN_CR03_3 REFCAP_3 1.0
    REFIN_CR03_3 REFY_3 -0.85
    NAPGAS_CR03_3 NAPBAL_CR03_3 -1.0
    NAPGAS_CR03_3 GASBAL_3 -1.0
    NAPGAS_CR03_3 GASRON_3 -39.32063345179839
    REFIN_CR04_3 OBJ -3.0
    REFIN_CR04_3 NAPBAL_CR04_3 -1.0
    REFIN_CR04_3 REFCAP_3 1.0
    REFIN_CR04_3 REFY_3 -0.85
    NAPGAS_CR04_3 NAPBAL_CR04_3 -1.0
    NAPGAS_CR04_3 GASBAL_3 -1.0
    NAPGAS_CR04_3 GASRON_3 -28.06018906757886
    REFIN_CR05_3 OBJ -3.0
    REFIN_CR05_3 NAPBAL_CR05_3 -1.0
    REFIN_CR05_3 REFCAP_3 1.0
    REFIN_CR05_3 REFY_3 -0.85
    NAPGAS_CR05_3 NAPBAL_CR05_3 -1.0
    NAPGAS_CR05_3 GASBAL_3 -1.0
    NAPGAS_CR05_3 GASRON_3 -37.177062383933254
    REFIN_CR06_3 OBJ -3.0
    REFIN_CR06_3 NAPBAL_CR06_3 -1.0
    REFIN_CR06_3 REFCAP_3 1.0
    REFIN_CR06_3 REFY_3 -0.85
    NAPGAS_CR06_3 NAPBAL_CR06_3 -1.0
    NAPGAS_CR06_3 GASBAL_3 -1.0
    NAPGAS_CR06_3 GASRON_3 -38.73738801284508
    REFIN_CR07_3 OBJ -3.0
    REFIN_CR07_3 NAPBAL_CR07_3 -1.0
    REFIN_CR07_3 REFCAP_3 1.0
    REFIN_CR07_3 REFY_3 -0.85
    NAPGAS_CR07_3 NAPBAL_CR07_3 -1.0
    NAPGAS_CR07_3 GASBAL_3 -1.0
    NAPGAS_CR07_3 GASRON_3 -31.720911449683953
    REFIN_CR08_3 OBJ -3.0
    REFIN_CR08_3 NAPBAL_CR08_3 -1.0
    REFIN_CR08_3 REFCAP_3 1.0
    REFIN_CR08_3 REFY_3 -0.85
    NAPGAS_CR08_3 NAPBAL_CR08_3 -1.0
    NAPGAS_CR08_3 GASBAL_3 -1.0
    NAPGAS_CR08_3 GASRON_3 -31.236267605063702
    REFIN_CR09_3 OBJ -3.0
    REFIN_CR09_3 NAPBAL_CR09_3 -1.0
    REFIN_CR09_3 REFCAP_3 1.0
    REFIN_CR09_3 REFY_3 -0.85
    NAPGAS_CR09_3 NAPBAL_CR09_3 -1.0
    NAPGAS_CR09_3 GASBAL_3 -1.0
    NAPGAS_CR09_3 GASRON_3 -29.9151768258086
    REFORMATE_3 REFY_3 1.0
    REFORMATE_3 GASBAL_3 -1.0
    REFORMATE_3 GASRON_3 7.0
    DHTIN_CR00_3 OBJ -2.0
    DHTIN_CR00_3 DSLBAL_CR00_3 -1.0
    DHTIN_CR00_3 DHTCAP_3 1.0
    DHTIN_CR00_3 DHTY_3 -0.98
    DSLDIR_CR00_3 DSLBAL_CR00_3 -1.0
    DSLDIR_CR00_3 DSLPB_3 -1.0
    DSLDIR_CR00_3 DSLSUL_3 1.5862267507032528
    DHTIN_CR01_3 OBJ -2.0
    DHTIN_CR01_3 DSLBAL_CR01_3 -1.0
    DHTIN_CR01_3 DHTCAP_3 1.0
    DHTIN_CR01_3 DHTY_3 -0.98
    DSLDIR_CR01_3 DSLBAL_CR01_3 -1.0
    DSLDIR_CR01_3 DSLPB_3 -1.0
    DSLDIR_CR01_3 DSLSUL_3 0.8149467463033994
    DHTIN_CR02_3 OBJ -2.0
    DHTIN_CR02_3 DSLBAL_CR02_3 -1.0
    DHTIN_CR02_3 DHTCAP_3 1.0
    DHTIN_CR02_3 DHTY_3 -0.98
    DSLDIR_CR02_3 DSLBAL_CR02_3 -1.0
    DSLDIR_CR02_3 DSLPB_3 -1.0
    DSLDIR_CR02_3 DSLSUL_3 1.0170271993959037
    DHTIN_CR03_3 OBJ -2.0
    DHTIN_CR03_3 DSLBAL_CR03_3 -1.0
    DHTIN_CR03_3 DHTCAP_3 1.0
    DHTIN_CR03_3 DHTY_3 -0.98
    DSLDIR_CR03_3 DSLBAL_CR03_3 -1.0
    DSLDIR_CR03_3 DSLPB_3 -1.0
    DSLDIR_CR03_3 DSLSUL_3 0.4394117672662308
    DHTIN_CR04_3 OBJ -2.0
    DHTIN_CR04_3 DSLBAL_CR04_3 -1.0
    DHTIN_CR04_3 DHTCAP_3 1.0
    DHTIN_CR04_3 DHTY_3 -0.98
    DSLDIR_CR04_3 DSLBAL_CR04_3 -1.0
    DSLDIR_CR04_3 DSLPB_3 -1.0
    DSLDIR_CR04_3 DSLSUL_3 1.6095005435592393
    DHTIN_CR05_3 OBJ -2.0
    DHTIN_CR05_3 DSLBAL_CR05_3 -1.0
    DHTIN_CR05_3 DHTCAP_3 1.0
    DHTIN_CR05_3 DHTY_3 -0.98
    DSLDIR_CR05_3 DSLBAL_CR05_3 -1.0
    DSLDIR_CR05_3 DSLPB_3 -1.0
    DSLDIR_CR05_3 DSLSUL_3 1.1028999274270206
    DHTIN_CR06_3 OBJ -2.0
    DHTIN_CR06_3 DSLBAL_CR06_3 -1.0
    DHTIN_CR06_3 DHTCAP_3 1.0
    DHTIN_CR06_3 DHTY_3 -0.98
    DSLDIR_CR06_3 DSLBAL_CR06_3 -1.0
    DSLDIR_CR06_3 DSLPB_3 -1.0
    DSLDIR_CR06_3 DSLSUL_3 1.0307656961819645
    DHTIN_CR07_3 OBJ -2.0
    DHTIN_CR07_3 DSLBAL_CR07_3 -1.0
    DHTIN_CR07_3 DHTCAP_3 1.0
    DHTIN_CR07_3 DHTY_3 -0.98
    DSLDIR_CR07_3 DSLBAL_CR07_3 -1.0
    DSLDIR_CR07_3 DSLPB_3 -1.0
    DSLDIR_CR07_3 DSLSUL_3 0.06500943297844713
    DHTIN_CR08_3 OBJ -2.0
    DHTIN_CR08_3 DSLBAL_CR08_3 -1.0
    DHTIN_CR08_3 DHTCAP_3 1.0
    DHTIN_CR08_3 DHTY_3 -0.98
    DSLDIR_CR08_3 DSLBAL_CR08_3 -1.0
    DSLDIR_CR08_3 DSLPB_3 -1.0
    DSLDIR_CR08_3 DSLSUL_3 1.0136884541165885
    DHTIN_CR09_3 OBJ -2.0
    DHTIN_CR09_3 DSLBAL_CR09_3 -1.0
    DHTIN_CR09_3 DHTCAP_3 1.0
    DHTIN_CR09_3 DHTY_3 -0.98
    DSLDIR_CR09_3 DSLBAL_CR09_3 -1.0
    DSLDIR_CR09_3 DSLPB_3 -1.0
    DSLDIR_CR09_3 DSLSUL_3 0.020618980777730833
    LCODHT_3 LCOBAL_3 -1.0
    LCODHT_3 DHTCAP_3 1.0
    LCODHT_3 DHTY_3 -0.95
    LCOFO_3 LCOBAL_3 -1.0
    LCOFO_3 FOBAL_3 -1.0
    LCOFO_3 FOSUL_3 -2.5
    ULSD_3 DHTY_3 1.0
    ULSD_3 DSLPB_3 -1.0
    ULSD_3 DSLSUL_3 -0.049
    SELL_LPG_3 OBJ 60.50000000000001
    SELL_LPG_3 PBAL_LPG_3 -1.0
    SELL_LPG_3 DMAX_LPG_3 1.0
    SELL_LPG_3 DMIN_LPG_3 1.0
    SELL_GAS_3 OBJ 115.50000000000001
    SELL_GAS_3 PBAL_GAS_3 -1.0
    SELL_GAS_3 DMAX_GAS_3 1.0
    SELL_GAS_3 DMIN_GAS_3 1.0
    SELL_JET_3 OBJ 110.00000000000001
    SELL_JET_3 PBAL_JET_3 -1.0
    SELL_JET_3 DMAX_JET_3 1.0
    SELL_JET_3 DMIN_JET_3 1.0
    SELL_DSL_3 OBJ 107.80000000000001
    SELL_DSL_3 PBAL_DSL_3 -1.0
    SELL_DSL_3 DMAX_DSL_3 1.0
    SELL_DSL_3 DMIN_DSL_3 1.0
    SELL_FO_3 OBJ 66.0
    SELL_FO_3 PBAL_FO_3 -1.0
    SELL_FO_3 DMAX_FO_3 1.0
    SELL_FO_3 DMIN_FO_3 1.0
    PINV_LPG_3 OBJ -0.5
    PINV_LPG_3 PBAL_LPG_3 -1.0
    PINV_LPG_3 PBAL_LPG_4 1.0
    PINV_GAS_3 OBJ -0.5
    PINV_GAS_3 PBAL_GAS_3 -1.0
    PINV_GAS_3 PBAL_GAS_4 1.0
    PINV_JET_3 OBJ -0.5
    PINV_JET_3 PBAL_JET_3 -1.0
    PINV_JET_3 PBAL_JET_4 1.0
    PINV_DSL_3 OBJ -0.5
    PINV_DSL_3 PBAL_DSL_3 -1.0
    PINV_DSL_3 PBAL_DSL_4 1.0
    PINV_FO_3 OBJ -0.5
    PINV_FO_3 PBAL_FO_3 -1.0
    PINV_FO_3 PBAL_FO_4 1.0
    SHORT_LPG_3 OBJ -400.0
    SHORT_LPG_3 DMIN_LPG_3 1.0
    SHORT_GAS_3 OBJ -400.0
    SHORT_GAS_3 DMIN_GAS_3 1.0
    SHORT_JET_3 OBJ -400.0
    SHORT_JET_3 DMIN_JET_3 1.0
    SHORT_DSL_3 OBJ -400.0
    SHORT_DSL_3 DMIN_DSL_3 1.0
    SHORT_FO_3 OBJ -400.0
    SHORT_FO_3 DMIN_FO_3 1.0
    GASPOOL_3 GASBAL_3 1.0
    GASPOOL_3 PBAL_GAS_3 1.0
    JETPOOL_3 JETBAL_3 1.0
    JETPOOL_3 PBAL_JET_3 1.0
    KERJET_CR00_3 KERBAL_CR00_3 -1.0
    KERJET_CR00_3 JETBAL_3 -1.0
    KERJET_CR00_3 JETSUL_3 0.10905668767581322
    KERDSL_CR00_3 KERBAL_CR00_3 -1.0
    KERDSL_CR00_3 DSLPB_3 -1.0
    KERDSL_CR00_3 DSLSUL_3 0.3590566876758132
    KERJET_CR01_3 KERBAL_CR01_3 -1.0
    KERJET_CR01_3 JETBAL_3 -1.0
    KERJET_CR01_3 JETSUL_3 -0.08376331342415014
    KERDSL_CR01_3 KERBAL_CR01_3 -1.0
    KERDSL_CR01_3 DSLPB_3 -1.0
    KERDSL_CR01_3 DSLSUL_3 0.16623668657584983
    KERJET_CR02_3 KERBAL_CR02_3 -1.0
    KERJET_CR02_3 JETBAL_3 -1.0
    KERJET_CR02_3 JETSUL_3 -0.033243200151024055
    KERDSL_CR02_3 KERBAL_CR02_3 -1.0
    KERDSL_CR02_3 DSLPB_3 -1.0
    KERDSL_CR02_3 DSLSUL_3 0.21675679984897595
    KERJET_CR03_3 KERBAL_CR03_3 -1.0
    KERJET_CR03_3 JETBAL_3 -1.0
    KERJET_CR03_3 JETSUL_3 -0.17764705818344229
    KERDSL_CR03_3 KERBAL_CR03_3 -1.0
    KERDSL_CR03_3 DSLPB_3 -1.0
    KERDSL_CR03_3 DSLSUL_3 0.0723529418165577
    KERJET_CR04_3 KERBAL_CR04_3 -1.0
    KERJET_CR04_3 JETBAL_3 -1.0
    KERJET_CR04_3 JETSUL_3 0.11487513588980985
    KERDSL_CR04_3 KERBAL_CR04_3 -1.0
    KERDSL_CR04_3 DSLPB_3 -1.0
    KERDSL_CR04_3 DSLSUL_3 0.36487513588980985
    KERJET_CR05_3 KERBAL_CR05_3 -1.0
    KERJET_CR05_3 JETBAL_3 -1.0
    KERJET_CR05_3 JETSUL_3 -0.011775018143244831
    KERDSL_CR05_3 KERBAL_CR05_3 -1.0
    KERDSL_CR05_3 DSLPB_3 -1.0
    KERDSL_CR05_3 DSLSUL_3 0.23822498185675517
    KERJET_CR06_3 KERBAL_CR06_3 -1.0
    KERJET_CR06_3 JETBAL_3 -1.0
    KERJET_CR06_3 JETSUL_3 -0.029808575954508865
    KERDSL_CR06_3 KERBAL_CR06_3 -1.0
    KERDSL_CR06_3 DSLPB_3 -1.0
    KERDSL_CR06_3 DSLSUL_3 0.22019142404549114
    KERJET_CR07_3 KERBAL_CR07_3 -1.0
    KERJET_CR07_3 JETBAL_3 -1.0
    KERJET_CR07_3 JETSUL_3 -0.2712476417553882
    KERDSL_CR07_3 KERBAL_CR07_3 -1.0
    KERDSL_CR07_3 DSLPB_3 -1.0
    KERDSL_CR07_3 DSLSUL_3 -0.02124764175538822
    KERJET_CR08_3 KERBAL_CR08_3 -1.0
    KERJET_CR08_3 JETBAL_3 -1.0
    KERJET_CR08_3 JETSUL_3 -0.03407788647085286
    KERDSL_CR08_3 KERBAL_CR08_3 -1.0
    KERDSL_CR08_3 DSLPB_3 -1.0
    KERDSL_CR08_3 DSLSUL_3 0.21592211352914714
    KERJET_CR09_3 KERBAL_CR09_3 -1.0
    KERJET_CR09_3 JETBAL_3 -1.0
    KERJET_CR09_3 JETSUL_3 -0.28234525480556727
    KERDSL_CR09_3 KERBAL_CR09_3 -1.0
    KERDSL_CR09_3 DSLPB_3 -1.0
    KERDSL_CR09_3 DSLSUL_3 -0.0323452548055673
    DSLPOOL_3 DSLPB_3 1.0
    DSLPOOL_3 PBAL_DSL_3 1.0
    LPGPOOL_3 LPGBAL_3 1.0
    LPGPOOL_3 PBAL_LPG_3 1.0
    FOPOOL_3 FOBAL_3 1.0
    FOPOOL_3 PBAL_FO_3 1.0
    M5338 'MARKER' 'INTORG'
    NPAR_CR00_4 PARCEL_CR00_4 -20.0
    M5340 'MARKER' 'INTEND'
    BUY_CR00_4 OBJ -59.614495951833234
    BUY_CR00_4 PARCEL_CR00_4 1.0
    BUY_CR00_4 CBAL_CR00_4 1.0
    CINV_CR00_4 OBJ -0.3
    CINV_CR00_4 CBAL_CR00_4 -1.0
    CINV_CR00_4 CBAL_CR00_5 1.0
    CDU_CR00_4 CBAL_CR00_4 -1.0
    CDU_CR00_4 CDUCAP_4 1.0
    CDU_CR00_4 CDUMIN_4 1.0
    CDU_CR00_4 YLPG_CR00_4 -0.013786055933968056
    CDU_CR00_4 YNAP_CR00_4 -0.1214444916358349
    CDU_CR00_4 YKER_CR00_4 -0.10646372452567733
    CDU_CR00_4 YDSL_CR00_4 -0.20292085263352289
    CDU_CR00_4 YVGO_CR00_4 -0.27390944719057636
    CDU_CR00_4 YRES_CR00_4 -0.28147542808042036
    M5356 'MARKER' 'INTORG'
    NPAR_CR01_4 PARCEL_CR01_4 -20.0
    M5358 'MARKER' 'INTEND'
    BUY_CR01_4 OBJ -75.41353863205957
    BUY_CR01_4 PARCEL_CR01_4 1.0
    BUY_CR01_4 CBAL_CR01_4 1.0
    CINV_CR01_4 OBJ -0.3
    CINV_CR01_4 CBAL_CR01_4 -1.0
    CINV_CR01_4 CBAL_CR01_5 1.0
    CDU_CR01_4 CBAL_CR01_4 -1.0
    CDU_CR01_4 CDUCAP_4 1.0
    CDU_CR01_4 CDUMIN_4 1.0
    CDU_CR01_4 YLPG_CR01_4 -0.025127543584387436
    CDU_CR01_4 YNAP_CR01_4 -0.2025917905849106
    CDU_CR01_4 YKER_CR01_4 -0.13410952106049506
    CDU_CR01_4 YDSL_CR01_4 -0.24728591651278542
    CDU_CR01_4 YVGO_CR01_4 -0.22897185950088417
    CDU_CR01_4 YRES_CR01_4 -0.16191336875653717
    M5374 'MARKER' 'INTORG'
    NPAR_CR02_4 PARCEL_CR02_4 -20.0
    M5376 'MARKER' 'INTEND'
    BUY_CR02_4 OBJ -62.403427648323266
    BUY_CR02_4 PARCEL_CR02_4 1.0
    BUY_CR02_4 CBAL_CR02_4 1.0
    CINV_CR02_4 OBJ -0.3
    CINV_CR02_4 CBAL_CR02_4 -1.0
    CINV_CR02_4 CBAL_CR02_5 1.0
    CDU_CR02_4 CBAL_CR02_4 -1.0
    CDU_CR02_4 CDUCAP_4 1.0
    CDU_CR02_4 CDUMIN_4 1.0
    CDU_CR02_4 YLPG_CR02_4 -0.013444753666275039
    CDU_CR02_4 YNAP_CR02_4 -0.11889710072836579
    CDU_CR02_4 YKER_CR02_4 -0.103840437143255
    CDU_CR02_4 YDSL_CR02_4 -0.21229612809407214
    CDU_CR02_4 YVGO_CR02_4 -0.2628713956905896
    CDU_CR02_4 YRES_CR02_4 -0.28865018467744247
    M5392 'MARKER' 'INTORG'
    NPAR_CR03_4 PARCEL_CR03_4 -20.0
    M5394 'MARKER' 'INTEND'
    BUY_CR03_4 OBJ -68.09812593119086
    BUY_CR03_4 PARCEL_CR03_4 1.0
    BUY_CR03_4 CBAL_CR03_4 1.0
    CINV_CR03_4 OBJ -0.3
    CINV_CR03_4 CBAL_CR03_4 -1.0
    CINV_CR03_4 CBAL_CR03_5 1.0
    CDU_CR03_4 CBAL_CR03_4 -1.0
    CDU_CR03_4 CDUCAP_4 1.0
    CDU_CR03_4 CDUMIN_4 1.0
    CDU_CR03_4 YLPG_CR03_4 -0.01400858068810675
    CDU_CR03_4 YNAP_CR03_4 -0.1424923117986131
    CDU_CR03_4 YKER_CR03_4 -0.10784088582669263
    CDU_CR03_4 YDSL_CR03_4 -0.19279120630762445
    CDU_CR03_4 YVGO_CR03_4 -0.28544626211923063
    CDU_CR03_4 YRES_CR03_4 -0.2574207532597324
    M5410 'MARKER' 'INTORG'
    NPAR_CR04_4 PARCEL_CR04_4 -20.0
    M5412 'MARKER' 'INTEND'
    BUY_CR04_4 OBJ -73.83416116391847
    BUY_CR04_4 PARCEL_CR04_4 1.0
    BUY_CR04_4 CBAL_CR04_4 1.0
    CINV_CR04_4 OBJ -0.3
    CINV_CR04_4 CBAL_CR04_4 -1.0
    CINV_CR04_4 CBAL_CR04_5 1.0
    CDU_CR04_4 CBAL_CR04_4 -1.0
    CDU_CR04_4 CDUCAP_4 1.0
    CDU_CR04_4 CDUMIN_4 1.0
    CDU_CR04_4 YLPG_CR04_4 -0.02335213093765316
    CDU_CR04_4 YNAP_CR04_4 -0.2292355396921612
    CDU_CR04_4 YKER_CR04_4 -0.14240695851543803
    CDU_CR04_4 YDSL_CR04_4 -0.24384363627499198
    CDU_CR04_4 YVGO_CR04_4 -0.2465326974706559
    CDU_CR04_4 YRES_CR04_4 -0.1146290371090997
    M5428 'MARKER' 'INTORG'
    NPAR_CR05_4 PARCEL_CR05_4 -20.0
    M5430 'MARKER' 'INTEND'
    BUY_CR05_4 OBJ -67.09018704090704
    BUY_CR05_4 PARCEL_CR05_4 1.0
    BUY_CR05_4 CBAL_CR05_4 1.0
    CINV_CR05_4 OBJ -0.3
    CINV_CR05_4 CBAL_CR05_4 -1.0
    CINV_CR05_4 CBAL_CR05_5 1.0
    CDU_CR05_4 CBAL_CR05_4 -1.0
    CDU_CR05_4 CDUCAP_4 1.0
    CDU_CR05_4 CDUMIN_4 1.0
    CDU_CR05_4 YLPG_CR05_4 -0.01735729802728813
    CDU_CR05_4 YNAP_CR05_4 -0.16608619710065003
    CDU_CR05_4 YKER_CR05_4 -0.1170544437563835
    CDU_CR05_4 YDSL_CR05_4 -0.22299235889970878
    CDU_CR05_4 YVGO_CR05_4 -0.2433490540516293
    CDU_CR05_4 YRES_CR05_4 -0.23316064816434035
    M5446 'MARKER' 'INTORG'
    NPAR_CR06_4 PARCEL_CR06_4 -20.0
    M5448 'MARKER' 'INTEND'
    BUY_CR06_4 OBJ -64.15217472962985
    BUY_CR06_4 PARCEL_CR06_4 1.0
    BUY_CR06_4 CBAL_CR06_4 1.0
    CINV_CR06_4 OBJ -0.3
    CINV_CR06_4 CBAL_CR06_4 -1.0
    CINV_CR06_4 CBAL_CR06_5 1.0
    CDU_CR06_4 CBAL_CR06_4 -1.0
    CDU_CR06_4 CDUCAP_4 1.0
    CDU_CR06_4 CDUMIN_4 1.0
    CDU_CR06_4 YLPG_CR06_4 -0.014219474855875663
    CDU_CR06_4 YNAP_CR06_4 -0.13746806025500902
    CDU_CR06_4 YKER_CR06_4 -0.10533897185985656
    CDU_CR06_4 YDSL_CR06_4 -0.20403840195434858
    CDU_CR06_4 YVGO_CR06_4 -0.26484358994429863
    CDU_CR06_4 YRES_CR06_4 -0.27409150113061165
    M5464 'MARKER' 'INTORG'
    NPAR_CR07_4 PARCEL_CR07_4 -20.0
    M5466 'MARKER' 'INTEND'
    BUY_CR07_4 OBJ -73.98025140003912
    BUY_CR07_4 PARCEL_CR07_4 1.0
    BUY_CR07_4 CBAL_CR07_4 1.0
    CINV_CR07_4 OBJ -0.3
    CINV_CR07_4 CBAL_CR07_4 -1.0
    CINV_CR07_4 CBAL_CR07_5 1.0
    CDU_CR07_4 CBAL_CR07_4 -1.0
    CDU_CR07_4 CDUCAP_4 1.0
    CDU_CR07_4 CDUMIN_4 1.0
    CDU_CR07_4 YLPG_CR07_4 -0.01678766142162217
    CDU_CR07_4 YNAP_CR07_4 -0.18341674311422207
    CDU_CR07_4 YKER_CR07_4 -0.13271469159016522
    CDU_CR07_4 YDSL_CR07_4 -0.2249127244045356
    CDU_CR07_4 YVGO_CR07_4 -0.24848613807316539
    CDU_CR07_4 YRES_CR07_4 -0.19368204139628944
    M5482 'MARKER' 'INTORG'
    NPAR_CR08_4 PARCEL_CR08_4 -20.0
    M5484 'MARKER' 'INTEND'
    BUY_CR08_4 OBJ -71.35234598584573
    BUY_CR08_4 PARCEL_CR08_4 1.0
    BUY_CR08_4 CBAL_CR08_4 1.0
    CINV_CR08_4 OBJ -0.3
    CINV_CR08_4 CBAL_CR08_4 -1.0
    CINV_CR08_4 CBAL_CR08_5 1.0
    CDU_CR08_4 CBAL_CR08_4 -1.0
    CDU_CR08_4 CDUCAP_4 1.0
    CDU_CR08_4 CDUMIN_4 1.0
    CDU_CR08_4 YLPG_CR08_4 -0.023930881960770135
    CDU_CR08_4 YNAP_CR08_4 -0.199474063989656
    CDU_CR08_4 YKER_CR08_4 -0.13012967624359006
    CDU_CR08_4 YDSL_CR08_4 -0.24906213509239003
    CDU_CR08_4 YVGO_CR08_4 -0.24247509330512357
    CDU_CR08_4 YRES_CR08_4 -0.15492814940847022
    M5500 'MARKER' 'INTORG'
    NPAR_CR09_4 PARCEL_CR09_4 -20.0
    M5502 'MARKER' 'INTEND'
    BUY_CR09_4 OBJ -80.47459802290555
    BUY_CR09_4 PARCEL_CR09_4 1.0
    BUY_CR09_4 CBAL_CR09_4 1.0
    CINV_CR09_4 OBJ -0.3
    CINV_CR09_4 CBAL_CR09_4 -1.0
    CINV_CR09_4 CBAL_CR09_5 1.0
    CDU_CR09_4 CBAL_CR09_4 -1.0
    CDU_CR09_4 CDUCAP_4 1.0
    CDU_CR09_4 CDUMIN_4 1.0
    CDU_CR09_4 YLPG_CR09_4 -0.0254414593142613
    CDU_CR09_4 YNAP_CR09_4 -0.2406668892422991
    CDU_CR09_4 YKER_CR09_4 -0.14150533274546892
    CDU_CR09_4 YDSL_CR09_4 -0.23713673044274025
    CDU_CR09_4 YVGO_CR09_4 -0.23566730460149374
    CDU_CR09_4 YRES_CR09_4 -0.11958228365373665
    M5518 'MARKER' 'INTORG'
    CDUMODE_4 OBJ -150.0
    CDUMODE_4 CDUCAP_4 -150.0
    CDUMODE_4 CDUMIN_4 -90.0
    M5522 'MARKER' 'INTEND'
    LPG_CR00_4 YLPG_CR00_4 1.0
    LPG_CR00_4 LPGBAL_4 -1.0
    NAP_CR00_4 YNAP_CR00_4 1.0
    NAP_CR00_4 NAPBAL_CR00_4 1.0
    KER_CR00_4 YKER_CR00_4 1.0
    KER_CR00_4 KERBAL_CR00_4 1.0
    DSL_CR00_4 YDSL_CR00_4 1.0
    DSL_CR00_4 DSLBAL_CR00_4 1.0
    VGO_CR00_4 YVGO_CR00_4 1.0
    VGO_CR00_4 VGOBAL_CR00_4 1.0
    RES_CR00_4 YRES_CR00_4 1.0
    RES_CR00_4 RESSPLIT_CR00_4 1.0
    LPG_CR01_4 YLPG_CR01_4 1.0
    LPG_CR01_4 LPGBAL_4 -1.0
    NAP_CR01_4 YNAP_CR01_4 1.0
    NAP_CR01_4 NAPBAL_CR01_4 1.0
    KER_CR01_4 YKER_CR01_4 1.0
    KER_CR01_4 KERBAL_CR01_4 1.0
    DSL_CR01_4 YDSL_CR01_4 1.0
    DSL_CR01_4 DSLBAL_CR01_4 1.0
    VGO_CR01_4 YVGO_CR01_4 1.0
    VGO_CR01_4 VGOBAL_CR01_4 1.0
    RES_CR01_4 YRES_CR01_4 1.0
    RES_CR01_4 RESSPLIT_CR01_4 1.0
    LPG_CR02_4 YLPG_CR02_4 1.0
    LPG_CR02_4 LPGBAL_4 -1.0
    NAP_CR02_4 YNAP_CR02_4 1.0
    NAP_CR02_4 NAPBAL_CR02_4 1.0
    KER_CR02_4 YKER_CR02_4 1.0
    KER_CR02_4 KERBAL_CR02_4 1.0
    DSL_CR02_4 YDSL_CR02_4 1.0
    DSL_CR02_4 DSLBAL_CR02_4 1.0
    VGO_CR02_4 YVGO_CR02_4 1.0
    VGO_CR02_4 VGOBAL_CR02_4 1.0
    RES_CR02_4 YRES_CR02_4 1.0
    RES_CR02_4 RESSPLIT_CR02_4 1.0
    LPG_CR03_4 YLPG_CR03_4 1.0
    LPG_CR03_4 LPGBAL_4 -1.0
    NAP_CR03_4 YNAP_CR03_4 1.0
    NAP_CR03_4 NAPBAL_CR03_4 1.0
    KER_CR03_4 YKER_CR03_4 1.0
    KER_CR03_4 KERBAL_CR03_4 1.0
    DSL_CR03_4 YDSL_CR03_4 1.0
    DSL_CR03_4 DSLBAL_CR03_4 1.0
    VGO_CR03_4 YVGO_CR03_4 1.0
    VGO_CR03_4 VGOBAL_CR03_4 1.0
    RES_CR03_4 YRES_CR03_4 1.0
    RES_CR03_4 RESSPLIT_CR03_4 1.0
    LPG_CR04_4 YLPG_CR04_4 1.0
    LPG_CR04_4 LPGBAL_4 -1.0
    NAP_CR04_4 YNAP_CR04_4 1.0
    NAP_CR04_4 NAPBAL_CR04_4 1.0
    KER_CR04_4 YKER_CR04_4 1.0
    KER_CR04_4 KERBAL_CR04_4 1.0
    DSL_CR04_4 YDSL_CR04_4 1.0
    DSL_CR04_4 DSLBAL_CR04_4 1.0
    VGO_CR04_4 YVGO_CR04_4 1.0
    VGO_CR04_4 VGOBAL_CR04_4 1.0
    RES_CR04_4 YRES_CR04_4 1.0
    RES_CR04_4 RESSPLIT_CR04_4 1.0
    LPG_CR05_4 YLPG_CR05_4 1.0
    LPG_CR05_4 LPGBAL_4 -1.0
    NAP_CR05_4 YNAP_CR05_4 1.0
    NAP_CR05_4 NAPBAL_CR05_4 1.0
    KER_CR05_4 YKER_CR05_4 1.0
    KER_CR05_4 KERBAL_CR05_4 1.0
    DSL_CR05_4 YDSL_CR05_4 1.0
    DSL_CR05_4 DSLBAL_CR05_4 1.0
    VGO_CR05_4 YVGO_CR05_4 1.0
    VGO_CR05_4 VGOBAL_CR05_4 1.0
    RES_CR05_4 YRES_CR05_4 1.0
    RES_CR05_4 RESSPLIT_CR05_4 1.0
    LPG_CR06_4 YLPG_CR06_4 1.0
    LPG_CR06_4 LPGBAL_4 -1.0
    NAP_CR06_4 YNAP_CR06_4 1.0
    NAP_CR06_4 NAPBAL_CR06_4 1.0
    KER_CR06_4 YKER_CR06_4 1.0
    KER_CR06_4 KERBAL_CR06_4 1.0
    DSL_CR06_4 YDSL_CR06_4 1.0
    DSL_CR06_4 DSLBAL_CR06_4 1.0
    VGO_CR06_4 YVGO_CR06_4 1.0
    VGO_CR06_4 VGOBAL_CR06_4 1.0
    RES_CR06_4 YRES_CR06_4 1.0
    RES_CR06_4 RESSPLIT_CR06_4 1.0
    LPG_CR07_4 YLPG_CR07_4 1.0
    LPG_CR07_4 LPGBAL_4 -1.0
    NAP_CR07_4 YNAP_CR07_4 1.0
    NAP_CR07_4 NAPBAL_CR07_4 1.0
    KER_CR07_4 YKER_CR07_4 1.0
    KER_CR07_4 KERBAL_CR07_4 1.0
    DSL_CR07_4 YDSL_CR07_4 1.0
    DSL_CR07_4 DSLBAL_CR07_4 1.0
    VGO_CR07_4 YVGO_CR07_4 1.0
    VGO_CR07_4 VGOBAL_CR07_4 1.0
    RES_CR07_4 YRES_CR07_4 1.0
    RES_CR07_4 RESSPLIT_CR07_4 1.0
    LPG_CR08_4 YLPG_CR08_4 1.0
    LPG_CR08_4 LPGBAL_4 -1.0
    NAP_CR08_4 YNAP_CR08_4 1.0
    NAP_CR08_4 NAPBAL_CR08_4 1.0
    KER_CR08_4 YKER_CR08_4 1.0
    KER_CR08_4 KERBAL_CR08_4 1.0
    DSL_CR08_4 YDSL_CR08_4 1.0
    DSL_CR08_4 DSLBAL_CR08_4 1.0
    VGO_CR08_4 YVGO_CR08_4 1.0
    VGO_CR08_4 VGOBAL_CR08_4 1.0
    RES_CR08_4 YRES_CR08_4 1.0
    RES_CR08_4 RESSPLIT_CR08_4 1.0
    LPG_CR09_4 YLPG_CR09_4 1.0
    LPG_CR09_4 LPGBAL_4 -1.0
    NAP_CR09_4 YNAP_CR09_4 1.0
    NAP_CR09_4 NAPBAL_CR09_4 1.0
    KER_CR09_4 YKER_CR09_4 1.0
    KER_CR09_4 KERBAL_CR09_4 1.0
    DSL_CR09_4 YDSL_CR09_4 1.0
    DSL_CR09_4 DSLBAL_CR09_4 1.0
    VGO_CR09_4 YVGO_CR09_4 1.0
    VGO_CR09_4 VGOBAL_CR09_4 1.0
    RES_CR09_4 YRES_CR09_4 1.0
    RES_CR09_4 RESSPLIT_CR09_4 1.0
    VDUIN_CR00_4 RESSPLIT_CR00_4 -1.0
    VDUIN_CR00_4 VDUY1_CR00_4 -0.45
    VDUIN_CR00_4 VDUY2_CR00_4 -0.55
    VDUIN_CR00_4 VDUCAP_4 1.0
    RESFO_CR00_4 RESSPLIT_CR00_4 -1.0
    RESFO_CR00_4 FOBAL_4 -1.0
    RESFO_CR00_4 FOSUL_4 1.9540891690108433
    VGO2_CR00_4 VDUY1_CR00_4 1.0
    VGO2_CR00_4 VGOBAL_CR00_4 1.0
    VR_CR00_4 VDUY2_CR00_4 1.0
    VR_CR00_4 FOBAL_4 -1.0
    VR_CR00_4 FOSUL_4 3.5903159197140964
    VDUIN_CR01_4 RESSPLIT_CR01_4 -1.0
    VDUIN_CR01_4 VDUY1_CR01_4 -0.45
    VDUIN_CR01_4 VDUY2_CR01_4 -0.55
    VDUIN_CR01_4 VDUCAP_4 1.0
    RESFO_CR01_4 RESSPLIT_CR01_4 -1.0
    RESFO_CR01_4 FOBAL_4 -1.0
    RESFO_CR01_4 FOSUL_4 -0.6168441789886687
    VGO2_CR01_4 VDUY1_CR01_4 1.0
    VGO2_CR01_4 VGOBAL_CR01_4 1.0
    VR_CR01_4 VDUY2_CR01_4 1.0
    VR_CR01_4 FOBAL_4 -1.0
    VR_CR01_4 FOSUL_4 0.24810256731473057
    VDUIN_CR02_4 RESSPLIT_CR02_4 -1.0
    VDUIN_CR02_4 VDUY1_CR02_4 -0.45
    VDUIN_CR02_4 VDUY2_CR02_4 -0.55
    VDUIN_CR02_4 VDUCAP_4 1.0
    RESFO_CR02_4 RESSPLIT_CR02_4 -1.0
    RESFO_CR02_4 FOBAL_4 -1.0
    RESFO_CR02_4 FOSUL_4 0.05675733131967897
    VGO2_CR02_4 VDUY1_CR02_4 1.0
    VGO2_CR02_4 VGOBAL_CR02_4 1.0
    VR_CR02_4 VDUY2_CR02_4 1.0
    VR_CR02_4 FOBAL_4 -1.0
    VR_CR02_4 FOSUL_4 1.1237845307155832
    VDUIN_CR03_4 RESSPLIT_CR03_4 -1.0
    VDUIN_CR03_4 VDUY1_CR03_4 -0.45
    VDUIN_CR03_4 VDUY2_CR03_4 -0.55
    VDUIN_CR03_4 VDUCAP_4 1.0
    RESFO_CR03_4 RESSPLIT_CR03_4 -1.0
    RESFO_CR03_4 FOBAL_4 -1.0
    RESFO_CR03_4 FOSUL_4 -1.8686274424458973
    VGO2_CR03_4 VDUY1_CR03_4 1.0
    VGO2_CR03_4 VGOBAL_CR03_4 1.0
    VR_CR03_4 VDUY2_CR03_4 1.0
    VR_CR03_4 FOBAL_4 -1.0
    VR_CR03_4 FOSUL_4 -1.3792156751796663
    VDUIN_CR04_4 RESSPLIT_CR04_4 -1.0
    VDUIN_CR04_4 VDUY1_CR04_4 -0.45
    VDUIN_CR04_4 VDUY2_CR04_4 -0.55
    VDUIN_CR04_4 VDUCAP_4 1.0
    RESFO_CR04_4 RESSPLIT_CR04_4 -1.0
    RESFO_CR04_4 FOBAL_4 -1.0
    RESFO_CR04_4 FOSUL_4 2.031668478530798
    VGO2_CR04_4 VDUY1_CR04_4 1.0
    VGO2_CR04_4 VGOBAL_CR04_4 1.0
    VR_CR04_4 VDUY2_CR04_4 1.0
    VR_CR04_4 FOBAL_4 -1.0
    VR_CR04_4 FOSUL_4 3.6911690220900377
    VDUIN_CR05_4 RESSPLIT_CR05_4 -1.0
    VDUIN_CR05_4 VDUY1_CR05_4 -0.45
    VDUIN_CR05_4 VDUY2_CR05_4 -0.55
    VDUIN_CR05_4 VDUCAP_4 1.0
    RESFO_CR05_4 RESSPLIT_CR05_4 -1.0
    RESFO_CR05_4 FOBAL_4 -1.0
    RESFO_CR05_4 FOSUL_4 0.3429997580900688
    VGO2_CR05_4 VDUY1_CR05_4 1.0
    VGO2_CR05_4 VGOBAL_CR05_4 1.0
    VR_CR05_4 VDUY2_CR05_4 1.0
    VR_CR05_4 FOBAL_4 -1.0
    VR_CR05_4 FOSUL_4 1.4958996855170898
    VDUIN_CR06_4 RESSPLIT_CR06_4 -1.0
    VDUIN_CR06_4 VDUY1_CR06_4 -0.45
    VDUIN_CR06_4 VDUY2_CR06_4 -0.55
    VDUIN_CR06_4 VDUCAP_4 1.0
    RESFO_CR06_4 RESSPLIT_CR06_4 -1.0
    RESFO_CR06_4 FOBAL_4 -1.0
    RESFO_CR06_4 FOSUL_4 0.10255232060654862
    VGO2_CR06_4 VDUY1_CR06_4 1.0
    VGO2_CR06_4 VGOBAL_CR06_4 1.0
    VR_CR06_4 VDUY2_CR06_4 1.0
    VR_CR06_4 FOBAL_4 -1.0
    VR_CR06_4 FOSUL_4 1.1833180167885136
    VDUIN_CR07_4 RESSPLIT_CR07_4 -1.0
    VDUIN_CR07_4 VDUY1_CR07_4 -0.45
    VDUIN_CR07_4 VDUY2_CR07_4 -0.55
    VDUIN_CR07_4 VDUCAP_4 1.0
    RESFO_CR07_4 RESSPLIT_CR07_4 -1.0
    RESFO_CR07_4 FOBAL_4 -1.0
    RESFO_CR07_4 FOSUL_4 -3.116635223405176
    VGO2_CR07_4 VDUY1_CR07_4 1.0
    VGO2_CR07_4 VGOBAL_CR07_4 1.0
    VR_CR07_4 VDUY2_CR07_4 1.0
    VR_CR07_4 FOBAL_4 -1.0
    VR_CR07_4 FOSUL_4 -3.001625790426729
    VDUIN_CR08_4 RESSPLIT_CR08_4 -1.0
    VDUIN_CR08_4 VDUY1_CR08_4 -0.45
    VDUIN_CR08_4 VDUY2_CR08_4 -0.55
    VDUIN_CR08_4 VDUCAP_4 1.0
    RESFO_CR08_4 RESSPLIT_CR08_4 -1.0
    RESFO_CR08_4 FOBAL_4 -1.0
    RESFO_CR08_4 FOSUL_4 0.0456281803886287
    VGO2_CR08_4 VDUY1_CR08_4 1.0
    VGO2_CR08_4 VGOBAL_CR08_4 1.0
    VR_CR08_4 VDUY2_CR08_4 1.0
    VR_CR08_4 FOBAL_4 -1.0
    VR_CR08_4 FOSUL_4 1.109316634505218
    VDUIN_CR09_4 RESSPLIT_CR09_4 -1.0
    VDUIN_CR09_4 VDUY1_CR09_4 -0.45
    VDUIN_CR09_4 VDUY2_CR09_4 -0.55
    VDUIN_CR09_4 VDUCAP_4 1.0
    RESFO_CR09_4 RESSPLIT_CR09_4 -1.0
    RESFO_CR09_4 FOBAL_4 -1.0
    RESFO_CR09_4 FOSUL_4 -3.264603397407564
    VGO2_CR09_4 VDUY1_CR09_4 1.0
    VGO2_CR09_4 VGOBAL_CR09_4 1.0
    VR_CR09_4 VDUY2_CR09_4 1.0
    VR_CR09_4 FOBAL_4 -1.0
    VR_CR09_4 FOSUL_4 -3.1939844166298332
    FCCIN_CR00_4 OBJ -2.5
    FCCIN_CR00_4 VGOBAL_CR00_4 -1.0
    FCCIN_CR00_4 FCCCAP_4 1.0
    FCCIN_CR00_4 FCCY_FCCG_4 -0.55
    FCCIN_CR00_4 FCCY_LCO_4 -0.2
    FCCIN_CR00_4 FCCY_FLPG_4 -0.15
    FCCIN_CR00_4 FCCY_SLURRY_4 -0.07
    FCCIN_CR01_4 OBJ -2.5
    FCCIN_CR01_4 VGOBAL_CR01_4 -1.0
    FCCIN_CR01_4 FCCCAP_4 1.0
    FCCIN_CR01_4 FCCY_FCCG_4 -0.55
    FCCIN_CR01_4 FCCY_LCO_4 -0.2
    FCCIN_CR01_4 FCCY_FLPG_4 -0.15
    FCCIN_CR01_4 FCCY_SLURRY_4 -0.07
    FCCIN_CR02_4 OBJ -2.5
    FCCIN_CR02_4 VGOBAL_CR02_4 -1.0
    FCCIN_CR02_4 FCCCAP_4 1.0
    FCCIN_CR02_4 FCCY_FCCG_4 -0.55
    FCCIN_CR02_4 FCCY_LCO_4 -0.2
    FCCIN_CR02_4 FCCY_FLPG_4 -0.15
    FCCIN_CR02_4 FCCY_SLURRY_4 -0.07
    FCCIN_CR03_4 OBJ -2.5
    FCCIN_CR03_4 VGOBAL_CR03_4 -1.0
    FCCIN_CR03_4 FCCCAP_4 1.0
    FCCIN_CR03_4 FCCY_FCCG_4 -0.55
    FCCIN_CR03_4 FCCY_LCO_4 -0.2
    FCCIN_CR03_4 FCCY_FLPG_4 -0.15
    FCCIN_CR03_4 FCCY_SLURRY_4 -0.07
    FCCIN_CR04_4 OBJ -2.5
    FCCIN_CR04_4 VGOBAL_CR04_4 -1.0
    FCCIN_CR04_4 FCCCAP_4 1.0
    FCCIN_CR04_4 FCCY_FCCG_4 -0.55
    FCCIN_CR04_4 FCCY_LCO_4 -0.2
    FCCIN_CR04_4 FCCY_FLPG_4 -0.15
    FCCIN_CR04_4 FCCY_SLURRY_4 -0.07
    FCCIN_CR05_4 OBJ -2.5
    FCCIN_CR05_4 VGOBAL_CR05_4 -1.0
    FCCIN_CR05_4 FCCCAP_4 1.0
    FCCIN_CR05_4 FCCY_FCCG_4 -0.55
    FCCIN_CR05_4 FCCY_LCO_4 -0.2
    FCCIN_CR05_4 FCCY_FLPG_4 -0.15
    FCCIN_CR05_4 FCCY_SLURRY_4 -0.07
    FCCIN_CR06_4 OBJ -2.5
    FCCIN_CR06_4 VGOBAL_CR06_4 -1.0
    FCCIN_CR06_4 FCCCAP_4 1.0
    FCCIN_CR06_4 FCCY_FCCG_4 -0.55
    FCCIN_CR06_4 FCCY_LCO_4 -0.2
    FCCIN_CR06_4 FCCY_FLPG_4 -0.15
    FCCIN_CR06_4 FCCY_SLURRY_4 -0.07
    FCCIN_CR07_4 OBJ -2.5
    FCCIN_CR07_4 VGOBAL_CR07_4 -1.0
    FCCIN_CR07_4 FCCCAP_4 1.0
    FCCIN_CR07_4 FCCY_FCCG_4 -0.55
    FCCIN_CR07_4 FCCY_LCO_4 -0.2
    FCCIN_CR07_4 FCCY_FLPG_4 -0.15
    FCCIN_CR07_4 FCCY_SLURRY_4 -0.07
    FCCIN_CR08_4 OBJ -2.5
    FCCIN_CR08_4 VGOBAL_CR08_4 -1.0
    FCCIN_CR08_4 FCCCAP_4 1.0
    FCCIN_CR08_4 FCCY_FCCG_4 -0.55
    FCCIN_CR08_4 FCCY_LCO_4 -0.2
    FCCIN_CR08_4 FCCY_FLPG_4 -0.15
    FCCIN_CR08_4 FCCY_SLURRY_4 -0.07
    FCCIN_CR09_4 OBJ -2.5
    FCCIN_CR09_4 VGOBAL_CR09_4 -1.0
    FCCIN_CR09_4 FCCCAP_4 1.0
    FCCIN_CR09_4 FCCY_FCCG_4 -0.55
    FCCIN_CR09_4 FCCY_LCO_4 -0.2
    FCCIN_CR09_4 FCCY_FLPG_4 -0.15
    FCCIN_CR09_4 FCCY_SLURRY_4 -0.07
    FCCG_4 FCCY_FCCG_4 1.0
    FCCG_4 GASBAL_4 -1.0
    FCCG_4 GASRON_4 1.0
    LCO_4 FCCY_LCO_4 1.0
    LCO_4 LCOBAL_4 1.0
    FLPG_4 FCCY_FLPG_4 1.0
    FLPG_4 LPGBAL_4 -1.0
    SLURRY_4 FCCY_SLURRY_4 1.0
    SLURRY_4 FOBAL_4 -1.0
    SLURRY_4 FOSUL_4 -1.5
    REFIN_CR00_4 OBJ -3.0
    REFIN_CR00_4 NAPBAL_CR00_4 -1.0
    REFIN_CR00_4 REFCAP_4 1.0
    REFIN_CR00_4 REFY_4 -0.85
    NAPGAS_CR00_4 NAPBAL_CR00_4 -1.0
    NAPGAS_CR00_4 GASBAL_4 -1.0
    NAPGAS_CR00_4 GASRON_4 -41.351908455631545
    REFIN_CR01_4 OBJ -3.0
    REFIN_CR01_4 NAPBAL_CR01_4 -1.0
    REFIN_CR01_4 REFCAP_4 1.0
    REFIN_CR01_4 REFY_4 -0.85
    NAPGAS_CR01_4 NAPBAL_CR01_4 -1.0
    NAPGAS_CR01_4 GASBAL_4 -1.0
    NAPGAS_CR01_4 GASRON_4 -33.623043958680114
    REFIN_CR02_4 OBJ -3.0
    REFIN_CR02_4 NAPBAL_CR02_4 -1.0
    REFIN_CR02_4 REFCAP_4 1.0
    REFIN_CR02_4 REFY_4 -0.85
    NAPGAS_CR02_4 NAPBAL_CR02_4 -1.0
    NAPGAS_CR02_4 GASBAL_4 -1.0
    NAPGAS_CR02_4 GASRON_4 -39.74522208078083
    REFIN_CR03_4 OBJ -3.0
    REFIN_CR03_4 NAPBAL_CR03_4 -1.0
    REFIN_CR03_4 REFCAP_4 1.0
    REFIN_CR03_4 REFY_4 -0.85
    NAPGAS_CR03_4 NAPBAL_CR03_4 -1.0
    NAPGAS_CR03_4 GASBAL_4 -1.0
    NAPGAS_CR03_4 GASRON_4 -39.32063345179839
    REFIN_CR04_4 OBJ -3.0
    REFIN_CR04_4 NAPBAL_CR04_4 -1.0
    REFIN_CR04_4 REFCAP_4 1.0
    REFIN_CR04_4 REFY_4 -0.85
    NAPGAS_CR04_4 NAPBAL_CR04_4 -1.0
    NAPGAS_CR04_4 GASBAL_4 -1.0
    NAPGAS_CR04_4 GASRON_4 -28.06018906757886
    REFIN_CR05_4 OBJ -3.0
    REFIN_CR05_4 NAPBAL_CR05_4 -1.0
    REFIN_CR05_4 REFCAP_4 1.0
    REFIN_CR05_4 REFY_4 -0.85
    NAPGAS_CR05_4 NAPBAL_CR05_4 -1.0
    NAPGAS_CR05_4 GASBAL_4 -1.0
    NAPGAS_CR05_4 GASRON_4 -37.177062383933254
    REFIN_CR06_4 OBJ -3.0
    REFIN_CR06_4 NAPBAL_CR06_4 -1.0
    REFIN_CR06_4 REFCAP_4 1.0
    REFIN_CR06_4 REFY_4 -0.85
    NAPGAS_CR06_4 NAPBAL_CR06_4 -1.0
    NAPGAS_CR06_4 GASBAL_4 -1.0
    NAPGAS_CR06_4 GASRON_4 -38.73738801284508
    REFIN_CR07_4 OBJ -3.0
    REFIN_CR07_4 NAPBAL_CR07_4 -1.0
    REFIN_CR07_4 REFCAP_4 1.0
    REFIN_CR07_4 REFY_4 -0.85
    NAPGAS_CR07_4 NAPBAL_CR07_4 -1.0
    NAPGAS_CR07_4 GASBAL_4 -1.0
    NAPGAS_CR07_4 GASRON_4 -31.720911449683953
    REFIN_CR08_4 OBJ -3.0
    REFIN_CR08_4 NAPBAL_CR08_4 -1.0
    REFIN_CR08_4 REFCAP_4 1.0
    REFIN_CR08_4 REFY_4 -0.85
    NAPGAS_CR08_4 NAPBAL_CR08_4 -1.0
    NAPGAS_CR08_4 GASBAL_4 -1.0
    NAPGAS_CR08_4 GASRON_4 -31.236267605063702
    REFIN_CR09_4 OBJ -3.0
    REFIN_CR09_4 NAPBAL_CR09_4 -1.0
    REFIN_CR09_4 REFCAP_4 1.0
    REFIN_CR09_4 REFY_4 -0.85
    NAPGAS_CR09_4 NAPBAL_CR09_4 -1.0
    NAPGAS_CR09_4 GASBAL_4 -1.0
    NAPGAS_CR09_4 GASRON_4 -29.9151768258086
    REFORMATE_4 REFY_4 1.0
    REFORMATE_4 GASBAL_4 -1.0
    REFORMATE_4 GASRON_4 7.0
    DHTIN_CR00_4 OBJ -2.0
    DHTIN_CR00_4 DSLBAL_CR00_4 -1.0
    DHTIN_CR00_4 DHTCAP_4 1.0
    DHTIN_CR00_4 DHTY_4 -0.98
    DSLDIR_CR00_4 DSLBAL_CR00_4 -1.0
    DSLDIR_CR00_4 DSLPB_4 -1.0
    DSLDIR_CR00_4 DSLSUL_4 1.5862267507032528
    DHTIN_CR01_4 OBJ -2.0
    DHTIN_CR01_4 DSLBAL_CR01_4 -1.0
    DHTIN_CR01_4 DHTCAP_4 1.0
    DHTIN_CR01_4 DHTY_4 -0.98
    DSLDIR_CR01_4 DSLBAL_CR01_4 -1.0
    DSLDIR_CR01_4 DSLPB_4 -1.0
    DSLDIR_CR01_4 DSLSUL_4 0.8149467463033994
    DHTIN_CR02_4 OBJ -2.0
    DHTIN_CR02_4 DSLBAL_CR02_4 -1.0
    DHTIN_CR02_4 DHTCAP_4 1.0
    DHTIN_CR02_4 DHTY_4 -0.98
    DSLDIR_CR02_4 DSLBAL_CR02_4 -1.0
    DSLDIR_CR02_4 DSLPB_4 -1.0
    DSLDIR_CR02_4 DSLSUL_4 1.0170271993959037
    DHTIN_CR03_4 OBJ -2.0
    DHTIN_CR03_4 DSLBAL_CR03_4 -1.0
    DHTIN_CR03_4 DHTCAP_4 1.0
    DHTIN_CR03_4 DHTY_4 -0.98
    DSLDIR_CR03_4 DSLBAL_CR03_4 -1.0
    DSLDIR_CR03_4 DSLPB_4 -1.0
    DSLDIR_CR03_4 DSLSUL_4 0.4394117672662308
    DHTIN_CR04_4 OBJ -2.0
    DHTIN_CR04_4 DSLBAL_CR04_4 -1.0
    DHTIN_CR04_4 DHTCAP_4 1.0
    DHTIN_CR04_4 DHTY_4 -0.98
    DSLDIR_CR04_4 DSLBAL_CR04_4 -1.0
    DSLDIR_CR04_4 DSLPB_4 -1.0
    DSLDIR_CR04_4 DSLSUL_4 1.6095005435592393
    DHTIN_CR05_4 OBJ -2.0
    DHTIN_CR05_4 DSLBAL_CR05_4 -1.0
    DHTIN_CR05_4 DHTCAP_4 1.0
    DHTIN_CR05_4 DHTY_4 -0.98
    DSLDIR_CR05_4 DSLBAL_CR05_4 -1.0
    DSLDIR_CR05_4 DSLPB_4 -1.0
    DSLDIR_CR05_4 DSLSUL_4 1.1028999274270206
    DHTIN_CR06_4 OBJ -2.0
    DHTIN_CR06_4 DSLBAL_CR06_4 -1.0
    DHTIN_CR06_4 DHTCAP_4 1.0
    DHTIN_CR06_4 DHTY_4 -0.98
    DSLDIR_CR06_4 DSLBAL_CR06_4 -1.0
    DSLDIR_CR06_4 DSLPB_4 -1.0
    DSLDIR_CR06_4 DSLSUL_4 1.0307656961819645
    DHTIN_CR07_4 OBJ -2.0
    DHTIN_CR07_4 DSLBAL_CR07_4 -1.0
    DHTIN_CR07_4 DHTCAP_4 1.0
    DHTIN_CR07_4 DHTY_4 -0.98
    DSLDIR_CR07_4 DSLBAL_CR07_4 -1.0
    DSLDIR_CR07_4 DSLPB_4 -1.0
    DSLDIR_CR07_4 DSLSUL_4 0.06500943297844713
    DHTIN_CR08_4 OBJ -2.0
    DHTIN_CR08_4 DSLBAL_CR08_4 -1.0
    DHTIN_CR08_4 DHTCAP_4 1.0
    DHTIN_CR08_4 DHTY_4 -0.98
    DSLDIR_CR08_4 DSLBAL_CR08_4 -1.0
    DSLDIR_CR08_4 DSLPB_4 -1.0
    DSLDIR_CR08_4 DSLSUL_4 1.0136884541165885
    DHTIN_CR09_4 OBJ -2.0
    DHTIN_CR09_4 DSLBAL_CR09_4 -1.0
    DHTIN_CR09_4 DHTCAP_4 1.0
    DHTIN_CR09_4 DHTY_4 -0.98
    DSLDIR_CR09_4 DSLBAL_CR09_4 -1.0
    DSLDIR_CR09_4 DSLPB_4 -1.0
    DSLDIR_CR09_4 DSLSUL_4 0.020618980777730833
    LCODHT_4 LCOBAL_4 -1.0
    LCODHT_4 DHTCAP_4 1.0
    LCODHT_4 DHTY_4 -0.95
    LCOFO_4 LCOBAL_4 -1.0
    LCOFO_4 FOBAL_4 -1.0
    LCOFO_4 FOSUL_4 -2.5
    ULSD_4 DHTY_4 1.0
    ULSD_4 DSLPB_4 -1.0
    ULSD_4 DSLSUL_4 -0.049
    SELL_LPG_4 OBJ 59.76313972081441
    SELL_LPG_4 PBAL_LPG_4 -1.0
    SELL_LPG_4 DMAX_LPG_4 1.0
    SELL_LPG_4 DMIN_LPG_4 1.0
    SELL_GAS_4 OBJ 114.0932667397366
    SELL_GAS_4 PBAL_GAS_4 -1.0
    SELL_GAS_4 DMAX_GAS_4 1.0
    SELL_GAS_4 DMIN_GAS_4 1.0
    SELL_JET_4 OBJ 108.66025403784438
    SELL_JET_4 PBAL_JET_4 -1.0
    SELL_JET_4 DMAX_JET_4 1.0
    SELL_JET_4 DMIN_JET_4 1.0
    SELL_DSL_4 OBJ 106.4870489570875
    SELL_DSL_4 PBAL_DSL_4 -1.0
    SELL_DSL_4 DMAX_DSL_4 1.0
    SELL_DSL_4 DMIN_DSL_4 1.0
    SELL_FO_4 OBJ 65.19615242270663
    SELL_FO_4 PBAL_FO_4 -1.0
    SELL_FO_4 DMAX_FO_4 1.0
    SELL_FO_4 DMIN_FO_4 1.0
    PINV_LPG_4 OBJ -0.5
    PINV_LPG_4 PBAL_LPG_4 -1.0
    PINV_LPG_4 PBAL_LPG_5 1.0
    PINV_GAS_4 OBJ -0.5
    PINV_GAS_4 PBAL_GAS_4 -1.0
    PINV_GAS_4 PBAL_GAS_5 1.0
    PINV_JET_4 OBJ -0.5
    PINV_JET_4 PBAL_JET_4 -1.0
    PINV_JET_4 PBAL_JET_5 1.0
    PINV_DSL_4 OBJ -0.5
    PINV_DSL_4 PBAL_DSL_4 -1.0
    PINV_DSL_4 PBAL_DSL_5 1.0
    PINV_FO_4 OBJ -0.5
    PINV_FO_4 PBAL_FO_4 -1.0
    PINV_FO_4 PBAL_FO_5 1.0
    SHORT_LPG_4 OBJ -400.0
    SHORT_LPG_4 DMIN_LPG_4 1.0
    SHORT_GAS_4 OBJ -400.0
    SHORT_GAS_4 DMIN_GAS_4 1.0
    SHORT_JET_4 OBJ -400.0
    SHORT_JET_4 DMIN_JET_4 1.0
    SHORT_DSL_4 OBJ -400.0
    SHORT_DSL_4 DMIN_DSL_4 1.0
    SHORT_FO_4 OBJ -400.0
    SHORT_FO_4 DMIN_FO_4 1.0
    GASPOOL_4 GASBAL_4 1.0
    GASPOOL_4 PBAL_GAS_4 1.0
    JETPOOL_4 JETBAL_4 1.0
    JETPOOL_4 PBAL_JET_4 1.0
    KERJET_CR00_4 KERBAL_CR00_4 -1.0
    KERJET_CR00_4 JETBAL_4 -1.0
    KERJET_CR00_4 JETSUL_4 0.10905668767581322
    KERDSL_CR00_4 KERBAL_CR00_4 -1.0
    KERDSL_CR00_4 DSLPB_4 -1.0
    KERDSL_CR00_4 DSLSUL_4 0.3590566876758132
    KERJET_CR01_4 KERBAL_CR01_4 -1.0
    KERJET_CR01_4 JETBAL_4 -1.0
    KERJET_CR01_4 JETSUL_4 -0.08376331342415014
    KERDSL_CR01_4 KERBAL_CR01_4 -1.0
    KERDSL_CR01_4 DSLPB_4 -1.0
    KERDSL_CR01_4 DSLSUL_4 0.16623668657584983
    KERJET_CR02_4 KERBAL_CR02_4 -1.0
    KERJET_CR02_4 JETBAL_4 -1.0
    KERJET_CR02_4 JETSUL_4 -0.033243200151024055
    KERDSL_CR02_4 KERBAL_CR02_4 -1.0
    KERDSL_CR02_4 DSLPB_4 -1.0
    KERDSL_CR02_4 DSLSUL_4 0.21675679984897595
    KERJET_CR03_4 KERBAL_CR03_4 -1.0
    KERJET_CR03_4 JETBAL_4 -1.0
    KERJET_CR03_4 JETSUL_4 -0.17764705818344229
    KERDSL_CR03_4 KERBAL_CR03_4 -1.0
    KERDSL_CR03_4 DSLPB_4 -1.0
    KERDSL_CR03_4 DSLSUL_4 0.0723529418165577
    KERJET_CR04_4 KERBAL_CR04_4 -1.0
    KERJET_CR04_4 JETBAL_4 -1.0
    KERJET_CR04_4 JETSUL_4 0.11487513588980985
    KERDSL_CR04_4 KERBAL_CR04_4 -1.0
    KERDSL_CR04_4 DSLPB_4 -1.0
    KERDSL_CR04_4 DSLSUL_4 0.36487513588980985
    KERJET_CR05_4 KERBAL_CR05_4 -1.0
    KERJET_CR05_4 JETBAL_4 -1.0
    KERJET_CR05_4 JETSUL_4 -0.011775018143244831
    KERDSL_CR05_4 KERBAL_CR05_4 -1.0
    KERDSL_CR05_4 DSLPB_4 -1.0
    KERDSL_CR05_4 DSLSUL_4 0.23822498185675517
    KERJET_CR06_4 KERBAL_CR06_4 -1.0
    KERJET_CR06_4 JETBAL_4 -1.0
    KERJET_CR06_4 JETSUL_4 -0.029808575954508865
    KERDSL_CR06_4 KERBAL_CR06_4 -1.0
    KERDSL_CR06_4 DSLPB_4 -1.0
    KERDSL_CR06_4 DSLSUL_4 0.22019142404549114
    KERJET_CR07_4 KERBAL_CR07_4 -1.0
    KERJET_CR07_4 JETBAL_4 -1.0
    KERJET_CR07_4 JETSUL_4 -0.2712476417553882
    KERDSL_CR07_4 KERBAL_CR07_4 -1.0
    KERDSL_CR07_4 DSLPB_4 -1.0
    KERDSL_CR07_4 DSLSUL_4 -0.02124764175538822
    KERJET_CR08_4 KERBAL_CR08_4 -1.0
    KERJET_CR08_4 JETBAL_4 -1.0
    KERJET_CR08_4 JETSUL_4 -0.03407788647085286
    KERDSL_CR08_4 KERBAL_CR08_4 -1.0
    KERDSL_CR08_4 DSLPB_4 -1.0
    KERDSL_CR08_4 DSLSUL_4 0.21592211352914714
    KERJET_CR09_4 KERBAL_CR09_4 -1.0
    KERJET_CR09_4 JETBAL_4 -1.0
    KERJET_CR09_4 JETSUL_4 -0.28234525480556727
    KERDSL_CR09_4 KERBAL_CR09_4 -1.0
    KERDSL_CR09_4 DSLPB_4 -1.0
    KERDSL_CR09_4 DSLSUL_4 -0.0323452548055673
    DSLPOOL_4 DSLPB_4 1.0
    DSLPOOL_4 PBAL_DSL_4 1.0
    LPGPOOL_4 LPGBAL_4 1.0
    LPGPOOL_4 PBAL_LPG_4 1.0
    FOPOOL_4 FOBAL_4 1.0
    FOPOOL_4 PBAL_FO_4 1.0
    M6110 'MARKER' 'INTORG'
    NPAR_CR00_5 PARCEL_CR00_5 -20.0
    M6112 'MARKER' 'INTEND'
    BUY_CR00_5 OBJ -57.359905942556175
    BUY_CR00_5 PARCEL_CR00_5 1.0
    BUY_CR00_5 CBAL_CR00_5 1.0
    CINV_CR00_5 OBJ -0.3
    CINV_CR00_5 CBAL_CR00_5 -1.0
    CINV_CR00_5 CBAL_CR00_6 1.0
    CDU_CR00_5 CBAL_CR00_5 -1.0
    CDU_CR00_5 CDUCAP_5 1.0
    CDU_CR00_5 CDUMIN_5 1.0
    CDU_CR00_5 YLPG_CR00_5 -0.013786055933968056
    CDU_CR00_5 YNAP_CR00_5 -0.1214444916358349
    CDU_CR00_5 YKER_CR00_5 -0.10646372452567733
    CDU_CR00_5 YDSL_CR00_5 -0.20292085263352289
    CDU_CR00_5 YVGO_CR00_5 -0.27390944719057636
    CDU_CR00_5 YRES_CR00_5 -0.28147542808042036
    M6128 'MARKER' 'INTORG'
    NPAR_CR01_5 PARCEL_CR01_5 -20.0
    M6130 'MARKER' 'INTEND'
    BUY_CR01_5 OBJ -75.32066431856191
    BUY_CR01_5 PARCEL_CR01_5 1.0
    BUY_CR01_5 CBAL_CR01_5 1.0
    CINV_CR01_5 OBJ -0.3
    CINV_CR01_5 CBAL_CR01_5 -1.0
    CINV_CR01_5 CBAL_CR01_6 1.0
    CDU_CR01_5 CBAL_CR01_5 -1.0
    CDU_CR01_5 CDUCAP_5 1.0
    CDU_CR01_5 CDUMIN_5 1.0
    CDU_CR01_5 YLPG_CR01_5 -0.025127543584387436
    CDU_CR01_5 YNAP_CR01_5 -0.2025917905849106
    CDU_CR01_5 YKER_CR01_5 -0.13410952106049506
    CDU_CR01_5 YDSL_CR01_5 -0.24728591651278542
    CDU_CR01_5 YVGO_CR01_5 -0.22897185950088417
    CDU_CR01_5 YRES_CR01_5 -0.16191336875653717
    M6146 'MARKER' 'INTORG'
    NPAR_CR02_5 PARCEL_CR02_5 -20.0
    M6148 'MARKER' 'INTEND'
    BUY_CR02_5 OBJ -60.98578856678018
    BUY_CR02_5 PARCEL_CR02_5 1.0
    BUY_CR02_5 CBAL_CR02_5 1.0
    CINV_CR02_5 OBJ -0.3
    CINV_CR02_5 CBAL_CR02_5 -1.0
    CINV_CR02_5 CBAL_CR02_6 1.0
    CDU_CR02_5 CBAL_CR02_5 -1.0
    CDU_CR02_5 CDUCAP_5 1.0
    CDU_CR02_5 CDUMIN_5 1.0
    CDU_CR02_5 YLPG_CR02_5 -0.013444753666275039
    CDU_CR02_5 YNAP_CR02_5 -0.11889710072836579
    CDU_CR02_5 YKER_CR02_5 -0.103840437143255
    CDU_CR02_5 YDSL_CR02_5 -0.21229612809407214
    CDU_CR02_5 YVGO_CR02_5 -0.2628713956905896
    CDU_CR02_5 YRES_CR02_5 -0.28865018467744247
    M6164 'MARKER' 'INTORG'
    NPAR_CR03_5 PARCEL_CR03_5 -20.0
    M6166 'MARKER' 'INTEND'
    BUY_CR03_5 OBJ -66.77575461291674
    BUY_CR03_5 PARCEL_CR03_5 1.0
    BUY_CR03_5 CBAL_CR03_5 1.0
    CINV_CR03_5 OBJ -0.3
    CINV_CR03_5 CBAL_CR03_5 -1.0
    CINV_CR03_5 CBAL_CR03_6 1.0
    CDU_CR03_5 CBAL_CR03_5 -1.0
    CDU_CR03_5 CDUCAP_5 1.0
    CDU_CR03_5 CDUMIN_5 1.0
    CDU_CR03_5 YLPG_CR03_5 -0.01400858068810675
    CDU_CR03_5 YNAP_CR03_5 -0.1424923117986131
    CDU_CR03_5 YKER_CR03_5 -0.10784088582669263
    CDU_CR03_5 YDSL_CR03_5 -0.19279120630762445
    CDU_CR03_5 YVGO_CR03_5 -0.28544626211923063
    CDU_CR03_5 YRES_CR03_5 -0.2574207532597324
    M6182 'MARKER' 'INTORG'
    NPAR_CR04_5 PARCEL_CR04_5 -20.0
    M6184 'MARKER' 'INTEND'
    BUY_CR04_5 OBJ -72.75246144279387
    BUY_CR04_5 PARCEL_CR04_5 1.0
    BUY_CR04_5 CBAL_CR04_5 1.0
    CINV_CR04_5 OBJ -0.3
    CINV_CR04_5 CBAL_CR04_5 -1.0
    CINV_CR04_5 CBAL_CR04_6 1.0
    CDU_CR04_5 CBAL_CR04_5 -1.0
    CDU_CR04_5 CDUCAP_5 1.0
    CDU_CR04_5 CDUMIN_5 1.0
    CDU_CR04_5 YLPG_CR04_5 -0.02335213093765316
    CDU_CR04_5 YNAP_CR04_5 -0.2292355396921612
    CDU_CR04_5 YKER_CR04_5 -0.14240695851543803
    CDU_CR04_5 YDSL_CR04_5 -0.24384363627499198
    CDU_CR04_5 YVGO_CR04_5 -0.2465326974706559
    CDU_CR04_5 YRES_CR04_5 -0.1146290371090997
    M6200 'MARKER' 'INTORG'
    NPAR_CR05_5 PARCEL_CR05_5 -20.0
    M6202 'MARKER' 'INTEND'
    BUY_CR05_5 OBJ -64.90386084496456
    BUY_CR05_5 PARCEL_CR05_5 1.0
    BUY_CR05_5 CBAL_CR05_5 1.0
    CINV_CR05_5 OBJ -0.3
    CINV_CR05_5 CBAL_CR05_5 -1.0
    CINV_CR05_5 CBAL_CR05_6 1.0
    CDU_CR05_5 CBAL_CR05_5 -1.0
    CDU_CR05_5 CDUCAP_5 1.0
    CDU_CR05_5 CDUMIN_5 1.0
    CDU_CR05_5 YLPG_CR05_5 -0.01735729802728813
    CDU_CR05_5 YNAP_CR05_5 -0.16608619710065003
    CDU_CR05_5 YKER_CR05_5 -0.1170544437563835
    CDU_CR05_5 YDSL_CR05_5 -0.22299235889970878
    CDU_CR05_5 YVGO_CR05_5 -0.2433490540516293
    CDU_CR05_5 YRES_CR05_5 -0.23316064816434035
    M6218 'MARKER' 'INTORG'
    NPAR_CR06_5 PARCEL_CR06_5 -20.0
    M6220 'MARKER' 'INTEND'
    BUY_CR06_5 OBJ -63.21058463221458
    BUY_CR06_5 PARCEL_CR06_5 1.0
    BUY_CR06_5 CBAL_CR06_5 1.0
    CINV_CR06_5 OBJ -0.3
    CINV_CR06_5 CBAL_CR06_5 -1.0
    CINV_CR06_5 CBAL_CR06_6 1.0
    CDU_CR06_5 CBAL_CR06_5 -1.0
    CDU_CR06_5 CDUCAP_5 1.0
    CDU_CR06_5 CDUMIN_5 1.0
    CDU_CR06_5 YLPG_CR06_5 -0.014219474855875663
    CDU_CR06_5 YNAP_CR06_5 -0.13746806025500902
    CDU_CR06_5 YKER_CR06_5 -0.10533897185985656
    CDU_CR06_5 YDSL_CR06_5 -0.20403840195434858
    CDU_CR06_5 YVGO_CR06_5 -0.26484358994429863
    CDU_CR06_5 YRES_CR06_5 -0.27409150113061165
    M6236 'MARKER' 'INTORG'
    NPAR_CR07_5 PARCEL_CR07_5 -20.0
    M6238 'MARKER' 'INTEND'
    BUY_CR07_5 OBJ -71.67765340878535
    BUY_CR07_5 PARCEL_CR07_5 1.0
    BUY_CR07_5 CBAL_CR07_5 1.0
    CINV_CR07_5 OBJ -0.3
    CINV_CR07_5 CBAL_CR07_5 -1.0
    CINV_CR07_5 CBAL_CR07_6 1.0
    CDU_CR07_5 CBAL_CR07_5 -1.0
    CDU_CR07_5 CDUCAP_5 1.0
    CDU_CR07_5 CDUMIN_5 1.0
    CDU_CR07_5 YLPG_CR07_5 -0.01678766142162217
    CDU_CR07_5 YNAP_CR07_5 -0.18341674311422207
    CDU_CR07_5 YKER_CR07_5 -0.13271469159016522
    CDU_CR07_5 YDSL_CR07_5 -0.2249127244045356
    CDU_CR07_5 YVGO_CR07_5 -0.24848613807316539
    CDU_CR07_5 YRES_CR07_5 -0.19368204139628944
    M6254 'MARKER' 'INTORG'
    NPAR_CR08_5 PARCEL_CR08_5 -20.0
    M6256 'MARKER' 'INTEND'
    BUY_CR08_5 OBJ -69.15580815777714
    BUY_CR08_5 PARCEL_CR08_5 1.0
    BUY_CR08_5 CBAL_CR08_5 1.0
    CINV_CR08_5 OBJ -0.3
    CINV_CR08_5 CBAL_CR08_5 -1.0
    CINV_CR08_5 CBAL_CR08_6 1.0
    CDU_CR08_5 CBAL_CR08_5 -1.0
    CDU_CR08_5 CDUCAP_5 1.0
    CDU_CR08_5 CDUMIN_5 1.0
    CDU_CR08_5 YLPG_CR08_5 -0.023930881960770135
    CDU_CR08_5 YNAP_CR08_5 -0.199474063989656
    CDU_CR08_5 YKER_CR08_5 -0.13012967624359006
    CDU_CR08_5 YDSL_CR08_5 -0.24906213509239003
    CDU_CR08_5 YVGO_CR08_5 -0.24247509330512357
    CDU_CR08_5 YRES_CR08_5 -0.15492814940847022
    M6272 'MARKER' 'INTORG'
    NPAR_CR09_5 PARCEL_CR09_5 -20.0
    M6274 'MARKER' 'INTEND'
    BUY_CR09_5 OBJ -78.28299198136276
    BUY_CR09_5 PARCEL_CR09_5 1.0
    BUY_CR09_5 CBAL_CR09_5 1.0
    CINV_CR09_5 OBJ -0.3
    CINV_CR09_5 CBAL_CR09_5 -1.0
    CINV_CR09_5 CBAL_CR09_6 1.0
    CDU_CR09_5 CBAL_CR09_5 -1.0
    CDU_CR09_5 CDUCAP_5 1.0
    CDU_CR09_5 CDUMIN_5 1.0
    CDU_CR09_5 YLPG_CR09_5 -0.0254414593142613
    CDU_CR09_5 YNAP_CR09_5 -0.2406668892422991
    CDU_CR09_5 YKER_CR09_5 -0.14150533274546892
    CDU_CR09_5 YDSL_CR09_5 -0.23713673044274025
    CDU_CR09_5 YVGO_CR09_5 -0.23566730460149374
    CDU_CR09_5 YRES_CR09_5 -0.11958228365373665
    M6290 'MARKER' 'INTORG'
    CDUMODE_5 OBJ -150.0
    CDUMODE_5 CDUCAP_5 -150.0
    CDUMODE_5 CDUMIN_5 -90.0
    M6294 'MARKER' 'INTEND'
    LPG_CR00_5 YLPG_CR00_5 1.0
    LPG_CR00_5 LPGBAL_5 -1.0
    NAP_CR00_5 YNAP_CR00_5 1.0
    NAP_CR00_5 NAPBAL_CR00_5 1.0
    KER_CR00_5 YKER_CR00_5 1.0
    KER_CR00_5 KERBAL_CR00_5 1.0
    DSL_CR00_5 YDSL_CR00_5 1.0
    DSL_CR00_5 DSLBAL_CR00_5 1.0
    VGO_CR00_5 YVGO_CR00_5 1.0
    VGO_CR00_5 VGOBAL_CR00_5 1.0
    RES_CR00_5 YRES_CR00_5 1.0
    RES_CR00_5 RESSPLIT_CR00_5 1.0
    LPG_CR01_5 YLPG_CR01_5 1.0
    LPG_CR01_5 LPGBAL_5 -1.0
    NAP_CR01_5 YNAP_CR01_5 1.0
    NAP_CR01_5 NAPBAL_CR01_5 1.0
    KER_CR01_5 YKER_CR01_5 1.0
    KER_CR01_5 KERBAL_CR01_5 1.0
    DSL_CR01_5 YDSL_CR01_5 1.0
    DSL_CR01_5 DSLBAL_CR01_5 1.0
    VGO_CR01_5 YVGO_CR01_5 1.0
    VGO_CR01_5 VGOBAL_CR01_5 1.0
    RES_CR01_5 YRES_CR01_5 1.0
    RES_CR01_5 RESSPLIT_CR01_5 1.0
    LPG_CR02_5 YLPG_CR02_5 1.0
    LPG_CR02_5 LPGBAL_5 -1.0
    NAP_CR02_5 YNAP_CR02_5 1.0
    NAP_CR02_5 NAPBAL_CR02_5 1.0
    KER_CR02_5 YKER_CR02_5 1.0
    KER_CR02_5 KERBAL_CR02_5 1.0
    DSL_CR02_5 YDSL_CR02_5 1.0
    DSL_CR02_5 DSLBAL_CR02_5 1.0
    VGO_CR02_5 YVGO_CR02_5 1.0
    VGO_CR02_5 VGOBAL_CR02_5 1.0
    RES_CR02_5 YRES_CR02_5 1.0
    RES_CR02_5 RESSPLIT_CR02_5 1.0
    LPG_CR03_5 YLPG_CR03_5 1.0
    LPG_CR03_5 LPGBAL_5 -1.0
    NAP_CR03_5 YNAP_CR03_5 1.0
    NAP_CR03_5 NAPBAL_CR03_5 1.0
    KER_CR03_5 YKER_CR03_5 1.0
    KER_CR03_5 KERBAL_CR03_5 1.0
    DSL_CR03_5 YDSL_CR03_5 1.0
    DSL_CR03_5 DSLBAL_CR03_5 1.0
    VGO_CR03_5 YVGO_CR03_5 1.0
    VGO_CR03_5 VGOBAL_CR03_5 1.0
    RES_CR03_5 YRES_CR03_5 1.0
    RES_CR03_5 RESSPLIT_CR03_5 1.0
    LPG_CR04_5 YLPG_CR04_5 1.0
    LPG_CR04_5 LPGBAL_5 -1.0
    NAP_CR04_5 YNAP_CR04_5 1.0
    NAP_CR04_5 NAPBAL_CR04_5 1.0
    KER_CR04_5 YKER_CR04_5 1.0
    KER_CR04_5 KERBAL_CR04_5 1.0
    DSL_CR04_5 YDSL_CR04_5 1.0
    DSL_CR04_5 DSLBAL_CR04_5 1.0
    VGO_CR04_5 YVGO_CR04_5 1.0
    VGO_CR04_5 VGOBAL_CR04_5 1.0
    RES_CR04_5 YRES_CR04_5 1.0
    RES_CR04_5 RESSPLIT_CR04_5 1.0
    LPG_CR05_5 YLPG_CR05_5 1.0
    LPG_CR05_5 LPGBAL_5 -1.0
    NAP_CR05_5 YNAP_CR05_5 1.0
    NAP_CR05_5 NAPBAL_CR05_5 1.0
    KER_CR05_5 YKER_CR05_5 1.0
    KER_CR05_5 KERBAL_CR05_5 1.0
    DSL_CR05_5 YDSL_CR05_5 1.0
    DSL_CR05_5 DSLBAL_CR05_5 1.0
    VGO_CR05_5 YVGO_CR05_5 1.0
    VGO_CR05_5 VGOBAL_CR05_5 1.0
    RES_CR05_5 YRES_CR05_5 1.0
    RES_CR05_5 RESSPLIT_CR05_5 1.0
    LPG_CR06_5 YLPG_CR06_5 1.0
    LPG_CR06_5 LPGBAL_5 -1.0
    NAP_CR06_5 YNAP_CR06_5 1.0
    NAP_CR06_5 NAPBAL_CR06_5 1.0
    KER_CR06_5 YKER_CR06_5 1.0
    KER_CR06_5 KERBAL_CR06_5 1.0
    DSL_CR06_5 YDSL_CR06_5 1.0
    DSL_CR06_5 DSLBAL_CR06_5 1.0
    VGO_CR06_5 YVGO_CR06_5 1.0
    VGO_CR06_5 VGOBAL_CR06_5 1.0
    RES_CR06_5 YRES_CR06_5 1.0
    RES_CR06_5 RESSPLIT_CR06_5 1.0
    LPG_CR07_5 YLPG_CR07_5 1.0
    LPG_CR07_5 LPGBAL_5 -1.0
    NAP_CR07_5 YNAP_CR07_5 1.0
    NAP_CR07_5 NAPBAL_CR07_5 1.0
    KER_CR07_5 YKER_CR07_5 1.0
    KER_CR07_5 KERBAL_CR07_5 1.0
    DSL_CR07_5 YDSL_CR07_5 1.0
    DSL_CR07_5 DSLBAL_CR07_5 1.0
    VGO_CR07_5 YVGO_CR07_5 1.0
    VGO_CR07_5 VGOBAL_CR07_5 1.0
    RES_CR07_5 YRES_CR07_5 1.0
    RES_CR07_5 RESSPLIT_CR07_5 1.0
    LPG_CR08_5 YLPG_CR08_5 1.0
    LPG_CR08_5 LPGBAL_5 -1.0
    NAP_CR08_5 YNAP_CR08_5 1.0
    NAP_CR08_5 NAPBAL_CR08_5 1.0
    KER_CR08_5 YKER_CR08_5 1.0
    KER_CR08_5 KERBAL_CR08_5 1.0
    DSL_CR08_5 YDSL_CR08_5 1.0
    DSL_CR08_5 DSLBAL_CR08_5 1.0
    VGO_CR08_5 YVGO_CR08_5 1.0
    VGO_CR08_5 VGOBAL_CR08_5 1.0
    RES_CR08_5 YRES_CR08_5 1.0
    RES_CR08_5 RESSPLIT_CR08_5 1.0
    LPG_CR09_5 YLPG_CR09_5 1.0
    LPG_CR09_5 LPGBAL_5 -1.0
    NAP_CR09_5 YNAP_CR09_5 1.0
    NAP_CR09_5 NAPBAL_CR09_5 1.0
    KER_CR09_5 YKER_CR09_5 1.0
    KER_CR09_5 KERBAL_CR09_5 1.0
    DSL_CR09_5 YDSL_CR09_5 1.0
    DSL_CR09_5 DSLBAL_CR09_5 1.0
    VGO_CR09_5 YVGO_CR09_5 1.0
    VGO_CR09_5 VGOBAL_CR09_5 1.0
    RES_CR09_5 YRES_CR09_5 1.0
    RES_CR09_5 RESSPLIT_CR09_5 1.0
    VDUIN_CR00_5 RESSPLIT_CR00_5 -1.0
    VDUIN_CR00_5 VDUY1_CR00_5 -0.45
    VDUIN_CR00_5 VDUY2_CR00_5 -0.55
    VDUIN_CR00_5 VDUCAP_5 1.0
    RESFO_CR00_5 RESSPLIT_CR00_5 -1.0
    RESFO_CR00_5 FOBAL_5 -1.0
    RESFO_CR00_5 FOSUL_5 1.9540891690108433
    VGO2_CR00_5 VDUY1_CR00_5 1.0
    VGO2_CR00_5 VGOBAL_CR00_5 1.0
    VR_CR00_5 VDUY2_CR00_5 1.0
    VR_CR00_5 FOBAL_5 -1.0
    VR_CR00_5 FOSUL_5 3.5903159197140964
    VDUIN_CR01_5 RESSPLIT_CR01_5 -1.0
    VDUIN_CR01_5 VDUY1_CR01_5 -0.45
    VDUIN_CR01_5 VDUY2_CR01_5 -0.55
    VDUIN_CR01_5 VDUCAP_5 1.0
    RESFO_CR01_5 RESSPLIT_CR01_5 -1.0
    RESFO_CR01_5 FOBAL_5 -1.0
    RESFO_CR01_5 FOSUL_5 -0.6168441789886687
    VGO2_CR01_5 VDUY1_CR01_5 1.0
    VGO2_CR01_5 VGOBAL_CR01_5 1.0
    VR_CR01_5 VDUY2_CR01_5 1.0
    VR_CR01_5 FOBAL_5 -1.0
    VR_CR01_5 FOSUL_5 0.24810256731473057
    VDUIN_CR02_5 RESSPLIT_CR02_5 -1.0
    VDUIN_CR02_5 VDUY1_CR02_5 -0.45
    VDUIN_CR02_5 VDUY2_CR02_5 -0.55
    VDUIN_CR02_5 VDUCAP_5 1.0
    RESFO_CR02_5 RESSPLIT_CR02_5 -1.0
    RESFO_CR02_5 FOBAL_5 -1.0
    RESFO_CR02_5 FOSUL_5 0.05675733131967897
    VGO2_CR02_5 VDUY1_CR02_5 1.0
    VGO2_CR02_5 VGOBAL_CR02_5 1.0
    VR_CR02_5 VDUY2_CR02_5 1.0
    VR_CR02_5 FOBAL_5 -1.0
    VR_CR02_5 FOSUL_5 1.1237845307155832
    VDUIN_CR03_5 RESSPLIT_CR03_5 -1.0
    VDUIN_CR03_5 VDUY1_CR03_5 -0.45
    VDUIN_CR03_5 VDUY2_CR03_5 -0.55
    VDUIN_CR03_5 VDUCAP_5 1.0
    RESFO_CR03_5 RESSPLIT_CR03_5 -1.0
    RESFO_CR03_5 FOBAL_5 -1.0
    RESFO_CR03_5 FOSUL_5 -1.8686274424458973
    VGO2_CR03_5 VDUY1_CR03_5 1.0
    VGO2_CR03_5 VGOBAL_CR03_5 1.0
    VR_CR03_5 VDUY2_CR03_5 1.0
    VR_CR03_5 FOBAL_5 -1.0
    VR_CR03_5 FOSUL_5 -1.3792156751796663
    VDUIN_CR04_5 RESSPLIT_CR04_5 -1.0
    VDUIN_CR04_5 VDUY1_CR04_5 -0.45
    VDUIN_CR04_5 VDUY2_CR04_5 -0.55
    VDUIN_CR04_5 VDUCAP_5 1.0
    RESFO_CR04_5 RESSPLIT_CR04_5 -1.0
    RESFO_CR04_5 FOBAL_5 -1.0
    RESFO_CR04_5 FOSUL_5 2.031668478530798
    VGO2_CR04_5 VDUY1_CR04_5 1.0
    VGO2_CR04_5 VGOBAL_CR04_5 1.0
    VR_CR04_5 VDUY2_CR04_5 1.0
    VR_CR04_5 FOBAL_5 -1.0
    VR_CR04_5 FOSUL_5 3.6911690220900377
    VDUIN_CR05_5 RESSPLIT_CR05_5 -1.0
    VDUIN_CR05_5 VDUY1_CR05_5 -0.45
    VDUIN_CR05_5 VDUY2_CR05_5 -0.55
    VDUIN_CR05_5 VDUCAP_5 1.0
    RESFO_CR05_5 RESSPLIT_CR05_5 -1.0
    RESFO_CR05_5 FOBAL_5 -1.0
    RESFO_CR05_5 FOSUL_5 0.3429997580900688
    VGO2_CR05_5 VDUY1_CR05_5 1.0
    VGO2_CR05_5 VGOBAL_CR05_5 1.0
    VR_CR05_5 VDUY2_CR05_5 1.0
    VR_CR05_5 FOBAL_5 -1.0
    VR_CR05_5 FOSUL_5 1.4958996855170898
    VDUIN_CR06_5 RESSPLIT_CR06_5 -1.0
    VDUIN_CR06_5 VDUY1_CR06_5 -0.45
    VDUIN_CR06_5 VDUY2_CR06_5 -0.55
    VDUIN_CR06_5 VDUCAP_5 1.0
    RESFO_CR06_5 RESSPLIT_CR06_5 -1.0
    RESFO_CR06_5 FOBAL_5 -1.0
    RESFO_CR06_5 FOSUL_5 0.10255232060654862
    VGO2_CR06_5 VDUY1_CR06_5 1.0
    VGO2_CR06_5 VGOBAL_CR06_5 1.0
    VR_CR06_5 VDUY2_CR06_5 1.0
    VR_CR06_5 FOBAL_5 -1.0
    VR_CR06_5 FOSUL_5 1.1833180167885136
    VDUIN_CR07_5 RESSPLIT_CR07_5 -1.0
    VDUIN_CR07_5 VDUY1_CR07_5 -0.45
    VDUIN_CR07_5 VDUY2_CR07_5 -0.55
    VDUIN_CR07_5 VDUCAP_5 1.0
    RESFO_CR07_5 RESSPLIT_CR07_5 -1.0
    RESFO_CR07_5 FOBAL_5 -1.0
    RESFO_CR07_5 FOSUL_5 -3.116635223405176
    VGO2_CR07_5 VDUY1_CR07_5 1.0
    VGO2_CR07_5 VGOBAL_CR07_5 1.0
    VR_CR07_5 VDUY2_CR07_5 1.0
    VR_CR07_5 FOBAL_5 -1.0
    VR_CR07_5 FOSUL_5 -3.001625790426729
    VDUIN_CR08_5 RESSPLIT_CR08_5 -1.0
    VDUIN_CR08_5 VDUY1_CR08_5 -0.45
    VDUIN_CR08_5 VDUY2_CR08_5 -0.55
    VDUIN_CR08_5 VDUCAP_5 1.0
    RESFO_CR08_5 RESSPLIT_CR08_5 -1.0
    RESFO_CR08_5 FOBAL_5 -1.0
    RESFO_CR08_5 FOSUL_5 0.0456281803886287
    VGO2_CR08_5 VDUY1_CR08_5 1.0
    VGO2_CR08_5 VGOBAL_CR08_5 1.0
    VR_CR08_5 VDUY2_CR08_5 1.0
    VR_CR08_5 FOBAL_5 -1.0
    VR_CR08_5 FOSUL_5 1.109316634505218
    VDUIN_CR09_5 RESSPLIT_CR09_5 -1.0
    VDUIN_CR09_5 VDUY1_CR09_5 -0.45
    VDUIN_CR09_5 VDUY2_CR09_5 -0.55
    VDUIN_CR09_5 VDUCAP_5 1.0
    RESFO_CR09_5 RESSPLIT_CR09_5 -1.0
    RESFO_CR09_5 FOBAL_5 -1.0
    RESFO_CR09_5 FOSUL_5 -3.264603397407564
    VGO2_CR09_5 VDUY1_CR09_5 1.0
    VGO2_CR09_5 VGOBAL_CR09_5 1.0
    VR_CR09_5 VDUY2_CR09_5 1.0
    VR_CR09_5 FOBAL_5 -1.0
    VR_CR09_5 FOSUL_5 -3.1939844166298332
    FCCIN_CR00_5 OBJ -2.5
    FCCIN_CR00_5 VGOBAL_CR00_5 -1.0
    FCCIN_CR00_5 FCCCAP_5 1.0
    FCCIN_CR00_5 FCCY_FCCG_5 -0.55
    FCCIN_CR00_5 FCCY_LCO_5 -0.2
    FCCIN_CR00_5 FCCY_FLPG_5 -0.15
    FCCIN_CR00_5 FCCY_SLURRY_5 -0.07
    FCCIN_CR01_5 OBJ -2.5
    FCCIN_CR01_5 VGOBAL_CR01_5 -1.0
    FCCIN_CR01_5 FCCCAP_5 1.0
    FCCIN_CR01_5 FCCY_FCCG_5 -0.55
    FCCIN_CR01_5 FCCY_LCO_5 -0.2
    FCCIN_CR01_5 FCCY_FLPG_5 -0.15
    FCCIN_CR01_5 FCCY_SLURRY_5 -0.07
    FCCIN_CR02_5 OBJ -2.5
    FCCIN_CR02_5 VGOBAL_CR02_5 -1.0
    FCCIN_CR02_5 FCCCAP_5 1.0
    FCCIN_CR02_5 FCCY_FCCG_5 -0.55
    FCCIN_CR02_5 FCCY_LCO_5 -0.2
    FCCIN_CR02_5 FCCY_FLPG_5 -0.15
    FCCIN_CR02_5 FCCY_SLURRY_5 -0.07
    FCCIN_CR03_5 OBJ -2.5
    FCCIN_CR03_5 VGOBAL_CR03_5 -1.0
    FCCIN_CR03_5 FCCCAP_5 1.0
    FCCIN_CR03_5 FCCY_FCCG_5 -0.55
    FCCIN_CR03_5 FCCY_LCO_5 -0.2
    FCCIN_CR03_5 FCCY_FLPG_5 -0.15
    FCCIN_CR03_5 FCCY_SLURRY_5 -0.07
    FCCIN_CR04_5 OBJ -2.5
    FCCIN_CR04_5 VGOBAL_CR04_5 -1.0
    FCCIN_CR04_5 FCCCAP_5 1.0
    FCCIN_CR04_5 FCCY_FCCG_5 -0.55
    FCCIN_CR04_5 FCCY_LCO_5 -0.2
    FCCIN_CR04_5 FCCY_FLPG_5 -0.15
    FCCIN_CR04_5 FCCY_SLURRY_5 -0.07
    FCCIN_CR05_5 OBJ -2.5
    FCCIN_CR05_5 VGOBAL_CR05_5 -1.0
    FCCIN_CR05_5 FCCCAP_5 1.0
    FCCIN_CR05_5 FCCY_FCCG_5 -0.55
    FCCIN_CR05_5 FCCY_LCO_5 -0.2
    FCCIN_CR05_5 FCCY_FLPG_5 -0.15
    FCCIN_CR05_5 FCCY_SLURRY_5 -0.07
    FCCIN_CR06_5 OBJ -2.5
    FCCIN_CR06_5 VGOBAL_CR06_5 -1.0
    FCCIN_CR06_5 FCCCAP_5 1.0
    FCCIN_CR06_5 FCCY_FCCG_5 -0.55
    FCCIN_CR06_5 FCCY_LCO_5 -0.2
    FCCIN_CR06_5 FCCY_FLPG_5 -0.15
    FCCIN_CR06_5 FCCY_SLURRY_5 -0.07
    FCCIN_CR07_5 OBJ -2.5
    FCCIN_CR07_5 VGOBAL_CR07_5 -1.0
    FCCIN_CR07_5 FCCCAP_5 1.0
    FCCIN_CR07_5 FCCY_FCCG_5 -0.55
    FCCIN_CR07_5 FCCY_LCO_5 -0.2
    FCCIN_CR07_5 FCCY_FLPG_5 -0.15
    FCCIN_CR07_5 FCCY_SLURRY_5 -0.07
    FCCIN_CR08_5 OBJ -2.5
    FCCIN_CR08_5 VGOBAL_CR08_5 -1.0
    FCCIN_CR08_5 FCCCAP_5 1.0
    FCCIN_CR08_5 FCCY_FCCG_5 -0.55
    FCCIN_CR08_5 FCCY_LCO_5 -0.2
    FCCIN_CR08_5 FCCY_FLPG_5 -0.15
    FCCIN_CR08_5 FCCY_SLURRY_5 -0.07
    FCCIN_CR09_5 OBJ -2.5
    FCCIN_CR09_5 VGOBAL_CR09_5 -1.0
    FCCIN_CR09_5 FCCCAP_5 1.0
    FCCIN_CR09_5 FCCY_FCCG_5 -0.55
    FCCIN_CR09_5 FCCY_LCO_5 -0.2
    FCCIN_CR09_5 FCCY_FLPG_5 -0.15
    FCCIN_CR09_5 FCCY_SLURRY_5 -0.07
    FCCG_5 FCCY_FCCG_5 1.0
    FCCG_5 GASBAL_5 -1.0
    FCCG_5 GASRON_5 1.0
    LCO_5 FCCY_LCO_5 1.0
    LCO_5 LCOBAL_5 1.0
    FLPG_5 FCCY_FLPG_5 1.0
    FLPG_5 LPGBAL_5 -1.0
    SLURRY_5 FCCY_SLURRY_5 1.0
    SLURRY_5 FOBAL_5 -1.0
    SLURRY_5 FOSUL_5 -1.5
    REFIN_CR00_5 OBJ -3.0
    REFIN_CR00_5 NAPBAL_CR00_5 -1.0
    REFIN_CR00_5 REFCAP_5 1.0
    REFIN_CR00_5 REFY_5 -0.85
    NAPGAS_CR00_5 NAPBAL_CR00_5 -1.0
    NAPGAS_CR00_5 GASBAL_5 -1.0
    NAPGAS_CR00_5 GASRON_5 -41.351908455631545
    REFIN_CR01_5 OBJ -3.0
    REFIN_CR01_5 NAPBAL_CR01_5 -1.0
    REFIN_CR01_5 REFCAP_5 1.0
    REFIN_CR01_5 REFY_5 -0.85
    NAPGAS_CR01_5 NAPBAL_CR01_5 -1.0
    NAPGAS_CR01_5 GASBAL_5 -1.0
    NAPGAS_CR01_5 GASRON_5 -33.623043958680114
    REFIN_CR02_5 OBJ -3.0
    REFIN_CR02_5 NAPBAL_CR02_5 -1.0
    REFIN_CR02_5 REFCAP_5 1.0
    REFIN_CR02_5 REFY_5 -0.85
    NAPGAS_CR02_5 NAPBAL_CR02_5 -1.0
    NAPGAS_CR02_5 GASBAL_5 -1.0
    NAPGAS_CR02_5 GASRON_5 -39.74522208078083
    REFIN_CR03_5 OBJ -3.0
    REFIN_CR03_5 NAPBAL_CR03_5 -1.0
    REFIN_CR03_5 REFCAP_5 1.0
    REFIN_CR03_5 REFY_5 -0.85
    NAPGAS_CR03_5 NAPBAL_CR03_5 -1.0
    NAPGAS_CR03_5 GASBAL_5 -1.0
    NAPGAS_CR03_5 GASRON_5 -39.32063345179839
    REFIN_CR04_5 OBJ -3.0
    REFIN_CR04_5 NAPBAL_CR04_5 -1.0
    REFIN_CR04_5 REFCAP_5 1.0
    REFIN_CR04_5 REFY_5 -0.85
    NAPGAS_CR04_5 NAPBAL_CR04_5 -1.0
    NAPGAS_CR04_5 GASBAL_5 -1.0
    NAPGAS_CR04_5 GASRON_5 -28.06018906757886
    REFIN_CR05_5 OBJ -3.0
    REFIN_CR05_5 NAPBAL_CR05_5 -1.0
    REFIN_CR05_5 REFCAP_5 1.0
    REFIN_CR05_5 REFY_5 -0.85
    NAPGAS_CR05_5 NAPBAL_CR05_5 -1.0
    NAPGAS_CR05_5 GASBAL_5 -1.0
    NAPGAS_CR05_5 GASRON_5 -37.177062383933254
    REFIN_CR06_5 OBJ -3.0
    REFIN_CR06_5 NAPBAL_CR06_5 -1.0
    REFIN_CR06_5 REFCAP_5 1.0
    REFIN_CR06_5 REFY_5 -0.85
    NAPGAS_CR06_5 NAPBAL_CR06_5 -1.0
    NAPGAS_CR06_5 GASBAL_5 -1.0
    NAPGAS_CR06_5 GASRON_5 -38.73738801284508
    REFIN_CR07_5 OBJ -3.0
    REFIN_CR07_5 NAPBAL_CR07_5 -1.0
    REFIN_CR07_5 REFCAP_5 1.0
    REFIN_CR07_5 REFY_5 -0.85
    NAPGAS_CR07_5 NAPBAL_CR07_5 -1.0
    NAPGAS_CR07_5 GASBAL_5 -1.0
    NAPGAS_CR07_5 GASRON_5 -31.720911449683953
    REFIN_CR08_5 OBJ -3.0
    REFIN_CR08_5 NAPBAL_CR08_5 -1.0
    REFIN_CR08_5 REFCAP_5 1.0
    REFIN_CR08_5 REFY_5 -0.85
    NAPGAS_CR08_5 NAPBAL_CR08_5 -1.0
    NAPGAS_CR08_5 GASBAL_5 -1.0
    NAPGAS_CR08_5 GASRON_5 -31.236267605063702
    REFIN_CR09_5 OBJ -3.0
    REFIN_CR09_5 NAPBAL_CR09_5 -1.0
    REFIN_CR09_5 REFCAP_5 1.0
    REFIN_CR09_5 REFY_5 -0.85
    NAPGAS_CR09_5 NAPBAL_CR09_5 -1.0
    NAPGAS_CR09_5 GASBAL_5 -1.0
    NAPGAS_CR09_5 GASRON_5 -29.9151768258086
    REFORMATE_5 REFY_5 1.0
    REFORMATE_5 GASBAL_5 -1.0
    REFORMATE_5 GASRON_5 7.0
    DHTIN_CR00_5 OBJ -2.0
    DHTIN_CR00_5 DSLBAL_CR00_5 -1.0
    DHTIN_CR00_5 DHTCAP_5 1.0
    DHTIN_CR00_5 DHTY_5 -0.98
    DSLDIR_CR00_5 DSLBAL_CR00_5 -1.0
    DSLDIR_CR00_5 DSLPB_5 -1.0
    DSLDIR_CR00_5 DSLSUL_5 1.5862267507032528
    DHTIN_CR01_5 OBJ -2.0
    DHTIN_CR01_5 DSLBAL_CR01_5 -1.0
    DHTIN_CR01_5 DHTCAP_5 1.0
    DHTIN_CR01_5 DHTY_5 -0.98
    DSLDIR_CR01_5 DSLBAL_CR01_5 -1.0
    DSLDIR_CR01_5 DSLPB_5 -1.0
    DSLDIR_CR01_5 DSLSUL_5 0.8149467463033994
    DHTIN_CR02_5 OBJ -2.0
    DHTIN_CR02_5 DSLBAL_CR02_5 -1.0
    DHTIN_CR02_5 DHTCAP_5 1.0
    DHTIN_CR02_5 DHTY_5 -0.98
    DSLDIR_CR02_5 DSLBAL_CR02_5 -1.0
    DSLDIR_CR02_5 DSLPB_5 -1.0
    DSLDIR_CR02_5 DSLSUL_5 1.0170271993959037
    DHTIN_CR03_5 OBJ -2.0
    DHTIN_CR03_5 DSLBAL_CR03_5 -1.0
    DHTIN_CR03_5 DHTCAP_5 1.0
    DHTIN_CR03_5 DHTY_5 -0.98
    DSLDIR_CR03_5 DSLBAL_CR03_5 -1.0
    DSLDIR_CR03_5 DSLPB_5 -1.0
    DSLDIR_CR03_5 DSLSUL_5 0.4394117672662308
    DHTIN_CR04_5 OBJ -2.0
    DHTIN_CR04_5 DSLBAL_CR04_5 -1.0
    DHTIN_CR04_5 DHTCAP_5 1.0
    DHTIN_CR04_5 DHTY_5 -0.98
    DSLDIR_CR04_5 DSLBAL_CR04_5 -1.0
    DSLDIR_CR04_5 DSLPB_5 -1.0
    DSLDIR_CR04_5 DSLSUL_5 1.6095005435592393
    DHTIN_CR05_5 OBJ -2.0
    DHTIN_CR05_5 DSLBAL_CR05_5 -1.0
    DHTIN_CR05_5 DHTCAP_5 1.0
    DHTIN_CR05_5 DHTY_5 -0.98
    DSLDIR_CR05_5 DSLBAL_CR05_5 -1.0
    DSLDIR_CR05_5 DSLPB_5 -1.0
    DSLDIR_CR05_5 DSLSUL_5 1.1028999274270206
    DHTIN_CR06_5 OBJ -2.0
    DHTIN_CR06_5 DSLBAL_CR06_5 -1.0
    DHTIN_CR06_5 DHTCAP_5 1.0
    DHTIN_CR06_5 DHTY_5 -0.98
    DSLDIR_CR06_5 DSLBAL_CR06_5 -1.0
    DSLDIR_CR06_5 DSLPB_5 -1.0
    DSLDIR_CR06_5 DSLSUL_5 1.0307656961819645
    DHTIN_CR07_5 OBJ -2.0
    DHTIN_CR07_5 DSLBAL_CR07_5 -1.0
    DHTIN_CR07_5 DHTCAP_5 1.0
    DHTIN_CR07_5 DHTY_5 -0.98
    DSLDIR_CR07_5 DSLBAL_CR07_5 -1.0
    DSLDIR_CR07_5 DSLPB_5 -1.0
    DSLDIR_CR07_5 DSLSUL_5 0.06500943297844713
    DHTIN_CR08_5 OBJ -2.0
    DHTIN_CR08_5 DSLBAL_CR08_5 -1.0
    DHTIN_CR08_5 DHTCAP_5 1.0
    DHTIN_CR08_5 DHTY_5 -0.98
    DSLDIR_CR08_5 DSLBAL_CR08_5 -1.0
    DSLDIR_CR08_5 DSLPB_5 -1.0
    DSLDIR_CR08_5 DSLSUL_5 1.0136884541165885
    DHTIN_CR09_5 OBJ -2.0
    DHTIN_CR09_5 DSLBAL_CR09_5 -1.0
    DHTIN_CR09_5 DHTCAP_5 1.0
    DHTIN_CR09_5 DHTY_5 -0.98
    DSLDIR_CR09_5 DSLBAL_CR09_5 -1.0
    DSLDIR_CR09_5 DSLPB_5 -1.0
    DSLDIR_CR09_5 DSLSUL_5 0.020618980777730833
    LCODHT_5 LCOBAL_5 -1.0
    LCODHT_5 DHTCAP_5 1.0
    LCODHT_5 DHTY_5 -0.95
    LCOFO_5 LCOBAL_5 -1.0
    LCOFO_5 FOBAL_5 -1.0
    LCOFO_5 FOSUL_5 -2.5
    ULSD_5 DHTY_5 1.0
    ULSD_5 DSLPB_5 -1.0
    ULSD_5 DSLSUL_5 -0.049
    SELL_LPG_5 OBJ 57.75
    SELL_LPG_5 PBAL_LPG_5 -1.0
    SELL_LPG_5 DMAX_LPG_5 1.0
    SELL_LPG_5 DMIN_LPG_5 1.0
    SELL_GAS_5 OBJ 110.25
    SELL_GAS_5 PBAL_GAS_5 -1.0
    SELL_GAS_5 DMAX_GAS_5 1.0
    SELL_GAS_5 DMIN_GAS_5 1.0
    SELL_JET_5 OBJ 105.0
    SELL_JET_5 PBAL_JET_5 -1.0
    SELL_JET_5 DMAX_JET_5 1.0
    SELL_JET_5 DMIN_JET_5 1.0
    SELL_DSL_5 OBJ 102.9
    SELL_DSL_5 PBAL_DSL_5 -1.0
    SELL_DSL_5 DMAX_DSL_5 1.0
    SELL_DSL_5 DMIN_DSL_5 1.0
    SELL_FO_5 OBJ 63.0
    SELL_FO_5 PBAL_FO_5 -1.0
    SELL_FO_5 DMAX_FO_5 1.0
    SELL_FO_5 DMIN_FO_5 1.0
    PINV_LPG_5 OBJ -0.5
    PINV_LPG_5 PBAL_LPG_5 -1.0
    PINV_LPG_5 PBAL_LPG_6 1.0
    PINV_GAS_5 OBJ -0.5
    PINV_GAS_5 PBAL_GAS_5 -1.0
    PINV_GAS_5 PBAL_GAS_6 1.0
    PINV_JET_5 OBJ -0.5
    PINV_JET_5 PBAL_JET_5 -1.0
    PINV_JET_5 PBAL_JET_6 1.0
    PINV_DSL_5 OBJ -0.5
    PINV_DSL_5 PBAL_DSL_5 -1.0
    PINV_DSL_5 PBAL_DSL_6 1.0
    PINV_FO_5 OBJ -0.5
    PINV_FO_5 PBAL_FO_5 -1.0
    PINV_FO_5 PBAL_FO_6 1.0
    SHORT_LPG_5 OBJ -400.0
    SHORT_LPG_5 DMIN_LPG_5 1.0
    SHORT_GAS_5 OBJ -400.0
    SHORT_GAS_5 DMIN_GAS_5 1.0
    SHORT_JET_5 OBJ -400.0
    SHORT_JET_5 DMIN_JET_5 1.0
    SHORT_DSL_5 OBJ -400.0
    SHORT_DSL_5 DMIN_DSL_5 1.0
    SHORT_FO_5 OBJ -400.0
    SHORT_FO_5 DMIN_FO_5 1.0
    GASPOOL_5 GASBAL_5 1.0
    GASPOOL_5 PBAL_GAS_5 1.0
    JETPOOL_5 JETBAL_5 1.0
    JETPOOL_5 PBAL_JET_5 1.0
    KERJET_CR00_5 KERBAL_CR00_5 -1.0
    KERJET_CR00_5 JETBAL_5 -1.0
    KERJET_CR00_5 JETSUL_5 0.10905668767581322
    KERDSL_CR00_5 KERBAL_CR00_5 -1.0
    KERDSL_CR00_5 DSLPB_5 -1.0
    KERDSL_CR00_5 DSLSUL_5 0.3590566876758132
    KERJET_CR01_5 KERBAL_CR01_5 -1.0
    KERJET_CR01_5 JETBAL_5 -1.0
    KERJET_CR01_5 JETSUL_5 -0.08376331342415014
    KERDSL_CR01_5 KERBAL_CR01_5 -1.0
    KERDSL_CR01_5 DSLPB_5 -1.0
    KERDSL_CR01_5 DSLSUL_5 0.16623668657584983
    KERJET_CR02_5 KERBAL_CR02_5 -1.0
    KERJET_CR02_5 JETBAL_5 -1.0
    KERJET_CR02_5 JETSUL_5 -0.033243200151024055
    KERDSL_CR02_5 KERBAL_CR02_5 -1.0
    KERDSL_CR02_5 DSLPB_5 -1.0
    KERDSL_CR02_5 DSLSUL_5 0.21675679984897595
    KERJET_CR03_5 KERBAL_CR03_5 -1.0
    KERJET_CR03_5 JETBAL_5 -1.0
    KERJET_CR03_5 JETSUL_5 -0.17764705818344229
    KERDSL_CR03_5 KERBAL_CR03_5 -1.0
    KERDSL_CR03_5 DSLPB_5 -1.0
    KERDSL_CR03_5 DSLSUL_5 0.0723529418165577
    KERJET_CR04_5 KERBAL_CR04_5 -1.0
    KERJET_CR04_5 JETBAL_5 -1.0
    KERJET_CR04_5 JETSUL_5 0.11487513588980985
    KERDSL_CR04_5 KERBAL_CR04_5 -1.0
    KERDSL_CR04_5 DSLPB_5 -1.0
    KERDSL_CR04_5 DSLSUL_5 0.36487513588980985
    KERJET_CR05_5 KERBAL_CR05_5 -1.0
    KERJET_CR05_5 JETBAL_5 -1.0
    KERJET_CR05_5 JETSUL_5 -0.011775018143244831
    KERDSL_CR05_5 KERBAL_CR05_5 -1.0
    KERDSL_CR05_5 DSLPB_5 -1.0
    KERDSL_CR05_5 DSLSUL_5 0.23822498185675517
    KERJET_CR06_5 KERBAL_CR06_5 -1.0
    KERJET_CR06_5 JETBAL_5 -1.0
    KERJET_CR06_5 JETSUL_5 -0.029808575954508865
    KERDSL_CR06_5 KERBAL_CR06_5 -1.0
    KERDSL_CR06_5 DSLPB_5 -1.0
    KERDSL_CR06_5 DSLSUL_5 0.22019142404549114
    KERJET_CR07_5 KERBAL_CR07_5 -1.0
    KERJET_CR07_5 JETBAL_5 -1.0
    KERJET_CR07_5 JETSUL_5 -0.2712476417553882
    KERDSL_CR07_5 KERBAL_CR07_5 -1.0
    KERDSL_CR07_5 DSLPB_5 -1.0
    KERDSL_CR07_5 DSLSUL_5 -0.02124764175538822
    KERJET_CR08_5 KERBAL_CR08_5 -1.0
    KERJET_CR08_5 JETBAL_5 -1.0
    KERJET_CR08_5 JETSUL_5 -0.03407788647085286
    KERDSL_CR08_5 KERBAL_CR08_5 -1.0
    KERDSL_CR08_5 DSLPB_5 -1.0
    KERDSL_CR08_5 DSLSUL_5 0.21592211352914714
    KERJET_CR09_5 KERBAL_CR09_5 -1.0
    KERJET_CR09_5 JETBAL_5 -1.0
    KERJET_CR09_5 JETSUL_5 -0.28234525480556727
    KERDSL_CR09_5 KERBAL_CR09_5 -1.0
    KERDSL_CR09_5 DSLPB_5 -1.0
    KERDSL_CR09_5 DSLSUL_5 -0.0323452548055673
    DSLPOOL_5 DSLPB_5 1.0
    DSLPOOL_5 PBAL_DSL_5 1.0
    LPGPOOL_5 LPGBAL_5 1.0
    LPGPOOL_5 PBAL_LPG_5 1.0
    FOPOOL_5 FOBAL_5 1.0
    FOPOOL_5 PBAL_FO_5 1.0
    M6882 'MARKER' 'INTORG'
    NPAR_CR00_6 PARCEL_CR00_6 -20.0
    M6884 'MARKER' 'INTEND'
    BUY_CR00_6 OBJ -56.91427350053339
    BUY_CR00_6 PARCEL_CR00_6 1.0
    BUY_CR00_6 CBAL_CR00_6 1.0
    CINV_CR00_6 OBJ -0.3
    CINV_CR00_6 CBAL_CR00_6 -1.0
    CINV_CR00_6 CBAL_CR00_7 1.0
    CDU_CR00_6 CBAL_CR00_6 -1.0
    CDU_CR00_6 CDUCAP_6 1.0
    CDU_CR00_6 CDUMIN_6 1.0
    CDU_CR00_6 YLPG_CR00_6 -0.013786055933968056
    CDU_CR00_6 YNAP_CR00_6 -0.1214444916358349
    CDU_CR00_6 YKER_CR00_6 -0.10646372452567733
    CDU_CR00_6 YDSL_CR00_6 -0.20292085263352289
    CDU_CR00_6 YVGO_CR00_6 -0.27390944719057636
    CDU_CR00_6 YRES_CR00_6 -0.28147542808042036
    M6900 'MARKER' 'INTORG'
    NPAR_CR01_6 PARCEL_CR01_6 -20.0
    M6902 'MARKER' 'INTEND'
    BUY_CR01_6 OBJ -73.1040526308681
    BUY_CR01_6 PARCEL_CR01_6 1.0
    BUY_CR01_6 CBAL_CR01_6 1.0
    CINV_CR01_6 OBJ -0.3
    CINV_CR01_6 CBAL_CR01_6 -1.0
    CINV_CR01_6 CBAL_CR01_7 1.0
    CDU_CR01_6 CBAL_CR01_6 -1.0
    CDU_CR01_6 CDUCAP_6 1.0
    CDU_CR01_6 CDUMIN_6 1.0
    CDU_CR01_6 YLPG_CR01_6 -0.025127543584387436
    CDU_CR01_6 YNAP_CR01_6 -0.2025917905849106
    CDU_CR01_6 YKER_CR01_6 -0.13410952106049506
    CDU_CR01_6 YDSL_CR01_6 -0.24728591651278542
    CDU_CR01_6 YVGO_CR01_6 -0.22897185950088417
    CDU_CR01_6 YRES_CR01_6 -0.16191336875653717
    M6918 'MARKER' 'INTORG'
    NPAR_CR02_6 PARCEL_CR02_6 -20.0
    M6920 'MARKER' 'INTEND'
    BUY_CR02_6 OBJ -59.0256740479844
    BUY_CR02_6 PARCEL_CR02_6 1.0
    BUY_CR02_6 CBAL_CR02_6 1.0
    CINV_CR02_6 OBJ -0.3
    CINV_CR02_6 CBAL_CR02_6 -1.0
    CINV_CR02_6 CBAL_CR02_7 1.0
    CDU_CR02_6 CBAL_CR02_6 -1.0
    CDU_CR02_6 CDUCAP_6 1.0
    CDU_CR02_6 CDUMIN_6 1.0
    CDU_CR02_6 YLPG_CR02_6 -0.013444753666275039
    CDU_CR02_6 YNAP_CR02_6 -0.11889710072836579
    CDU_CR02_6 YKER_CR02_6 -0.103840437143255
    CDU_CR02_6 YDSL_CR02_6 -0.21229612809407214
    CDU_CR02_6 YVGO_CR02_6 -0.2628713956905896
    CDU_CR02_6 YRES_CR02_6 -0.28865018467744247
    M6936 'MARKER' 'INTORG'
    NPAR_CR03_6 PARCEL_CR03_6 -20.0
    M6938 'MARKER' 'INTEND'
    BUY_CR03_6 OBJ -65.76289934426792
    BUY_CR03_6 PARCEL_CR03_6 1.0
    BUY_CR03_6 CBAL_CR03_6 1.0
    CINV_CR03_6 OBJ -0.3
    CINV_CR03_6 CBAL_CR03_6 -1.0
    CINV_CR03_6 CBAL_CR03_7 1.0
    CDU_CR03_6 CBAL_CR03_6 -1.0
    CDU_CR03_6 CDUCAP_6 1.0
    CDU_CR03_6 CDUMIN_6 1.0
    CDU_CR03_6 YLPG_CR03_6 -0.01400858068810675
    CDU_CR03_6 YNAP_CR03_6 -0.1424923117986131
    CDU_CR03_6 YKER_CR03_6 -0.10784088582669263
    CDU_CR03_6 YDSL_CR03_6 -0.19279120630762445
    CDU_CR03_6 YVGO_CR03_6 -0.28544626211923063
    CDU_CR03_6 YRES_CR03_6 -0.2574207532597324
    M6954 'MARKER' 'INTORG'
    NPAR_CR04_6 PARCEL_CR04_6 -20.0
    M6956 'MARKER' 'INTEND'
    BUY_CR04_6 OBJ -70.7825421050857
    BUY_CR04_6 PARCEL_CR04_6 1.0
    BUY_CR04_6 CBAL_CR04_6 1.0
    CINV_CR04_6 OBJ -0.3
    CINV_CR04_6 CBAL_CR04_6 -1.0
    CINV_CR04_6 CBAL_CR04_7 1.0
    CDU_CR04_6 CBAL_CR04_6 -1.0
    CDU_CR04_6 CDUCAP_6 1.0
    CDU_CR04_6 CDUMIN_6 1.0
    CDU_CR04_6 YLPG_CR04_6 -0.02335213093765316
    CDU_CR04_6 YNAP_CR04_6 -0.2292355396921612
    CDU_CR04_6 YKER_CR04_6 -0.14240695851543803
    CDU_CR04_6 YDSL_CR04_6 -0.24384363627499198
    CDU_CR04_6 YVGO_CR04_6 -0.2465326974706559
    CDU_CR04_6 YRES_CR04_6 -0.1146290371090997
    M6972 'MARKER' 'INTORG'
    NPAR_CR05_6 PARCEL_CR05_6 -20.0
    M6974 'MARKER' 'INTEND'
    BUY_CR05_6 OBJ -63.62459328839319
    BUY_CR05_6 PARCEL_CR05_6 1.0
    BUY_CR05_6 CBAL_CR05_6 1.0
    CINV_CR05_6 OBJ -0.3
    CINV_CR05_6 CBAL_CR05_6 -1.0
    CINV_CR05_6 CBAL_CR05_7 1.0
    CDU_CR05_6 CBAL_CR05_6 -1.0
    CDU_CR05_6 CDUCAP_6 1.0
    CDU_CR05_6 CDUMIN_6 1.0
    CDU_CR05_6 YLPG_CR05_6 -0.01735729802728813
    CDU_CR05_6 YNAP_CR05_6 -0.16608619710065003
    CDU_CR05_6 YKER_CR05_6 -0.1170544437563835
    CDU_CR05_6 YDSL_CR05_6 -0.22299235889970878
    CDU_CR05_6 YVGO_CR05_6 -0.2433490540516293
    CDU_CR05_6 YRES_CR05_6 -0.23316064816434035
    M6990 'MARKER' 'INTORG'
    NPAR_CR06_6 PARCEL_CR06_6 -20.0
    M6992 'MARKER' 'INTEND'
    BUY_CR06_6 OBJ -60.77103576819789
    BUY_CR06_6 PARCEL_CR06_6 1.0
    BUY_CR06_6 CBAL_CR06_6 1.0
    CINV_CR06_6 OBJ -0.3
    CINV_CR06_6 CBAL_CR06_6 -1.0
    CINV_CR06_6 CBAL_CR06_7 1.0
    CDU_CR06_6 CBAL_CR06_6 -1.0
    CDU_CR06_6 CDUCAP_6 1.0
    CDU_CR06_6 CDUMIN_6 1.0
    CDU_CR06_6 YLPG_CR06_6 -0.014219474855875663
    CDU_CR06_6 YNAP_CR06_6 -0.13746806025500902
    CDU_CR06_6 YKER_CR06_6 -0.10533897185985656
    CDU_CR06_6 YDSL_CR06_6 -0.20403840195434858
    CDU_CR06_6 YVGO_CR06_6 -0.26484358994429863
    CDU_CR06_6 YRES_CR06_6 -0.27409150113061165
    M7008 'MARKER' 'INTORG'
    NPAR_CR07_6 PARCEL_CR07_6 -20.0
    M7010 'MARKER' 'INTEND'
    BUY_CR07_6 OBJ -70.08612861586101
    BUY_CR07_6 PARCEL_CR07_6 1.0
    BUY_CR07_6 CBAL_CR07_6 1.0
    CINV_CR07_6 OBJ -0.3
    CINV_CR07_6 CBAL_CR07_6 -1.0
    CINV_CR07_6 CBAL_CR07_7 1.0
    CDU_CR07_6 CBAL_CR07_6 -1.0
    CDU_CR07_6 CDUCAP_6 1.0
    CDU_CR07_6 CDUMIN_6 1.0
    CDU_CR07_6 YLPG_CR07_6 -0.01678766142162217
    CDU_CR07_6 YNAP_CR07_6 -0.18341674311422207
    CDU_CR07_6 YKER_CR07_6 -0.13271469159016522
    CDU_CR07_6 YDSL_CR07_6 -0.2249127244045356
    CDU_CR07_6 YVGO_CR07_6 -0.24848613807316539
    CDU_CR07_6 YRES_CR07_6 -0.19368204139628944
    M7026 'MARKER' 'INTORG'
    NPAR_CR08_6 PARCEL_CR08_6 -20.0
    M7028 'MARKER' 'INTEND'
    BUY_CR08_6 OBJ -69.0587541335449
    BUY_CR08_6 PARCEL_CR08_6 1.0
    BUY_CR08_6 CBAL_CR08_6 1.0
    CINV_CR08_6 OBJ -0.3
    CINV_CR08_6 CBAL_CR08_6 -1.0
    CINV_CR08_6 CBAL_CR08_7 1.0
    CDU_CR08_6 CBAL_CR08_6 -1.0
    CDU_CR08_6 CDUCAP_6 1.0
    CDU_CR08_6 CDUMIN_6 1.0
    CDU_CR08_6 YLPG_CR08_6 -0.023930881960770135
    CDU_CR08_6 YNAP_CR08_6 -0.199474063989656
    CDU_CR08_6 YKER_CR08_6 -0.13012967624359006
    CDU_CR08_6 YDSL_CR08_6 -0.24906213509239003
    CDU_CR08_6 YVGO_CR08_6 -0.24247509330512357
    CDU_CR08_6 YRES_CR08_6 -0.15492814940847022
    M7044 'MARKER' 'INTORG'
    NPAR_CR09_6 PARCEL_CR09_6 -20.0
    M7046 'MARKER' 'INTEND'
    BUY_CR09_6 OBJ -76.02353516238564
    BUY_CR09_6 PARCEL_CR09_6 1.0
    BUY_CR09_6 CBAL_CR09_6 1.0
    CINV_CR09_6 OBJ -0.3
    CINV_CR09_6 CBAL_CR09_6 -1.0
    CINV_CR09_6 CBAL_CR09_7 1.0
    CDU_CR09_6 CBAL_CR09_6 -1.0
    CDU_CR09_6 CDUCAP_6 1.0
    CDU_CR09_6 CDUMIN_6 1.0
    CDU_CR09_6 YLPG_CR09_6 -0.0254414593142613
    CDU_CR09_6 YNAP_CR09_6 -0.2406668892422991
    CDU_CR09_6 YKER_CR09_6 -0.14150533274546892
    CDU_CR09_6 YDSL_CR09_6 -0.23713673044274025
    CDU_CR09_6 YVGO_CR09_6 -0.23566730460149374
    CDU_CR09_6 YRES_CR09_6 -0.11958228365373665
    M7062 'MARKER' 'INTORG'
    CDUMODE_6 OBJ -150.0
    CDUMODE_6 CDUCAP_6 -150.0
    CDUMODE_6 CDUMIN_6 -90.0
    M7066 'MARKER' 'INTEND'
    LPG_CR00_6 YLPG_CR00_6 1.0
    LPG_CR00_6 LPGBAL_6 -1.0
    NAP_CR00_6 YNAP_CR00_6 1.0
    NAP_CR00_6 NAPBAL_CR00_6 1.0
    KER_CR00_6 YKER_CR00_6 1.0
    KER_CR00_6 KERBAL_CR00_6 1.0
    DSL_CR00_6 YDSL_CR00_6 1.0
    DSL_CR00_6 DSLBAL_CR00_6 1.0
    VGO_CR00_6 YVGO_CR00_6 1.0
    VGO_CR00_6 VGOBAL_CR00_6 1.0
    RES_CR00_6 YRES_CR00_6 1.0
    RES_CR00_6 RESSPLIT_CR00_6 1.0
    LPG_CR01_6 YLPG_CR01_6 1.0
    LPG_CR01_6 LPGBAL_6 -1.0
    NAP_CR01_6 YNAP_CR01_6 1.0
    NAP_CR01_6 NAPBAL_CR01_6 1.0
    KER_CR01_6 YKER_CR01_6 1.0
    KER_CR01_6 KERBAL_CR01_6 1.0
    DSL_CR01_6 YDSL_CR01_6 1.0
    DSL_CR01_6 DSLBAL_CR01_6 1.0
    VGO_CR01_6 YVGO_CR01_6 1.0
    VGO_CR01_6 VGOBAL_CR01_6 1.0
    RES_CR01_6 YRES_CR01_6 1.0
    RES_CR01_6 RESSPLIT_CR01_6 1.0
    LPG_CR02_6 YLPG_CR02_6 1.0
    LPG_CR02_6 LPGBAL_6 -1.0
    NAP_CR02_6 YNAP_CR02_6 1.0
    NAP_CR02_6 NAPBAL_CR02_6 1.0
    KER_CR02_6 YKER_CR02_6 1.0
    KER_CR02_6 KERBAL_CR02_6 1.0
    DSL_CR02_6 YDSL_CR02_6 1.0
    DSL_CR02_6 DSLBAL_CR02_6 1.0
    VGO_CR02_6 YVGO_CR02_6 1.0
    VGO_CR02_6 VGOBAL_CR02_6 1.0
    RES_CR02_6 YRES_CR02_6 1.0
    RES_CR02_6 RESSPLIT_CR02_6 1.0
    LPG_CR03_6 YLPG_CR03_6 1.0
    LPG_CR03_6 LPGBAL_6 -1.0
    NAP_CR03_6 YNAP_CR03_6 1.0
    NAP_CR03_6 NAPBAL_CR03_6 1.0
    KER_CR03_6 YKER_CR03_6 1.0
    KER_CR03_6 KERBAL_CR03_6 1.0
    DSL_CR03_6 YDSL_CR03_6 1.0
    DSL_CR03_6 DSLBAL_CR03_6 1.0
    VGO_CR03_6 YVGO_CR03_6 1.0
    VGO_CR03_6 VGOBAL_CR03_6 1.0
    RES_CR03_6 YRES_CR03_6 1.0
    RES_CR03_6 RESSPLIT_CR03_6 1.0
    LPG_CR04_6 YLPG_CR04_6 1.0
    LPG_CR04_6 LPGBAL_6 -1.0
    NAP_CR04_6 YNAP_CR04_6 1.0
    NAP_CR04_6 NAPBAL_CR04_6 1.0
    KER_CR04_6 YKER_CR04_6 1.0
    KER_CR04_6 KERBAL_CR04_6 1.0
    DSL_CR04_6 YDSL_CR04_6 1.0
    DSL_CR04_6 DSLBAL_CR04_6 1.0
    VGO_CR04_6 YVGO_CR04_6 1.0
    VGO_CR04_6 VGOBAL_CR04_6 1.0
    RES_CR04_6 YRES_CR04_6 1.0
    RES_CR04_6 RESSPLIT_CR04_6 1.0
    LPG_CR05_6 YLPG_CR05_6 1.0
    LPG_CR05_6 LPGBAL_6 -1.0
    NAP_CR05_6 YNAP_CR05_6 1.0
    NAP_CR05_6 NAPBAL_CR05_6 1.0
    KER_CR05_6 YKER_CR05_6 1.0
    KER_CR05_6 KERBAL_CR05_6 1.0
    DSL_CR05_6 YDSL_CR05_6 1.0
    DSL_CR05_6 DSLBAL_CR05_6 1.0
    VGO_CR05_6 YVGO_CR05_6 1.0
    VGO_CR05_6 VGOBAL_CR05_6 1.0
    RES_CR05_6 YRES_CR05_6 1.0
    RES_CR05_6 RESSPLIT_CR05_6 1.0
    LPG_CR06_6 YLPG_CR06_6 1.0
    LPG_CR06_6 LPGBAL_6 -1.0
    NAP_CR06_6 YNAP_CR06_6 1.0
    NAP_CR06_6 NAPBAL_CR06_6 1.0
    KER_CR06_6 YKER_CR06_6 1.0
    KER_CR06_6 KERBAL_CR06_6 1.0
    DSL_CR06_6 YDSL_CR06_6 1.0
    DSL_CR06_6 DSLBAL_CR06_6 1.0
    VGO_CR06_6 YVGO_CR06_6 1.0
    VGO_CR06_6 VGOBAL_CR06_6 1.0
    RES_CR06_6 YRES_CR06_6 1.0
    RES_CR06_6 RESSPLIT_CR06_6 1.0
    LPG_CR07_6 YLPG_CR07_6 1.0
    LPG_CR07_6 LPGBAL_6 -1.0
    NAP_CR07_6 YNAP_CR07_6 1.0
    NAP_CR07_6 NAPBAL_CR07_6 1.0
    KER_CR07_6 YKER_CR07_6 1.0
    KER_CR07_6 KERBAL_CR07_6 1.0
    DSL_CR07_6 YDSL_CR07_6 1.0
    DSL_CR07_6 DSLBAL_CR07_6 1.0
    VGO_CR07_6 YVGO_CR07_6 1.0
    VGO_CR07_6 VGOBAL_CR07_6 1.0
    RES_CR07_6 YRES_CR07_6 1.0
    RES_CR07_6 RESSPLIT_CR07_6 1.0
    LPG_CR08_6 YLPG_CR08_6 1.0
    LPG_CR08_6 LPGBAL_6 -1.0
    NAP_CR08_6 YNAP_CR08_6 1.0
    NAP_CR08_6 NAPBAL_CR08_6 1.0
    KER_CR08_6 YKER_CR08_6 1.0
    KER_CR08_6 KERBAL_CR08_6 1.0
    DSL_CR08_6 YDSL_CR08_6 1.0
    DSL_CR08_6 DSLBAL_CR08_6 1.0
    VGO_CR08_6 YVGO_CR08_6 1.0
    VGO_CR08_6 VGOBAL_CR08_6 1.0
    RES_CR08_6 YRES_CR08_6 1.0
    RES_CR08_6 RESSPLIT_CR08_6 1.0
    LPG_CR09_6 YLPG_CR09_6 1.0
    LPG_CR09_6 LPGBAL_6 -1.0
    NAP_CR09_6 YNAP_CR09_6 1.0
    NAP_CR09_6 NAPBAL_CR09_6 1.0
    KER_CR09_6 YKER_CR09_6 1.0
    KER_CR09_6 KERBAL_CR09_6 1.0
    DSL_CR09_6 YDSL_CR09_6 1.0
    DSL_CR09_6 DSLBAL_CR09_6 1.0
    VGO_CR09_6 YVGO_CR09_6 1.0
    VGO_CR09_6 VGOBAL_CR09_6 1.0
    RES_CR09_6 YRES_CR09_6 1.0
    RES_CR09_6 RESSPLIT_CR09_6 1.0
    VDUIN_CR00_6 RESSPLIT_CR00_6 -1.0
    VDUIN_CR00_6 VDUY1_CR00_6 -0.45
    VDUIN_CR00_6 VDUY2_CR00_6 -0.55
    VDUIN_CR00_6 VDUCAP_6 1.0
    RESFO_CR00_6 RESSPLIT_CR00_6 -1.0
    RESFO_CR00_6 FOBAL_6 -1.0
    RESFO_CR00_6 FOSUL_6 1.9540891690108433
    VGO2_CR00_6 VDUY1_CR00_6 1.0
    VGO2_CR00_6 VGOBAL_CR00_6 1.0
    VR_CR00_6 VDUY2_CR00_6 1.0
    VR_CR00_6 FOBAL_6 -1.0
    VR_CR00_6 FOSUL_6 3.5903159197140964
    VDUIN_CR01_6 RESSPLIT_CR01_6 -1.0
    VDUIN_CR01_6 VDUY1_CR01_6 -0.45
    VDUIN_CR01_6 VDUY2_CR01_6 -0.55
    VDUIN_CR01_6 VDUCAP_6 1.0
    RESFO_CR01_6 RESSPLIT_CR01_6 -1.0
    RESFO_CR01_6 FOBAL_6 -1.0
    RESFO_CR01_6 FOSUL_6 -0.6168441789886687
    VGO2_CR01_6 VDUY1_CR01_6 1.0
    VGO2_CR01_6 VGOBAL_CR01_6 1.0
    VR_CR01_6 VDUY2_CR01_6 1.0
    VR_CR01_6 FOBAL_6 -1.0
    VR_CR01_6 FOSUL_6 0.24810256731473057
    VDUIN_CR02_6 RESSPLIT_CR02_6 -1.0
    VDUIN_CR02_6 VDUY1_CR02_6 -0.45
    VDUIN_CR02_6 VDUY2_CR02_6 -0.55
    VDUIN_CR02_6 VDUCAP_6 1.0
    RESFO_CR02_6 RESSPLIT_CR02_6 -1.0
    RESFO_CR02_6 FOBAL_6 -1.0
    RESFO_CR02_6 FOSUL_6 0.05675733131967897
    VGO2_CR02_6 VDUY1_CR02_6 1.0
    VGO2_CR02_6 VGOBAL_CR02_6 1.0
    VR_CR02_6 VDUY2_CR02_6 1.0
    VR_CR02_6 FOBAL_6 -1.0
    VR_CR02_6 FOSUL_6 1.1237845307155832
    VDUIN_CR03_6 RESSPLIT_CR03_6 -1.0
    VDUIN_CR03_6 VDUY1_CR03_6 -0.45
    VDUIN_CR03_6 VDUY2_CR03_6 -0.55
    VDUIN_CR03_6 VDUCAP_6 1.0
    RESFO_CR03_6 RESSPLIT_CR03_6 -1.0
    RESFO_CR03_6 FOBAL_6 -1.0
    RESFO_CR03_6 FOSUL_6 -1.8686274424458973
    VGO2_CR03_6 VDUY1_CR03_6 1.0
    VGO2_CR03_6 VGOBAL_CR03_6 1.0
    VR_CR03_6 VDUY2_CR03_6 1.0
    VR_CR03_6 FOBAL_6 -1.0
    VR_CR03_6 FOSUL_6 -1.3792156751796663
    VDUIN_CR04_6 RESSPLIT_CR04_6 -1.0
    VDUIN_CR04_6 VDUY1_CR04_6 -0.45
    VDUIN_CR04_6 VDUY2_CR04_6 -0.55
    VDUIN_CR04_6 VDUCAP_6 1.0
    RESFO_CR04_6 RESSPLIT_CR04_6 -1.0
    RESFO_CR04_6 FOBAL_6 -1.0
    RESFO_CR04_6 FOSUL_6 2.031668478530798
    VGO2_CR04_6 VDUY1_CR04_6 1.0
    VGO2_CR04_6 VGOBAL_CR04_6 1.0
    VR_CR04_6 VDUY2_CR04_6 1.0
    VR_CR04_6 FOBAL_6 -1.0
    VR_CR04_6 FOSUL_6 3.6911690220900377
    VDUIN_CR05_6 RESSPLIT_CR05_6 -1.0
    VDUIN_CR05_6 VDUY1_CR05_6 -0.45
    VDUIN_CR05_6 VDUY2_CR05_6 -0.55
    VDUIN_CR05_6 VDUCAP_6 1.0
    RESFO_CR05_6 RESSPLIT_CR05_6 -1.0
    RESFO_CR05_6 FOBAL_6 -1.0
    RESFO_CR05_6 FOSUL_6 0.3429997580900688
    VGO2_CR05_6 VDUY1_CR05_6 1.0
    VGO2_CR05_6 VGOBAL_CR05_6 1.0
    VR_CR05_6 VDUY2_CR05_6 1.0
    VR_CR05_6 FOBAL_6 -1.0
    VR_CR05_6 FOSUL_6 1.4958996855170898
    VDUIN_CR06_6 RESSPLIT_CR06_6 -1.0
    VDUIN_CR06_6 VDUY1_CR06_6 -0.45
    VDUIN_CR06_6 VDUY2_CR06_6 -0.55
    VDUIN_CR06_6 VDUCAP_6 1.0
    RESFO_CR06_6 RESSPLIT_CR06_6 -1.0
    RESFO_CR06_6 FOBAL_6 -1.0
    RESFO_CR06_6 FOSUL_6 0.10255232060654862
    VGO2_CR06_6 VDUY1_CR06_6 1.0
    VGO2_CR06_6 VGOBAL_CR06_6 1.0
    VR_CR06_6 VDUY2_CR06_6 1.0
    VR_CR06_6 FOBAL_6 -1.0
    VR_CR06_6 FOSUL_6 1.1833180167885136
    VDUIN_CR07_6 RESSPLIT_CR07_6 -1.0
    VDUIN_CR07_6 VDUY1_CR07_6 -0.45
    VDUIN_CR07_6 VDUY2_CR07_6 -0.55
    VDUIN_CR07_6 VDUCAP_6 1.0
    RESFO_CR07_6 RESSPLIT_CR07_6 -1.0
    RESFO_CR07_6 FOBAL_6 -1.0
    RESFO_CR07_6 FOSUL_6 -3.116635223405176
    VGO2_CR07_6 VDUY1_CR07_6 1.0
    VGO2_CR07_6 VGOBAL_CR07_6 1.0
    VR_CR07_6 VDUY2_CR07_6 1.0
    VR_CR07_6 FOBAL_6 -1.0
    VR_CR07_6 FOSUL_6 -3.001625790426729
    VDUIN_CR08_6 RESSPLIT_CR08_6 -1.0
    VDUIN_CR08_6 VDUY1_CR08_6 -0.45
    VDUIN_CR08_6 VDUY2_CR08_6 -0.55
    VDUIN_CR08_6 VDUCAP_6 1.0
    RESFO_CR08_6 RESSPLIT_CR08_6 -1.0
    RESFO_CR08_6 FOBAL_6 -1.0
    RESFO_CR08_6 FOSUL_6 0.0456281803886287
    VGO2_CR08_6 VDUY1_CR08_6 1.0
    VGO2_CR08_6 VGOBAL_CR08_6 1.0
    VR_CR08_6 VDUY2_CR08_6 1.0
    VR_CR08_6 FOBAL_6 -1.0
    VR_CR08_6 FOSUL_6 1.109316634505218
    VDUIN_CR09_6 RESSPLIT_CR09_6 -1.0
    VDUIN_CR09_6 VDUY1_CR09_6 -0.45
    VDUIN_CR09_6 VDUY2_CR09_6 -0.55
    VDUIN_CR09_6 VDUCAP_6 1.0
    RESFO_CR09_6 RESSPLIT_CR09_6 -1.0
    RESFO_CR09_6 FOBAL_6 -1.0
    RESFO_CR09_6 FOSUL_6 -3.264603397407564
    VGO2_CR09_6 VDUY1_CR09_6 1.0
    VGO2_CR09_6 VGOBAL_CR09_6 1.0
    VR_CR09_6 VDUY2_CR09_6 1.0
    VR_CR09_6 FOBAL_6 -1.0
    VR_CR09_6 FOSUL_6 -3.1939844166298332
    FCCIN_CR00_6 OBJ -2.5
    FCCIN_CR00_6 VGOBAL_CR00_6 -1.0
    FCCIN_CR00_6 FCCCAP_6 1.0
    FCCIN_CR00_6 FCCY_FCCG_6 -0.55
    FCCIN_CR00_6 FCCY_LCO_6 -0.2
    FCCIN_CR00_6 FCCY_FLPG_6 -0.15
    FCCIN_CR00_6 FCCY_SLURRY_6 -0.07
    FCCIN_CR01_6 OBJ -2.5
    FCCIN_CR01_6 VGOBAL_CR01_6 -1.0
    FCCIN_CR01_6 FCCCAP_6 1.0
    FCCIN_CR01_6 FCCY_FCCG_6 -0.55
    FCCIN_CR01_6 FCCY_LCO_6 -0.2
    FCCIN_CR01_6 FCCY_FLPG_6 -0.15
    FCCIN_CR01_6 FCCY_SLURRY_6 -0.07
    FCCIN_CR02_6 OBJ -2.5
    FCCIN_CR02_6 VGOBAL_CR02_6 -1.0
    FCCIN_CR02_6 FCCCAP_6 1.0
    FCCIN_CR02_6 FCCY_FCCG_6 -0.55
    FCCIN_CR02_6 FCCY_LCO_6 -0.2
    FCCIN_CR02_6 FCCY_FLPG_6 -0.15
    FCCIN_CR02_6 FCCY_SLURRY_6 -0.07
    FCCIN_CR03_6 OBJ -2.5
    FCCIN_CR03_6 VGOBAL_CR03_6 -1.0
    FCCIN_CR03_6 FCCCAP_6 1.0
    FCCIN_CR03_6 FCCY_FCCG_6 -0.55
    FCCIN_CR03_6 FCCY_LCO_6 -0.2
    FCCIN_CR03_6 FCCY_FLPG_6 -0.15
    FCCIN_CR03_6 FCCY_SLURRY_6 -0.07
    FCCIN_CR04_6 OBJ -2.5
    FCCIN_CR04_6 VGOBAL_CR04_6 -1.0
    FCCIN_CR04_6 FCCCAP_6 1.0
    FCCIN_CR04_6 FCCY_FCCG_6 -0.55
    FCCIN_CR04_6 FCCY_LCO_6 -0.2
    FCCIN_CR04_6 FCCY_FLPG_6 -0.15
    FCCIN_CR04_6 FCCY_SLURRY_6 -0.07
    FCCIN_CR05_6 OBJ -2.5
    FCCIN_CR05_6 VGOBAL_CR05_6 -1.0
    FCCIN_CR05_6 FCCCAP_6 1.0
    FCCIN_CR05_6 FCCY_FCCG_6 -0.55
    FCCIN_CR05_6 FCCY_LCO_6 -0.2
    FCCIN_CR05_6 FCCY_FLPG_6 -0.15
    FCCIN_CR05_6 FCCY_SLURRY_6 -0.07
    FCCIN_CR06_6 OBJ -2.5
    FCCIN_CR06_6 VGOBAL_CR06_6 -1.0
    FCCIN_CR06_6 FCCCAP_6 1.0
    FCCIN_CR06_6 FCCY_FCCG_6 -0.55
    FCCIN_CR06_6 FCCY_LCO_6 -0.2
    FCCIN_CR06_6 FCCY_FLPG_6 -0.15
    FCCIN_CR06_6 FCCY_SLURRY_6 -0.07
    FCCIN_CR07_6 OBJ -2.5
    FCCIN_CR07_6 VGOBAL_CR07_6 -1.0
    FCCIN_CR07_6 FCCCAP_6 1.0
    FCCIN_CR07_6 FCCY_FCCG_6 -0.55
    FCCIN_CR07_6 FCCY_LCO_6 -0.2
    FCCIN_CR07_6 FCCY_FLPG_6 -0.15
    FCCIN_CR07_6 FCCY_SLURRY_6 -0.07
    FCCIN_CR08_6 OBJ -2.5
    FCCIN_CR08_6 VGOBAL_CR08_6 -1.0
    FCCIN_CR08_6 FCCCAP_6 1.0
    FCCIN_CR08_6 FCCY_FCCG_6 -0.55
    FCCIN_CR08_6 FCCY_LCO_6 -0.2
    FCCIN_CR08_6 FCCY_FLPG_6 -0.15
    FCCIN_CR08_6 FCCY_SLURRY_6 -0.07
    FCCIN_CR09_6 OBJ -2.5
    FCCIN_CR09_6 VGOBAL_CR09_6 -1.0
    FCCIN_CR09_6 FCCCAP_6 1.0
    FCCIN_CR09_6 FCCY_FCCG_6 -0.55
    FCCIN_CR09_6 FCCY_LCO_6 -0.2
    FCCIN_CR09_6 FCCY_FLPG_6 -0.15
    FCCIN_CR09_6 FCCY_SLURRY_6 -0.07
    FCCG_6 FCCY_FCCG_6 1.0
    FCCG_6 GASBAL_6 -1.0
    FCCG_6 GASRON_6 1.0
    LCO_6 FCCY_LCO_6 1.0
    LCO_6 LCOBAL_6 1.0
    FLPG_6 FCCY_FLPG_6 1.0
    FLPG_6 LPGBAL_6 -1.0
    SLURRY_6 FCCY_SLURRY_6 1.0
    SLURRY_6 FOBAL_6 -1.0
    SLURRY_6 FOSUL_6 -1.5
    REFIN_CR00_6 OBJ -3.0
    REFIN_CR00_6 NAPBAL_CR00_6 -1.0
    REFIN_CR00_6 REFCAP_6 1.0
    REFIN_CR00_6 REFY_6 -0.85
    NAPGAS_CR00_6 NAPBAL_CR00_6 -1.0
    NAPGAS_CR00_6 GASBAL_6 -1.0
    NAPGAS_CR00_6 GASRON_6 -41.351908455631545
    REFIN_CR01_6 OBJ -3.0
    REFIN_CR01_6 NAPBAL_CR01_6 -1.0
    REFIN_CR01_6 REFCAP_6 1.0
    REFIN_CR01_6 REFY_6 -0.85
    NAPGAS_CR01_6 NAPBAL_CR01_6 -1.0
    NAPGAS_CR01_6 GASBAL_6 -1.0
    NAPGAS_CR01_6 GASRON_6 -33.623043958680114
    REFIN_CR02_6 OBJ -3.0
    REFIN_CR02_6 NAPBAL_CR02_6 -1.0
    REFIN_CR02_6 REFCAP_6 1.0
    REFIN_CR02_6 REFY_6 -0.85
    NAPGAS_CR02_6 NAPBAL_CR02_6 -1.0
    NAPGAS_CR02_6 GASBAL_6 -1.0
    NAPGAS_CR02_6 GASRON_6 -39.74522208078083
    REFIN_CR03_6 OBJ -3.0
    REFIN_CR03_6 NAPBAL_CR03_6 -1.0
    REFIN_CR03_6 REFCAP_6 1.0
    REFIN_CR03_6 REFY_6 -0.85
    NAPGAS_CR03_6 NAPBAL_CR03_6 -1.0
    NAPGAS_CR03_6 GASBAL_6 -1.0
    NAPGAS_CR03_6 GASRON_6 -39.32063345179839
    REFIN_CR04_6 OBJ -3.0
    REFIN_CR04_6 NAPBAL_CR04_6 -1.0
    REFIN_CR04_6 REFCAP_6 1.0
    REFIN_CR04_6 REFY_6 -0.85
    NAPGAS_CR04_6 NAPBAL_CR04_6 -1.0
    NAPGAS_CR04_6 GASBAL_6 -1.0
    NAPGAS_CR04_6 GASRON_6 -28.06018906757886
    REFIN_CR05_6 OBJ -3.0
    REFIN_CR05_6 NAPBAL_CR05_6 -1.0
    REFIN_CR05_6 REFCAP_6 1.0
    REFIN_CR05_6 REFY_6 -0.85
    NAPGAS_CR05_6 NAPBAL_CR05_6 -1.0
    NAPGAS_CR05_6 GASBAL_6 -1.0
    NAPGAS_CR05_6 GASRON_6 -37.177062383933254
    REFIN_CR06_6 OBJ -3.0
    REFIN_CR06_6 NAPBAL_CR06_6 -1.0
    REFIN_CR06_6 REFCAP_6 1.0
    REFIN_CR06_6 REFY_6 -0.85
    NAPGAS_CR06_6 NAPBAL_CR06_6 -1.0
    NAPGAS_CR06_6 GASBAL_6 -1.0
    NAPGAS_CR06_6 GASRON_6 -38.73738801284508
    REFIN_CR07_6 OBJ -3.0
    REFIN_CR07_6 NAPBAL_CR07_6 -1.0
    REFIN_CR07_6 REFCAP_6 1.0
    REFIN_CR07_6 REFY_6 -0.85
    NAPGAS_CR07_6 NAPBAL_CR07_6 -1.0
    NAPGAS_CR07_6 GASBAL_6 -1.0
    NAPGAS_CR07_6 GASRON_6 -31.720911449683953
    REFIN_CR08_6 OBJ -3.0
    REFIN_CR08_6 NAPBAL_CR08_6 -1.0
    REFIN_CR08_6 REFCAP_6 1.0
    REFIN_CR08_6 REFY_6 -0.85
    NAPGAS_CR08_6 NAPBAL_CR08_6 -1.0
    NAPGAS_CR08_6 GASBAL_6 -1.0
    NAPGAS_CR08_6 GASRON_6 -31.236267605063702
    REFIN_CR09_6 OBJ -3.0
    REFIN_CR09_6 NAPBAL_CR09_6 -1.0
    REFIN_CR09_6 REFCAP_6 1.0
    REFIN_CR09_6 REFY_6 -0.85
    NAPGAS_CR09_6 NAPBAL_CR09_6 -1.0
    NAPGAS_CR09_6 GASBAL_6 -1.0
    NAPGAS_CR09_6 GASRON_6 -29.9151768258086
    REFORMATE_6 REFY_6 1.0
    REFORMATE_6 GASBAL_6 -1.0
    REFORMATE_6 GASRON_6 7.0
    DHTIN_CR00_6 OBJ -2.0
    DHTIN_CR00_6 DSLBAL_CR00_6 -1.0
    DHTIN_CR00_6 DHTCAP_6 1.0
    DHTIN_CR00_6 DHTY_6 -0.98
    DSLDIR_CR00_6 DSLBAL_CR00_6 -1.0
    DSLDIR_CR00_6 DSLPB_6 -1.0
    DSLDIR_CR00_6 DSLSUL_6 1.5862267507032528
    DHTIN_CR01_6 OBJ -2.0
    DHTIN_CR01_6 DSLBAL_CR01_6 -1.0
    DHTIN_CR01_6 DHTCAP_6 1.0
    DHTIN_CR01_6 DHTY_6 -0.98
    DSLDIR_CR01_6 DSLBAL_CR01_6 -1.0
    DSLDIR_CR01_6 DSLPB_6 -1.0
    DSLDIR_CR01_6 DSLSUL_6 0.8149467463033994
    DHTIN_CR02_6 OBJ -2.0
    DHTIN_CR02_6 DSLBAL_CR02_6 -1.0
    DHTIN_CR02_6 DHTCAP_6 1.0
    DHTIN_CR02_6 DHTY_6 -0.98
    DSLDIR_CR02_6 DSLBAL_CR02_6 -1.0
    DSLDIR_CR02_6 DSLPB_6 -1.0
    DSLDIR_CR02_6 DSLSUL_6 1.0170271993959037
    DHTIN_CR03_6 OBJ -2.0
    DHTIN_CR03_6 DSLBAL_CR03_6 -1.0
    DHTIN_CR03_6 DHTCAP_6 1.0
    DHTIN_CR03_6 DHTY_6 -0.98
    DSLDIR_CR03_6 DSLBAL_CR03_6 -1.0
    DSLDIR_CR03_6 DSLPB_6 -1.0
    DSLDIR_CR03_6 DSLSUL_6 0.4394117672662308
    DHTIN_CR04_6 OBJ -2.0
    DHTIN_CR04_6 DSLBAL_CR04_6 -1.0
    DHTIN_CR04_6 DHTCAP_6 1.0
    DHTIN_CR04_6 DHTY_6 -0.98
    DSLDIR_CR04_6 DSLBAL_CR04_6 -1.0
    DSLDIR_CR04_6 DSLPB_6 -1.0
    DSLDIR_CR04_6 DSLSUL_6 1.6095005435592393
    DHTIN_CR05_6 OBJ -2.0
    DHTIN_CR05_6 DSLBAL_CR05_6 -1.0
    DHTIN_CR05_6 DHTCAP_6 1.0
    DHTIN_CR05_6 DHTY_6 -0.98
    DSLDIR_CR05_6 DSLBAL_CR05_6 -1.0
    DSLDIR_CR05_6 DSLPB_6 -1.0
    DSLDIR_CR05_6 DSLSUL_6 1.1028999274270206
    DHTIN_CR06_6 OBJ -2.0
    DHTIN_CR06_6 DSLBAL_CR06_6 -1.0
    DHTIN_CR06_6 DHTCAP_6 1.0
    DHTIN_CR06_6 DHTY_6 -0.98
    DSLDIR_CR06_6 DSLBAL_CR06_6 -1.0
    DSLDIR_CR06_6 DSLPB_6 -1.0
    DSLDIR_CR06_6 DSLSUL_6 1.0307656961819645
    DHTIN_CR07_6 OBJ -2.0
    DHTIN_CR07_6 DSLBAL_CR07_6 -1.0
    DHTIN_CR07_6 DHTCAP_6 1.0
    DHTIN_CR07_6 DHTY_6 -0.98
    DSLDIR_CR07_6 DSLBAL_CR07_6 -1.0
    DSLDIR_CR07_6 DSLPB_6 -1.0
    DSLDIR_CR07_6 DSLSUL_6 0.06500943297844713
    DHTIN_CR08_6 OBJ -2.0
    DHTIN_CR08_6 DSLBAL_CR08_6 -1.0
    DHTIN_CR08_6 DHTCAP_6 1.0
    DHTIN_CR08_6 DHTY_6 -0.98
    DSLDIR_CR08_6 DSLBAL_CR08_6 -1.0
    DSLDIR_CR08_6 DSLPB_6 -1.0
    DSLDIR_CR08_6 DSLSUL_6 1.0136884541165885
    DHTIN_CR09_6 OBJ -2.0
    DHTIN_CR09_6 DSLBAL_CR09_6 -1.0
    DHTIN_CR09_6 DHTCAP_6 1.0
    DHTIN_CR09_6 DHTY_6 -0.98
    DSLDIR_CR09_6 DSLBAL_CR09_6 -1.0
    DSLDIR_CR09_6 DSLPB_6 -1.0
    DSLDIR_CR09_6 DSLSUL_6 0.020618980777730833
    LCODHT_6 LCOBAL_6 -1.0
    LCODHT_6 DHTCAP_6 1.0
    LCODHT_6 DHTY_6 -0.95
    LCOFO_6 LCOBAL_6 -1.0
    LCOFO_6 FOBAL_6 -1.0
    LCOFO_6 FOSUL_6 -2.5
    ULSD_6 DHTY_6 1.0
    ULSD_6 DSLPB_6 -1.0
    ULSD_6 DSLSUL_6 -0.049
    SELL_LPG_6 OBJ 55.0
    SELL_LPG_6 PBAL_LPG_6 -1.0
    SELL_LPG_6 DMAX_LPG_6 1.0
    SELL_LPG_6 DMIN_LPG_6 1.0
    SELL_GAS_6 OBJ 105.0
    SELL_GAS_6 PBAL_GAS_6 -1.0
    SELL_GAS_6 DMAX_GAS_6 1.0
    SELL_GAS_6 DMIN_GAS_6 1.0
    SELL_JET_6 OBJ 100.0
    SELL_JET_6 PBAL_JET_6 -1.0
    SELL_JET_6 DMAX_JET_6 1.0
    SELL_JET_6 DMIN_JET_6 1.0
    SELL_DSL_6 OBJ 98.0
    SELL_DSL_6 PBAL_DSL_6 -1.0
    SELL_DSL_6 DMAX_DSL_6 1.0
    SELL_DSL_6 DMIN_DSL_6 1.0
    SELL_FO_6 OBJ 60.0
    SELL_FO_6 PBAL_FO_6 -1.0
    SELL_FO_6 DMAX_FO_6 1.0
    SELL_FO_6 DMIN_FO_6 1.0
    PINV_LPG_6 OBJ -0.5
    PINV_LPG_6 PBAL_LPG_6 -1.0
    PINV_LPG_6 PBAL_LPG_7 1.0
    PINV_GAS_6 OBJ -0.5
    PINV_GAS_6 PBAL_GAS_6 -1.0
    PINV_GAS_6 PBAL_GAS_7 1.0
    PINV_JET_6 OBJ -0.5
    PINV_JET_6 PBAL_JET_6 -1.0
    PINV_JET_6 PBAL_JET_7 1.0
    PINV_DSL_6 OBJ -0.5
    PINV_DSL_6 PBAL_DSL_6 -1.0
    PINV_DSL_6 PBAL_DSL_7 1.0
    PINV_FO_6 OBJ -0.5
    PINV_FO_6 PBAL_FO_6 -1.0
    PINV_FO_6 PBAL_FO_7 1.0
    SHORT_LPG_6 OBJ -400.0
    SHORT_LPG_6 DMIN_LPG_6 1.0
    SHORT_GAS_6 OBJ -400.0
    SHORT_GAS_6 DMIN_GAS_6 1.0
    SHORT_JET_6 OBJ -400.0
    SHORT_JET_6 DMIN_JET_6 1.0
    SHORT_DSL_6 OBJ -400.0
    SHORT_DSL_6 DMIN_DSL_6 1.0
    SHORT_FO_6 OBJ -400.0
    SHORT_FO_6 DMIN_FO_6 1.0
    GASPOOL_6 GASBAL_6 1.0
    GASPOOL_6 PBAL_GAS_6 1.0
    JETPOOL_6 JETBAL_6 1.0
    JETPOOL_6 PBAL_JET_6 1.0
    KERJET_CR00_6 KERBAL_CR00_6 -1.0
    KERJET_CR00_6 JETBAL_6 -1.0
    KERJET_CR00_6 JETSUL_6 0.10905668767581322
    KERDSL_CR00_6 KERBAL_CR00_6 -1.0
    KERDSL_CR00_6 DSLPB_6 -1.0
    KERDSL_CR00_6 DSLSUL_6 0.3590566876758132
    KERJET_CR01_6 KERBAL_CR01_6 -1.0
    KERJET_CR01_6 JETBAL_6 -1.0
    KERJET_CR01_6 JETSUL_6 -0.08376331342415014
    KERDSL_CR01_6 KERBAL_CR01_6 -1.0
    KERDSL_CR01_6 DSLPB_6 -1.0
    KERDSL_CR01_6 DSLSUL_6 0.16623668657584983
    KERJET_CR02_6 KERBAL_CR02_6 -1.0
    KERJET_CR02_6 JETBAL_6 -1.0
    KERJET_CR02_6 JETSUL_6 -0.033243200151024055
    KERDSL_CR02_6 KERBAL_CR02_6 -1.0
    KERDSL_CR02_6 DSLPB_6 -1.0
    KERDSL_CR02_6 DSLSUL_6 0.21675679984897595
    KERJET_CR03_6 KERBAL_CR03_6 -1.0
    KERJET_CR03_6 JETBAL_6 -1.0
    KERJET_CR03_6 JETSUL_6 -0.17764705818344229
    KERDSL_CR03_6 KERBAL_CR03_6 -1.0
    KERDSL_CR03_6 DSLPB_6 -1.0
    KERDSL_CR03_6 DSLSUL_6 0.0723529418165577
    KERJET_CR04_6 KERBAL_CR04_6 -1.0
    KERJET_CR04_6 JETBAL_6 -1.0
    KERJET_CR04_6 JETSUL_6 0.11487513588980985
    KERDSL_CR04_6 KERBAL_CR04_6 -1.0
    KERDSL_CR04_6 DSLPB_6 -1.0
    KERDSL_CR04_6 DSLSUL_6 0.36487513588980985
    KERJET_CR05_6 KERBAL_CR05_6 -1.0
    KERJET_CR05_6 JETBAL_6 -1.0
    KERJET_CR05_6 JETSUL_6 -0.011775018143244831
    KERDSL_CR05_6 KERBAL_CR05_6 -1.0
    KERDSL_CR05_6 DSLPB_6 -1.0
    KERDSL_CR05_6 DSLSUL_6 0.23822498185675517
    KERJET_CR06_6 KERBAL_CR06_6 -1.0
    KERJET_CR06_6 JETBAL_6 -1.0
    KERJET_CR06_6 JETSUL_6 -0.029808575954508865
    KERDSL_CR06_6 KERBAL_CR06_6 -1.0
    KERDSL_CR06_6 DSLPB_6 -1.0
    KERDSL_CR06_6 DSLSUL_6 0.22019142404549114
    KERJET_CR07_6 KERBAL_CR07_6 -1.0
    KERJET_CR07_6 JETBAL_6 -1.0
    KERJET_CR07_6 JETSUL_6 -0.2712476417553882
    KERDSL_CR07_6 KERBAL_CR07_6 -1.0
    KERDSL_CR07_6 DSLPB_6 -1.0
    KERDSL_CR07_6 DSLSUL_6 -0.02124764175538822
    KERJET_CR08_6 KERBAL_CR08_6 -1.0
    KERJET_CR08_6 JETBAL_6 -1.0
    KERJET_CR08_6 JETSUL_6 -0.03407788647085286
    KERDSL_CR08_6 KERBAL_CR08_6 -1.0
    KERDSL_CR08_6 DSLPB_6 -1.0
    KERDSL_CR08_6 DSLSUL_6 0.21592211352914714
    KERJET_CR09_6 KERBAL_CR09_6 -1.0
    KERJET_CR09_6 JETBAL_6 -1.0
    KERJET_CR09_6 JETSUL_6 -0.28234525480556727
    KERDSL_CR09_6 KERBAL_CR09_6 -1.0
    KERDSL_CR09_6 DSLPB_6 -1.0
    KERDSL_CR09_6 DSLSUL_6 -0.0323452548055673
    DSLPOOL_6 DSLPB_6 1.0
    DSLPOOL_6 PBAL_DSL_6 1.0
    LPGPOOL_6 LPGBAL_6 1.0
    LPGPOOL_6 PBAL_LPG_6 1.0
    FOPOOL_6 FOBAL_6 1.0
    FOPOOL_6 PBAL_FO_6 1.0
    M7654 'MARKER' 'INTORG'
    NPAR_CR00_7 PARCEL_CR00_7 -20.0
    M7656 'MARKER' 'INTEND'
    BUY_CR00_7 OBJ -54.83060348924713
    BUY_CR00_7 PARCEL_CR00_7 1.0
    BUY_CR00_7 CBAL_CR00_7 1.0
    CINV_CR00_7 OBJ -0.3
    CINV_CR00_7 CBAL_CR00_7 -1.0
    CINV_CR00_7 CBAL_CR00_8 1.0
    CDU_CR00_7 CBAL_CR00_7 -1.0
    CDU_CR00_7 CDUCAP_7 1.0
    CDU_CR00_7 CDUMIN_7 1.0
    CDU_CR00_7 YLPG_CR00_7 -0.013786055933968056
    CDU_CR00_7 YNAP_CR00_7 -0.1214444916358349
    CDU_CR00_7 YKER_CR00_7 -0.10646372452567733
    CDU_CR00_7 YDSL_CR00_7 -0.20292085263352289
    CDU_CR00_7 YVGO_CR00_7 -0.27390944719057636
    CDU_CR00_7 YRES_CR00_7 -0.28147542808042036
    M7672 'MARKER' 'INTORG'
    NPAR_CR01_7 PARCEL_CR01_7 -20.0
    M7674 'MARKER' 'INTEND'
    BUY_CR01_7 OBJ -70.76206256577007
    BUY_CR01_7 PARCEL_CR01_7 1.0
    BUY_CR01_7 CBAL_CR01_7 1.0
    CINV_CR01_7 OBJ -0.3
    CINV_CR01_7 CBAL_CR01_7 -1.0
    CINV_CR01_7 CBAL_CR01_8 1.0
    CDU_CR01_7 CBAL_CR01_7 -1.0
    CDU_CR01_7 CDUCAP_7 1.0
    CDU_CR01_7 CDUMIN_7 1.0
    CDU_CR01_7 YLPG_CR01_7 -0.025127543584387436
    CDU_CR01_7 YNAP_CR01_7 -0.2025917905849106
    CDU_CR01_7 YKER_CR01_7 -0.13410952106049506
    CDU_CR01_7 YDSL_CR01_7 -0.24728591651278542
    CDU_CR01_7 YVGO_CR01_7 -0.22897185950088417
    CDU_CR01_7 YRES_CR01_7 -0.16191336875653717
    M7690 'MARKER' 'INTORG'
    NPAR_CR02_7 PARCEL_CR02_7 -20.0
    M7692 'MARKER' 'INTEND'
    BUY_CR02_7 OBJ -57.97225044151317
    BUY_CR02_7 PARCEL_CR02_7 1.0
    BUY_CR02_7 CBAL_CR02_7 1.0
    CINV_CR02_7 OBJ -0.3
    CINV_CR02_7 CBAL_CR02_7 -1.0
    CINV_CR02_7 CBAL_CR02_8 1.0
    CDU_CR02_7 CBAL_CR02_7 -1.0
    CDU_CR02_7 CDUCAP_7 1.0
    CDU_CR02_7 CDUMIN_7 1.0
    CDU_CR02_7 YLPG_CR02_7 -0.013444753666275039
    CDU_CR02_7 YNAP_CR02_7 -0.11889710072836579
    CDU_CR02_7 YKER_CR02_7 -0.103840437143255
    CDU_CR02_7 YDSL_CR02_7 -0.21229612809407214
    CDU_CR02_7 YVGO_CR02_7 -0.2628713956905896
    CDU_CR02_7 YRES_CR02_7 -0.28865018467744247
    M7708 'MARKER' 'INTORG'
    NPAR_CR03_7 PARCEL_CR03_7 -20.0
    M7710 'MARKER' 'INTEND'
    BUY_CR03_7 OBJ -64.41422211901411
    BUY_CR03_7 PARCEL_CR03_7 1.0
    BUY_CR03_7 CBAL_CR03_7 1.0
    CINV_CR03_7 OBJ -0.3
    CINV_CR03_7 CBAL_CR03_7 -1.0
    CINV_CR03_7 CBAL_CR03_8 1.0
    CDU_CR03_7 CBAL_CR03_7 -1.0
    CDU_CR03_7 CDUCAP_7 1.0
    CDU_CR03_7 CDUMIN_7 1.0
    CDU_CR03_7 YLPG_CR03_7 -0.01400858068810675
    CDU_CR03_7 YNAP_CR03_7 -0.1424923117986131
    CDU_CR03_7 YKER_CR03_7 -0.10784088582669263
    CDU_CR03_7 YDSL_CR03_7 -0.19279120630762445
    CDU_CR03_7 YVGO_CR03_7 -0.28544626211923063
    CDU_CR03_7 YRES_CR03_7 -0.2574207532597324
    M7726 'MARKER' 'INTORG'
    NPAR_CR04_7 PARCEL_CR04_7 -20.0
    M7728 'MARKER' 'INTEND'
    BUY_CR04_7 OBJ -69.12855074764236
    BUY_CR04_7 PARCEL_CR04_7 1.0
    BUY_CR04_7 CBAL_CR04_7 1.0
    CINV_CR04_7 OBJ -0.3
    CINV_CR04_7 CBAL_CR04_7 -1.0
    CINV_CR04_7 CBAL_CR04_8 1.0
    CDU_CR04_7 CBAL_CR04_7 -1.0
    CDU_CR04_7 CDUCAP_7 1.0
    CDU_CR04_7 CDUMIN_7 1.0
    CDU_CR04_7 YLPG_CR04_7 -0.02335213093765316
    CDU_CR04_7 YNAP_CR04_7 -0.2292355396921612
    CDU_CR04_7 YKER_CR04_7 -0.14240695851543803
    CDU_CR04_7 YDSL_CR04_7 -0.24384363627499198
    CDU_CR04_7 YVGO_CR04_7 -0.2465326974706559
    CDU_CR04_7 YRES_CR04_7 -0.1146290371090997
    M7744 'MARKER' 'INTORG'
    NPAR_CR05_7 PARCEL_CR05_7 -20.0
    M7746 'MARKER' 'INTEND'
    BUY_CR05_7 OBJ -62.268790657798526
    BUY_CR05_7 PARCEL_CR05_7 1.0
    BUY_CR05_7 CBAL_CR05_7 1.0
    CINV_CR05_7 OBJ -0.3
    CINV_CR05_7 CBAL_CR05_7 -1.0
    CINV_CR05_7 CBAL_CR05_8 1.0
    CDU_CR05_7 CBAL_CR05_7 -1.0
    CDU_CR05_7 CDUCAP_7 1.0
    CDU_CR05_7 CDUMIN_7 1.0
    CDU_CR05_7 YLPG_CR05_7 -0.01735729802728813
    CDU_CR05_7 YNAP_CR05_7 -0.16608619710065003
    CDU_CR05_7 YKER_CR05_7 -0.1170544437563835
    CDU_CR05_7 YDSL_CR05_7 -0.22299235889970878
    CDU_CR05_7 YVGO_CR05_7 -0.2433490540516293
    CDU_CR05_7 YRES_CR05_7 -0.23316064816434035
    M7762 'MARKER' 'INTORG'
    NPAR_CR06_7 PARCEL_CR06_7 -20.0
    M7764 'MARKER' 'INTEND'
    BUY_CR06_7 OBJ -60.01493827088302
    BUY_CR06_7 PARCEL_CR06_7 1.0
    BUY_CR06_7 CBAL_CR06_7 1.0
    CINV_CR06_7 OBJ -0.3
    CINV_CR06_7 CBAL_CR06_7 -1.0
    CINV_CR06_7 CBAL_CR06_8 1.0
    CDU_CR06_7 CBAL_CR06_7 -1.0
    CDU_CR06_7 CDUCAP_7 1.0
    CDU_CR06_7 CDUMIN_7 1.0
    CDU_CR06_7 YLPG_CR06_7 -0.014219474855875663
    CDU_CR06_7 YNAP_CR06_7 -0.13746806025500902
    CDU_CR06_7 YKER_CR06_7 -0.10533897185985656
    CDU_CR06_7 YDSL_CR06_7 -0.20403840195434858
    CDU_CR06_7 YVGO_CR06_7 -0.26484358994429863
    CDU_CR06_7 YRES_CR06_7 -0.27409150113061165
    M7780 'MARKER' 'INTORG'
    NPAR_CR07_7 PARCEL_CR07_7 -20.0
    M7782 'MARKER' 'INTEND'
    BUY_CR07_7 OBJ -68.23616581756004
    BUY_CR07_7 PARCEL_CR07_7 1.0
    BUY_CR07_7 CBAL_CR07_7 1.0
    CINV_CR07_7 OBJ -0.3
    CINV_CR07_7 CBAL_CR07_7 -1.0
    CINV_CR07_7 CBAL_CR07_8 1.0
    CDU_CR07_7 CBAL_CR07_7 -1.0
    CDU_CR07_7 CDUCAP_7 1.0
    CDU_CR07_7 CDUMIN_7 1.0
    CDU_CR07_7 YLPG_CR07_7 -0.01678766142162217
    CDU_CR07_7 YNAP_CR07_7 -0.18341674311422207
    CDU_CR07_7 YKER_CR07_7 -0.13271469159016522
    CDU_CR07_7 YDSL_CR07_7 -0.2249127244045356
    CDU_CR07_7 YVGO_CR07_7 -0.24848613807316539
    CDU_CR07_7 YRES_CR07_7 -0.19368204139628944
    M7798 'MARKER' 'INTORG'
    NPAR_CR08_7 PARCEL_CR08_7 -20.0
    M7800 'MARKER' 'INTEND'
    BUY_CR08_7 OBJ -67.38197161083167
    BUY_CR08_7 PARCEL_CR08_7 1.0
    BUY_CR08_7 CBAL_CR08_7 1.0
    CINV_CR08_7 OBJ -0.3
    CINV_CR08_7 CBAL_CR08_7 -1.0
    CINV_CR08_7 CBAL_CR08_8 1.0
    CDU_CR08_7 CBAL_CR08_7 -1.0
    CDU_CR08_7 CDUCAP_7 1.0
    CDU_CR08_7 CDUMIN_7 1.0
    CDU_CR08_7 YLPG_CR08_7 -0.023930881960770135
    CDU_CR08_7 YNAP_CR08_7 -0.199474063989656
    CDU_CR08_7 YKER_CR08_7 -0.13012967624359006
    CDU_CR08_7 YDSL_CR08_7 -0.24906213509239003
    CDU_CR08_7 YVGO_CR08_7 -0.24247509330512357
    CDU_CR08_7 YRES_CR08_7 -0.15492814940847022
    M7816 'MARKER' 'INTORG'
    NPAR_CR09_7 PARCEL_CR09_7 -20.0
    M7818 'MARKER' 'INTEND'
    BUY_CR09_7 OBJ -75.62384687678761
    BUY_CR09_7 PARCEL_CR09_7 1.0
    BUY_CR09_7 CBAL_CR09_7 1.0
    CINV_CR09_7 OBJ -0.3
    CINV_CR09_7 CBAL_CR09_7 -1.0
    CINV_CR09_7 CBAL_CR09_8 1.0
    CDU_CR09_7 CBAL_CR09_7 -1.0
    CDU_CR09_7 CDUCAP_7 1.0
    CDU_CR09_7 CDUMIN_7 1.0
    CDU_CR09_7 YLPG_CR09_7 -0.0254414593142613
    CDU_CR09_7 YNAP_CR09_7 -0.2406668892422991
    CDU_CR09_7 YKER_CR09_7 -0.14150533274546892
    CDU_CR09_7 YDSL_CR09_7 -0.23713673044274025
    CDU_CR09_7 YVGO_CR09_7 -0.23566730460149374
    CDU_CR09_7 YRES_CR09_7 -0.11958228365373665
    M7834 'MARKER' 'INTORG'
    CDUMODE_7 OBJ -150.0
    CDUMODE_7 CDUCAP_7 -150.0
    CDUMODE_7 CDUMIN_7 -90.0
    M7838 'MARKER' 'INTEND'
    LPG_CR00_7 YLPG_CR00_7 1.0
    LPG_CR00_7 LPGBAL_7 -1.0
    NAP_CR00_7 YNAP_CR00_7 1.0
    NAP_CR00_7 NAPBAL_CR00_7 1.0
    KER_CR00_7 YKER_CR00_7 1.0
    KER_CR00_7 KERBAL_CR00_7 1.0
    DSL_CR00_7 YDSL_CR00_7 1.0
    DSL_CR00_7 DSLBAL_CR00_7 1.0
    VGO_CR00_7 YVGO_CR00_7 1.0
    VGO_CR00_7 VGOBAL_CR00_7 1.0
    RES_CR00_7 YRES_CR00_7 1.0
    RES_CR00_7 RESSPLIT_CR00_7 1.0
    LPG_CR01_7 YLPG_CR01_7 1.0
    LPG_CR01_7 LPGBAL_7 -1.0
    NAP_CR01_7 YNAP_CR01_7 1.0
    NAP_CR01_7 NAPBAL_CR01_7 1.0
    KER_CR01_7 YKER_CR01_7 1.0
    KER_CR01_7 KERBAL_CR01_7 1.0
    DSL_CR01_7 YDSL_CR01_7 1.0
    DSL_CR01_7 DSLBAL_CR01_7 1.0
    VGO_CR01_7 YVGO_CR01_7 1.0
    VGO_CR01_7 VGOBAL_CR01_7 1.0
    RES_CR01_7 YRES_CR01_7 1.0
    RES_CR01_7 RESSPLIT_CR01_7 1.0
    LPG_CR02_7 YLPG_CR02_7 1.0
    LPG_CR02_7 LPGBAL_7 -1.0
    NAP_CR02_7 YNAP_CR02_7 1.0
    NAP_CR02_7 NAPBAL_CR02_7 1.0
    KER_CR02_7 YKER_CR02_7 1.0
    KER_CR02_7 KERBAL_CR02_7 1.0
    DSL_CR02_7 YDSL_CR02_7 1.0
    DSL_CR02_7 DSLBAL_CR02_7 1.0
    VGO_CR02_7 YVGO_CR02_7 1.0
    VGO_CR02_7 VGOBAL_CR02_7 1.0
    RES_CR02_7 YRES_CR02_7 1.0
    RES_CR02_7 RESSPLIT_CR02_7 1.0
    LPG_CR03_7 YLPG_CR03_7 1.0
    LPG_CR03_7 LPGBAL_7 -1.0
    NAP_CR03_7 YNAP_CR03_7 1.0
    NAP_CR03_7 NAPBAL_CR03_7 1.0
    KER_CR03_7 YKER_CR03_7 1.0
    KER_CR03_7 KERBAL_CR03_7 1.0
    DSL_CR03_7 YDSL_CR03_7 1.0
    DSL_CR03_7 DSLBAL_CR03_7 1.0
    VGO_CR03_7 YVGO_CR03_7 1.0
    VGO_CR03_7 VGOBAL_CR03_7 1.0
    RES_CR03_7 YRES_CR03_7 1.0
    RES_CR03_7 RESSPLIT_CR03_7 1.0
    LPG_CR04_7 YLPG_CR04_7 1.0
    LPG_CR04_7 LPGBAL_7 -1.0
    NAP_CR04_7 YNAP_CR04_7 1.0
    NAP_CR04_7 NAPBAL_CR04_7 1.0
    KER_CR04_7 YKER_CR04_7 1.0
    KER_CR04_7 KERBAL_CR04_7 1.0
    DSL_CR04_7 YDSL_CR04_7 1.0
    DSL_CR04_7 DSLBAL_CR04_7 1.0
    VGO_CR04_7 YVGO_CR04_7 1.0
    VGO_CR04_7 VGOBAL_CR04_7 1.0
    RES_CR04_7 YRES_CR04_7 1.0
    RES_CR04_7 RESSPLIT_CR04_7 1.0
    LPG_CR05_7 YLPG_CR05_7 1.0
    LPG_CR05_7 LPGBAL_7 -1.0
    NAP_CR05_7 YNAP_CR05_7 1.0
    NAP_CR05_7 NAPBAL_CR05_7 1.0
    KER_CR05_7 YKER_CR05_7 1.0
    KER_CR05_7 KERBAL_CR05_7 1.0
    DSL_CR05_7 YDSL_CR05_7 1.0
    DSL_CR05_7 DSLBAL_CR05_7 1.0
    VGO_CR05_7 YVGO_CR05_7 1.0
    VGO_CR05_7 VGOBAL_CR05_7 1.0
    RES_CR05_7 YRES_CR05_7 1.0
    RES_CR05_7 RESSPLIT_CR05_7 1.0
    LPG_CR06_7 YLPG_CR06_7 1.0
    LPG_CR06_7 LPGBAL_7 -1.0
    NAP_CR06_7 YNAP_CR06_7 1.0
    NAP_CR06_7 NAPBAL_CR06_7 1.0
    KER_CR06_7 YKER_CR06_7 1.0
    KER_CR06_7 KERBAL_CR06_7 1.0
    DSL_CR06_7 YDSL_CR06_7 1.0
    DSL_CR06_7 DSLBAL_CR06_7 1.0
    VGO_CR06_7 YVGO_CR06_7 1.0
    VGO_CR06_7 VGOBAL_CR06_7 1.0
    RES_CR06_7 YRES_CR06_7 1.0
    RES_CR06_7 RESSPLIT_CR06_7 1.0
    LPG_CR07_7 YLPG_CR07_7 1.0
    LPG_CR07_7 LPGBAL_7 -1.0
    NAP_CR07_7 YNAP_CR07_7 1.0
    NAP_CR07_7 NAPBAL_CR07_7 1.0
    KER_CR07_7 YKER_CR07_7 1.0
    KER_CR07_7 KERBAL_CR07_7 1.0
    DSL_CR07_7 YDSL_CR07_7 1.0
    DSL_CR07_7 DSLBAL_CR07_7 1.0
    VGO_CR07_7 YVGO_CR07_7 1.0
    VGO_CR07_7 VGOBAL_CR07_7 1.0
    RES_CR07_7 YRES_CR07_7 1.0
    RES_CR07_7 RESSPLIT_CR07_7 1.0
    LPG_CR08_7 YLPG_CR08_7 1.0
    LPG_CR08_7 LPGBAL_7 -1.0
    NAP_CR08_7 YNAP_CR08_7 1.0
    NAP_CR08_7 NAPBAL_CR08_7 1.0
    KER_CR08_7 YKER_CR08_7 1.0
    KER_CR08_7 KERBAL_CR08_7 1.0
    DSL_CR08_7 YDSL_CR08_7 1.0
    DSL_CR08_7 DSLBAL_CR08_7 1.0
    VGO_CR08_7 YVGO_CR08_7 1.0
    VGO_CR08_7 VGOBAL_CR08_7 1.0
    RES_CR08_7 YRES_CR08_7 1.0
    RES_CR08_7 RESSPLIT_CR08_7 1.0
    LPG_CR09_7 YLPG_CR09_7 1.0
    LPG_CR09_7 LPGBAL_7 -1.0
    NAP_CR09_7 YNAP_CR09_7 1.0
    NAP_CR09_7 NAPBAL_CR09_7 1.0
    KER_CR09_7 YKER_CR09_7 1.0
    KER_CR09_7 KERBAL_CR09_7 1.0
    DSL_CR09_7 YDSL_CR09_7 1.0
    DSL_CR09_7 DSLBAL_CR09_7 1.0
    VGO_CR09_7 YVGO_CR09_7 1.0
    VGO_CR09_7 VGOBAL_CR09_7 1.0
    RES_CR09_7 YRES_CR09_7 1.0
    RES_CR09_7 RESSPLIT_CR09_7 1.0
    VDUIN_CR00_7 RESSPLIT_CR00_7 -1.0
    VDUIN_CR00_7 VDUY1_CR00_7 -0.45
    VDUIN_CR00_7 VDUY2_CR00_7 -0.55
    VDUIN_CR00_7 VDUCAP_7 1.0
    RESFO_CR00_7 RESSPLIT_CR00_7 -1.0
    RESFO_CR00_7 FOBAL_7 -1.0
    RESFO_CR00_7 FOSUL_7 1.9540891690108433
    VGO2_CR00_7 VDUY1_CR00_7 1.0
    VGO2_CR00_7 VGOBAL_CR00_7 1.0
    VR_CR00_7 VDUY2_CR00_7 1.0
    VR_CR00_7 FOBAL_7 -1.0
    VR_CR00_7 FOSUL_7 3.5903159197140964
    VDUIN_CR01_7 RESSPLIT_CR01_7 -1.0
    VDUIN_CR01_7 VDUY1_CR01_7 -0.45
    VDUIN_CR01_7 VDUY2_CR01_7 -0.55
    VDUIN_CR01_7 VDUCAP_7 1.0
    RESFO_CR01_7 RESSPLIT_CR01_7 -1.0
    RESFO_CR01_7 FOBAL_7 -1.0
    RESFO_CR01_7 FOSUL_7 -0.6168441789886687
    VGO2_CR01_7 VDUY1_CR01_7 1.0
    VGO2_CR01_7 VGOBAL_CR01_7 1.0
    VR_CR01_7 VDUY2_CR01_7 1.0
    VR_CR01_7 FOBAL_7 -1.0
    VR_CR01_7 FOSUL_7 0.24810256731473057
    VDUIN_CR02_7 RESSPLIT_CR02_7 -1.0
    VDUIN_CR02_7 VDUY1_CR02_7 -0.45
    VDUIN_CR02_7 VDUY2_CR02_7 -0.55
    VDUIN_CR02_7 VDUCAP_7 1.0
    RESFO_CR02_7 RESSPLIT_CR02_7 -1.0
    RESFO_CR02_7 FOBAL_7 -1.0
    RESFO_CR02_7 FOSUL_7 0.05675733131967897
    VGO2_CR02_7 VDUY1_CR02_7 1.0
    VGO2_CR02_7 VGOBAL_CR02_7 1.0
    VR_CR02_7 VDUY2_CR02_7 1.0
    VR_CR02_7 FOBAL_7 -1.0
    VR_CR02_7 FOSUL_7 1.1237845307155832
    VDUIN_CR03_7 RESSPLIT_CR03_7 -1.0
    VDUIN_CR03_7 VDUY1_CR03_7 -0.45
    VDUIN_CR03_7 VDUY2_CR03_7 -0.55
    VDUIN_CR03_7 VDUCAP_7 1.0
    RESFO_CR03_7 RESSPLIT_CR03_7 -1.0
    RESFO_CR03_7 FOBAL_7 -1.0
    RESFO_CR03_7 FOSUL_7 -1.8686274424458973
    VGO2_CR03_7 VDUY1_CR03_7 1.0
    VGO2_CR03_7 VGOBAL_CR03_7 1.0
    VR_CR03_7 VDUY2_CR03_7 1.0
    VR_CR03_7 FOBAL_7 -1.0
    VR_CR03_7 FOSUL_7 -1.3792156751796663
    VDUIN_CR04_7 RESSPLIT_CR04_7 -1.0
    VDUIN_CR04_7 VDUY1_CR04_7 -0.45
    VDUIN_CR04_7 VDUY2_CR04_7 -0.55
    VDUIN_CR04_7 VDUCAP_7 1.0
    RESFO_CR04_7 RESSPLIT_CR04_7 -1.0
    RESFO_CR04_7 FOBAL_7 -1.0
    RESFO_CR04_7 FOSUL_7 2.031668478530798
    VGO2_CR04_7 VDUY1_CR04_7 1.0
    VGO2_CR04_7 VGOBAL_CR04_7 1.0
    VR_CR04_7 VDUY2_CR04_7 1.0
    VR_CR04_7 FOBAL_7 -1.0
    VR_CR04_7 FOSUL_7 3.6911690220900377
    VDUIN_CR05_7 RESSPLIT_CR05_7 -1.0
    VDUIN_CR05_7 VDUY1_CR05_7 -0.45
    VDUIN_CR05_7 VDUY2_CR05_7 -0.55
    VDUIN_CR05_7 VDUCAP_7 1.0
    RESFO_CR05_7 RESSPLIT_CR05_7 -1.0
    RESFO_CR05_7 FOBAL_7 -1.0
    RESFO_CR05_7 FOSUL_7 0.3429997580900688
    VGO2_CR05_7 VDUY1_CR05_7 1.0
    VGO2_CR05_7 VGOBAL_CR05_7 1.0
    VR_CR05_7 VDUY2_CR05_7 1.0
    VR_CR05_7 FOBAL_7 -1.0
    VR_CR05_7 FOSUL_7 1.4958996855170898
    VDUIN_CR06_7 RESSPLIT_CR06_7 -1.0
    VDUIN_CR06_7 VDUY1_CR06_7 -0.45
    VDUIN_CR06_7 VDUY2_CR06_7 -0.55
    VDUIN_CR06_7 VDUCAP_7 1.0
    RESFO_CR06_7 RESSPLIT_CR06_7 -1.0
    RESFO_CR06_7 FOBAL_7 -1.0
    RESFO_CR06_7 FOSUL_7 0.10255232060654862
    VGO2_CR06_7 VDUY1_CR06_7 1.0
    VGO2_CR06_7 VGOBAL_CR06_7 1.0
    VR_CR06_7 VDUY2_CR06_7 1.0
    VR_CR06_7 FOBAL_7 -1.0
    VR_CR06_7 FOSUL_7 1.1833180167885136
    VDUIN_CR07_7 RESSPLIT_CR07_7 -1.0
    VDUIN_CR07_7 VDUY1_CR07_7 -0.45
    VDUIN_CR07_7 VDUY2_CR07_7 -0.55
    VDUIN_CR07_7 VDUCAP_7 1.0
    RESFO_CR07_7 RESSPLIT_CR07_7 -1.0
    RESFO_CR07_7 FOBAL_7 -1.0
    RESFO_CR07_7 FOSUL_7 -3.116635223405176
    VGO2_CR07_7 VDUY1_CR07_7 1.0
    VGO2_CR07_7 VGOBAL_CR07_7 1.0
    VR_CR07_7 VDUY2_CR07_7 1.0
    VR_CR07_7 FOBAL_7 -1.0
    VR_CR07_7 FOSUL_7 -3.001625790426729
    VDUIN_CR08_7 RESSPLIT_CR08_7 -1.0
    VDUIN_CR08_7 VDUY1_CR08_7 -0.45
    VDUIN_CR08_7 VDUY2_CR08_7 -0.55
    VDUIN_CR08_7 VDUCAP_7 1.0
    RESFO_CR08_7 RESSPLIT_CR08_7 -1.0
    RESFO_CR08_7 FOBAL_7 -1.0
    RESFO_CR08_7 FOSUL_7 0.0456281803886287
    VGO2_CR08_7 VDUY1_CR08_7 1.0
    VGO2_CR08_7 VGOBAL_CR08_7 1.0
    VR_CR08_7 VDUY2_CR08_7 1.0
    VR_CR08_7 FOBAL_7 -1.0
    VR_CR08_7 FOSUL_7 1.109316634505218
    VDUIN_CR09_7 RESSPLIT_CR09_7 -1.0
    VDUIN_CR09_7 VDUY1_CR09_7 -0.45
    VDUIN_CR09_7 VDUY2_CR09_7 -0.55
    VDUIN_CR09_7 VDUCAP_7 1.0
    RESFO_CR09_7 RESSPLIT_CR09_7 -1.0
    RESFO_CR09_7 FOBAL_7 -1.0
    RESFO_CR09_7 FOSUL_7 -3.264603397407564
    VGO2_CR09_7 VDUY1_CR09_7 1.0
    VGO2_CR09_7 VGOBAL_CR09_7 1.0
    VR_CR09_7 VDUY2_CR09_7 1.0
    VR_CR09_7 FOBAL_7 -1.0
    VR_CR09_7 FOSUL_7 -3.1939844166298332
    FCCIN_CR00_7 OBJ -2.5
    FCCIN_CR00_7 VGOBAL_CR00_7 -1.0
    FCCIN_CR00_7 FCCCAP_7 1.0
    FCCIN_CR00_7 FCCY_FCCG_7 -0.55
    FCCIN_CR00_7 FCCY_LCO_7 -0.2
    FCCIN_CR00_7 FCCY_FLPG_7 -0.15
    FCCIN_CR00_7 FCCY_SLURRY_7 -0.07
    FCCIN_CR01_7 OBJ -2.5
    FCCIN_CR01_7 VGOBAL_CR01_7 -1.0
    FCCIN_CR01_7 FCCCAP_7 1.0
    FCCIN_CR01_7 FCCY_FCCG_7 -0.55
    FCCIN_CR01_7 FCCY_LCO_7 -0.2
    FCCIN_CR01_7 FCCY_FLPG_7 -0.15
    FCCIN_CR01_7 FCCY_SLURRY_7 -0.07
    FCCIN_CR02_7 OBJ -2.5
    FCCIN_CR02_7 VGOBAL_CR02_7 -1.0
    FCCIN_CR02_7 FCCCAP_7 1.0
    FCCIN_CR02_7 FCCY_FCCG_7 -0.55
    FCCIN_CR02_7 FCCY_LCO_7 -0.2
    FCCIN_CR02_7 FCCY_FLPG_7 -0.15
    FCCIN_CR02_7 FCCY_SLURRY_7 -0.07
    FCCIN_CR03_7 OBJ -2.5
    FCCIN_CR03_7 VGOBAL_CR03_7 -1.0
    FCCIN_CR03_7 FCCCAP_7 1.0
    FCCIN_CR03_7 FCCY_FCCG_7 -0.55
    FCCIN_CR03_7 FCCY_LCO_7 -0.2
    FCCIN_CR03_7 FCCY_FLPG_7 -0.15
    FCCIN_CR03_7 FCCY_SLURRY_7 -0.07
    FCCIN_CR04_7 OBJ -2.5
    FCCIN_CR04_7 VGOBAL_CR04_7 -1.0
    FCCIN_CR04_7 FCCCAP_7 1.0
    FCCIN_CR04_7 FCCY_FCCG_7 -0.55
    FCCIN_CR04_7 FCCY_LCO_7 -0.2
    FCCIN_CR04_7 FCCY_FLPG_7 -0.15
    FCCIN_CR04_7 FCCY_SLURRY_7 -0.07
    FCCIN_CR05_7 OBJ -2.5
    FCCIN_CR05_7 VGOBAL_CR05_7 -1.0
    FCCIN_CR05_7 FCCCAP_7 1.0
    FCCIN_CR05_7 FCCY_FCCG_7 -0.55
    FCCIN_CR05_7 FCCY_LCO_7 -0.2
    FCCIN_CR05_7 FCCY_FLPG_7 -0.15
    FCCIN_CR05_7 FCCY_SLURRY_7 -0.07
    FCCIN_CR06_7 OBJ -2.5
    FCCIN_CR06_7 VGOBAL_CR06_7 -1.0
    FCCIN_CR06_7 FCCCAP_7 1.0
    FCCIN_CR06_7 FCCY_FCCG_7 -0.55
    FCCIN_CR06_7 FCCY_LCO_7 -0.2
    FCCIN_CR06_7 FCCY_FLPG_7 -0.15
    FCCIN_CR06_7 FCCY_SLURRY_7 -0.07
    FCCIN_CR07_7 OBJ -2.5
    FCCIN_CR07_7 VGOBAL_CR07_7 -1.0
    FCCIN_CR07_7 FCCCAP_7 1.0
    FCCIN_CR07_7 FCCY_FCCG_7 -0.55
    FCCIN_CR07_7 FCCY_LCO_7 -0.2
    FCCIN_CR07_7 FCCY_FLPG_7 -0.15
    FCCIN_CR07_7 FCCY_SLURRY_7 -0.07
    FCCIN_CR08_7 OBJ -2.5
    FCCIN_CR08_7 VGOBAL_CR08_7 -1.0
    FCCIN_CR08_7 FCCCAP_7 1.0
    FCCIN_CR08_7 FCCY_FCCG_7 -0.55
    FCCIN_CR08_7 FCCY_LCO_7 -0.2
    FCCIN_CR08_7 FCCY_FLPG_7 -0.15
    FCCIN_CR08_7 FCCY_SLURRY_7 -0.07
    FCCIN_CR09_7 OBJ -2.5
    FCCIN_CR09_7 VGOBAL_CR09_7 -1.0
    FCCIN_CR09_7 FCCCAP_7 1.0
    FCCIN_CR09_7 FCCY_FCCG_7 -0.55
    FCCIN_CR09_7 FCCY_LCO_7 -0.2
    FCCIN_CR09_7 FCCY_FLPG_7 -0.15
    FCCIN_CR09_7 FCCY_SLURRY_7 -0.07
    FCCG_7 FCCY_FCCG_7 1.0
    FCCG_7 GASBAL_7 -1.0
    FCCG_7 GASRON_7 1.0
    LCO_7 FCCY_LCO_7 1.0
    LCO_7 LCOBAL_7 1.0
    FLPG_7 FCCY_FLPG_7 1.0
    FLPG_7 LPGBAL_7 -1.0
    SLURRY_7 FCCY_SLURRY_7 1.0
    SLURRY_7 FOBAL_7 -1.0
    SLURRY_7 FOSUL_7 -1.5
    REFIN_CR00_7 OBJ -3.0
    REFIN_CR00_7 NAPBAL_CR00_7 -1.0
    REFIN_CR00_7 REFCAP_7 1.0
    REFIN_CR00_7 REFY_7 -0.85
    NAPGAS_CR00_7 NAPBAL_CR00_7 -1.0
    NAPGAS_CR00_7 GASBAL_7 -1.0
    NAPGAS_CR00_7 GASRON_7 -41.351908455631545
    REFIN_CR01_7 OBJ -3.0
    REFIN_CR01_7 NAPBAL_CR01_7 -1.0
    REFIN_CR01_7 REFCAP_7 1.0
    REFIN_CR01_7 REFY_7 -0.85
    NAPGAS_CR01_7 NAPBAL_CR01_7 -1.0
    NAPGAS_CR01_7 GASBAL_7 -1.0
    NAPGAS_CR01_7 GASRON_7 -33.623043958680114
    REFIN_CR02_7 OBJ -3.0
    REFIN_CR02_7 NAPBAL_CR02_7 -1.0
    REFIN_CR02_7 REFCAP_7 1.0
    REFIN_CR02_7 REFY_7 -0.85
    NAPGAS_CR02_7 NAPBAL_CR02_7 -1.0
    NAPGAS_CR02_7 GASBAL_7 -1.0
    NAPGAS_CR02_7 GASRON_7 -39.74522208078083
    REFIN_CR03_7 OBJ -3.0
    REFIN_CR03_7 NAPBAL_CR03_7 -1.0
    REFIN_CR03_7 REFCAP_7 1.0
    REFIN_CR03_7 REFY_7 -0.85
    NAPGAS_CR03_7 NAPBAL_CR03_7 -1.0
    NAPGAS_CR03_7 GASBAL_7 -1.0
    NAPGAS_CR03_7 GASRON_7 -39.32063345179839
    REFIN_CR04_7 OBJ -3.0
    REFIN_CR04_7 NAPBAL_CR04_7 -1.0
    REFIN_CR04_7 REFCAP_7 1.0
    REFIN_CR04_7 REFY_7 -0.85
    NAPGAS_CR04_7 NAPBAL_CR04_7 -1.0
    NAPGAS_CR04_7 GASBAL_7 -1.0
    NAPGAS_CR04_7 GASRON_7 -28.06018906757886
    REFIN_CR05_7 OBJ -3.0
    REFIN_CR05_7 NAPBAL_CR05_7 -1.0
    REFIN_CR05_7 REFCAP_7 1.0
    REFIN_CR05_7 REFY_7 -0.85
    NAPGAS_CR05_7 NAPBAL_CR05_7 -1.0
    NAPGAS_CR05_7 GASBAL_7 -1.0
    NAPGAS_CR05_7 GASRON_7 -37.177062383933254
    REFIN_CR06_7 OBJ -3.0
    REFIN_CR06_7 NAPBAL_CR06_7 -1.0
    REFIN_CR06_7 REFCAP_7 1.0
    REFIN_CR06_7 REFY_7 -0.85
    NAPGAS_CR06_7 NAPBAL_CR06_7 -1.0
    NAPGAS_CR06_7 GASBAL_7 -1.0
    NAPGAS_CR06_7 GASRON_7 -38.73738801284508
    REFIN_CR07_7 OBJ -3.0
    REFIN_CR07_7 NAPBAL_CR07_7 -1.0
    REFIN_CR07_7 REFCAP_7 1.0
    REFIN_CR07_7 REFY_7 -0.85
    NAPGAS_CR07_7 NAPBAL_CR07_7 -1.0
    NAPGAS_CR07_7 GASBAL_7 -1.0
    NAPGAS_CR07_7 GASRON_7 -31.720911449683953
    REFIN_CR08_7 OBJ -3.0
    REFIN_CR08_7 NAPBAL_CR08_7 -1.0
    REFIN_CR08_7 REFCAP_7 1.0
    REFIN_CR08_7 REFY_7 -0.85
    NAPGAS_CR08_7 NAPBAL_CR08_7 -1.0
    NAPGAS_CR08_7 GASBAL_7 -1.0
    NAPGAS_CR08_7 GASRON_7 -31.236267605063702
    REFIN_CR09_7 OBJ -3.0
    REFIN_CR09_7 NAPBAL_CR09_7 -1.0
    REFIN_CR09_7 REFCAP_7 1.0
    REFIN_CR09_7 REFY_7 -0.85
    NAPGAS_CR09_7 NAPBAL_CR09_7 -1.0
    NAPGAS_CR09_7 GASBAL_7 -1.0
    NAPGAS_CR09_7 GASRON_7 -29.9151768258086
    REFORMATE_7 REFY_7 1.0
    REFORMATE_7 GASBAL_7 -1.0
    REFORMATE_7 GASRON_7 7.0
    DHTIN_CR00_7 OBJ -2.0
    DHTIN_CR00_7 DSLBAL_CR00_7 -1.0
    DHTIN_CR00_7 DHTCAP_7 1.0
    DHTIN_CR00_7 DHTY_7 -0.98
    DSLDIR_CR00_7 DSLBAL_CR00_7 -1.0
    DSLDIR_CR00_7 DSLPB_7 -1.0
    DSLDIR_CR00_7 DSLSUL_7 1.5862267507032528
    DHTIN_CR01_7 OBJ -2.0
    DHTIN_CR01_7 DSLBAL_CR01_7 -1.0
    DHTIN_CR01_7 DHTCAP_7 1.0
    DHTIN_CR01_7 DHTY_7 -0.98
    DSLDIR_CR01_7 DSLBAL_CR01_7 -1.0
    DSLDIR_CR01_7 DSLPB_7 -1.0
    DSLDIR_CR01_7 DSLSUL_7 0.8149467463033994
    DHTIN_CR02_7 OBJ -2.0
    DHTIN_CR02_7 DSLBAL_CR02_7 -1.0
    DHTIN_CR02_7 DHTCAP_7 1.0
    DHTIN_CR02_7 DHTY_7 -0.98
    DSLDIR_CR02_7 DSLBAL_CR02_7 -1.0
    DSLDIR_CR02_7 DSLPB_7 -1.0
    DSLDIR_CR02_7 DSLSUL_7 1.0170271993959037
    DHTIN_CR03_7 OBJ -2.0
    DHTIN_CR03_7 DSLBAL_CR03_7 -1.0
    DHTIN_CR03_7 DHTCAP_7 1.0
    DHTIN_CR03_7 DHTY_7 -0.98
    DSLDIR_CR03_7 DSLBAL_CR03_7 -1.0
    DSLDIR_CR03_7 DSLPB_7 -1.0
    DSLDIR_CR03_7 DSLSUL_7 0.4394117672662308
    DHTIN_CR04_7 OBJ -2.0
    DHTIN_CR04_7 DSLBAL_CR04_7 -1.0
    DHTIN_CR04_7 DHTCAP_7 1.0
    DHTIN_CR04_7 DHTY_7 -0.98
    DSLDIR_CR04_7 DSLBAL_CR04_7 -1.0
    DSLDIR_CR04_7 DSLPB_7 -1.0
    DSLDIR_CR04_7 DSLSUL_7 1.6095005435592393
    DHTIN_CR05_7 OBJ -2.0
    DHTIN_CR05_7 DSLBAL_CR05_7 -1.0
    DHTIN_CR05_7 DHTCAP_7 1.0
    DHTIN_CR05_7 DHTY_7 -0.98
    DSLDIR_CR05_7 DSLBAL_CR05_7 -1.0
    DSLDIR_CR05_7 DSLPB_7 -1.0
    DSLDIR_CR05_7 DSLSUL_7 1.1028999274270206
    DHTIN_CR06_7 OBJ -2.0
    DHTIN_CR06_7 DSLBAL_CR06_7 -1.0
    DHTIN_CR06_7 DHTCAP_7 1.0
    DHTIN_CR06_7 DHTY_7 -0.98
    DSLDIR_CR06_7 DSLBAL_CR06_7 -1.0
    DSLDIR_CR06_7 DSLPB_7 -1.0
    DSLDIR_CR06_7 DSLSUL_7 1.0307656961819645
    DHTIN_CR07_7 OBJ -2.0
    DHTIN_CR07_7 DSLBAL_CR07_7 -1.0
    DHTIN_CR07_7 DHTCAP_7 1.0
    DHTIN_CR07_7 DHTY_7 -0.98
    DSLDIR_CR07_7 DSLBAL_CR07_7 -1.0
    DSLDIR_CR07_7 DSLPB_7 -1.0
    DSLDIR_CR07_7 DSLSUL_7 0.06500943297844713
    DHTIN_CR08_7 OBJ -2.0
    DHTIN_CR08_7 DSLBAL_CR08_7 -1.0
    DHTIN_CR08_7 DHTCAP_7 1.0
    DHTIN_CR08_7 DHTY_7 -0.98
    DSLDIR_CR08_7 DSLBAL_CR08_7 -1.0
    DSLDIR_CR08_7 DSLPB_7 -1.0
    DSLDIR_CR08_7 DSLSUL_7 1.0136884541165885
    DHTIN_CR09_7 OBJ -2.0
    DHTIN_CR09_7 DSLBAL_CR09_7 -1.0
    DHTIN_CR09_7 DHTCAP_7 1.0
    DHTIN_CR09_7 DHTY_7 -0.98
    DSLDIR_CR09_7 DSLBAL_CR09_7 -1.0
    DSLDIR_CR09_7 DSLPB_7 -1.0
    DSLDIR_CR09_7 DSLSUL_7 0.020618980777730833
    LCODHT_7 LCOBAL_7 -1.0
    LCODHT_7 DHTCAP_7 1.0
    LCODHT_7 DHTY_7 -0.95
    LCOFO_7 LCOBAL_7 -1.0
    LCOFO_7 FOBAL_7 -1.0
    LCOFO_7 FOSUL_7 -2.5
    ULSD_7 DHTY_7 1.0
    ULSD_7 DSLPB_7 -1.0
    ULSD_7 DSLSUL_7 -0.049
    SELL_LPG_7 OBJ 52.25000000000001
    SELL_LPG_7 PBAL_LPG_7 -1.0
    SELL_LPG_7 DMAX_LPG_7 1.0
    SELL_LPG_7 DMIN_LPG_7 1.0
    SELL_GAS_7 OBJ 99.75
    SELL_GAS_7 PBAL_GAS_7 -1.0
    SELL_GAS_7 DMAX_GAS_7 1.0
    SELL_GAS_7 DMIN_GAS_7 1.0
    SELL_JET_7 OBJ 95.0
    SELL_JET_7 PBAL_JET_7 -1.0
    SELL_JET_7 DMAX_JET_7 1.0
    SELL_JET_7 DMIN_JET_7 1.0
    SELL_DSL_7 OBJ 93.10000000000001
    SELL_DSL_7 PBAL_DSL_7 -1.0
    SELL_DSL_7 DMAX_DSL_7 1.0
    SELL_DSL_7 DMIN_DSL_7 1.0
    SELL_FO_7 OBJ 57.00000000000001
    SELL_FO_7 PBAL_FO_7 -1.0
    SELL_FO_7 DMAX_FO_7 1.0
    SELL_FO_7 DMIN_FO_7 1.0
    PINV_LPG_7 OBJ -0.5
    PINV_LPG_7 PBAL_LPG_7 -1.0
    PINV_LPG_7 PBAL_LPG_8 1.0
    PINV_GAS_7 OBJ -0.5
    PINV_GAS_7 PBAL_GAS_7 -1.0
    PINV_GAS_7 PBAL_GAS_8 1.0
    PINV_JET_7 OBJ -0.5
    PINV_JET_7 PBAL_JET_7 -1.0
    PINV_JET_7 PBAL_JET_8 1.0
    PINV_DSL_7 OBJ -0.5
    PINV_DSL_7 PBAL_DSL_7 -1.0
    PINV_DSL_7 PBAL_DSL_8 1.0
    PINV_FO_7 OBJ -0.5
    PINV_FO_7 PBAL_FO_7 -1.0
    PINV_FO_7 PBAL_FO_8 1.0
    SHORT_LPG_7 OBJ -400.0
    SHORT_LPG_7 DMIN_LPG_7 1.0
    SHORT_GAS_7 OBJ -400.0
    SHORT_GAS_7 DMIN_GAS_7 1.0
    SHORT_JET_7 OBJ -400.0
    SHORT_JET_7 DMIN_JET_7 1.0
    SHORT_DSL_7 OBJ -400.0
    SHORT_DSL_7 DMIN_DSL_7 1.0
    SHORT_FO_7 OBJ -400.0
    SHORT_FO_7 DMIN_FO_7 1.0
    GASPOOL_7 GASBAL_7 1.0
    GASPOOL_7 PBAL_GAS_7 1.0
    JETPOOL_7 JETBAL_7 1.0
    JETPOOL_7 PBAL_JET_7 1.0
    KERJET_CR00_7 KERBAL_CR00_7 -1.0
    KERJET_CR00_7 JETBAL_7 -1.0
    KERJET_CR00_7 JETSUL_7 0.10905668767581322
    KERDSL_CR00_7 KERBAL_CR00_7 -1.0
    KERDSL_CR00_7 DSLPB_7 -1.0
    KERDSL_CR00_7 DSLSUL_7 0.3590566876758132
    KERJET_CR01_7 KERBAL_CR01_7 -1.0
    KERJET_CR01_7 JETBAL_7 -1.0
    KERJET_CR01_7 JETSUL_7 -0.08376331342415014
    KERDSL_CR01_7 KERBAL_CR01_7 -1.0
    KERDSL_CR01_7 DSLPB_7 -1.0
    KERDSL_CR01_7 DSLSUL_7 0.16623668657584983
    KERJET_CR02_7 KERBAL_CR02_7 -1.0
    KERJET_CR02_7 JETBAL_7 -1.0
    KERJET_CR02_7 JETSUL_7 -0.033243200151024055
    KERDSL_CR02_7 KERBAL_CR02_7 -1.0
    KERDSL_CR02_7 DSLPB_7 -1.0
    KERDSL_CR02_7 DSLSUL_7 0.21675679984897595
    KERJET_CR03_7 KERBAL_CR03_7 -1.0
    KERJET_CR03_7 JETBAL_7 -1.0
    KERJET_CR03_7 JETSUL_7 -0.17764705818344229
    KERDSL_CR03_7 KERBAL_CR03_7 -1.0
    KERDSL_CR03_7 DSLPB_7 -1.0
    KERDSL_CR03_7 DSLSUL_7 0.0723529418165577
    KERJET_CR04_7 KERBAL_CR04_7 -1.0
    KERJET_CR04_7 JETBAL_7 -1.0
    KERJET_CR04_7 JETSUL_7 0.11487513588980985
    KERDSL_CR04_7 KERBAL_CR04_7 -1.0
    KERDSL_CR04_7 DSLPB_7 -1.0
    KERDSL_CR04_7 DSLSUL_7 0.36487513588980985
    KERJET_CR05_7 KERBAL_CR05_7 -1.0
    KERJET_CR05_7 JETBAL_7 -1.0
    KERJET_CR05_7 JETSUL_7 -0.011775018143244831
    KERDSL_CR05_7 KERBAL_CR05_7 -1.0
    KERDSL_CR05_7 DSLPB_7 -1.0
    KERDSL_CR05_7 DSLSUL_7 0.23822498185675517
    KERJET_CR06_7 KERBAL_CR06_7 -1.0
    KERJET_CR06_7 JETBAL_7 -1.0
    KERJET_CR06_7 JETSUL_7 -0.029808575954508865
    KERDSL_CR06_7 KERBAL_CR06_7 -1.0
    KERDSL_CR06_7 DSLPB_7 -1.0
    KERDSL_CR06_7 DSLSUL_7 0.22019142404549114
    KERJET_CR07_7 KERBAL_CR07_7 -1.0
    KERJET_CR07_7 JETBAL_7 -1.0
    KERJET_CR07_7 JETSUL_7 -0.2712476417553882
    KERDSL_CR07_7 KERBAL_CR07_7 -1.0
    KERDSL_CR07_7 DSLPB_7 -1.0
    KERDSL_CR07_7 DSLSUL_7 -0.02124764175538822
    KERJET_CR08_7 KERBAL_CR08_7 -1.0
    KERJET_CR08_7 JETBAL_7 -1.0
    KERJET_CR08_7 JETSUL_7 -0.03407788647085286
    KERDSL_CR08_7 KERBAL_CR08_7 -1.0
    KERDSL_CR08_7 DSLPB_7 -1.0
    KERDSL_CR08_7 DSLSUL_7 0.21592211352914714
    KERJET_CR09_7 KERBAL_CR09_7 -1.0
    KERJET_CR09_7 JETBAL_7 -1.0
    KERJET_CR09_7 JETSUL_7 -0.28234525480556727
    KERDSL_CR09_7 KERBAL_CR09_7 -1.0
    KERDSL_CR09_7 DSLPB_7 -1.0
    KERDSL_CR09_7 DSLSUL_7 -0.0323452548055673
    DSLPOOL_7 DSLPB_7 1.0
    DSLPOOL_7 PBAL_DSL_7 1.0
    LPGPOOL_7 LPGBAL_7 1.0
    LPGPOOL_7 PBAL_LPG_7 1.0
    FOPOOL_7 FOBAL_7 1.0
    FOPOOL_7 PBAL_FO_7 1.0
    M8426 'MARKER' 'INTORG'
    NPAR_CR00_8 PARCEL_CR00_8 -20.0
    M8428 'MARKER' 'INTEND'
    BUY_CR00_8 OBJ -54.314691865940425
    BUY_CR00_8 PARCEL_CR00_8 1.0
    BUY_CR00_8 CBAL_CR00_8 1.0
    CINV_CR00_8 OBJ -0.3
    CINV_CR00_8 CBAL_CR00_8 -1.0
    CINV_CR00_8 CBAL_CR00_9 1.0
    CDU_CR00_8 CBAL_CR00_8 -1.0
    CDU_CR00_8 CDUCAP_8 1.0
    CDU_CR00_8 CDUMIN_8 1.0
    CDU_CR00_8 YLPG_CR00_8 -0.013786055933968056
    CDU_CR00_8 YNAP_CR00_8 -0.1214444916358349
    CDU_CR00_8 YKER_CR00_8 -0.10646372452567733
    CDU_CR00_8 YDSL_CR00_8 -0.20292085263352289
    CDU_CR00_8 YVGO_CR00_8 -0.27390944719057636
    CDU_CR00_8 YRES_CR00_8 -0.28147542808042036
    M8444 'MARKER' 'INTORG'
    NPAR_CR01_8 PARCEL_CR01_8 -20.0
    M8446 'MARKER' 'INTEND'
    BUY_CR01_8 OBJ -70.12489919777913
    BUY_CR01_8 PARCEL_CR01_8 1.0
    BUY_CR01_8 CBAL_CR01_8 1.0
    CINV_CR01_8 OBJ -0.3
    CINV_CR01_8 CBAL_CR01_8 -1.0
    CINV_CR01_8 CBAL_CR01_9 1.0
    CDU_CR01_8 CBAL_CR01_8 -1.0
    CDU_CR01_8 CDUCAP_8 1.0
    CDU_CR01_8 CDUMIN_8 1.0
    CDU_CR01_8 YLPG_CR01_8 -0.025127543584387436
    CDU_CR01_8 YNAP_CR01_8 -0.2025917905849106
    CDU_CR01_8 YKER_CR01_8 -0.13410952106049506
    CDU_CR01_8 YDSL_CR01_8 -0.24728591651278542
    CDU_CR01_8 YVGO_CR01_8 -0.22897185950088417
    CDU_CR01_8 YRES_CR01_8 -0.16191336875653717
    M8462 'MARKER' 'INTORG'
    NPAR_CR02_8 PARCEL_CR02_8 -20.0
    M8464 'MARKER' 'INTEND'
    BUY_CR02_8 OBJ -57.09137929938133
    BUY_CR02_8 PARCEL_CR02_8 1.0
    BUY_CR02_8 CBAL_CR02_8 1.0
    CINV_CR02_8 OBJ -0.3
    CINV_CR02_8 CBAL_CR02_8 -1.0
    CINV_CR02_8 CBAL_CR02_9 1.0
    CDU_CR02_8 CBAL_CR02_8 -1.0
    CDU_CR02_8 CDUCAP_8 1.0
    CDU_CR02_8 CDUMIN_8 1.0
    CDU_CR02_8 YLPG_CR02_8 -0.013444753666275039
    CDU_CR02_8 YNAP_CR02_8 -0.11889710072836579
    CDU_CR02_8 YKER_CR02_8 -0.103840437143255
    CDU_CR02_8 YDSL_CR02_8 -0.21229612809407214
    CDU_CR02_8 YVGO_CR02_8 -0.2628713956905896
    CDU_CR02_8 YRES_CR02_8 -0.28865018467744247
    M8480 'MARKER' 'INTORG'
    NPAR_CR03_8 PARCEL_CR03_8 -20.0
    M8482 'MARKER' 'INTEND'
    BUY_CR03_8 OBJ -63.38941801270375
    BUY_CR03_8 PARCEL_CR03_8 1.0
    BUY_CR03_8 CBAL_CR03_8 1.0
    CINV_CR03_8 OBJ -0.3
    CINV_CR03_8 CBAL_CR03_8 -1.0
    CINV_CR03_8 CBAL_CR03_9 1.0
    CDU_CR03_8 CBAL_CR03_8 -1.0
    CDU_CR03_8 CDUCAP_8 1.0
    CDU_CR03_8 CDUMIN_8 1.0
    CDU_CR03_8 YLPG_CR03_8 -0.01400858068810675
    CDU_CR03_8 YNAP_CR03_8 -0.1424923117986131
    CDU_CR03_8 YKER_CR03_8 -0.10784088582669263
    CDU_CR03_8 YDSL_CR03_8 -0.19279120630762445
    CDU_CR03_8 YVGO_CR03_8 -0.28544626211923063
    CDU_CR03_8 YRES_CR03_8 -0.2574207532597324
    M8498 'MARKER' 'INTORG'
    NPAR_CR04_8 PARCEL_CR04_8 -20.0
    M8500 'MARKER' 'INTEND'
    BUY_CR04_8 OBJ -67.78999007293196
    BUY_CR04_8 PARCEL_CR04_8 1.0
    BUY_CR04_8 CBAL_CR04_8 1.0
    CINV_CR04_8 OBJ -0.3
    CINV_CR04_8 CBAL_CR04_8 -1.0
    CINV_CR04_8 CBAL_CR04_9 1.0
    CDU_CR04_8 CBAL_CR04_8 -1.0
    CDU_CR04_8 CDUCAP_8 1.0
    CDU_CR04_8 CDUMIN_8 1.0
    CDU_CR04_8 YLPG_CR04_8 -0.02335213093765316
    CDU_CR04_8 YNAP_CR04_8 -0.2292355396921612
    CDU_CR04_8 YKER_CR04_8 -0.14240695851543803
    CDU_CR04_8 YDSL_CR04_8 -0.24384363627499198
    CDU_CR04_8 YVGO_CR04_8 -0.2465326974706559
    CDU_CR04_8 YRES_CR04_8 -0.1146290371090997
    M8516 'MARKER' 'INTORG'
    NPAR_CR05_8 PARCEL_CR05_8 -20.0
    M8518 'MARKER' 'INTEND'
    BUY_CR05_8 OBJ -61.40162928969482
    BUY_CR05_8 PARCEL_CR05_8 1.0
    BUY_CR05_8 CBAL_CR05_8 1.0
    CINV_CR05_8 OBJ -0.3
    CINV_CR05_8 CBAL_CR05_8 -1.0
    CINV_CR05_8 CBAL_CR05_9 1.0
    CDU_CR05_8 CBAL_CR05_8 -1.0
    CDU_CR05_8 CDUCAP_8 1.0
    CDU_CR05_8 CDUMIN_8 1.0
    CDU_CR05_8 YLPG_CR05_8 -0.01735729802728813
    CDU_CR05_8 YNAP_CR05_8 -0.16608619710065003
    CDU_CR05_8 YKER_CR05_8 -0.1170544437563835
    CDU_CR05_8 YDSL_CR05_8 -0.22299235889970878
    CDU_CR05_8 YVGO_CR05_8 -0.2433490540516293
    CDU_CR05_8 YRES_CR05_8 -0.23316064816434035
    M8534 'MARKER' 'INTORG'
    NPAR_CR06_8 PARCEL_CR06_8 -20.0
    M8536 'MARKER' 'INTEND'
    BUY_CR06_8 OBJ -59.055818474670446
    BUY_CR06_8 PARCEL_CR06_8 1.0
    BUY_CR06_8 CBAL_CR06_8 1.0
    CINV_CR06_8 OBJ -0.3
    CINV_CR06_8 CBAL_CR06_8 -1.0
    CINV_CR06_8 CBAL_CR06_9 1.0
    CDU_CR06_8 CBAL_CR06_8 -1.0
    CDU_CR06_8 CDUCAP_8 1.0
    CDU_CR06_8 CDUMIN_8 1.0
    CDU_CR06_8 YLPG_CR06_8 -0.014219474855875663
    CDU_CR06_8 YNAP_CR06_8 -0.13746806025500902
    CDU_CR06_8 YKER_CR06_8 -0.10533897185985656
    CDU_CR06_8 YDSL_CR06_8 -0.20403840195434858
    CDU_CR06_8 YVGO_CR06_8 -0.26484358994429863
    CDU_CR06_8 YRES_CR06_8 -0.27409150113061165
    M8552 'MARKER' 'INTORG'
    NPAR_CR07_8 PARCEL_CR07_8 -20.0
    M8554 'MARKER' 'INTEND'
    BUY_CR07_8 OBJ -67.78308571688679
    BUY_CR07_8 PARCEL_CR07_8 1.0
    BUY_CR07_8 CBAL_CR07_8 1.0
    CINV_CR07_8 OBJ -0.3
    CINV_CR07_8 CBAL_CR07_8 -1.0
    CINV_CR07_8 CBAL_CR07_9 1.0
    CDU_CR07_8 CBAL_CR07_8 -1.0
    CDU_CR07_8 CDUCAP_8 1.0
    CDU_CR07_8 CDUMIN_8 1.0
    CDU_CR07_8 YLPG_CR07_8 -0.01678766142162217
    CDU_CR07_8 YNAP_CR07_8 -0.18341674311422207
    CDU_CR07_8 YKER_CR07_8 -0.13271469159016522
    CDU_CR07_8 YDSL_CR07_8 -0.2249127244045356
    CDU_CR07_8 YVGO_CR07_8 -0.24848613807316539
    CDU_CR07_8 YRES_CR07_8 -0.19368204139628944
    M8570 'MARKER' 'INTORG'
    NPAR_CR08_8 PARCEL_CR08_8 -20.0
    M8572 'MARKER' 'INTEND'
    BUY_CR08_8 OBJ -65.80188909220902
    BUY_CR08_8 PARCEL_CR08_8 1.0
    BUY_CR08_8 CBAL_CR08_8 1.0
    CINV_CR08_8 OBJ -0.3
    CINV_CR08_8 CBAL_CR08_8 -1.0
    CINV_CR08_8 CBAL_CR08_9 1.0
    CDU_CR08_8 CBAL_CR08_8 -1.0
    CDU_CR08_8 CDUCAP_8 1.0
    CDU_CR08_8 CDUMIN_8 1.0
    CDU_CR08_8 YLPG_CR08_8 -0.023930881960770135
    CDU_CR08_8 YNAP_CR08_8 -0.199474063989656
    CDU_CR08_8 YKER_CR08_8 -0.13012967624359006
    CDU_CR08_8 YDSL_CR08_8 -0.24906213509239003
    CDU_CR08_8 YVGO_CR08_8 -0.24247509330512357
    CDU_CR08_8 YRES_CR08_8 -0.15492814940847022
    M8588 'MARKER' 'INTORG'
    NPAR_CR09_8 PARCEL_CR09_8 -20.0
    M8590 'MARKER' 'INTEND'
    BUY_CR09_8 OBJ -73.90427651277113
    BUY_CR09_8 PARCEL_CR09_8 1.0
    BUY_CR09_8 CBAL_CR09_8 1.0
    CINV_CR09_8 OBJ -0.3
    CINV_CR09_8 CBAL_CR09_8 -1.0
    CINV_CR09_8 CBAL_CR09_9 1.0
    CDU_CR09_8 CBAL_CR09_8 -1.0
    CDU_CR09_8 CDUCAP_8 1.0
    CDU_CR09_8 CDUMIN_8 1.0
    CDU_CR09_8 YLPG_CR09_8 -0.0254414593142613
    CDU_CR09_8 YNAP_CR09_8 -0.2406668892422991
    CDU_CR09_8 YKER_CR09_8 -0.14150533274546892
    CDU_CR09_8 YDSL_CR09_8 -0.23713673044274025
    CDU_CR09_8 YVGO_CR09_8 -0.23566730460149374
    CDU_CR09_8 YRES_CR09_8 -0.11958228365373665
    M8606 'MARKER' 'INTORG'
    CDUMODE_8 OBJ -150.0
    CDUMODE_8 CDUCAP_8 -150.0
    CDUMODE_8 CDUMIN_8 -90.0
    M8610 'MARKER' 'INTEND'
    LPG_CR00_8 YLPG_CR00_8 1.0
    LPG_CR00_8 LPGBAL_8 -1.0
    NAP_CR00_8 YNAP_CR00_8 1.0
    NAP_CR00_8 NAPBAL_CR00_8 1.0
    KER_CR00_8 YKER_CR00_8 1.0
    KER_CR00_8 KERBAL_CR00_8 1.0
    DSL_CR00_8 YDSL_CR00_8 1.0
    DSL_CR00_8 DSLBAL_CR00_8 1.0
    VGO_CR00_8 YVGO_CR00_8 1.0
    VGO_CR00_8 VGOBAL_CR00_8 1.0
    RES_CR00_8 YRES_CR00_8 1.0
    RES_CR00_8 RESSPLIT_CR00_8 1.0
    LPG_CR01_8 YLPG_CR01_8 1.0
    LPG_CR01_8 LPGBAL_8 -1.0
    NAP_CR01_8 YNAP_CR01_8 1.0
    NAP_CR01_8 NAPBAL_CR01_8 1.0
    KER_CR01_8 YKER_CR01_8 1.0
    KER_CR01_8 KERBAL_CR01_8 1.0
    DSL_CR01_8 YDSL_CR01_8 1.0
    DSL_CR01_8 DSLBAL_CR01_8 1.0
    VGO_CR01_8 YVGO_CR01_8 1.0
    VGO_CR01_8 VGOBAL_CR01_8 1.0
    RES_CR01_8 YRES_CR01_8 1.0
    RES_CR01_8 RESSPLIT_CR01_8 1.0
    LPG_CR02_8 YLPG_CR02_8 1.0
    LPG_CR02_8 LPGBAL_8 -1.0
    NAP_CR02_8 YNAP_CR02_8 1.0
    NAP_CR02_8 NAPBAL_CR02_8 1.0
    KER_CR02_8 YKER_CR02_8 1.0
    KER_CR02_8 KERBAL_CR02_8 1.0
    DSL_CR02_8 YDSL_CR02_8 1.0
    DSL_CR02_8 DSLBAL_CR02_8 1.0
    VGO_CR02_8 YVGO_CR02_8 1.0
    VGO_CR02_8 VGOBAL_CR02_8 1.0
    RES_CR02_8 YRES_CR02_8 1.0
    RES_CR02_8 RESSPLIT_CR02_8 1.0
    LPG_CR03_8 YLPG_CR03_8 1.0
    LPG_CR03_8 LPGBAL_8 -1.0
    NAP_CR03_8 YNAP_CR03_8 1.0
    NAP_CR03_8 NAPBAL_CR03_8 1.0
    KER_CR03_8 YKER_CR03_8 1.0
    KER_CR03_8 KERBAL_CR03_8 1.0
    DSL_CR03_8 YDSL_CR03_8 1.0
    DSL_CR03_8 DSLBAL_CR03_8 1.0
    VGO_CR03_8 YVGO_CR03_8 1.0
    VGO_CR03_8 VGOBAL_CR03_8 1.0
    RES_CR03_8 YRES_CR03_8 1.0
    RES_CR03_8 RESSPLIT_CR03_8 1.0
    LPG_CR04_8 YLPG_CR04_8 1.0
    LPG_CR04_8 LPGBAL_8 -1.0
    NAP_CR04_8 YNAP_CR04_8 1.0
    NAP_CR04_8 NAPBAL_CR04_8 1.0
    KER_CR04_8 YKER_CR04_8 1.0
    KER_CR04_8 KERBAL_CR04_8 1.0
    DSL_CR04_8 YDSL_CR04_8 1.0
    DSL_CR04_8 DSLBAL_CR04_8 1.0
    VGO_CR04_8 YVGO_CR04_8 1.0
    VGO_CR04_8 VGOBAL_CR04_8 1.0
    RES_CR04_8 YRES_CR04_8 1.0
    RES_CR04_8 RESSPLIT_CR04_8 1.0
    LPG_CR05_8 YLPG_CR05_8 1.0
    LPG_CR05_8 LPGBAL_8 -1.0
    NAP_CR05_8 YNAP_CR05_8 1.0
    NAP_CR05_8 NAPBAL_CR05_8 1.0
    KER_CR05_8 YKER_CR05_8 1.0
    KER_CR05_8 KERBAL_CR05_8 1.0
    DSL_CR05_8 YDSL_CR05_8 1.0
    DSL_CR05_8 DSLBAL_CR05_8 1.0
    VGO_CR05_8 YVGO_CR05_8 1.0
    VGO_CR05_8 VGOBAL_CR05_8 1.0
    RES_CR05_8 YRES_CR05_8 1.0
    RES_CR05_8 RESSPLIT_CR05_8 1.0
    LPG_CR06_8 YLPG_CR06_8 1.0
    LPG_CR06_8 LPGBAL_8 -1.0
    NAP_CR06_8 YNAP_CR06_8 1.0
    NAP_CR06_8 NAPBAL_CR06_8 1.0
    KER_CR06_8 YKER_CR06_8 1.0
    KER_CR06_8 KERBAL_CR06_8 1.0
    DSL_CR06_8 YDSL_CR06_8 1.0
    DSL_CR06_8 DSLBAL_CR06_8 1.0
    VGO_CR06_8 YVGO_CR06_8 1.0
    VGO_CR06_8 VGOBAL_CR06_8 1.0
    RES_CR06_8 YRES_CR06_8 1.0
    RES_CR06_8 RESSPLIT_CR06_8 1.0
    LPG_CR07_8 YLPG_CR07_8 1.0
    LPG_CR07_8 LPGBAL_8 -1.0
    NAP_CR07_8 YNAP_CR07_8 1.0
    NAP_CR07_8 NAPBAL_CR07_8 1.0
    KER_CR07_8 YKER_CR07_8 1.0
    KER_CR07_8 KERBAL_CR07_8 1.0
    DSL_CR07_8 YDSL_CR07_8 1.0
    DSL_CR07_8 DSLBAL_CR07_8 1.0
    VGO_CR07_8 YVGO_CR07_8 1.0
    VGO_CR07_8 VGOBAL_CR07_8 1.0
    RES_CR07_8 YRES_CR07_8 1.0
    RES_CR07_8 RESSPLIT_CR07_8 1.0
    LPG_CR08_8 YLPG_CR08_8 1.0
    LPG_CR08_8 LPGBAL_8 -1.0
    NAP_CR08_8 YNAP_CR08_8 1.0
    NAP_CR08_8 NAPBAL_CR08_8 1.0
    KER_CR08_8 YKER_CR08_8 1.0
    KER_CR08_8 KERBAL_CR08_8 1.0
    DSL_CR08_8 YDSL_CR08_8 1.0
    DSL_CR08_8 DSLBAL_CR08_8 1.0
    VGO_CR08_8 YVGO_CR08_8 1.0
    VGO_CR08_8 VGOBAL_CR08_8 1.0
    RES_CR08_8 YRES_CR08_8 1.0
    RES_CR08_8 RESSPLIT_CR08_8 1.0
    LPG_CR09_8 YLPG_CR09_8 1.0
    LPG_CR09_8 LPGBAL_8 -1.0
    NAP_CR09_8 YNAP_CR09_8 1.0
    NAP_CR09_8 NAPBAL_CR09_8 1.0
    KER_CR09_8 YKER_CR09_8 1.0
    KER_CR09_8 KERBAL_CR09_8 1.0
    DSL_CR09_8 YDSL_CR09_8 1.0
    DSL_CR09_8 DSLBAL_CR09_8 1.0
    VGO_CR09_8 YVGO_CR09_8 1.0
    VGO_CR09_8 VGOBAL_CR09_8 1.0
    RES_CR09_8 YRES_CR09_8 1.0
    RES_CR09_8 RESSPLIT_CR09_8 1.0
    VDUIN_CR00_8 RESSPLIT_CR00_8 -1.0
    VDUIN_CR00_8 VDUY1_CR00_8 -0.45
    VDUIN_CR00_8 VDUY2_CR00_8 -0.55
    VDUIN_CR00_8 VDUCAP_8 1.0
    RESFO_CR00_8 RESSPLIT_CR00_8 -1.0
    RESFO_CR00_8 FOBAL_8 -1.0
    RESFO_CR00_8 FOSUL_8 1.9540891690108433
    VGO2_CR00_8 VDUY1_CR00_8 1.0
    VGO2_CR00_8 VGOBAL_CR00_8 1.0
    VR_CR00_8 VDUY2_CR00_8 1.0
    VR_CR00_8 FOBAL_8 -1.0
    VR_CR00_8 FOSUL_8 3.5903159197140964
    VDUIN_CR01_8 RESSPLIT_CR01_8 -1.0
    VDUIN_CR01_8 VDUY1_CR01_8 -0.45
    VDUIN_CR01_8 VDUY2_CR01_8 -0.55
    VDUIN_CR01_8 VDUCAP_8 1.0
    RESFO_CR01_8 RESSPLIT_CR01_8 -1.0
    RESFO_CR01_8 FOBAL_8 -1.0
    RESFO_CR01_8 FOSUL_8 -0.6168441789886687
    VGO2_CR01_8 VDUY1_CR01_8 1.0
    VGO2_CR01_8 VGOBAL_CR01_8 1.0
    VR_CR01_8 VDUY2_CR01_8 1.0
    VR_CR01_8 FOBAL_8 -1.0
    VR_CR01_8 FOSUL_8 0.24810256731473057
    VDUIN_CR02_8 RESSPLIT_CR02_8 -1.0
    VDUIN_CR02_8 VDUY1_CR02_8 -0.45
    VDUIN_CR02_8 VDUY2_CR02_8 -0.55
    VDUIN_CR02_8 VDUCAP_8 1.0
    RESFO_CR02_8 RESSPLIT_CR02_8 -1.0
    RESFO_CR02_8 FOBAL_8 -1.0
    RESFO_CR02_8 FOSUL_8 0.05675733131967897
    VGO2_CR02_8 VDUY1_CR02_8 1.0
    VGO2_CR02_8 VGOBAL_CR02_8 1.0
    VR_CR02_8 VDUY2_CR02_8 1.0
    VR_CR02_8 FOBAL_8 -1.0
    VR_CR02_8 FOSUL_8 1.1237845307155832
    VDUIN_CR03_8 RESSPLIT_CR03_8 -1.0
    VDUIN_CR03_8 VDUY1_CR03_8 -0.45
    VDUIN_CR03_8 VDUY2_CR03_8 -0.55
    VDUIN_CR03_8 VDUCAP_8 1.0
    RESFO_CR03_8 RESSPLIT_CR03_8 -1.0
    RESFO_CR03_8 FOBAL_8 -1.0
    RESFO_CR03_8 FOSUL_8 -1.8686274424458973
    VGO2_CR03_8 VDUY1_CR03_8 1.0
    VGO2_CR03_8 VGOBAL_CR03_8 1.0
    VR_CR03_8 VDUY2_CR03_8 1.0
    VR_CR03_8 FOBAL_8 -1.0
    VR_CR03_8 FOSUL_8 -1.3792156751796663
    VDUIN_CR04_8 RESSPLIT_CR04_8 -1.0
    VDUIN_CR04_8 VDUY1_CR04_8 -0.45
    VDUIN_CR04_8 VDUY2_CR04_8 -0.55
    VDUIN_CR04_8 VDUCAP_8 1.0
    RESFO_CR04_8 RESSPLIT_CR04_8 -1.0
    RESFO_CR04_8 FOBAL_8 -1.0
    RESFO_CR04_8 FOSUL_8 2.031668478530798
    VGO2_CR04_8 VDUY1_CR04_8 1.0
    VGO2_CR04_8 VGOBAL_CR04_8 1.0
    VR_CR04_8 VDUY2_CR04_8 1.0
    VR_CR04_8 FOBAL_8 -1.0
    VR_CR04_8 FOSUL_8 3.6911690220900377
    VDUIN_CR05_8 RESSPLIT_CR05_8 -1.0
    VDUIN_CR05_8 VDUY1_CR05_8 -0.45
    VDUIN_CR05_8 VDUY2_CR05_8 -0.55
    VDUIN_CR05_8 VDUCAP_8 1.0
    RESFO_CR05_8 RESSPLIT_CR05_8 -1.0
    RESFO_CR05_8 FOBAL_8 -1.0
    RESFO_CR05_8 FOSUL_8 0.3429997580900688
    VGO2_CR05_8 VDUY1_CR05_8 1.0
    VGO2_CR05_8 VGOBAL_CR05_8 1.0
    VR_CR05_8 VDUY2_CR05_8 1.0
    VR_CR05_8 FOBAL_8 -1.0
    VR_CR05_8 FOSUL_8 1.4958996855170898
    VDUIN_CR06_8 RESSPLIT_CR06_8 -1.0
    VDUIN_CR06_8 VDUY1_CR06_8 -0.45
    VDUIN_CR06_8 VDUY2_CR06_8 -0.55
    VDUIN_CR06_8 VDUCAP_8 1.0
    RESFO_CR06_8 RESSPLIT_CR06_8 -1.0
    RESFO_CR06_8 FOBAL_8 -1.0
    RESFO_CR06_8 FOSUL_8 0.10255232060654862
    VGO2_CR06_8 VDUY1_CR06_8 1.0
    VGO2_CR06_8 VGOBAL_CR06_8 1.0
    VR_CR06_8 VDUY2_CR06_8 1.0
    VR_CR06_8 FOBAL_8 -1.0
    VR_CR06_8 FOSUL_8 1.1833180167885136
    VDUIN_CR07_8 RESSPLIT_CR07_8 -1.0
    VDUIN_CR07_8 VDUY1_CR07_8 -0.45
    VDUIN_CR07_8 VDUY2_CR07_8 -0.55
    VDUIN_CR07_8 VDUCAP_8 1.0
    RESFO_CR07_8 RESSPLIT_CR07_8 -1.0
    RESFO_CR07_8 FOBAL_8 -1.0
    RESFO_CR07_8 FOSUL_8 -3.116635223405176
    VGO2_CR07_8 VDUY1_CR07_8 1.0
    VGO2_CR07_8 VGOBAL_CR07_8 1.0
    VR_CR07_8 VDUY2_CR07_8 1.0
    VR_CR07_8 FOBAL_8 -1.0
    VR_CR07_8 FOSUL_8 -3.001625790426729
    VDUIN_CR08_8 RESSPLIT_CR08_8 -1.0
    VDUIN_CR08_8 VDUY1_CR08_8 -0.45
    VDUIN_CR08_8 VDUY2_CR08_8 -0.55
    VDUIN_CR08_8 VDUCAP_8 1.0
    RESFO_CR08_8 RESSPLIT_CR08_8 -1.0
    RESFO_CR08_8 FOBAL_8 -1.0
    RESFO_CR08_8 FOSUL_8 0.0456281803886287
    VGO2_CR08_8 VDUY1_CR08_8 1.0
    VGO2_CR08_8 VGOBAL_CR08_8 1.0
    VR_CR08_8 VDUY2_CR08_8 1.0
    VR_CR08_8 FOBAL_8 -1.0
    VR_CR08_8 FOSUL_8 1.109316634505218
    VDUIN_CR09_8 RESSPLIT_CR09_8 -1.0
    VDUIN_CR09_8 VDUY1_CR09_8 -0.45
    VDUIN_CR09_8 VDUY2_CR09_8 -0.55
    VDUIN_CR09_8 VDUCAP_8 1.0
    RESFO_CR09_8 RESSPLIT_CR09_8 -1.0
    RESFO_CR09_8 FOBAL_8 -1.0
    RESFO_CR09_8 FOSUL_8 -3.264603397407564
    VGO2_CR09_8 VDUY1_CR09_8 1.0
    VGO2_CR09_8 VGOBAL_CR09_8 1.0
    VR_CR09_8 VDUY2_CR09_8 1.0
    VR_CR09_8 FOBAL_8 -1.0
    VR_CR09_8 FOSUL_8 -3.1939844166298332
    FCCIN_CR00_8 OBJ -2.5
    FCCIN_CR00_8 VGOBAL_CR00_8 -1.0
    FCCIN_CR00_8 FCCCAP_8 1.0
    FCCIN_CR00_8 FCCY_FCCG_8 -0.55
    FCCIN_CR00_8 FCCY_LCO_8 -0.2
    FCCIN_CR00_8 FCCY_FLPG_8 -0.15
    FCCIN_CR00_8 FCCY_SLURRY_8 -0.07
    FCCIN_CR01_8 OBJ -2.5
    FCCIN_CR01_8 VGOBAL_CR01_8 -1.0
    FCCIN_CR01_8 FCCCAP_8 1.0
    FCCIN_CR01_8 FCCY_FCCG_8 -0.55
    FCCIN_CR01_8 FCCY_LCO_8 -0.2
    FCCIN_CR01_8 FCCY_FLPG_8 -0.15
    FCCIN_CR01_8 FCCY_SLURRY_8 -0.07
    FCCIN_CR02_8 OBJ -2.5
    FCCIN_CR02_8 VGOBAL_CR02_8 -1.0
    FCCIN_CR02_8 FCCCAP_8 1.0
    FCCIN_CR02_8 FCCY_FCCG_8 -0.55
    FCCIN_CR02_8 FCCY_LCO_8 -0.2
    FCCIN_CR02_8 FCCY_FLPG_8 -0.15
    FCCIN_CR02_8 FCCY_SLURRY_8 -0.07
    FCCIN_CR03_8 OBJ -2.5
    FCCIN_CR03_8 VGOBAL_CR03_8 -1.0
    FCCIN_CR03_8 FCCCAP_8 1.0
    FCCIN_CR03_8 FCCY_FCCG_8 -0.55
    FCCIN_CR03_8 FCCY_LCO_8 -0.2
    FCCIN_CR03_8 FCCY_FLPG_8 -0.15
    FCCIN_CR03_8 FCCY_SLURRY_8 -0.07
    FCCIN_CR04_8 OBJ -2.5
    FCCIN_CR04_8 VGOBAL_CR04_8 -1.0
    FCCIN_CR04_8 FCCCAP_8 1.0
    FCCIN_CR04_8 FCCY_FCCG_8 -0.55
    FCCIN_CR04_8 FCCY_LCO_8 -0.2
    FCCIN_CR04_8 FCCY_FLPG_8 -0.15
    FCCIN_CR04_8 FCCY_SLURRY_8 -0.07
    FCCIN_CR05_8 OBJ -2.5
    FCCIN_CR05_8 VGOBAL_CR05_8 -1.0
    FCCIN_CR05_8 FCCCAP_8 1.0
    FCCIN_CR05_8 FCCY_FCCG_8 -0.55
    FCCIN_CR05_8 FCCY_LCO_8 -0.2
    FCCIN_CR05_8 FCCY_FLPG_8 -0.15
    FCCIN_CR05_8 FCCY_SLURRY_8 -0.07
    FCCIN_CR06_8 OBJ -2.5
    FCCIN_CR06_8 VGOBAL_CR06_8 -1.0
    FCCIN_CR06_8 FCCCAP_8 1.0
    FCCIN_CR06_8 FCCY_FCCG_8 -0.55
    FCCIN_CR06_8 FCCY_LCO_8 -0.2
    FCCIN_CR06_8 FCCY_FLPG_8 -0.15
    FCCIN_CR06_8 FCCY_SLURRY_8 -0.07
    FCCIN_CR07_8 OBJ -2.5
    FCCIN_CR07_8 VGOBAL_CR07_8 -1.0
    FCCIN_CR07_8 FCCCAP_8 1.0
    FCCIN_CR07_8 FCCY_FCCG_8 -0.55
    FCCIN_CR07_8 FCCY_LCO_8 -0.2
    FCCIN_CR07_8 FCCY_FLPG_8 -0.15
    FCCIN_CR07_8 FCCY_SLURRY_8 -0.07
    FCCIN_CR08_8 OBJ -2.5
    FCCIN_CR08_8 VGOBAL_CR08_8 -1.0
    FCCIN_CR08_8 FCCCAP_8 1.0
    FCCIN_CR08_8 FCCY_FCCG_8 -0.55
    FCCIN_CR08_8 FCCY_LCO_8 -0.2
    FCCIN_CR08_8 FCCY_FLPG_8 -0.15
    FCCIN_CR08_8 FCCY_SLURRY_8 -0.07
    FCCIN_CR09_8 OBJ -2.5
    FCCIN_CR09_8 VGOBAL_CR09_8 -1.0
    FCCIN_CR09_8 FCCCAP_8 1.0
    FCCIN_CR09_8 FCCY_FCCG_8 -0.55
    FCCIN_CR09_8 FCCY_LCO_8 -0.2
    FCCIN_CR09_8 FCCY_FLPG_8 -0.15
    FCCIN_CR09_8 FCCY_SLURRY_8 -0.07
    FCCG_8 FCCY_FCCG_8 1.0
    FCCG_8 GASBAL_8 -1.0
    FCCG_8 GASRON_8 1.0
    LCO_8 FCCY_LCO_8 1.0
    LCO_8 LCOBAL_8 1.0
    FLPG_8 FCCY_FLPG_8 1.0
    FLPG_8 LPGBAL_8 -1.0
    SLURRY_8 FCCY_SLURRY_8 1.0
    SLURRY_8 FOBAL_8 -1.0
    SLURRY_8 FOSUL_8 -1.5
    REFIN_CR00_8 OBJ -3.0
    REFIN_CR00_8 NAPBAL_CR00_8 -1.0
    REFIN_CR00_8 REFCAP_8 1.0
    REFIN_CR00_8 REFY_8 -0.85
    NAPGAS_CR00_8 NAPBAL_CR00_8 -1.0
    NAPGAS_CR00_8 GASBAL_8 -1.0
    NAPGAS_CR00_8 GASRON_8 -41.351908455631545
    REFIN_CR01_8 OBJ -3.0
    REFIN_CR01_8 NAPBAL_CR01_8 -1.0
    REFIN_CR01_8 REFCAP_8 1.0
    REFIN_CR01_8 REFY_8 -0.85
    NAPGAS_CR01_8 NAPBAL_CR01_8 -1.0
    NAPGAS_CR01_8 GASBAL_8 -1.0
    NAPGAS_CR01_8 GASRON_8 -33.623043958680114
    REFIN_CR02_8 OBJ -3.0
    REFIN_CR02_8 NAPBAL_CR02_8 -1.0
    REFIN_CR02_8 REFCAP_8 1.0
    REFIN_CR02_8 REFY_8 -0.85
    NAPGAS_CR02_8 NAPBAL_CR02_8 -1.0
    NAPGAS_CR02_8 GASBAL_8 -1.0
    NAPGAS_CR02_8 GASRON_8 -39.74522208078083
    REFIN_CR03_8 OBJ -3.0
    REFIN_CR03_8 NAPBAL_CR03_8 -1.0
    REFIN_CR03_8 REFCAP_8 1.0
    REFIN_CR03_8 REFY_8 -0.85
    NAPGAS_CR03_8 NAPBAL_CR03_8 -1.0
    NAPGAS_CR03_8 GASBAL_8 -1.0
    NAPGAS_CR03_8 GASRON_8 -39.32063345179839
    REFIN_CR04_8 OBJ -3.0
    REFIN_CR04_8 NAPBAL_CR04_8 -1.0
    REFIN_CR04_8 REFCAP_8 1.0
    REFIN_CR04_8 REFY_8 -0.85
    NAPGAS_CR04_8 NAPBAL_CR04_8 -1.0
    NAPGAS_CR04_8 GASBAL_8 -1.0
    NAPGAS_CR04_8 GASRON_8 -28.06018906757886
    REFIN_CR05_8 OBJ -3.0
    REFIN_CR05_8 NAPBAL_CR05_8 -1.0
    REFIN_CR05_8 REFCAP_8 1.0
    REFIN_CR05_8 REFY_8 -0.85
    NAPGAS_CR05_8 NAPBAL_CR05_8 -1.0
    NAPGAS_CR05_8 GASBAL_8 -1.0
    NAPGAS_CR05_8 GASRON_8 -37.177062383933254
    REFIN_CR06_8 OBJ -3.0
    REFIN_CR06_8 NAPBAL_CR06_8 -1.0
    REFIN_CR06_8 REFCAP_8 1.0
    REFIN_CR06_8 REFY_8 -0.85
    NAPGAS_CR06_8 NAPBAL_CR06_8 -1.0
    NAPGAS_CR06_8 GASBAL_8 -1.0
    NAPGAS_CR06_8 GASRON_8 -38.73738801284508
    REFIN_CR07_8 OBJ -3.0
    REFIN_CR07_8 NAPBAL_CR07_8 -1.0
    REFIN_CR07_8 REFCAP_8 1.0
    REFIN_CR07_8 REFY_8 -0.85
    NAPGAS_CR07_8 NAPBAL_CR07_8 -1.0
    NAPGAS_CR07_8 GASBAL_8 -1.0
    NAPGAS_CR07_8 GASRON_8 -31.720911449683953
    REFIN_CR08_8 OBJ -3.0
    REFIN_CR08_8 NAPBAL_CR08_8 -1.0
    REFIN_CR08_8 REFCAP_8 1.0
    REFIN_CR08_8 REFY_8 -0.85
    NAPGAS_CR08_8 NAPBAL_CR08_8 -1.0
    NAPGAS_CR08_8 GASBAL_8 -1.0
    NAPGAS_CR08_8 GASRON_8 -31.236267605063702
    REFIN_CR09_8 OBJ -3.0
    REFIN_CR09_8 NAPBAL_CR09_8 -1.0
    REFIN_CR09_8 REFCAP_8 1.0
    REFIN_CR09_8 REFY_8 -0.85
    NAPGAS_CR09_8 NAPBAL_CR09_8 -1.0
    NAPGAS_CR09_8 GASBAL_8 -1.0
    NAPGAS_CR09_8 GASRON_8 -29.9151768258086
    REFORMATE_8 REFY_8 1.0
    REFORMATE_8 GASBAL_8 -1.0
    REFORMATE_8 GASRON_8 7.0
    DHTIN_CR00_8 OBJ -2.0
    DHTIN_CR00_8 DSLBAL_CR00_8 -1.0
    DHTIN_CR00_8 DHTCAP_8 1.0
    DHTIN_CR00_8 DHTY_8 -0.98
    DSLDIR_CR00_8 DSLBAL_CR00_8 -1.0
    DSLDIR_CR00_8 DSLPB_8 -1.0
    DSLDIR_CR00_8 DSLSUL_8 1.5862267507032528
    DHTIN_CR01_8 OBJ -2.0
    DHTIN_CR01_8 DSLBAL_CR01_8 -1.0
    DHTIN_CR01_8 DHTCAP_8 1.0
    DHTIN_CR01_8 DHTY_8 -0.98
    DSLDIR_CR01_8 DSLBAL_CR01_8 -1.0
    DSLDIR_CR01_8 DSLPB_8 -1.0
    DSLDIR_CR01_8 DSLSUL_8 0.8149467463033994
    DHTIN_CR02_8 OBJ -2.0
    DHTIN_CR02_8 DSLBAL_CR02_8 -1.0
    DHTIN_CR02_8 DHTCAP_8 1.0
    DHTIN_CR02_8 DHTY_8 -0.98
    DSLDIR_CR02_8 DSLBAL_CR02_8 -1.0
    DSLDIR_CR02_8 DSLPB_8 -1.0
    DSLDIR_CR02_8 DSLSUL_8 1.0170271993959037
    DHTIN_CR03_8 OBJ -2.0
    DHTIN_CR03_8 DSLBAL_CR03_8 -1.0
    DHTIN_CR03_8 DHTCAP_8 1.0
    DHTIN_CR03_8 DHTY_8 -0.98
    DSLDIR_CR03_8 DSLBAL_CR03_8 -1.0
    DSLDIR_CR03_8 DSLPB_8 -1.0
    DSLDIR_CR03_8 DSLSUL_8 0.4394117672662308
    DHTIN_CR04_8 OBJ -2.0
    DHTIN_CR04_8 DSLBAL_CR04_8 -1.0
    DHTIN_CR04_8 DHTCAP_8 1.0
    DHTIN_CR04_8 DHTY_8 -0.98
    DSLDIR_CR04_8 DSLBAL_CR04_8 -1.0
    DSLDIR_CR04_8 DSLPB_8 -1.0
    DSLDIR_CR04_8 DSLSUL_8 1.6095005435592393
    DHTIN_CR05_8 OBJ -2.0
    DHTIN_CR05_8 DSLBAL_CR05_8 -1.0
    DHTIN_CR05_8 DHTCAP_8 1.0
    DHTIN_CR05_8 DHTY_8 -0.98
    DSLDIR_CR05_8 DSLBAL_CR05_8 -1.0
    DSLDIR_CR05_8 DSLPB_8 -1.0
    DSLDIR_CR05_8 DSLSUL_8 1.1028999274270206
    DHTIN_CR06_8 OBJ -2.0
    DHTIN_CR06_8 DSLBAL_CR06_8 -1.0
    DHTIN_CR06_8 DHTCAP_8 1.0
    DHTIN_CR06_8 DHTY_8 -0.98
    DSLDIR_CR06_8 DSLBAL_CR06_8 -1.0
    DSLDIR_CR06_8 DSLPB_8 -1.0
    DSLDIR_CR06_8 DSLSUL_8 1.0307656961819645
    DHTIN_CR07_8 OBJ -2.0
    DHTIN_CR07_8 DSLBAL_CR07_8 -1.0
    DHTIN_CR07_8 DHTCAP_8 1.0
    DHTIN_CR07_8 DHTY_8 -0.98
    DSLDIR_CR07_8 DSLBAL_CR07_8 -1.0
    DSLDIR_CR07_8 DSLPB_8 -1.0
    DSLDIR_CR07_8 DSLSUL_8 0.06500943297844713
    DHTIN_CR08_8 OBJ -2.0
    DHTIN_CR08_8 DSLBAL_CR08_8 -1.0
    DHTIN_CR08_8 DHTCAP_8 1.0
    DHTIN_CR08_8 DHTY_8 -0.98
    DSLDIR_CR08_8 DSLBAL_CR08_8 -1.0
    DSLDIR_CR08_8 DSLPB_8 -1.0
    DSLDIR_CR08_8 DSLSUL_8 1.0136884541165885
    DHTIN_CR09_8 OBJ -2.0
    DHTIN_CR09_8 DSLBAL_CR09_8 -1.0
    DHTIN_CR09_8 DHTCAP_8 1.0
    DHTIN_CR09_8 DHTY_8 -0.98
    DSLDIR_CR09_8 DSLBAL_CR09_8 -1.0
    DSLDIR_CR09_8 DSLPB_8 -1.0
    DSLDIR_CR09_8 DSLSUL_8 0.020618980777730833
    LCODHT_8 LCOBAL_8 -1.0
    LCODHT_8 DHTCAP_8 1.0
    LCODHT_8 DHTY_8 -0.95
    LCOFO_8 LCOBAL_8 -1.0
    LCOFO_8 FOBAL_8 -1.0
    LCOFO_8 FOSUL_8 -2.5
    ULSD_8 DHTY_8 1.0
    ULSD_8 DSLPB_8 -1.0
    ULSD_8 DSLSUL_8 -0.049
    SELL_LPG_8 OBJ 50.23686027918559
    SELL_LPG_8 PBAL_LPG_8 -1.0
    SELL_LPG_8 DMAX_LPG_8 1.0
    SELL_LPG_8 DMIN_LPG_8 1.0
    SELL_GAS_8 OBJ 95.9067332602634
    SELL_GAS_8 PBAL_GAS_8 -1.0
    SELL_GAS_8 DMAX_GAS_8 1.0
    SELL_GAS_8 DMIN_GAS_8 1.0
    SELL_JET_8 OBJ 91.33974596215562
    SELL_JET_8 PBAL_JET_8 -1.0
    SELL_JET_8 DMAX_JET_8 1.0
    SELL_JET_8 DMIN_JET_8 1.0
    SELL_DSL_8 OBJ 89.5129510429125
    SELL_DSL_8 PBAL_DSL_8 -1.0
    SELL_DSL_8 DMAX_DSL_8 1.0
    SELL_DSL_8 DMIN_DSL_8 1.0
    SELL_FO_8 OBJ 54.80384757729337
    SELL_FO_8 PBAL_FO_8 -1.0
    SELL_FO_8 DMAX_FO_8 1.0
    SELL_FO_8 DMIN_FO_8 1.0
    PINV_LPG_8 OBJ -0.5
    PINV_LPG_8 PBAL_LPG_8 -1.0
    PINV_LPG_8 PBAL_LPG_9 1.0
    PINV_GAS_8 OBJ -0.5
    PINV_GAS_8 PBAL_GAS_8 -1.0
    PINV_GAS_8 PBAL_GAS_9 1.0
    PINV_JET_8 OBJ -0.5
    PINV_JET_8 PBAL_JET_8 -1.0
    PINV_JET_8 PBAL_JET_9 1.0
    PINV_DSL_8 OBJ -0.5
    PINV_DSL_8 PBAL_DSL_8 -1.0
    PINV_DSL_8 PBAL_DSL_9 1.0
    PINV_FO_8 OBJ -0.5
    PINV_FO_8 PBAL_FO_8 -1.0
    PINV_FO_8 PBAL_FO_9 1.0
    SHORT_LPG_8 OBJ -400.0
    SHORT_LPG_8 DMIN_LPG_8 1.0
    SHORT_GAS_8 OBJ -400.0
    SHORT_GAS_8 DMIN_GAS_8 1.0
    SHORT_JET_8 OBJ -400.0
    SHORT_JET_8 DMIN_JET_8 1.0
    SHORT_DSL_8 OBJ -400.0
    SHORT_DSL_8 DMIN_DSL_8 1.0
    SHORT_FO_8 OBJ -400.0
    SHORT_FO_8 DMIN_FO_8 1.0
    GASPOOL_8 GASBAL_8 1.0
    GASPOOL_8 PBAL_GAS_8 1.0
    JETPOOL_8 JETBAL_8 1.0
    JETPOOL_8 PBAL_JET_8 1.0
    KERJET_CR00_8 KERBAL_CR00_8 -1.0
    KERJET_CR00_8 JETBAL_8 -1.0
    KERJET_CR00_8 JETSUL_8 0.10905668767581322
    KERDSL_CR00_8 KERBAL_CR00_8 -1.0
    KERDSL_CR00_8 DSLPB_8 -1.0
    KERDSL_CR00_8 DSLSUL_8 0.3590566876758132
    KERJET_CR01_8 KERBAL_CR01_8 -1.0
    KERJET_CR01_8 JETBAL_8 -1.0
    KERJET_CR01_8 JETSUL_8 -0.08376331342415014
    KERDSL_CR01_8 KERBAL_CR01_8 -1.0
    KERDSL_CR01_8 DSLPB_8 -1.0
    KERDSL_CR01_8 DSLSUL_8 0.16623668657584983
    KERJET_CR02_8 KERBAL_CR02_8 -1.0
    KERJET_CR02_8 JETBAL_8 -1.0
    KERJET_CR02_8 JETSUL_8 -0.033243200151024055
    KERDSL_CR02_8 KERBAL_CR02_8 -1.0
    KERDSL_CR02_8 DSLPB_8 -1.0
    KERDSL_CR02_8 DSLSUL_8 0.21675679984897595
    KERJET_CR03_8 KERBAL_CR03_8 -1.0
    KERJET_CR03_8 JETBAL_8 -1.0
    KERJET_CR03_8 JETSUL_8 -0.17764705818344229
    KERDSL_CR03_8 KERBAL_CR03_8 -1.0
    KERDSL_CR03_8 DSLPB_8 -1.0
    KERDSL_CR03_8 DSLSUL_8 0.0723529418165577
    KERJET_CR04_8 KERBAL_CR04_8 -1.0
    KERJET_CR04_8 JETBAL_8 -1.0
    KERJET_CR04_8 JETSUL_8 0.11487513588980985
    KERDSL_CR04_8 KERBAL_CR04_8 -1.0
    KERDSL_CR04_8 DSLPB_8 -1.0
    KERDSL_CR04_8 DSLSUL_8 0.36487513588980985
    KERJET_CR05_8 KERBAL_CR05_8 -1.0
    KERJET_CR05_8 JETBAL_8 -1.0
    KERJET_CR05_8 JETSUL_8 -0.011775018143244831
    KERDSL_CR05_8 KERBAL_CR05_8 -1.0
    KERDSL_CR05_8 DSLPB_8 -1.0
    KERDSL_CR05_8 DSLSUL_8 0.23822498185675517
    KERJET_CR06_8 KERBAL_CR06_8 -1.0
    KERJET_CR06_8 JETBAL_8 -1.0
    KERJET_CR06_8 JETSUL_8 -0.029808575954508865
    KERDSL_CR06_8 KERBAL_CR06_8 -1.0
    KERDSL_CR06_8 DSLPB_8 -1.0
    KERDSL_CR06_8 DSLSUL_8 0.22019142404549114
    KERJET_CR07_8 KERBAL_CR07_8 -1.0
    KERJET_CR07_8 JETBAL_8 -1.0
    KERJET_CR07_8 JETSUL_8 -0.2712476417553882
    KERDSL_CR07_8 KERBAL_CR07_8 -1.0
    KERDSL_CR07_8 DSLPB_8 -1.0
    KERDSL_CR07_8 DSLSUL_8 -0.02124764175538822
    KERJET_CR08_8 KERBAL_CR08_8 -1.0
    KERJET_CR08_8 JETBAL_8 -1.0
    KERJET_CR08_8 JETSUL_8 -0.03407788647085286
    KERDSL_CR08_8 KERBAL_CR08_8 -1.0
    KERDSL_CR08_8 DSLPB_8 -1.0
    KERDSL_CR08_8 DSLSUL_8 0.21592211352914714
    KERJET_CR09_8 KERBAL_CR09_8 -1.0
    KERJET_CR09_8 JETBAL_8 -1.0
    KERJET_CR09_8 JETSUL_8 -0.28234525480556727
    KERDSL_CR09_8 KERBAL_CR09_8 -1.0
    KERDSL_CR09_8 DSLPB_8 -1.0
    KERDSL_CR09_8 DSLSUL_8 -0.0323452548055673
    DSLPOOL_8 DSLPB_8 1.0
    DSLPOOL_8 PBAL_DSL_8 1.0
    LPGPOOL_8 LPGBAL_8 1.0
    LPGPOOL_8 PBAL_LPG_8 1.0
    FOPOOL_8 FOBAL_8 1.0
    FOPOOL_8 PBAL_FO_8 1.0
    M9198 'MARKER' 'INTORG'
    NPAR_CR00_9 PARCEL_CR00_9 -20.0
    M9200 'MARKER' 'INTEND'
    BUY_CR00_9 OBJ -54.30956023404553
    BUY_CR00_9 PARCEL_CR00_9 1.0
    BUY_CR00_9 CBAL_CR00_9 1.0
    CINV_CR00_9 OBJ -0.3
    CINV_CR00_9 CBAL_CR00_9 -1.0
    CINV_CR00_9 CBAL_CR00_10 1.0
    CDU_CR00_9 CBAL_CR00_9 -1.0
    CDU_CR00_9 CDUCAP_9 1.0
    CDU_CR00_9 CDUMIN_9 1.0
    CDU_CR00_9 YLPG_CR00_9 -0.013786055933968056
    CDU_CR00_9 YNAP_CR00_9 -0.1214444916358349
    CDU_CR00_9 YKER_CR00_9 -0.10646372452567733
    CDU_CR00_9 YDSL_CR00_9 -0.20292085263352289
    CDU_CR00_9 YVGO_CR00_9 -0.27390944719057636
    CDU_CR00_9 YRES_CR00_9 -0.28147542808042036
    M9216 'MARKER' 'INTORG'
    NPAR_CR01_9 PARCEL_CR01_9 -20.0
    M9218 'MARKER' 'INTEND'
    BUY_CR01_9 OBJ -69.88134515296586
    BUY_CR01_9 PARCEL_CR01_9 1.0
    BUY_CR01_9 CBAL_CR01_9 1.0
    CINV_CR01_9 OBJ -0.3
    CINV_CR01_9 CBAL_CR01_9 -1.0
    CINV_CR01_9 CBAL_CR01_10 1.0
    CDU_CR01_9 CBAL_CR01_9 -1.0
    CDU_CR01_9 CDUCAP_9 1.0
    CDU_CR01_9 CDUMIN_9 1.0
    CDU_CR01_9 YLPG_CR01_9 -0.025127543584387436
    CDU_CR01_9 YNAP_CR01_9 -0.2025917905849106
    CDU_CR01_9 YKER_CR01_9 -0.13410952106049506
    CDU_CR01_9 YDSL_CR01_9 -0.24728591651278542
    CDU_CR01_9 YVGO_CR01_9 -0.22897185950088417
    CDU_CR01_9 YRES_CR01_9 -0.16191336875653717
    M9234 'MARKER' 'INTORG'
    NPAR_CR02_9 PARCEL_CR02_9 -20.0
    M9236 'MARKER' 'INTEND'
    BUY_CR02_9 OBJ -57.037452142897834
    BUY_CR02_9 PARCEL_CR02_9 1.0
    BUY_CR02_9 CBAL_CR02_9 1.0
    CINV_CR02_9 OBJ -0.3
    CINV_CR02_9 CBAL_CR02_9 -1.0
    CINV_CR02_9 CBAL_CR02_10 1.0
    CDU_CR02_9 CBAL_CR02_9 -1.0
    CDU_CR02_9 CDUCAP_9 1.0
    CDU_CR02_9 CDUMIN_9 1.0
    CDU_CR02_9 YLPG_CR02_9 -0.013444753666275039
    CDU_CR02_9 YNAP_CR02_9 -0.11889710072836579
    CDU_CR02_9 YKER_CR02_9 -0.103840437143255
    CDU_CR02_9 YDSL_CR02_9 -0.21229612809407214
    CDU_CR02_9 YVGO_CR02_9 -0.2628713956905896
    CDU_CR02_9 YRES_CR02_9 -0.28865018467744247
    M9252 'MARKER' 'INTORG'
    NPAR_CR03_9 PARCEL_CR03_9 -20.0
    M9254 'MARKER' 'INTEND'
    BUY_CR03_9 OBJ -63.08069576293442
    BUY_CR03_9 PARCEL_CR03_9 1.0
    BUY_CR03_9 CBAL_CR03_9 1.0
    CINV_CR03_9 OBJ -0.3
    CINV_CR03_9 CBAL_CR03_9 -1.0
    CINV_CR03_9 CBAL_CR03_10 1.0
    CDU_CR03_9 CBAL_CR03_9 -1.0
    CDU_CR03_9 CDUCAP_9 1.0
    CDU_CR03_9 CDUMIN_9 1.0
    CDU_CR03_9 YLPG_CR03_9 -0.01400858068810675
    CDU_CR03_9 YNAP_CR03_9 -0.1424923117986131
    CDU_CR03_9 YKER_CR03_9 -0.10784088582669263
    CDU_CR03_9 YDSL_CR03_9 -0.19279120630762445
    CDU_CR03_9 YVGO_CR03_9 -0.28544626211923063
    CDU_CR03_9 YRES_CR03_9 -0.2574207532597324
    M9270 'MARKER' 'INTORG'
    NPAR_CR04_9 PARCEL_CR04_9 -20.0
    M9272 'MARKER' 'INTEND'
    BUY_CR04_9 OBJ -68.20798773290882
    BUY_CR04_9 PARCEL_CR04_9 1.0
    BUY_CR04_9 CBAL_CR04_9 1.0
    CINV_CR04_9 OBJ -0.3
    CINV_CR04_9 CBAL_CR04_9 -1.0
    CINV_CR04_9 CBAL_CR04_10 1.0
    CDU_CR04_9 CBAL_CR04_9 -1.0
    CDU_CR04_9 CDUCAP_9 1.0
    CDU_CR04_9 CDUMIN_9 1.0
    CDU_CR04_9 YLPG_CR04_9 -0.02335213093765316
    CDU_CR04_9 YNAP_CR04_9 -0.2292355396921612
    CDU_CR04_9 YKER_CR04_9 -0.14240695851543803
    CDU_CR04_9 YDSL_CR04_9 -0.24384363627499198
    CDU_CR04_9 YVGO_CR04_9 -0.2465326974706559
    CDU_CR04_9 YRES_CR04_9 -0.1146290371090997
    M9288 'MARKER' 'INTORG'
    NPAR_CR05_9 PARCEL_CR05_9 -20.0
    M9290 'MARKER' 'INTEND'
    BUY_CR05_9 OBJ -61.40359450479325
    BUY_CR05_9 PARCEL_CR05_9 1.0
    BUY_CR05_9 CBAL_CR05_9 1.0
    CINV_CR05_9 OBJ -0.3
    CINV_CR05_9 CBAL_CR05_9 -1.0
    CINV_CR05_9 CBAL_CR05_10 1.0
    CDU_CR05_9 CBAL_CR05_9 -1.0
    CDU_CR05_9 CDUCAP_9 1.0
    CDU_CR05_9 CDUMIN_9 1.0
    CDU_CR05_9 YLPG_CR05_9 -0.01735729802728813
    CDU_CR05_9 YNAP_CR05_9 -0.16608619710065003
    CDU_CR05_9 YKER_CR05_9 -0.1170544437563835
    CDU_CR05_9 YDSL_CR05_9 -0.22299235889970878
    CDU_CR05_9 YVGO_CR05_9 -0.2433490540516293
    CDU_CR05_9 YRES_CR05_9 -0.23316064816434035
    M9306 'MARKER' 'INTORG'
    NPAR_CR06_9 PARCEL_CR06_9 -20.0
    M9308 'MARKER' 'INTEND'
    BUY_CR06_9 OBJ -59.21665051123503
    BUY_CR06_9 PARCEL_CR06_9 1.0
    BUY_CR06_9 CBAL_CR06_9 1.0
    CINV_CR06_9 OBJ -0.3
    CINV_CR06_9 CBAL_CR06_9 -1.0
    CINV_CR06_9 CBAL_CR06_10 1.0
    CDU_CR06_9 CBAL_CR06_9 -1.0
    CDU_CR06_9 CDUCAP_9 1.0
    CDU_CR06_9 CDUMIN_9 1.0
    CDU_CR06_9 YLPG_CR06_9 -0.014219474855875663
    CDU_CR06_9 YNAP_CR06_9 -0.13746806025500902
    CDU_CR06_9 YKER_CR06_9 -0.10533897185985656
    CDU_CR06_9 YDSL_CR06_9 -0.20403840195434858
    CDU_CR06_9 YVGO_CR06_9 -0.26484358994429863
    CDU_CR06_9 YRES_CR06_9 -0.27409150113061165
    M9324 'MARKER' 'INTORG'
    NPAR_CR07_9 PARCEL_CR07_9 -20.0
    M9326 'MARKER' 'INTEND'
    BUY_CR07_9 OBJ -67.68563694835679
    BUY_CR07_9 PARCEL_CR07_9 1.0
    BUY_CR07_9 CBAL_CR07_9 1.0
    CINV_CR07_9 OBJ -0.3
    CINV_CR07_9 CBAL_CR07_9 -1.0
    CINV_CR07_9 CBAL_CR07_10 1.0
    CDU_CR07_9 CBAL_CR07_9 -1.0
    CDU_CR07_9 CDUCAP_9 1.0
    CDU_CR07_9 CDUMIN_9 1.0
    CDU_CR07_9 YLPG_CR07_9 -0.01678766142162217
    CDU_CR07_9 YNAP_CR07_9 -0.18341674311422207
    CDU_CR07_9 YKER_CR07_9 -0.13271469159016522
    CDU_CR07_9 YDSL_CR07_9 -0.2249127244045356
    CDU_CR07_9 YVGO_CR07_9 -0.24848613807316539
    CDU_CR07_9 YRES_CR07_9 -0.19368204139628944
    M9342 'MARKER' 'INTORG'
    NPAR_CR08_9 PARCEL_CR08_9 -20.0
    M9344 'MARKER' 'INTEND'
    BUY_CR08_9 OBJ -65.8785725123452
    BUY_CR08_9 PARCEL_CR08_9 1.0
    BUY_CR08_9 CBAL_CR08_9 1.0
    CINV_CR08_9 OBJ -0.3
    CINV_CR08_9 CBAL_CR08_9 -1.0
    CINV_CR08_9 CBAL_CR08_10 1.0
    CDU_CR08_9 CBAL_CR08_9 -1.0
    CDU_CR08_9 CDUCAP_9 1.0
    CDU_CR08_9 CDUMIN_9 1.0
    CDU_CR08_9 YLPG_CR08_9 -0.023930881960770135
    CDU_CR08_9 YNAP_CR08_9 -0.199474063989656
    CDU_CR08_9 YKER_CR08_9 -0.13012967624359006
    CDU_CR08_9 YDSL_CR08_9 -0.24906213509239003
    CDU_CR08_9 YVGO_CR08_9 -0.24247509330512357
    CDU_CR08_9 YRES_CR08_9 -0.15492814940847022
    M9360 'MARKER' 'INTORG'
    NPAR_CR09_9 PARCEL_CR09_9 -20.0
    M9362 'MARKER' 'INTEND'
    BUY_CR09_9 OBJ -73.99518001977174
    BUY_CR09_9 PARCEL_CR09_9 1.0
    BUY_CR09_9 CBAL_CR09_9 1.0
    CINV_CR09_9 OBJ -0.3
    CINV_CR09_9 CBAL_CR09_9 -1.0
    CINV_CR09_9 CBAL_CR09_10 1.0
    CDU_CR09_9 CBAL_CR09_9 -1.0
    CDU_CR09_9 CDUCAP_9 1.0
    CDU_CR09_9 CDUMIN_9 1.0
    CDU_CR09_9 YLPG_CR09_9 -0.0254414593142613
    CDU_CR09_9 YNAP_CR09_9 -0.2406668892422991
    CDU_CR09_9 YKER_CR09_9 -0.14150533274546892
    CDU_CR09_9 YDSL_CR09_9 -0.23713673044274025
    CDU_CR09_9 YVGO_CR09_9 -0.23566730460149374
    CDU_CR09_9 YRES_CR09_9 -0.11958228365373665
    M9378 'MARKER' 'INTORG'
    CDUMODE_9 OBJ -150.0
    CDUMODE_9 CDUCAP_9 -150.0
    CDUMODE_9 CDUMIN_9 -90.0
    M9382 'MARKER' 'INTEND'
    LPG_CR00_9 YLPG_CR00_9 1.0
    LPG_CR00_9 LPGBAL_9 -1.0
    NAP_CR00_9 YNAP_CR00_9 1.0
    NAP_CR00_9 NAPBAL_CR00_9 1.0
    KER_CR00_9 YKER_CR00_9 1.0
    KER_CR00_9 KERBAL_CR00_9 1.0
    DSL_CR00_9 YDSL_CR00_9 1.0
    DSL_CR00_9 DSLBAL_CR00_9 1.0
    VGO_CR00_9 YVGO_CR00_9 1.0
    VGO_CR00_9 VGOBAL_CR00_9 1.0
    RES_CR00_9 YRES_CR00_9 1.0
    RES_CR00_9 RESSPLIT_CR00_9 1.0
    LPG_CR01_9 YLPG_CR01_9 1.0
    LPG_CR01_9 LPGBAL_9 -1.0
    NAP_CR01_9 YNAP_CR01_9 1.0
    NAP_CR01_9 NAPBAL_CR01_9 1.0
    KER_CR01_9 YKER_CR01_9 1.0
    KER_CR01_9 KERBAL_CR01_9 1.0
    DSL_CR01_9 YDSL_CR01_9 1.0
    DSL_CR01_9 DSLBAL_CR01_9 1.0
    VGO_CR01_9 YVGO_CR01_9 1.0
    VGO_CR01_9 VGOBAL_CR01_9 1.0
    RES_CR01_9 YRES_CR01_9 1.0
    RES_CR01_9 RESSPLIT_CR01_9 1.0
    LPG_CR02_9 YLPG_CR02_9 1.0
    LPG_CR02_9 LPGBAL_9 -1.0
    NAP_CR02_9 YNAP_CR02_9 1.0
    NAP_CR02_9 NAPBAL_CR02_9 1.0
    KER_CR02_9 YKER_CR02_9 1.0
    KER_CR02_9 KERBAL_CR02_9 1.0
    DSL_CR02_9 YDSL_CR02_9 1.0
    DSL_CR02_9 DSLBAL_CR02_9 1.0
    VGO_CR02_9 YVGO_CR02_9 1.0
    VGO_CR02_9 VGOBAL_CR02_9 1.0
    RES_CR02_9 YRES_CR02_9 1.0
    RES_CR02_9 RESSPLIT_CR02_9 1.0
    LPG_CR03_9 YLPG_CR03_9 1.0
    LPG_CR03_9 LPGBAL_9 -1.0
    NAP_CR03_9 YNAP_CR03_9 1.0
    NAP_CR03_9 NAPBAL_CR03_9 1.0
    KER_CR03_9 YKER_CR03_9 1.0
    KER_CR03_9 KERBAL_CR03_9 1.0
    DSL_CR03_9 YDSL_CR03_9 1.0
    DSL_CR03_9 DSLBAL_CR03_9 1.0
    VGO_CR03_9 YVGO_CR03_9 1.0
    VGO_CR03_9 VGOBAL_CR03_9 1.0
    RES_CR03_9 YRES_CR03_9 1.0
    RES_CR03_9 RESSPLIT_CR03_9 1.0
    LPG_CR04_9 YLPG_CR04_9 1.0
    LPG_CR04_9 LPGBAL_9 -1.0
    NAP_CR04_9 YNAP_CR04_9 1.0
    NAP_CR04_9 NAPBAL_CR04_9 1.0
    KER_CR04_9 YKER_CR04_9 1.0
    KER_CR04_9 KERBAL_CR04_9 1.0
    DSL_CR04_9 YDSL_CR04_9 1.0
    DSL_CR04_9 DSLBAL_CR04_9 1.0
    VGO_CR04_9 YVGO_CR04_9 1.0
    VGO_CR04_9 VGOBAL_CR04_9 1.0
    RES_CR04_9 YRES_CR04_9 1.0
    RES_CR04_9 RESSPLIT_CR04_9 1.0
    LPG_CR05_9 YLPG_CR05_9 1.0
    LPG_CR05_9 LPGBAL_9 -1.0
    NAP_CR05_9 YNAP_CR05_9 1.0
    NAP_CR05_9 NAPBAL_CR05_9 1.0
    KER_CR05_9 YKER_CR05_9 1.0
    KER_CR05_9 KERBAL_CR05_9 1.0
    DSL_CR05_9 YDSL_CR05_9 1.0
    DSL_CR05_9 DSLBAL_CR05_9 1.0
    VGO_CR05_9 YVGO_CR05_9 1.0
    VGO_CR05_9 VGOBAL_CR05_9 1.0
    RES_CR05_9 YRES_CR05_9 1.0
    RES_CR05_9 RESSPLIT_CR05_9 1.0
    LPG_CR06_9 YLPG_CR06_9 1.0
    LPG_CR06_9 LPGBAL_9 -1.0
    NAP_CR06_9 YNAP_CR06_9 1.0
    NAP_CR06_9 NAPBAL_CR06_9 1.0
    KER_CR06_9 YKER_CR06_9 1.0
    KER_CR06_9 KERBAL_CR06_9 1.0
    DSL_CR06_9 YDSL_CR06_9 1.0
    DSL_CR06_9 DSLBAL_CR06_9 1.0
    VGO_CR06_9 YVGO_CR06_9 1.0
    VGO_CR06_9 VGOBAL_CR06_9 1.0
    RES_CR06_9 YRES_CR06_9 1.0
    RES_CR06_9 RESSPLIT_CR06_9 1.0
    LPG_CR07_9 YLPG_CR07_9 1.0
    LPG_CR07_9 LPGBAL_9 -1.0
    NAP_CR07_9 YNAP_CR07_9 1.0
    NAP_CR07_9 NAPBAL_CR07_9 1.0
    KER_CR07_9 YKER_CR07_9 1.0
    KER_CR07_9 KERBAL_CR07_9 1.0
    DSL_CR07_9 YDSL_CR07_9 1.0
    DSL_CR07_9 DSLBAL_CR07_9 1.0
    VGO_CR07_9 YVGO_CR07_9 1.0
    VGO_CR07_9 VGOBAL_CR07_9 1.0
    RES_CR07_9 YRES_CR07_9 1.0
    RES_CR07_9 RESSPLIT_CR07_9 1.0
    LPG_CR08_9 YLPG_CR08_9 1.0
    LPG_CR08_9 LPGBAL_9 -1.0
    NAP_CR08_9 YNAP_CR08_9 1.0
    NAP_CR08_9 NAPBAL_CR08_9 1.0
    KER_CR08_9 YKER_CR08_9 1.0
    KER_CR08_9 KERBAL_CR08_9 1.0
    DSL_CR08_9 YDSL_CR08_9 1.0
    DSL_CR08_9 DSLBAL_CR08_9 1.0
    VGO_CR08_9 YVGO_CR08_9 1.0
    VGO_CR08_9 VGOBAL_CR08_9 1.0
    RES_CR08_9 YRES_CR08_9 1.0
    RES_CR08_9 RESSPLIT_CR08_9 1.0
    LPG_CR09_9 YLPG_CR09_9 1.0
    LPG_CR09_9 LPGBAL_9 -1.0
    NAP_CR09_9 YNAP_CR09_9 1.0
    NAP_CR09_9 NAPBAL_CR09_9 1.0
    KER_CR09_9 YKER_CR09_9 1.0
    KER_CR09_9 KERBAL_CR09_9 1.0
    DSL_CR09_9 YDSL_CR09_9 1.0
    DSL_CR09_9 DSLBAL_CR09_9 1.0
    VGO_CR09_9 YVGO_CR09_9 1.0
    VGO_CR09_9 VGOBAL_CR09_9 1.0
    RES_CR09_9 YRES_CR09_9 1.0
    RES_CR09_9 RESSPLIT_CR09_9 1.0
    VDUIN_CR00_9 RESSPLIT_CR00_9 -1.0
    VDUIN_CR00_9 VDUY1_CR00_9 -0.45
    VDUIN_CR00_9 VDUY2_CR00_9 -0.55
    VDUIN_CR00_9 VDUCAP_9 1.0
    RESFO_CR00_9 RESSPLIT_CR00_9 -1.0
    RESFO_CR00_9 FOBAL_9 -1.0
    RESFO_CR00_9 FOSUL_9 1.9540891690108433
    VGO2_CR00_9 VDUY1_CR00_9 1.0
    VGO2_CR00_9 VGOBAL_CR00_9 1.0
    VR_CR00_9 VDUY2_CR00_9 1.0
    VR_CR00_9 FOBAL_9 -1.0
    VR_CR00_9 FOSUL_9 3.5903159197140964
    VDUIN_CR01_9 RESSPLIT_CR01_9 -1.0
    VDUIN_CR01_9 VDUY1_CR01_9 -0.45
    VDUIN_CR01_9 VDUY2_CR01_9 -0.55
    VDUIN_CR01_9 VDUCAP_9 1.0
    RESFO_CR01_9 RESSPLIT_CR01_9 -1.0
    RESFO_CR01_9 FOBAL_9 -1.0
    RESFO_CR01_9 FOSUL_9 -0.6168441789886687
    VGO2_CR01_9 VDUY1_CR01_9 1.0
    VGO2_CR01_9 VGOBAL_CR01_9 1.0
    VR_CR01_9 VDUY2_CR01_9 1.0
    VR_CR01_9 FOBAL_9 -1.0
    VR_CR01_9 FOSUL_9 0.24810256731473057
    VDUIN_CR02_9 RESSPLIT_CR02_9 -1.0
    VDUIN_CR02_9 VDUY1_CR02_9 -0.45
    VDUIN_CR02_9 VDUY2_CR02_9 -0.55
    VDUIN_CR02_9 VDUCAP_9 1.0
    RESFO_CR02_9 RESSPLIT_CR02_9 -1.0
    RESFO_CR02_9 FOBAL_9 -1.0
    RESFO_CR02_9 FOSUL_9 0.05675733131967897
    VGO2_CR02_9 VDUY1_CR02_9 1.0
    VGO2_CR02_9 VGOBAL_CR02_9 1.0
    VR_CR02_9 VDUY2_CR02_9 1.0
    VR_CR02_9 FOBAL_9 -1.0
    VR_CR02_9 FOSUL_9 1.1237845307155832
    VDUIN_CR03_9 RESSPLIT_CR03_9 -1.0
    VDUIN_CR03_9 VDUY1_CR03_9 -0.45
    VDUIN_CR03_9 VDUY2_CR03_9 -0.55
    VDUIN_CR03_9 VDUCAP_9 1.0
    RESFO_CR03_9 RESSPLIT_CR03_9 -1.0
    RESFO_CR03_9 FOBAL_9 -1.0
    RESFO_CR03_9 FOSUL_9 -1.8686274424458973
    VGO2_CR03_9 VDUY1_CR03_9 1.0
    VGO2_CR03_9 VGOBAL_CR03_9 1.0
    VR_CR03_9 VDUY2_CR03_9 1.0
    VR_CR03_9 FOBAL_9 -1.0
    VR_CR03_9 FOSUL_9 -1.3792156751796663
    VDUIN_CR04_9 RESSPLIT_CR04_9 -1.0
    VDUIN_CR04_9 VDUY1_CR04_9 -0.45
    VDUIN_CR04_9 VDUY2_CR04_9 -0.55
    VDUIN_CR04_9 VDUCAP_9 1.0
    RESFO_CR04_9 RESSPLIT_CR04_9 -1.0
    RESFO_CR04_9 FOBAL_9 -1.0
    RESFO_CR04_9 FOSUL_9 2.031668478530798
    VGO2_CR04_9 VDUY1_CR04_9 1.0
    VGO2_CR04_9 VGOBAL_CR04_9 1.0
    VR_CR04_9 VDUY2_CR04_9 1.0
    VR_CR04_9 FOBAL_9 -1.0
    VR_CR04_9 FOSUL_9 3.6911690220900377
    VDUIN_CR05_9 RESSPLIT_CR05_9 -1.0
    VDUIN_CR05_9 VDUY1_CR05_9 -0.45
    VDUIN_CR05_9 VDUY2_CR05_9 -0.55
    VDUIN_CR05_9 VDUCAP_9 1.0
    RESFO_CR05_9 RESSPLIT_CR05_9 -1.0
    RESFO_CR05_9 FOBAL_9 -1.0
    RESFO_CR05_9 FOSUL_9 0.3429997580900688
    VGO2_CR05_9 VDUY1_CR05_9 1.0
    VGO2_CR05_9 VGOBAL_CR05_9 1.0
    VR_CR05_9 VDUY2_CR05_9 1.0
    VR_CR05_9 FOBAL_9 -1.0
    VR_CR05_9 FOSUL_9 1.4958996855170898
    VDUIN_CR06_9 RESSPLIT_CR06_9 -1.0
    VDUIN_CR06_9 VDUY1_CR06_9 -0.45
    VDUIN_CR06_9 VDUY2_CR06_9 -0.55
    VDUIN_CR06_9 VDUCAP_9 1.0
    RESFO_CR06_9 RESSPLIT_CR06_9 -1.0
    RESFO_CR06_9 FOBAL_9 -1.0
    RESFO_CR06_9 FOSUL_9 0.10255232060654862
    VGO2_CR06_9 VDUY1_CR06_9 1.0
    VGO2_CR06_9 VGOBAL_CR06_9 1.0
    VR_CR06_9 VDUY2_CR06_9 1.0
    VR_CR06_9 FOBAL_9 -1.0
    VR_CR06_9 FOSUL_9 1.1833180167885136
    VDUIN_CR07_9 RESSPLIT_CR07_9 -1.0
    VDUIN_CR07_9 VDUY1_CR07_9 -0.45
    VDUIN_CR07_9 VDUY2_CR07_9 -0.55
    VDUIN_CR07_9 VDUCAP_9 1.0
    RESFO_CR07_9 RESSPLIT_CR07_9 -1.0
    RESFO_CR07_9 FOBAL_9 -1.0
    RESFO_CR07_9 FOSUL_9 -3.116635223405176
    VGO2_CR07_9 VDUY1_CR07_9 1.0
    VGO2_CR07_9 VGOBAL_CR07_9 1.0
    VR_CR07_9 VDUY2_CR07_9 1.0
    VR_CR07_9 FOBAL_9 -1.0
    VR_CR07_9 FOSUL_9 -3.001625790426729
    VDUIN_CR08_9 RESSPLIT_CR08_9 -1.0
    VDUIN_CR08_9 VDUY1_CR08_9 -0.45
    VDUIN_CR08_9 VDUY2_CR08_9 -0.55
    VDUIN_CR08_9 VDUCAP_9 1.0
    RESFO_CR08_9 RESSPLIT_CR08_9 -1.0
    RESFO_CR08_9 FOBAL_9 -1.0
    RESFO_CR08_9 FOSUL_9 0.0456281803886287
    VGO2_CR08_9 VDUY1_CR08_9 1.0
    VGO2_CR08_9 VGOBAL_CR08_9 1.0
    VR_CR08_9 VDUY2_CR08_9 1.0
    VR_CR08_9 FOBAL_9 -1.0
    VR_CR08_9 FOSUL_9 1.109316634505218
    VDUIN_CR09_9 RESSPLIT_CR09_9 -1.0
    VDUIN_CR09_9 VDUY1_CR09_9 -0.45
    VDUIN_CR09_9 VDUY2_CR09_9 -0.55
    VDUIN_CR09_9 VDUCAP_9 1.0
    RESFO_CR09_9 RESSPLIT_CR09_9 -1.0
    RESFO_CR09_9 FOBAL_9 -1.0
    RESFO_CR09_9 FOSUL_9 -3.264603397407564
    VGO2_CR09_9 VDUY1_CR09_9 1.0
    VGO2_CR09_9 VGOBAL_CR09_9 1.0
    VR_CR09_9 VDUY2_CR09_9 1.0
    VR_CR09_9 FOBAL_9 -1.0
    VR_CR09_9 FOSUL_9 -3.1939844166298332
    FCCIN_CR00_9 OBJ -2.5
    FCCIN_CR00_9 VGOBAL_CR00_9 -1.0
    FCCIN_CR00_9 FCCCAP_9 1.0
    FCCIN_CR00_9 FCCY_FCCG_9 -0.55
    FCCIN_CR00_9 FCCY_LCO_9 -0.2
    FCCIN_CR00_9 FCCY_FLPG_9 -0.15
    FCCIN_CR00_9 FCCY_SLURRY_9 -0.07
    FCCIN_CR01_9 OBJ -2.5
    FCCIN_CR01_9 VGOBAL_CR01_9 -1.0
    FCCIN_CR01_9 FCCCAP_9 1.0
    FCCIN_CR01_9 FCCY_FCCG_9 -0.55
    FCCIN_CR01_9 FCCY_LCO_9 -0.2
    FCCIN_CR01_9 FCCY_FLPG_9 -0.15
    FCCIN_CR01_9 FCCY_SLURRY_9 -0.07
    FCCIN_CR02_9 OBJ -2.5
    FCCIN_CR02_9 VGOBAL_CR02_9 -1.0
    FCCIN_CR02_9 FCCCAP_9 1.0
    FCCIN_CR02_9 FCCY_FCCG_9 -0.55
    FCCIN_CR02_9 FCCY_LCO_9 -0.2
    FCCIN_CR02_9 FCCY_FLPG_9 -0.15
    FCCIN_CR02_9 FCCY_SLURRY_9 -0.07
    FCCIN_CR03_9 OBJ -2.5
    FCCIN_CR03_9 VGOBAL_CR03_9 -1.0
    FCCIN_CR03_9 FCCCAP_9 1.0
    FCCIN_CR03_9 FCCY_FCCG_9 -0.55
    FCCIN_CR03_9 FCCY_LCO_9 -0.2
    FCCIN_CR03_9 FCCY_FLPG_9 -0.15
    FCCIN_CR03_9 FCCY_SLURRY_9 -0.07
    FCCIN_CR04_9 OBJ -2.5
    FCCIN_CR04_9 VGOBAL_CR04_9 -1.0
    FCCIN_CR04_9 FCCCAP_9 1.0
    FCCIN_CR04_9 FCCY_FCCG_9 -0.55
    FCCIN_CR04_9 FCCY_LCO_9 -0.2
    FCCIN_CR04_9 FCCY_FLPG_9 -0.15
    FCCIN_CR04_9 FCCY_SLURRY_9 -0.07
    FCCIN_CR05_9 OBJ -2.5
    FCCIN_CR05_9 VGOBAL_CR05_9 -1.0
    FCCIN_CR05_9 FCCCAP_9 1.0
    FCCIN_CR05_9 FCCY_FCCG_9 -0.55
    FCCIN_CR05_9 FCCY_LCO_9 -0.2
    FCCIN_CR05_9 FCCY_FLPG_9 -0.15
    FCCIN_CR05_9 FCCY_SLURRY_9 -0.07
    FCCIN_CR06_9 OBJ -2.5
    FCCIN_CR06_9 VGOBAL_CR06_9 -1.0
    FCCIN_CR06_9 FCCCAP_9 1.0
    FCCIN_CR06_9 FCCY_FCCG_9 -0.55
    FCCIN_CR06_9 FCCY_LCO_9 -0.2
    FCCIN_CR06_9 FCCY_FLPG_9 -0.15
    FCCIN_CR06_9 FCCY_SLURRY_9 -0.07
    FCCIN_CR07_9 OBJ -2.5
    FCCIN_CR07_9 VGOBAL_CR07_9 -1.0
    FCCIN_CR07_9 FCCCAP_9 1.0
    FCCIN_CR07_9 FCCY_FCCG_9 -0.55
    FCCIN_CR07_9 FCCY_LCO_9 -0.2
    FCCIN_CR07_9 FCCY_FLPG_9 -0.15
    FCCIN_CR07_9 FCCY_SLURRY_9 -0.07
    FCCIN_CR08_9 OBJ -2.5
    FCCIN_CR08_9 VGOBAL_CR08_9 -1.0
    FCCIN_CR08_9 FCCCAP_9 1.0
    FCCIN_CR08_9 FCCY_FCCG_9 -0.55
    FCCIN_CR08_9 FCCY_LCO_9 -0.2
    FCCIN_CR08_9 FCCY_FLPG_9 -0.15
    FCCIN_CR08_9 FCCY_SLURRY_9 -0.07
    FCCIN_CR09_9 OBJ -2.5
    FCCIN_CR09_9 VGOBAL_CR09_9 -1.0
    FCCIN_CR09_9 FCCCAP_9 1.0
    FCCIN_CR09_9 FCCY_FCCG_9 -0.55
    FCCIN_CR09_9 FCCY_LCO_9 -0.2
    FCCIN_CR09_9 FCCY_FLPG_9 -0.15
    FCCIN_CR09_9 FCCY_SLURRY_9 -0.07
    FCCG_9 FCCY_FCCG_9 1.0
    FCCG_9 GASBAL_9 -1.0
    FCCG_9 GASRON_9 1.0
    LCO_9 FCCY_LCO_9 1.0
    LCO_9 LCOBAL_9 1.0
    FLPG_9 FCCY_FLPG_9 1.0
    FLPG_9 LPGBAL_9 -1.0
    SLURRY_9 FCCY_SLURRY_9 1.0
    SLURRY_9 FOBAL_9 -1.0
    SLURRY_9 FOSUL_9 -1.5
    REFIN_CR00_9 OBJ -3.0
    REFIN_CR00_9 NAPBAL_CR00_9 -1.0
    REFIN_CR00_9 REFCAP_9 1.0
    REFIN_CR00_9 REFY_9 -0.85
    NAPGAS_CR00_9 NAPBAL_CR00_9 -1.0
    NAPGAS_CR00_9 GASBAL_9 -1.0
    NAPGAS_CR00_9 GASRON_9 -41.351908455631545
    REFIN_CR01_9 OBJ -3.0
    REFIN_CR01_9 NAPBAL_CR01_9 -1.0
    REFIN_CR01_9 REFCAP_9 1.0
    REFIN_CR01_9 REFY_9 -0.85
    NAPGAS_CR01_9 NAPBAL_CR01_9 -1.0
    NAPGAS_CR01_9 GASBAL_9 -1.0
    NAPGAS_CR01_9 GASRON_9 -33.623043958680114
    REFIN_CR02_9 OBJ -3.0
    REFIN_CR02_9 NAPBAL_CR02_9 -1.0
    REFIN_CR02_9 REFCAP_9 1.0
    REFIN_CR02_9 REFY_9 -0.85
    NAPGAS_CR02_9 NAPBAL_CR02_9 -1.0
    NAPGAS_CR02_9 GASBAL_9 -1.0
    NAPGAS_CR02_9 GASRON_9 -39.74522208078083
    REFIN_CR03_9 OBJ -3.0
    REFIN_CR03_9 NAPBAL_CR03_9 -1.0
    REFIN_CR03_9 REFCAP_9 1.0
    REFIN_CR03_9 REFY_9 -0.85
    NAPGAS_CR03_9 NAPBAL_CR03_9 -1.0
    NAPGAS_CR03_9 GASBAL_9 -1.0
    NAPGAS_CR03_9 GASRON_9 -39.32063345179839
    REFIN_CR04_9 OBJ -3.0
    REFIN_CR04_9 NAPBAL_CR04_9 -1.0
    REFIN_CR04_9 REFCAP_9 1.0
    REFIN_CR04_9 REFY_9 -0.85
    NAPGAS_CR04_9 NAPBAL_CR04_9 -1.0
    NAPGAS_CR04_9 GASBAL_9 -1.0
    NAPGAS_CR04_9 GASRON_9 -28.06018906757886
    REFIN_CR05_9 OBJ -3.0
    REFIN_CR05_9 NAPBAL_CR05_9 -1.0
    REFIN_CR05_9 REFCAP_9 1.0
    REFIN_CR05_9 REFY_9 -0.85
    NAPGAS_CR05_9 NAPBAL_CR05_9 -1.0
    NAPGAS_CR05_9 GASBAL_9 -1.0
    NAPGAS_CR05_9 GASRON_9 -37.177062383933254
    REFIN_CR06_9 OBJ -3.0
    REFIN_CR06_9 NAPBAL_CR06_9 -1.0
    REFIN_CR06_9 REFCAP_9 1.0
    REFIN_CR06_9 REFY_9 -0.85
    NAPGAS_CR06_9 NAPBAL_CR06_9 -1.0
    NAPGAS_CR06_9 GASBAL_9 -1.0
    NAPGAS_CR06_9 GASRON_9 -38.73738801284508
    REFIN_CR07_9 OBJ -3.0
    REFIN_CR07_9 NAPBAL_CR07_9 -1.0
    REFIN_CR07_9 REFCAP_9 1.0
    REFIN_CR07_9 REFY_9 -0.85
    NAPGAS_CR07_9 NAPBAL_CR07_9 -1.0
    NAPGAS_CR07_9 GASBAL_9 -1.0
    NAPGAS_CR07_9 GASRON_9 -31.720911449683953
    REFIN_CR08_9 OBJ -3.0
    REFIN_CR08_9 NAPBAL_CR08_9 -1.0
    REFIN_CR08_9 REFCAP_9 1.0
    REFIN_CR08_9 REFY_9 -0.85
    NAPGAS_CR08_9 NAPBAL_CR08_9 -1.0
    NAPGAS_CR08_9 GASBAL_9 -1.0
    NAPGAS_CR08_9 GASRON_9 -31.236267605063702
    REFIN_CR09_9 OBJ -3.0
    REFIN_CR09_9 NAPBAL_CR09_9 -1.0
    REFIN_CR09_9 REFCAP_9 1.0
    REFIN_CR09_9 REFY_9 -0.85
    NAPGAS_CR09_9 NAPBAL_CR09_9 -1.0
    NAPGAS_CR09_9 GASBAL_9 -1.0
    NAPGAS_CR09_9 GASRON_9 -29.9151768258086
    REFORMATE_9 REFY_9 1.0
    REFORMATE_9 GASBAL_9 -1.0
    REFORMATE_9 GASRON_9 7.0
    DHTIN_CR00_9 OBJ -2.0
    DHTIN_CR00_9 DSLBAL_CR00_9 -1.0
    DHTIN_CR00_9 DHTCAP_9 1.0
    DHTIN_CR00_9 DHTY_9 -0.98
    DSLDIR_CR00_9 DSLBAL_CR00_9 -1.0
    DSLDIR_CR00_9 DSLPB_9 -1.0
    DSLDIR_CR00_9 DSLSUL_9 1.5862267507032528
    DHTIN_CR01_9 OBJ -2.0
    DHTIN_CR01_9 DSLBAL_CR01_9 -1.0
    DHTIN_CR01_9 DHTCAP_9 1.0
    DHTIN_CR01_9 DHTY_9 -0.98
    DSLDIR_CR01_9 DSLBAL_CR01_9 -1.0
    DSLDIR_CR01_9 DSLPB_9 -1.0
    DSLDIR_CR01_9 DSLSUL_9 0.8149467463033994
    DHTIN_CR02_9 OBJ -2.0
    DHTIN_CR02_9 DSLBAL_CR02_9 -1.0
    DHTIN_CR02_9 DHTCAP_9 1.0
    DHTIN_CR02_9 DHTY_9 -0.98
    DSLDIR_CR02_9 DSLBAL_CR02_9 -1.0
    DSLDIR_CR02_9 DSLPB_9 -1.0
    DSLDIR_CR02_9 DSLSUL_9 1.0170271993959037
    DHTIN_CR03_9 OBJ -2.0
    DHTIN_CR03_9 DSLBAL_CR03_9 -1.0
    DHTIN_CR03_9 DHTCAP_9 1.0
    DHTIN_CR03_9 DHTY_9 -0.98
    DSLDIR_CR03_9 DSLBAL_CR03_9 -1.0
    DSLDIR_CR03_9 DSLPB_9 -1.0
    DSLDIR_CR03_9 DSLSUL_9 0.4394117672662308
    DHTIN_CR04_9 OBJ -2.0
    DHTIN_CR04_9 DSLBAL_CR04_9 -1.0
    DHTIN_CR04_9 DHTCAP_9 1.0
    DHTIN_CR04_9 DHTY_9 -0.98
    DSLDIR_CR04_9 DSLBAL_CR04_9 -1.0
    DSLDIR_CR04_9 DSLPB_9 -1.0
    DSLDIR_CR04_9 DSLSUL_9 1.6095005435592393
    DHTIN_CR05_9 OBJ -2.0
    DHTIN_CR05_9 DSLBAL_CR05_9 -1.0
    DHTIN_CR05_9 DHTCAP_9 1.0
    DHTIN_CR05_9 DHTY_9 -0.98
    DSLDIR_CR05_9 DSLBAL_CR05_9 -1.0
    DSLDIR_CR05_9 DSLPB_9 -1.0
    DSLDIR_CR05_9 DSLSUL_9 1.1028999274270206
    DHTIN_CR06_9 OBJ -2.0
    DHTIN_CR06_9 DSLBAL_CR06_9 -1.0
    DHTIN_CR06_9 DHTCAP_9 1.0
    DHTIN_CR06_9 DHTY_9 -0.98
    DSLDIR_CR06_9 DSLBAL_CR06_9 -1.0
    DSLDIR_CR06_9 DSLPB_9 -1.0
    DSLDIR_CR06_9 DSLSUL_9 1.0307656961819645
    DHTIN_CR07_9 OBJ -2.0
    DHTIN_CR07_9 DSLBAL_CR07_9 -1.0
    DHTIN_CR07_9 DHTCAP_9 1.0
    DHTIN_CR07_9 DHTY_9 -0.98
    DSLDIR_CR07_9 DSLBAL_CR07_9 -1.0
    DSLDIR_CR07_9 DSLPB_9 -1.0
    DSLDIR_CR07_9 DSLSUL_9 0.06500943297844713
    DHTIN_CR08_9 OBJ -2.0
    DHTIN_CR08_9 DSLBAL_CR08_9 -1.0
    DHTIN_CR08_9 DHTCAP_9 1.0
    DHTIN_CR08_9 DHTY_9 -0.98
    DSLDIR_CR08_9 DSLBAL_CR08_9 -1.0
    DSLDIR_CR08_9 DSLPB_9 -1.0
    DSLDIR_CR08_9 DSLSUL_9 1.0136884541165885
    DHTIN_CR09_9 OBJ -2.0
    DHTIN_CR09_9 DSLBAL_CR09_9 -1.0
    DHTIN_CR09_9 DHTCAP_9 1.0
    DHTIN_CR09_9 DHTY_9 -0.98
    DSLDIR_CR09_9 DSLBAL_CR09_9 -1.0
    DSLDIR_CR09_9 DSLPB_9 -1.0
    DSLDIR_CR09_9 DSLSUL_9 0.020618980777730833
    LCODHT_9 LCOBAL_9 -1.0
    LCODHT_9 DHTCAP_9 1.0
    LCODHT_9 DHTY_9 -0.95
    LCOFO_9 LCOBAL_9 -1.0
    LCOFO_9 FOBAL_9 -1.0
    LCOFO_9 FOSUL_9 -2.5
    ULSD_9 DHTY_9 1.0
    ULSD_9 DSLPB_9 -1.0
    ULSD_9 DSLSUL_9 -0.049
    SELL_LPG_9 OBJ 49.5
    SELL_LPG_9 PBAL_LPG_9 -1.0
    SELL_LPG_9 DMAX_LPG_9 1.0
    SELL_LPG_9 DMIN_LPG_9 1.0
    SELL_GAS_9 OBJ 94.5
    SELL_GAS_9 PBAL_GAS_9 -1.0
    SELL_GAS_9 DMAX_GAS_9 1.0
    SELL_GAS_9 DMIN_GAS_9 1.0
    SELL_JET_9 OBJ 90.0
    SELL_JET_9 PBAL_JET_9 -1.0
    SELL_JET_9 DMAX_JET_9 1.0
    SELL_JET_9 DMIN_JET_9 1.0
    SELL_DSL_9 OBJ 88.2
    SELL_DSL_9 PBAL_DSL_9 -1.0
    SELL_DSL_9 DMAX_DSL_9 1.0
    SELL_DSL_9 DMIN_DSL_9 1.0
    SELL_FO_9 OBJ 54.0
    SELL_FO_9 PBAL_FO_9 -1.0
    SELL_FO_9 DMAX_FO_9 1.0
    SELL_FO_9 DMIN_FO_9 1.0
    PINV_LPG_9 OBJ -0.5
    PINV_LPG_9 PBAL_LPG_9 -1.0
    PINV_LPG_9 PBAL_LPG_10 1.0
    PINV_GAS_9 OBJ -0.5
    PINV_GAS_9 PBAL_GAS_9 -1.0
    PINV_GAS_9 PBAL_GAS_10 1.0
    PINV_JET_9 OBJ -0.5
    PINV_JET_9 PBAL_JET_9 -1.0
    PINV_JET_9 PBAL_JET_10 1.0
    PINV_DSL_9 OBJ -0.5
    PINV_DSL_9 PBAL_DSL_9 -1.0
    PINV_DSL_9 PBAL_DSL_10 1.0
    PINV_FO_9 OBJ -0.5
    PINV_FO_9 PBAL_FO_9 -1.0
    PINV_FO_9 PBAL_FO_10 1.0
    SHORT_LPG_9 OBJ -400.0
    SHORT_LPG_9 DMIN_LPG_9 1.0
    SHORT_GAS_9 OBJ -400.0
    SHORT_GAS_9 DMIN_GAS_9 1.0
    SHORT_JET_9 OBJ -400.0
    SHORT_JET_9 DMIN_JET_9 1.0
    SHORT_DSL_9 OBJ -400.0
    SHORT_DSL_9 DMIN_DSL_9 1.0
    SHORT_FO_9 OBJ -400.0
    SHORT_FO_9 DMIN_FO_9 1.0
    GASPOOL_9 GASBAL_9 1.0
    GASPOOL_9 PBAL_GAS_9 1.0
    JETPOOL_9 JETBAL_9 1.0
    JETPOOL_9 PBAL_JET_9 1.0
    KERJET_CR00_9 KERBAL_CR00_9 -1.0
    KERJET_CR00_9 JETBAL_9 -1.0
    KERJET_CR00_9 JETSUL_9 0.10905668767581322
    KERDSL_CR00_9 KERBAL_CR00_9 -1.0
    KERDSL_CR00_9 DSLPB_9 -1.0
    KERDSL_CR00_9 DSLSUL_9 0.3590566876758132
    KERJET_CR01_9 KERBAL_CR01_9 -1.0
    KERJET_CR01_9 JETBAL_9 -1.0
    KERJET_CR01_9 JETSUL_9 -0.08376331342415014
    KERDSL_CR01_9 KERBAL_CR01_9 -1.0
    KERDSL_CR01_9 DSLPB_9 -1.0
    KERDSL_CR01_9 DSLSUL_9 0.16623668657584983
    KERJET_CR02_9 KERBAL_CR02_9 -1.0
    KERJET_CR02_9 JETBAL_9 -1.0
    KERJET_CR02_9 JETSUL_9 -0.033243200151024055
    KERDSL_CR02_9 KERBAL_CR02_9 -1.0
    KERDSL_CR02_9 DSLPB_9 -1.0
    KERDSL_CR02_9 DSLSUL_9 0.21675679984897595
    KERJET_CR03_9 KERBAL_CR03_9 -1.0
    KERJET_CR03_9 JETBAL_9 -1.0
    KERJET_CR03_9 JETSUL_9 -0.17764705818344229
    KERDSL_CR03_9 KERBAL_CR03_9 -1.0
    KERDSL_CR03_9 DSLPB_9 -1.0
    KERDSL_CR03_9 DSLSUL_9 0.0723529418165577
    KERJET_CR04_9 KERBAL_CR04_9 -1.0
    KERJET_CR04_9 JETBAL_9 -1.0
    KERJET_CR04_9 JETSUL_9 0.11487513588980985
    KERDSL_CR04_9 KERBAL_CR04_9 -1.0
    KERDSL_CR04_9 DSLPB_9 -1.0
    KERDSL_CR04_9 DSLSUL_9 0.36487513588980985
    KERJET_CR05_9 KERBAL_CR05_9 -1.0
    KERJET_CR05_9 JETBAL_9 -1.0
    KERJET_CR05_9 JETSUL_9 -0.011775018143244831
    KERDSL_CR05_9 KERBAL_CR05_9 -1.0
    KERDSL_CR05_9 DSLPB_9 -1.0
    KERDSL_CR05_9 DSLSUL_9 0.23822498185675517
    KERJET_CR06_9 KERBAL_CR06_9 -1.0
    KERJET_CR06_9 JETBAL_9 -1.0
    KERJET_CR06_9 JETSUL_9 -0.029808575954508865
    KERDSL_CR06_9 KERBAL_CR06_9 -1.0
    KERDSL_CR06_9 DSLPB_9 -1.0
    KERDSL_CR06_9 DSLSUL_9 0.22019142404549114
    KERJET_CR07_9 KERBAL_CR07_9 -1.0
    KERJET_CR07_9 JETBAL_9 -1.0
    KERJET_CR07_9 JETSUL_9 -0.2712476417553882
    KERDSL_CR07_9 KERBAL_CR07_9 -1.0
    KERDSL_CR07_9 DSLPB_9 -1.0
    KERDSL_CR07_9 DSLSUL_9 -0.02124764175538822
    KERJET_CR08_9 KERBAL_CR08_9 -1.0
    KERJET_CR08_9 JETBAL_9 -1.0
    KERJET_CR08_9 JETSUL_9 -0.03407788647085286
    KERDSL_CR08_9 KERBAL_CR08_9 -1.0
    KERDSL_CR08_9 DSLPB_9 -1.0
    KERDSL_CR08_9 DSLSUL_9 0.21592211352914714
    KERJET_CR09_9 KERBAL_CR09_9 -1.0
    KERJET_CR09_9 JETBAL_9 -1.0
    KERJET_CR09_9 JETSUL_9 -0.28234525480556727
    KERDSL_CR09_9 KERBAL_CR09_9 -1.0
    KERDSL_CR09_9 DSLPB_9 -1.0
    KERDSL_CR09_9 DSLSUL_9 -0.0323452548055673
    DSLPOOL_9 DSLPB_9 1.0
    DSLPOOL_9 PBAL_DSL_9 1.0
    LPGPOOL_9 LPGBAL_9 1.0
    LPGPOOL_9 PBAL_LPG_9 1.0
    FOPOOL_9 FOBAL_9 1.0
    FOPOOL_9 PBAL_FO_9 1.0
    M9970 'MARKER' 'INTORG'
    NPAR_CR00_10 PARCEL_CR00_10 -20.0
    M9972 'MARKER' 'INTEND'
    BUY_CR00_10 OBJ -54.89690185937814
    BUY_CR00_10 PARCEL_CR00_10 1.0
    BUY_CR00_10 CBAL_CR00_10 1.0
    CINV_CR00_10 OBJ -0.3
    CINV_CR00_10 CBAL_CR00_10 -1.0
    CINV_CR00_10 CBAL_CR00_11 1.0
    CDU_CR00_10 CBAL_CR00_10 -1.0
    CDU_CR00_10 CDUCAP_10 1.0
    CDU_CR00_10 CDUMIN_10 1.0
    CDU_CR00_10 YLPG_CR00_10 -0.013786055933968056
    CDU_CR00_10 YNAP_CR00_10 -0.1214444916358349
    CDU_CR00_10 YKER_CR00_10 -0.10646372452567733
    CDU_CR00_10 YDSL_CR00_10 -0.20292085263352289
    CDU_CR00_10 YVGO_CR00_10 -0.27390944719057636
    CDU_CR00_10 YRES_CR00_10 -0.28147542808042036
    M9988 'MARKER' 'INTORG'
    NPAR_CR01_10 PARCEL_CR01_10 -20.0
    M9990 'MARKER' 'INTEND'
    BUY_CR01_10 OBJ -70.63343038295208
    BUY_CR01_10 PARCEL_CR01_10 1.0
    BUY_CR01_10 CBAL_CR01_10 1.0
    CINV_CR01_10 OBJ -0.3
    CINV_CR01_10 CBAL_CR01_10 -1.0
    CINV_CR01_10 CBAL_CR01_11 1.0
    CDU_CR01_10 CBAL_CR01_10 -1.0
    CDU_CR01_10 CDUCAP_10 1.0
    CDU_CR01_10 CDUMIN_10 1.0
    CDU_CR01_10 YLPG_CR01_10 -0.025127543584387436
    CDU_CR01_10 YNAP_CR01_10 -0.2025917905849106
    CDU_CR01_10 YKER_CR01_10 -0.13410952106049506
    CDU_CR01_10 YDSL_CR01_10 -0.24728591651278542
    CDU_CR01_10 YVGO_CR01_10 -0.22897185950088417
    CDU_CR01_10 YRES_CR01_10 -0.16191336875653717
    M10006 'MARKER' 'INTORG'
    NPAR_CR02_10 PARCEL_CR02_10 -20.0
    M10008 'MARKER' 'INTEND'
    BUY_CR02_10 OBJ -57.77564153871011
    BUY_CR02_10 PARCEL_CR02_10 1.0
    BUY_CR02_10 CBAL_CR02_10 1.0
    CINV_CR02_10 OBJ -0.3
    CINV_CR02_10 CBAL_CR02_10 -1.0
    CINV_CR02_10 CBAL_CR02_11 1.0
    CDU_CR02_10 CBAL_CR02_10 -1.0
    CDU_CR02_10 CDUCAP_10 1.0
    CDU_CR02_10 CDUMIN_10 1.0
    CDU_CR02_10 YLPG_CR02_10 -0.013444753666275039
    CDU_CR02_10 YNAP_CR02_10 -0.11889710072836579
    CDU_CR02_10 YKER_CR02_10 -0.103840437143255
    CDU_CR02_10 YDSL_CR02_10 -0.21229612809407214
    CDU_CR02_10 YVGO_CR02_10 -0.2628713956905896
    CDU_CR02_10 YRES_CR02_10 -0.28865018467744247
    M10024 'MARKER' 'INTORG'
    NPAR_CR03_10 PARCEL_CR03_10 -20.0
    M10026 'MARKER' 'INTEND'
    BUY_CR03_10 OBJ -64.2340796458351
    BUY_CR03_10 PARCEL_CR03_10 1.0
    BUY_CR03_10 CBAL_CR03_10 1.0
    CINV_CR03_10 OBJ -0.3
    CINV_CR03_10 CBAL_CR03_10 -1.0
    CINV_CR03_10 CBAL_CR03_11 1.0
    CDU_CR03_10 CBAL_CR03_10 -1.0
    CDU_CR03_10 CDUCAP_10 1.0
    CDU_CR03_10 CDUMIN_10 1.0
    CDU_CR03_10 YLPG_CR03_10 -0.01400858068810675
    CDU_CR03_10 YNAP_CR03_10 -0.1424923117986131
    CDU_CR03_10 YKER_CR03_10 -0.10784088582669263
    CDU_CR03_10 YDSL_CR03_10 -0.19279120630762445
    CDU_CR03_10 YVGO_CR03_10 -0.28544626211923063
    CDU_CR03_10 YRES_CR03_10 -0.2574207532597324
    M10042 'MARKER' 'INTORG'
    NPAR_CR04_10 PARCEL_CR04_10 -20.0
    M10044 'MARKER' 'INTEND'
    BUY_CR04_10 OBJ -68.66213857592426
    BUY_CR04_10 PARCEL_CR04_10 1.0
    BUY_CR04_10 CBAL_CR04_10 1.0
    CINV_CR04_10 OBJ -0.3
    CINV_CR04_10 CBAL_CR04_10 -1.0
    CINV_CR04_10 CBAL_CR04_11 1.0
    CDU_CR04_10 CBAL_CR04_10 -1.0
    CDU_CR04_10 CDUCAP_10 1.0
    CDU_CR04_10 CDUMIN_10 1.0
    CDU_CR04_10 YLPG_CR04_10 -0.02335213093765316
    CDU_CR04_10 YNAP_CR04_10 -0.2292355396921612
    CDU_CR04_10 YKER_CR04_10 -0.14240695851543803
    CDU_CR04_10 YDSL_CR04_10 -0.24384363627499198
    CDU_CR04_10 YVGO_CR04_10 -0.2465326974706559
    CDU_CR04_10 YRES_CR04_10 -0.1146290371090997
    M10060 'MARKER' 'INTORG'
    NPAR_CR05_10 PARCEL_CR05_10 -20.0
    M10062 'MARKER' 'INTEND'
    BUY_CR05_10 OBJ -62.147512161326596
    BUY_CR05_10 PARCEL_CR05_10 1.0
    BUY_CR05_10 CBAL_CR05_10 1.0
    CINV_CR05_10 OBJ -0.3
    CINV_CR05_10 CBAL_CR05_10 -1.0
    CINV_CR05_10 CBAL_CR05_11 1.0
    CDU_CR05_10 CBAL_CR05_10 -1.0
    CDU_CR05_10 CDUCAP_10 1.0
    CDU_CR05_10 CDUMIN_10 1.0
    CDU_CR05_10 YLPG_CR05_10 -0.01735729802728813
    CDU_CR05_10 YNAP_CR05_10 -0.16608619710065003
    CDU_CR05_10 YKER_CR05_10 -0.1170544437563835
    CDU_CR05_10 YDSL_CR05_10 -0.22299235889970878
    CDU_CR05_10 YVGO_CR05_10 -0.2433490540516293
    CDU_CR05_10 YRES_CR05_10 -0.23316064816434035
    M10078 'MARKER' 'INTORG'
    NPAR_CR06_10 PARCEL_CR06_10 -20.0
    M10080 'MARKER' 'INTEND'
    BUY_CR06_10 OBJ -60.3992887899229
    BUY_CR06_10 PARCEL_CR06_10 1.0
    BUY_CR06_10 CBAL_CR06_10 1.0
    CINV_CR06_10 OBJ -0.3
    CINV_CR06_10 CBAL_CR06_10 -1.0
    CINV_CR06_10 CBAL_CR06_11 1.0
    CDU_CR06_10 CBAL_CR06_10 -1.0
    CDU_CR06_10 CDUCAP_10 1.0
    CDU_CR06_10 CDUMIN_10 1.0
    CDU_CR06_10 YLPG_CR06_10 -0.014219474855875663
    CDU_CR06_10 YNAP_CR06_10 -0.13746806025500902
    CDU_CR06_10 YKER_CR06_10 -0.10533897185985656
    CDU_CR06_10 YDSL_CR06_10 -0.20403840195434858
    CDU_CR06_10 YVGO_CR06_10 -0.26484358994429863
    CDU_CR06_10 YRES_CR06_10 -0.27409150113061165
    M10096 'MARKER' 'INTORG'
    NPAR_CR07_10 PARCEL_CR07_10 -20.0
    M10098 'MARKER' 'INTEND'
    BUY_CR07_10 OBJ -68.33848451468793
    BUY_CR07_10 PARCEL_CR07_10 1.0
    BUY_CR07_10 CBAL_CR07_10 1.0
    CINV_CR07_10 OBJ -0.3
    CINV_CR07_10 CBAL_CR07_10 -1.0
    CINV_CR07_10 CBAL_CR07_11 1.0
    CDU_CR07_10 CBAL_CR07_10 -1.0
    CDU_CR07_10 CDUCAP_10 1.0
    CDU_CR07_10 CDUMIN_10 1.0
    CDU_CR07_10 YLPG_CR07_10 -0.01678766142162217
    CDU_CR07_10 YNAP_CR07_10 -0.18341674311422207
    CDU_CR07_10 YKER_CR07_10 -0.13271469159016522
    CDU_CR07_10 YDSL_CR07_10 -0.2249127244045356
    CDU_CR07_10 YVGO_CR07_10 -0.24848613807316539
    CDU_CR07_10 YRES_CR07_10 -0.19368204139628944
    M10114 'MARKER' 'INTORG'
    NPAR_CR08_10 PARCEL_CR08_10 -20.0
    M10116 'MARKER' 'INTEND'
    BUY_CR08_10 OBJ -66.74272798958812
    BUY_CR08_10 PARCEL_CR08_10 1.0
    BUY_CR08_10 CBAL_CR08_10 1.0
    CINV_CR08_10 OBJ -0.3
    CINV_CR08_10 CBAL_CR08_10 -1.0
    CINV_CR08_10 CBAL_CR08_11 1.0
    CDU_CR08_10 CBAL_CR08_10 -1.0
    CDU_CR08_10 CDUCAP_10 1.0
    CDU_CR08_10 CDUMIN_10 1.0
    CDU_CR08_10 YLPG_CR08_10 -0.023930881960770135
    CDU_CR08_10 YNAP_CR08_10 -0.199474063989656
    CDU_CR08_10 YKER_CR08_10 -0.13012967624359006
    CDU_CR08_10 YDSL_CR08_10 -0.24906213509239003
    CDU_CR08_10 YVGO_CR08_10 -0.24247509330512357
    CDU_CR08_10 YRES_CR08_10 -0.15492814940847022
    M10132 'MARKER' 'INTORG'
    NPAR_CR09_10 PARCEL_CR09_10 -20.0
    M10134 'MARKER' 'INTEND'
    BUY_CR09_10 OBJ -75.11972047118851
    BUY_CR09_10 PARCEL_CR09_10 1.0
    BUY_CR09_10 CBAL_CR09_10 1.0
    CINV_CR09_10 OBJ -0.3
    CINV_CR09_10 CBAL_CR09_10 -1.0
    CINV_CR09_10 CBAL_CR09_11 1.0
    CDU_CR09_10 CBAL_CR09_10 -1.0
    CDU_CR09_10 CDUCAP_10 1.0
    CDU_CR09_10 CDUMIN_10 1.0
    CDU_CR09_10 YLPG_CR09_10 -0.0254414593142613
    CDU_CR09_10 YNAP_CR09_10 -0.2406668892422991
    CDU_CR09_10 YKER_CR09_10 -0.14150533274546892
    CDU_CR09_10 YDSL_CR09_10 -0.23713673044274025
    CDU_CR09_10 YVGO_CR09_10 -0.23566730460149374
    CDU_CR09_10 YRES_CR09_10 -0.11958228365373665
    M10150 'MARKER' 'INTORG'
    CDUMODE_10 OBJ -150.0
    CDUMODE_10 CDUCAP_10 -150.0
    CDUMODE_10 CDUMIN_10 -90.0
    M10154 'MARKER' 'INTEND'
    LPG_CR00_10 YLPG_CR00_10 1.0
    LPG_CR00_10 LPGBAL_10 -1.0
    NAP_CR00_10 YNAP_CR00_10 1.0
    NAP_CR00_10 NAPBAL_CR00_10 1.0
    KER_CR00_10 YKER_CR00_10 1.0
    KER_CR00_10 KERBAL_CR00_10 1.0
    DSL_CR00_10 YDSL_CR00_10 1.0
    DSL_CR00_10 DSLBAL_CR00_10 1.0
    VGO_CR00_10 YVGO_CR00_10 1.0
    VGO_CR00_10 VGOBAL_CR00_10 1.0
    RES_CR00_10 YRES_CR00_10 1.0
    RES_CR00_10 RESSPLIT_CR00_10 1.0
    LPG_CR01_10 YLPG_CR01_10 1.0
    LPG_CR01_10 LPGBAL_10 -1.0
    NAP_CR01_10 YNAP_CR01_10 1.0
    NAP_CR01_10 NAPBAL_CR01_10 1.0
    KER_CR01_10 YKER_CR01_10 1.0
    KER_CR01_10 KERBAL_CR01_10 1.0
    DSL_CR01_10 YDSL_CR01_10 1.0
    DSL_CR01_10 DSLBAL_CR01_10 1.0
    VGO_CR01_10 YVGO_CR01_10 1.0
    VGO_CR01_10 VGOBAL_CR01_10 1.0
    RES_CR01_10 YRES_CR01_10 1.0
    RES_CR01_10 RESSPLIT_CR01_10 1.0
    LPG_CR02_10 YLPG_CR02_10 1.0
    LPG_CR02_10 LPGBAL_10 -1.0
    NAP_CR02_10 YNAP_CR02_10 1.0
    NAP_CR02_10 NAPBAL_CR02_10 1.0
    KER_CR02_10 YKER_CR02_10 1.0
    KER_CR02_10 KERBAL_CR02_10 1.0
    DSL_CR02_10 YDSL_CR02_10 1.0
    DSL_CR02_10 DSLBAL_CR02_10 1.0
    VGO_CR02_10 YVGO_CR02_10 1.0
    VGO_CR02_10 VGOBAL_CR02_10 1.0
    RES_CR02_10 YRES_CR02_10 1.0
    RES_CR02_10 RESSPLIT_CR02_10 1.0
    LPG_CR03_10 YLPG_CR03_10 1.0
    LPG_CR03_10 LPGBAL_10 -1.0
    NAP_CR03_10 YNAP_CR03_10 1.0
    NAP_CR03_10 NAPBAL_CR03_10 1.0
    KER_CR03_10 YKER_CR03_10 1.0
    KER_CR03_10 KERBAL_CR03_10 1.0
    DSL_CR03_10 YDSL_CR03_10 1.0
    DSL_CR03_10 DSLBAL_CR03_10 1.0
    VGO_CR03_10 YVGO_CR03_10 1.0
    VGO_CR03_10 VGOBAL_CR03_10 1.0
    RES_CR03_10 YRES_CR03_10 1.0
    RES_CR03_10 RESSPLIT_CR03_10 1.0
    LPG_CR04_10 YLPG_CR04_10 1.0
    LPG_CR04_10 LPGBAL_10 -1.0
    NAP_CR04_10 YNAP_CR04_10 1.0
    NAP_CR04_10 NAPBAL_CR04_10 1.0
    KER_CR04_10 YKER_CR04_10 1.0
    KER_CR04_10 KERBAL_CR04_10 1.0
    DSL_CR04_10 YDSL_CR04_10 1.0
    DSL_CR04_10 DSLBAL_CR04_10 1.0
    VGO_CR04_10 YVGO_CR04_10 1.0
    VGO_CR04_10 VGOBAL_CR04_10 1.0
    RES_CR04_10 YRES_CR04_10 1.0
    RES_CR04_10 RESSPLIT_CR04_10 1.0
    LPG_CR05_10 YLPG_CR05_10 1.0
    LPG_CR05_10 LPGBAL_10 -1.0
    NAP_CR05_10 YNAP_CR05_10 1.0
    NAP_CR05_10 NAPBAL_CR05_10 1.0
    KER_CR05_10 YKER_CR05_10 1.0
    KER_CR05_10 KERBAL_CR05_10 1.0
    DSL_CR05_10 YDSL_CR05_10 1.0
    DSL_CR05_10 DSLBAL_CR05_10 1.0
    VGO_CR05_10 YVGO_CR05_10 1.0
    VGO_CR05_10 VGOBAL_CR05_10 1.0
    RES_CR05_10 YRES_CR05_10 1.0
    RES_CR05_10 RESSPLIT_CR05_10 1.0
    LPG_CR06_10 YLPG_CR06_10 1.0
    LPG_CR06_10 LPGBAL_10 -1.0
    NAP_CR06_10 YNAP_CR06_10 1.0
    NAP_CR06_10 NAPBAL_CR06_10 1.0
    KER_CR06_10 YKER_CR06_10 1.0
    KER_CR06_10 KERBAL_CR06_10 1.0
    DSL_CR06_10 YDSL_CR06_10 1.0
    DSL_CR06_10 DSLBAL_CR06_10 1.0
    VGO_CR06_10 YVGO_CR06_10 1.0
    VGO_CR06_10 VGOBAL_CR06_10 1.0
    RES_CR06_10 YRES_CR06_10 1.0
    RES_CR06_10 RESSPLIT_CR06_10 1.0
    LPG_CR07_10 YLPG_CR07_10 1.0
    LPG_CR07_10 LPGBAL_10 -1.0
    NAP_CR07_10 YNAP_CR07_10 1.0
    NAP_CR07_10 NAPBAL_CR07_10 1.0
    KER_CR07_10 YKER_CR07_10 1.0
    KER_CR07_10 KERBAL_CR07_10 1.0
    DSL_CR07_10 YDSL_CR07_10 1.0
    DSL_CR07_10 DSLBAL_CR07_10 1.0
    VGO_CR07_10 YVGO_CR07_10 1.0
    VGO_CR07_10 VGOBAL_CR07_10 1.0
    RES_CR07_10 YRES_CR07_10 1.0
    RES_CR07_10 RESSPLIT_CR07_10 1.0
    LPG_CR08_10 YLPG_CR08_10 1.0
    LPG_CR08_10 LPGBAL_10 -1.0
    NAP_CR08_10 YNAP_CR08_10 1.0
    NAP_CR08_10 NAPBAL_CR08_10 1.0
    KER_CR08_10 YKER_CR08_10 1.0
    KER_CR08_10 KERBAL_CR08_10 1.0
    DSL_CR08_10 YDSL_CR08_10 1.0
    DSL_CR08_10 DSLBAL_CR08_10 1.0
    VGO_CR08_10 YVGO_CR08_10 1.0
    VGO_CR08_10 VGOBAL_CR08_10 1.0
    RES_CR08_10 YRES_CR08_10 1.0
    RES_CR08_10 RESSPLIT_CR08_10 1.0
    LPG_CR09_10 YLPG_CR09_10 1.0
    LPG_CR09_10 LPGBAL_10 -1.0
    NAP_CR09_10 YNAP_CR09_10 1.0
    NAP_CR09_10 NAPBAL_CR09_10 1.0
    KER_CR09_10 YKER_CR09_10 1.0
    KER_CR09_10 KERBAL_CR09_10 1.0
    DSL_CR09_10 YDSL_CR09_10 1.0
    DSL_CR09_10 DSLBAL_CR09_10 1.0
    VGO_CR09_10 YVGO_CR09_10 1.0
    VGO_CR09_10 VGOBAL_CR09_10 1.0
    RES_CR09_10 YRES_CR09_10 1.0
    RES_CR09_10 RESSPLIT_CR09_10 1.0
    VDUIN_CR00_10 RESSPLIT_CR00_10 -1.0
    VDUIN_CR00_10 VDUY1_CR00_10 -0.45
    VDUIN_CR00_10 VDUY2_CR00_10 -0.55
    VDUIN_CR00_10 VDUCAP_10 1.0
    RESFO_CR00_10 RESSPLIT_CR00_10 -1.0
    RESFO_CR00_10 FOBAL_10 -1.0
    RESFO_CR00_10 FOSUL_10 1.9540891690108433
    VGO2_CR00_10 VDUY1_CR00_10 1.0
    VGO2_CR00_10 VGOBAL_CR00_10 1.0
    VR_CR00_10 VDUY2_CR00_10 1.0
    VR_CR00_10 FOBAL_10 -1.0
    VR_CR00_10 FOSUL_10 3.5903159197140964
    VDUIN_CR01_10 RESSPLIT_CR01_10 -1.0
    VDUIN_CR01_10 VDUY1_CR01_10 -0.45
    VDUIN_CR01_10 VDUY2_CR01_10 -0.55
    VDUIN_CR01_10 VDUCAP_10 1.0
    RESFO_CR01_10 RESSPLIT_CR01_10 -1.0
    RESFO_CR01_10 FOBAL_10 -1.0
    RESFO_CR01_10 FOSUL_10 -0.6168441789886687
    VGO2_CR01_10 VDUY1_CR01_10 1.0
    VGO2_CR01_10 VGOBAL_CR01_10 1.0
    VR_CR01_10 VDUY2_CR01_10 1.0
    VR_CR01_10 FOBAL_10 -1.0
    VR_CR01_10 FOSUL_10 0.24810256731473057
    VDUIN_CR02_10 RESSPLIT_CR02_10 -1.0
    VDUIN_CR02_10 VDUY1_CR02_10 -0.45
    VDUIN_CR02_10 VDUY2_CR02_10 -0.55
    VDUIN_CR02_10 VDUCAP_10 1.0
    RESFO_CR02_10 RESSPLIT_CR02_10 -1.0
    RESFO_CR02_10 FOBAL_10 -1.0
    RESFO_CR02_10 FOSUL_10 0.05675733131967897
    VGO2_CR02_10 VDUY1_CR02_10 1.0
    VGO2_CR02_10 VGOBAL_CR02_10 1.0
    VR_CR02_10 VDUY2_CR02_10 1.0
    VR_CR02_10 FOBAL_10 -1.0
    VR_CR02_10 FOSUL_10 1.1237845307155832
    VDUIN_CR03_10 RESSPLIT_CR03_10 -1.0
    VDUIN_CR03_10 VDUY1_CR03_10 -0.45
    VDUIN_CR03_10 VDUY2_CR03_10 -0.55
    VDUIN_CR03_10 VDUCAP_10 1.0
    RESFO_CR03_10 RESSPLIT_CR03_10 -1.0
    RESFO_CR03_10 FOBAL_10 -1.0
    RESFO_CR03_10 FOSUL_10 -1.8686274424458973
    VGO2_CR03_10 VDUY1_CR03_10 1.0
    VGO2_CR03_10 VGOBAL_CR03_10 1.0
    VR_CR03_10 VDUY2_CR03_10 1.0
    VR_CR03_10 FOBAL_10 -1.0
    VR_CR03_10 FOSUL_10 -1.3792156751796663
    VDUIN_CR04_10 RESSPLIT_CR04_10 -1.0
    VDUIN_CR04_10 VDUY1_CR04_10 -0.45
    VDUIN_CR04_10 VDUY2_CR04_10 -0.55
    VDUIN_CR04_10 VDUCAP_10 1.0
    RESFO_CR04_10 RESSPLIT_CR04_10 -1.0
    RESFO_CR04_10 FOBAL_10 -1.0
    RESFO_CR04_10 FOSUL_10 2.031668478530798
    VGO2_CR04_10 VDUY1_CR04_10 1.0
    VGO2_CR04_10 VGOBAL_CR04_10 1.0
    VR_CR04_10 VDUY2_CR04_10 1.0
    VR_CR04_10 FOBAL_10 -1.0
    VR_CR04_10 FOSUL_10 3.6911690220900377
    VDUIN_CR05_10 RESSPLIT_CR05_10 -1.0
    VDUIN_CR05_10 VDUY1_CR05_10 -0.45
    VDUIN_CR05_10 VDUY2_CR05_10 -0.55
    VDUIN_CR05_10 VDUCAP_10 1.0
    RESFO_CR05_10 RESSPLIT_CR05_10 -1.0
    RESFO_CR05_10 FOBAL_10 -1.0
    RESFO_CR05_10 FOSUL_10 0.3429997580900688
    VGO2_CR05_10 VDUY1_CR05_10 1.0
    VGO2_CR05_10 VGOBAL_CR05_10 1.0
    VR_CR05_10 VDUY2_CR05_10 1.0
    VR_CR05_10 FOBAL_10 -1.0
    VR_CR05_10 FOSUL_10 1.4958996855170898
    VDUIN_CR06_10 RESSPLIT_CR06_10 -1.0
    VDUIN_CR06_10 VDUY1_CR06_10 -0.45
    VDUIN_CR06_10 VDUY2_CR06_10 -0.55
    VDUIN_CR06_10 VDUCAP_10 1.0
    RESFO_CR06_10 RESSPLIT_CR06_10 -1.0
    RESFO_CR06_10 FOBAL_10 -1.0
    RESFO_CR06_10 FOSUL_10 0.10255232060654862
    VGO2_CR06_10 VDUY1_CR06_10 1.0
    VGO2_CR06_10 VGOBAL_CR06_10 1.0
    VR_CR06_10 VDUY2_CR06_10 1.0
    VR_CR06_10 FOBAL_10 -1.0
    VR_CR06_10 FOSUL_10 1.1833180167885136
    VDUIN_CR07_10 RESSPLIT_CR07_10 -1.0
    VDUIN_CR07_10 VDUY1_CR07_10 -0.45
    VDUIN_CR07_10 VDUY2_CR07_10 -0.55
    VDUIN_CR07_10 VDUCAP_10 1.0
    RESFO_CR07_10 RESSPLIT_CR07_10 -1.0
    RESFO_CR07_10 FOBAL_10 -1.0
    RESFO_CR07_10 FOSUL_10 -3.116635223405176
    VGO2_CR07_10 VDUY1_CR07_10 1.0
    VGO2_CR07_10 VGOBAL_CR07_10 1.0
    VR_CR07_10 VDUY2_CR07_10 1.0
    VR_CR07_10 FOBAL_10 -1.0
    VR_CR07_10 FOSUL_10 -3.001625790426729
    VDUIN_CR08_10 RESSPLIT_CR08_10 -1.0
    VDUIN_CR08_10 VDUY1_CR08_10 -0.45
    VDUIN_CR08_10 VDUY2_CR08_10 -0.55
    VDUIN_CR08_10 VDUCAP_10 1.0
    RESFO_CR08_10 RESSPLIT_CR08_10 -1.0
    RESFO_CR08_10 FOBAL_10 -1.0
    RESFO_CR08_10 FOSUL_10 0.0456281803886287
    VGO2_CR08_10 VDUY1_CR08_10 1.0
    VGO2_CR08_10 VGOBAL_CR08_10 1.0
    VR_CR08_10 VDUY2_CR08_10 1.0
    VR_CR08_10 FOBAL_10 -1.0
    VR_CR08_10 FOSUL_10 1.109316634505218
    VDUIN_CR09_10 RESSPLIT_CR09_10 -1.0
    VDUIN_CR09_10 VDUY1_CR09_10 -0.45
    VDUIN_CR09_10 VDUY2_CR09_10 -0.55
    VDUIN_CR09_10 VDUCAP_10 1.0
    RESFO_CR09_10 RESSPLIT_CR09_10 -1.0
    RESFO_CR09_10 FOBAL_10 -1.0
    RESFO_CR09_10 FOSUL_10 -3.264603397407564
    VGO2_CR09_10 VDUY1_CR09_10 1.0
    VGO2_CR09_10 VGOBAL_CR09_10 1.0
    VR_CR09_10 VDUY2_CR09_10 1.0
    VR_CR09_10 FOBAL_10 -1.0
    VR_CR09_10 FOSUL_10 -3.1939844166298332
    FCCIN_CR00_10 OBJ -2.5
    FCCIN_CR00_10 VGOBAL_CR00_10 -1.0
    FCCIN_CR00_10 FCCCAP_10 1.0
    FCCIN_CR00_10 FCCY_FCCG_10 -0.55
    FCCIN_CR00_10 FCCY_LCO_10 -0.2
    FCCIN_CR00_10 FCCY_FLPG_10 -0.15
    FCCIN_CR00_10 FCCY_SLURRY_10 -0.07
    FCCIN_CR01_10 OBJ -2.5
    FCCIN_CR01_10 VGOBAL_CR01_10 -1.0
    FCCIN_CR01_10 FCCCAP_10 1.0
    FCCIN_CR01_10 FCCY_FCCG_10 -0.55
    FCCIN_CR01_10 FCCY_LCO_10 -0.2
    FCCIN_CR01_10 FCCY_FLPG_10 -0.15
    FCCIN_CR01_10 FCCY_SLURRY_10 -0.07
    FCCIN_CR02_10 OBJ -2.5
    FCCIN_CR02_10 VGOBAL_CR02_10 -1.0
    FCCIN_CR02_10 FCCCAP_10 1.0
    FCCIN_CR02_10 FCCY_FCCG_10 -0.55
    FCCIN_CR02_10 FCCY_LCO_10 -0.2
    FCCIN_CR02_10 FCCY_FLPG_10 -0.15
    FCCIN_CR02_10 FCCY_SLURRY_10 -0.07
    FCCIN_CR03_10 OBJ -2.5
    FCCIN_CR03_10 VGOBAL_CR03_10 -1.0
    FCCIN_CR03_10 FCCCAP_10 1.0
    FCCIN_CR03_10 FCCY_FCCG_10 -0.55
    FCCIN_CR03_10 FCCY_LCO_10 -0.2
    FCCIN_CR03_10 FCCY_FLPG_10 -0.15
    FCCIN_CR03_10 FCCY_SLURRY_10 -0.07
    FCCIN_CR04_10 OBJ -2.5
    FCCIN_CR04_10 VGOBAL_CR04_10 -1.0
    FCCIN_CR04_10 FCCCAP_10 1.0
    FCCIN_CR04_10 FCCY_FCCG_10 -0.55
    FCCIN_CR04_10 FCCY_LCO_10 -0.2
    FCCIN_CR04_10 FCCY_FLPG_10 -0.15
    FCCIN_CR04_10 FCCY_SLURRY_10 -0.07
    FCCIN_CR05_10 OBJ -2.5
    FCCIN_CR05_10 VGOBAL_CR05_10 -1.0
    FCCIN_CR05_10 FCCCAP_10 1.0
    FCCIN_CR05_10 FCCY_FCCG_10 -0.55
    FCCIN_CR05_10 FCCY_LCO_10 -0.2
    FCCIN_CR05_10 FCCY_FLPG_10 -0.15
    FCCIN_CR05_10 FCCY_SLURRY_10 -0.07
    FCCIN_CR06_10 OBJ -2.5
    FCCIN_CR06_10 VGOBAL_CR06_10 -1.0
    FCCIN_CR06_10 FCCCAP_10 1.0
    FCCIN_CR06_10 FCCY_FCCG_10 -0.55
    FCCIN_CR06_10 FCCY_LCO_10 -0.2
    FCCIN_CR06_10 FCCY_FLPG_10 -0.15
    FCCIN_CR06_10 FCCY_SLURRY_10 -0.07
    FCCIN_CR07_10 OBJ -2.5
    FCCIN_CR07_10 VGOBAL_CR07_10 -1.0
    FCCIN_CR07_10 FCCCAP_10 1.0
    FCCIN_CR07_10 FCCY_FCCG_10 -0.55
    FCCIN_CR07_10 FCCY_LCO_10 -0.2
    FCCIN_CR07_10 FCCY_FLPG_10 -0.15
    FCCIN_CR07_10 FCCY_SLURRY_10 -0.07
    FCCIN_CR08_10 OBJ -2.5
    FCCIN_CR08_10 VGOBAL_CR08_10 -1.0
    FCCIN_CR08_10 FCCCAP_10 1.0
    FCCIN_CR08_10 FCCY_FCCG_10 -0.55
    FCCIN_CR08_10 FCCY_LCO_10 -0.2
    FCCIN_CR08_10 FCCY_FLPG_10 -0.15
    FCCIN_CR08_10 FCCY_SLURRY_10 -0.07
    FCCIN_CR09_10 OBJ -2.5
    FCCIN_CR09_10 VGOBAL_CR09_10 -1.0
    FCCIN_CR09_10 FCCCAP_10 1.0
    FCCIN_CR09_10 FCCY_FCCG_10 -0.55
    FCCIN_CR09_10 FCCY_LCO_10 -0.2
    FCCIN_CR09_10 FCCY_FLPG_10 -0.15
    FCCIN_CR09_10 FCCY_SLURRY_10 -0.07
    FCCG_10 FCCY_FCCG_10 1.0
    FCCG_10 GASBAL_10 -1.0
    FCCG_10 GASRON_10 1.0
    LCO_10 FCCY_LCO_10 1.0
    LCO_10 LCOBAL_10 1.0
    FLPG_10 FCCY_FLPG_10 1.0
    FLPG_10 LPGBAL_10 -1.0
    SLURRY_10 FCCY_SLURRY_10 1.0
    SLURRY_10 FOBAL_10 -1.0
    SLURRY_10 FOSUL_10 -1.5
    REFIN_CR00_10 OBJ -3.0
    REFIN_CR00_10 NAPBAL_CR00_10 -1.0
    REFIN_CR00_10 REFCAP_10 1.0
    REFIN_CR00_10 REFY_10 -0.85
    NAPGAS_CR00_10 NAPBAL_CR00_10 -1.0
    NAPGAS_CR00_10 GASBAL_10 -1.0
    NAPGAS_CR00_10 GASRON_10 -41.351908455631545
    REFIN_CR01_10 OBJ -3.0
    REFIN_CR01_10 NAPBAL_CR01_10 -1.0
    REFIN_CR01_10 REFCAP_10 1.0
    REFIN_CR01_10 REFY_10 -0.85
    NAPGAS_CR01_10 NAPBAL_CR01_10 -1.0
    NAPGAS_CR01_10 GASBAL_10 -1.0
    NAPGAS_CR01_10 GASRON_10 -33.623043958680114
    REFIN_CR02_10 OBJ -3.0
    REFIN_CR02_10 NAPBAL_CR02_10 -1.0
    REFIN_CR02_10 REFCAP_10 1.0
    REFIN_CR02_10 REFY_10 -0.85
    NAPGAS_CR02_10 NAPBAL_CR02_10 -1.0
    NAPGAS_CR02_10 GASBAL_10 -1.0
    NAPGAS_CR02_10 GASRON_10 -39.74522208078083
    REFIN_CR03_10 OBJ -3.0
    REFIN_CR03_10 NAPBAL_CR03_10 -1.0
    REFIN_CR03_10 REFCAP_10 1.0
    REFIN_CR03_10 REFY_10 -0.85
    NAPGAS_CR03_10 NAPBAL_CR03_10 -1.0
    NAPGAS_CR03_10 GASBAL_10 -1.0
    NAPGAS_CR03_10 GASRON_10 -39.32063345179839
    REFIN_CR04_10 OBJ -3.0
    REFIN_CR04_10 NAPBAL_CR04_10 -1.0
    REFIN_CR04_10 REFCAP_10 1.0
    REFIN_CR04_10 REFY_10 -0.85
    NAPGAS_CR04_10 NAPBAL_CR04_10 -1.0
    NAPGAS_CR04_10 GASBAL_10 -1.0
    NAPGAS_CR04_10 GASRON_10 -28.06018906757886
    REFIN_CR05_10 OBJ -3.0
    REFIN_CR05_10 NAPBAL_CR05_10 -1.0
    REFIN_CR05_10 REFCAP_10 1.0
    REFIN_CR05_10 REFY_10 -0.85
    NAPGAS_CR05_10 NAPBAL_CR05_10 -1.0
    NAPGAS_CR05_10 GASBAL_10 -1.0
    NAPGAS_CR05_10 GASRON_10 -37.177062383933254
    REFIN_CR06_10 OBJ -3.0
    REFIN_CR06_10 NAPBAL_CR06_10 -1.0
    REFIN_CR06_10 REFCAP_10 1.0
    REFIN_CR06_10 REFY_10 -0.85
    NAPGAS_CR06_10 NAPBAL_CR06_10 -1.0
    NAPGAS_CR06_10 GASBAL_10 -1.0
    NAPGAS_CR06_10 GASRON_10 -38.73738801284508
    REFIN_CR07_10 OBJ -3.0
    REFIN_CR07_10 NAPBAL_CR07_10 -1.0
    REFIN_CR07_10 REFCAP_10 1.0
    REFIN_CR07_10 REFY_10 -0.85
    NAPGAS_CR07_10 NAPBAL_CR07_10 -1.0
    NAPGAS_CR07_10 GASBAL_10 -1.0
    NAPGAS_CR07_10 GASRON_10 -31.720911449683953
    REFIN_CR08_10 OBJ -3.0
    REFIN_CR08_10 NAPBAL_CR08_10 -1.0
    REFIN_CR08_10 REFCAP_10 1.0
    REFIN_CR08_10 REFY_10 -0.85
    NAPGAS_CR08_10 NAPBAL_CR08_10 -1.0
    NAPGAS_CR08_10 GASBAL_10 -1.0
    NAPGAS_CR08_10 GASRON_10 -31.236267605063702
    REFIN_CR09_10 OBJ -3.0
    REFIN_CR09_10 NAPBAL_CR09_10 -1.0
    REFIN_CR09_10 REFCAP_10 1.0
    REFIN_CR09_10 REFY_10 -0.85
    NAPGAS_CR09_10 NAPBAL_CR09_10 -1.0
    NAPGAS_CR09_10 GASBAL_10 -1.0
    NAPGAS_CR09_10 GASRON_10 -29.9151768258086
    REFORMATE_10 REFY_10 1.0
    REFORMATE_10 GASBAL_10 -1.0
    REFORMATE_10 GASRON_10 7.0
    DHTIN_CR00_10 OBJ -2.0
    DHTIN_CR00_10 DSLBAL_CR00_10 -1.0
    DHTIN_CR00_10 DHTCAP_10 1.0
    DHTIN_CR00_10 DHTY_10 -0.98
    DSLDIR_CR00_10 DSLBAL_CR00_10 -1.0
    DSLDIR_CR00_10 DSLPB_10 -1.0
    DSLDIR_CR00_10 DSLSUL_10 1.5862267507032528
    DHTIN_CR01_10 OBJ -2.0
    DHTIN_CR01_10 DSLBAL_CR01_10 -1.0
    DHTIN_CR01_10 DHTCAP_10 1.0
    DHTIN_CR01_10 DHTY_10 -0.98
    DSLDIR_CR01_10 DSLBAL_CR01_10 -1.0
    DSLDIR_CR01_10 DSLPB_10 -1.0
    DSLDIR_CR01_10 DSLSUL_10 0.8149467463033994
    DHTIN_CR02_10 OBJ -2.0
    DHTIN_CR02_10 DSLBAL_CR02_10 -1.0
    DHTIN_CR02_10 DHTCAP_10 1.0
    DHTIN_CR02_10 DHTY_10 -0.98
    DSLDIR_CR02_10 DSLBAL_CR02_10 -1.0
    DSLDIR_CR02_10 DSLPB_10 -1.0
    DSLDIR_CR02_10 DSLSUL_10 1.0170271993959037
    DHTIN_CR03_10 OBJ -2.0
    DHTIN_CR03_10 DSLBAL_CR03_10 -1.0
    DHTIN_CR03_10 DHTCAP_10 1.0
    DHTIN_CR03_10 DHTY_10 -0.98
    DSLDIR_CR03_10 DSLBAL_CR03_10 -1.0
    DSLDIR_CR03_10 DSLPB_10 -1.0
    DSLDIR_CR03_10 DSLSUL_10 0.4394117672662308
    DHTIN_CR04_10 OBJ -2.0
    DHTIN_CR04_10 DSLBAL_CR04_10 -1.0
    DHTIN_CR04_10 DHTCAP_10 1.0
    DHTIN_CR04_10 DHTY_10 -0.98
    DSLDIR_CR04_10 DSLBAL_CR04_10 -1.0
    DSLDIR_CR04_10 DSLPB_10 -1.0
    DSLDIR_CR04_10 DSLSUL_10 1.6095005435592393
    DHTIN_CR05_10 OBJ -2.0
    DHTIN_CR05_10 DSLBAL_CR05_10 -1.0
    DHTIN_CR05_10 DHTCAP_10 1.0
    DHTIN_CR05_10 DHTY_10 -0.98
    DSLDIR_CR05_10 DSLBAL_CR05_10 -1.0
    DSLDIR_CR05_10 DSLPB_10 -1.0
    DSLDIR_CR05_10 DSLSUL_10 1.1028999274270206
    DHTIN_CR06_10 OBJ -2.0
    DHTIN_CR06_10 DSLBAL_CR06_10 -1.0
    DHTIN_CR06_10 DHTCAP_10 1.0
    DHTIN_CR06_10 DHTY_10 -0.98
    DSLDIR_CR06_10 DSLBAL_CR06_10 -1.0
    DSLDIR_CR06_10 DSLPB_10 -1.0
    DSLDIR_CR06_10 DSLSUL_10 1.0307656961819645
    DHTIN_CR07_10 OBJ -2.0
    DHTIN_CR07_10 DSLBAL_CR07_10 -1.0
    DHTIN_CR07_10 DHTCAP_10 1.0
    DHTIN_CR07_10 DHTY_10 -0.98
    DSLDIR_CR07_10 DSLBAL_CR07_10 -1.0
    DSLDIR_CR07_10 DSLPB_10 -1.0
    DSLDIR_CR07_10 DSLSUL_10 0.06500943297844713
    DHTIN_CR08_10 OBJ -2.0
    DHTIN_CR08_10 DSLBAL_CR08_10 -1.0
    DHTIN_CR08_10 DHTCAP_10 1.0
    DHTIN_CR08_10 DHTY_10 -0.98
    DSLDIR_CR08_10 DSLBAL_CR08_10 -1.0
    DSLDIR_CR08_10 DSLPB_10 -1.0
    DSLDIR_CR08_10 DSLSUL_10 1.0136884541165885
    DHTIN_CR09_10 OBJ -2.0
    DHTIN_CR09_10 DSLBAL_CR09_10 -1.0
    DHTIN_CR09_10 DHTCAP_10 1.0
    DHTIN_CR09_10 DHTY_10 -0.98
    DSLDIR_CR09_10 DSLBAL_CR09_10 -1.0
    DSLDIR_CR09_10 DSLPB_10 -1.0
    DSLDIR_CR09_10 DSLSUL_10 0.020618980777730833
    LCODHT_10 LCOBAL_10 -1.0
    LCODHT_10 DHTCAP_10 1.0
    LCODHT_10 DHTY_10 -0.95
    LCOFO_10 LCOBAL_10 -1.0
    LCOFO_10 FOBAL_10 -1.0
    LCOFO_10 FOSUL_10 -2.5
    ULSD_10 DHTY_10 1.0
    ULSD_10 DSLPB_10 -1.0
    ULSD_10 DSLSUL_10 -0.049
    SELL_LPG_10 OBJ 50.23686027918559
    SELL_LPG_10 PBAL_LPG_10 -1.0
    SELL_LPG_10 DMAX_LPG_10 1.0
    SELL_LPG_10 DMIN_LPG_10 1.0
    SELL_GAS_10 OBJ 95.9067332602634
    SELL_GAS_10 PBAL_GAS_10 -1.0
    SELL_GAS_10 DMAX_GAS_10 1.0
    SELL_GAS_10 DMIN_GAS_10 1.0
    SELL_JET_10 OBJ 91.33974596215562
    SELL_JET_10 PBAL_JET_10 -1.0
    SELL_JET_10 DMAX_JET_10 1.0
    SELL_JET_10 DMIN_JET_10 1.0
    SELL_DSL_10 OBJ 89.5129510429125
    SELL_DSL_10 PBAL_DSL_10 -1.0
    SELL_DSL_10 DMAX_DSL_10 1.0
    SELL_DSL_10 DMIN_DSL_10 1.0
    SELL_FO_10 OBJ 54.80384757729337
    SELL_FO_10 PBAL_FO_10 -1.0
    SELL_FO_10 DMAX_FO_10 1.0
    SELL_FO_10 DMIN_FO_10 1.0
    PINV_LPG_10 OBJ -0.5
    PINV_LPG_10 PBAL_LPG_10 -1.0
    PINV_LPG_10 PBAL_LPG_11 1.0
    PINV_GAS_10 OBJ -0.5
    PINV_GAS_10 PBAL_GAS_10 -1.0
    PINV_GAS_10 PBAL_GAS_11 1.0
    PINV_JET_10 OBJ -0.5
    PINV_JET_10 PBAL_JET_10 -1.0
    PINV_JET_10 PBAL_JET_11 1.0
    PINV_DSL_10 OBJ -0.5
    PINV_DSL_10 PBAL_DSL_10 -1.0
    PINV_DSL_10 PBAL_DSL_11 1.0
    PINV_FO_10 OBJ -0.5
    PINV_FO_10 PBAL_FO_10 -1.0
    PINV_FO_10 PBAL_FO_11 1.0
    SHORT_LPG_10 OBJ -400.0
    SHORT_LPG_10 DMIN_LPG_10 1.0
    SHORT_GAS_10 OBJ -400.0
    SHORT_GAS_10 DMIN_GAS_10 1.0
    SHORT_JET_10 OBJ -400.0
    SHORT_JET_10 DMIN_JET_10 1.0
    SHORT_DSL_10 OBJ -400.0
    SHORT_DSL_10 DMIN_DSL_10 1.0
    SHORT_FO_10 OBJ -400.0
    SHORT_FO_10 DMIN_FO_10 1.0
    GASPOOL_10 GASBAL_10 1.0
    GASPOOL_10 PBAL_GAS_10 1.0
    JETPOOL_10 JETBAL_10 1.0
    JETPOOL_10 PBAL_JET_10 1.0
    KERJET_CR00_10 KERBAL_CR00_10 -1.0
    KERJET_CR00_10 JETBAL_10 -1.0
    KERJET_CR00_10 JETSUL_10 0.10905668767581322
    KERDSL_CR00_10 KERBAL_CR00_10 -1.0
    KERDSL_CR00_10 DSLPB_10 -1.0
    KERDSL_CR00_10 DSLSUL_10 0.3590566876758132
    KERJET_CR01_10 KERBAL_CR01_10 -1.0
    KERJET_CR01_10 JETBAL_10 -1.0
    KERJET_CR01_10 JETSUL_10 -0.08376331342415014
    KERDSL_CR01_10 KERBAL_CR01_10 -1.0
    KERDSL_CR01_10 DSLPB_10 -1.0
    KERDSL_CR01_10 DSLSUL_10 0.16623668657584983
    KERJET_CR02_10 KERBAL_CR02_10 -1.0
    KERJET_CR02_10 JETBAL_10 -1.0
    KERJET_CR02_10 JETSUL_10 -0.033243200151024055
    KERDSL_CR02_10 KERBAL_CR02_10 -1.0
    KERDSL_CR02_10 DSLPB_10 -1.0
    KERDSL_CR02_10 DSLSUL_10 0.21675679984897595
    KERJET_CR03_10 KERBAL_CR03_10 -1.0
    KERJET_CR03_10 JETBAL_10 -1.0
    KERJET_CR03_10 JETSUL_10 -0.17764705818344229
    KERDSL_CR03_10 KERBAL_CR03_10 -1.0
    KERDSL_CR03_10 DSLPB_10 -1.0
    KERDSL_CR03_10 DSLSUL_10 0.0723529418165577
    KERJET_CR04_10 KERBAL_CR04_10 -1.0
    KERJET_CR04_10 JETBAL_10 -1.0
    KERJET_CR04_10 JETSUL_10 0.11487513588980985
    KERDSL_CR04_10 KERBAL_CR04_10 -1.0
    KERDSL_CR04_10 DSLPB_10 -1.0
    KERDSL_CR04_10 DSLSUL_10 0.36487513588980985
    KERJET_CR05_10 KERBAL_CR05_10 -1.0
    KERJET_CR05_10 JETBAL_10 -1.0
    KERJET_CR05_10 JETSUL_10 -0.011775018143244831
    KERDSL_CR05_10 KERBAL_CR05_10 -1.0
    KERDSL_CR05_10 DSLPB_10 -1.0
    KERDSL_CR05_10 DSLSUL_10 0.23822498185675517
    KERJET_CR06_10 KERBAL_CR06_10 -1.0
    KERJET_CR06_10 JETBAL_10 -1.0
    KERJET_CR06_10 JETSUL_10 -0.029808575954508865
    KERDSL_CR06_10 KERBAL_CR06_10 -1.0
    KERDSL_CR06_10 DSLPB_10 -1.0
    KERDSL_CR06_10 DSLSUL_10 0.22019142404549114
    KERJET_CR07_10 KERBAL_CR07_10 -1.0
    KERJET_CR07_10 JETBAL_10 -1.0
    KERJET_CR07_10 JETSUL_10 -0.2712476417553882
    KERDSL_CR07_10 KERBAL_CR07_10 -1.0
    KERDSL_CR07_10 DSLPB_10 -1.0
    KERDSL_CR07_10 DSLSUL_10 -0.02124764175538822
    KERJET_CR08_10 KERBAL_CR08_10 -1.0
    KERJET_CR08_10 JETBAL_10 -1.0
    KERJET_CR08_10 JETSUL_10 -0.03407788647085286
    KERDSL_CR08_10 KERBAL_CR08_10 -1.0
    KERDSL_CR08_10 DSLPB_10 -1.0
    KERDSL_CR08_10 DSLSUL_10 0.21592211352914714
    KERJET_CR09_10 KERBAL_CR09_10 -1.0
    KERJET_CR09_10 JETBAL_10 -1.0
    KERJET_CR09_10 JETSUL_10 -0.28234525480556727
    KERDSL_CR09_10 KERBAL_CR09_10 -1.0
    KERDSL_CR09_10 DSLPB_10 -1.0
    KERDSL_CR09_10 DSLSUL_10 -0.0323452548055673
    DSLPOOL_10 DSLPB_10 1.0
    DSLPOOL_10 PBAL_DSL_10 1.0
    LPGPOOL_10 LPGBAL_10 1.0
    LPGPOOL_10 PBAL_LPG_10 1.0
    FOPOOL_10 FOBAL_10 1.0
    FOPOOL_10 PBAL_FO_10 1.0
    M10742 'MARKER' 'INTORG'
    NPAR_CR00_11 PARCEL_CR00_11 -20.0
    M10744 'MARKER' 'INTEND'
    BUY_CR00_11 OBJ -55.76520319559114
    BUY_CR00_11 PARCEL_CR00_11 1.0
    BUY_CR00_11 CBAL_CR00_11 1.0
    CINV_CR00_11 OBJ -0.3
    CINV_CR00_11 CBAL_CR00_11 -1.0
    CDU_CR00_11 CBAL_CR00_11 -1.0
    CDU_CR00_11 CDUCAP_11 1.0
    CDU_CR00_11 CDUMIN_11 1.0
    CDU_CR00_11 YLPG_CR00_11 -0.013786055933968056
    CDU_CR00_11 YNAP_CR00_11 -0.1214444916358349
    CDU_CR00_11 YKER_CR00_11 -0.10646372452567733
    CDU_CR00_11 YDSL_CR00_11 -0.20292085263352289
    CDU_CR00_11 YVGO_CR00_11 -0.27390944719057636
    CDU_CR00_11 YRES_CR00_11 -0.28147542808042036
    M10759 'MARKER' 'INTORG'
    NPAR_CR01_11 PARCEL_CR01_11 -20.0
    M10761 'MARKER' 'INTEND'
    BUY_CR01_11 OBJ -71.79708758469398
    BUY_CR01_11 PARCEL_CR01_11 1.0
    BUY_CR01_11 CBAL_CR01_11 1.0
    CINV_CR01_11 OBJ -0.3
    CINV_CR01_11 CBAL_CR01_11 -1.0
    CDU_CR01_11 CBAL_CR01_11 -1.0
    CDU_CR01_11 CDUCAP_11 1.0
    CDU_CR01_11 CDUMIN_11 1.0
    CDU_CR01_11 YLPG_CR01_11 -0.025127543584387436
    CDU_CR01_11 YNAP_CR01_11 -0.2025917905849106
    CDU_CR01_11 YKER_CR01_11 -0.13410952106049506
    CDU_CR01_11 YDSL_CR01_11 -0.24728591651278542
    CDU_CR01_11 YVGO_CR01_11 -0.22897185950088417
    CDU_CR01_11 YRES_CR01_11 -0.16191336875653717
    M10776 'MARKER' 'INTORG'
    NPAR_CR02_11 PARCEL_CR02_11 -20.0
    M10778 'MARKER' 'INTEND'
    BUY_CR02_11 OBJ -58.55089758455581
    BUY_CR02_11 PARCEL_CR02_11 1.0
    BUY_CR02_11 CBAL_CR02_11 1.0
    CINV_CR02_11 OBJ -0.3
    CINV_CR02_11 CBAL_CR02_11 -1.0
    CDU_CR02_11 CBAL_CR02_11 -1.0
    CDU_CR02_11 CDUCAP_11 1.0
    CDU_CR02_11 CDUMIN_11 1.0
    CDU_CR02_11 YLPG_CR02_11 -0.013444753666275039
    CDU_CR02_11 YNAP_CR02_11 -0.11889710072836579
    CDU_CR02_11 YKER_CR02_11 -0.103840437143255
    CDU_CR02_11 YDSL_CR02_11 -0.21229612809407214
    CDU_CR02_11 YVGO_CR02_11 -0.2628713956905896
    CDU_CR02_11 YRES_CR02_11 -0.28865018467744247
    M10793 'MARKER' 'INTORG'
    NPAR_CR03_11 PARCEL_CR03_11 -20.0
    M10795 'MARKER' 'INTEND'
    BUY_CR03_11 OBJ -65.76885495091724
    BUY_CR03_11 PARCEL_CR03_11 1.0
    BUY_CR03_11 CBAL_CR03_11 1.0
    CINV_CR03_11 OBJ -0.3
    CINV_CR03_11 CBAL_CR03_11 -1.0
    CDU_CR03_11 CBAL_CR03_11 -1.0
    CDU_CR03_11 CDUCAP_11 1.0
    CDU_CR03_11 CDUMIN_11 1.0
    CDU_CR03_11 YLPG_CR03_11 -0.01400858068810675
    CDU_CR03_11 YNAP_CR03_11 -0.1424923117986131
    CDU_CR03_11 YKER_CR03_11 -0.10784088582669263
    CDU_CR03_11 YDSL_CR03_11 -0.19279120630762445
    CDU_CR03_11 YVGO_CR03_11 -0.28544626211923063
    CDU_CR03_11 YRES_CR03_11 -0.2574207532597324
    M10810 'MARKER' 'INTORG'
    NPAR_CR04_11 PARCEL_CR04_11 -20.0
    M10812 'MARKER' 'INTEND'
    BUY_CR04_11 OBJ -70.93693256410515
    BUY_CR04_11 PARCEL_CR04_11 1.0
    BUY_CR04_11 CBAL_CR04_11 1.0
    CINV_CR04_11 OBJ -0.3
    CINV_CR04_11 CBAL_CR04_11 -1.0
    CDU_CR04_11 CBAL_CR04_11 -1.0
    CDU_CR04_11 CDUCAP_11 1.0
    CDU_CR04_11 CDUMIN_11 1.0
    CDU_CR04_11 YLPG_CR04_11 -0.02335213093765316
    CDU_CR04_11 YNAP_CR04_11 -0.2292355396921612
    CDU_CR04_11 YKER_CR04_11 -0.14240695851543803
    CDU_CR04_11 YDSL_CR04_11 -0.24384363627499198
    CDU_CR04_11 YVGO_CR04_11 -0.2465326974706559
    CDU_CR04_11 YRES_CR04_11 -0.1146290371090997
    M10827 'MARKER' 'INTORG'
    NPAR_CR05_11 PARCEL_CR05_11 -20.0
    M10829 'MARKER' 'INTEND'
    BUY_CR05_11 OBJ -64.3973842510971
    BUY_CR05_11 PARCEL_CR05_11 1.0
    BUY_CR05_11 CBAL_CR05_11 1.0
    CINV_CR05_11 OBJ -0.3
    CINV_CR05_11 CBAL_CR05_11 -1.0
    CDU_CR05_11 CBAL_CR05_11 -1.0
    CDU_CR05_11 CDUCAP_11 1.0
    CDU_CR05_11 CDUMIN_11 1.0
    CDU_CR05_11 YLPG_CR05_11 -0.01735729802728813
    CDU_CR05_11 YNAP_CR05_11 -0.16608619710065003
    CDU_CR05_11 YKER_CR05_11 -0.1170544437563835
    CDU_CR05_11 YDSL_CR05_11 -0.22299235889970878
    CDU_CR05_11 YVGO_CR05_11 -0.2433490540516293
    CDU_CR05_11 YRES_CR05_11 -0.23316064816434035
    M10844 'MARKER' 'INTORG'
    NPAR_CR06_11 PARCEL_CR06_11 -20.0
    M10846 'MARKER' 'INTEND'
    BUY_CR06_11 OBJ -61.361413929055594
    BUY_CR06_11 PARCEL_CR06_11 1.0
    BUY_CR06_11 CBAL_CR06_11 1.0
    CINV_CR06_11 OBJ -0.3
    CINV_CR06_11 CBAL_CR06_11 -1.0
    CDU_CR06_11 CBAL_CR06_11 -1.0
    CDU_CR06_11 CDUCAP_11 1.0
    CDU_CR06_11 CDUMIN_11 1.0
    CDU_CR06_11 YLPG_CR06_11 -0.014219474855875663
    CDU_CR06_11 YNAP_CR06_11 -0.13746806025500902
    CDU_CR06_11 YKER_CR06_11 -0.10533897185985656
    CDU_CR06_11 YDSL_CR06_11 -0.20403840195434858
    CDU_CR06_11 YVGO_CR06_11 -0.26484358994429863
    CDU_CR06_11 YRES_CR06_11 -0.27409150113061165
    M10861 'MARKER' 'INTORG'
    NPAR_CR07_11 PARCEL_CR07_11 -20.0
    M10863 'MARKER' 'INTEND'
    BUY_CR07_11 OBJ -69.44612346659622
    BUY_CR07_11 PARCEL_CR07_11 1.0
    BUY_CR07_11 CBAL_CR07_11 1.0
    CINV_CR07_11 OBJ -0.3
    CINV_CR07_11 CBAL_CR07_11 -1.0
    CDU_CR07_11 CBAL_CR07_11 -1.0
    CDU_CR07_11 CDUCAP_11 1.0
    CDU_CR07_11 CDUMIN_11 1.0
    CDU_CR07_11 YLPG_CR07_11 -0.01678766142162217
    CDU_CR07_11 YNAP_CR07_11 -0.18341674311422207
    CDU_CR07_11 YKER_CR07_11 -0.13271469159016522
    CDU_CR07_11 YDSL_CR07_11 -0.2249127244045356
    CDU_CR07_11 YVGO_CR07_11 -0.24848613807316539
    CDU_CR07_11 YRES_CR07_11 -0.19368204139628944
    M10878 'MARKER' 'INTORG'
    NPAR_CR08_11 PARCEL_CR08_11 -20.0
    M10880 'MARKER' 'INTEND'
    BUY_CR08_11 OBJ -67.67960387559286
    BUY_CR08_11 PARCEL_CR08_11 1.0
    BUY_CR08_11 CBAL_CR08_11 1.0
    CINV_CR08_11 OBJ -0.3
    CINV_CR08_11 CBAL_CR08_11 -1.0
    CDU_CR08_11 CBAL_CR08_11 -1.0
    CDU_CR08_11 CDUCAP_11 1.0
    CDU_CR08_11 CDUMIN_11 1.0
    CDU_CR08_11 YLPG_CR08_11 -0.023930881960770135
    CDU_CR08_11 YNAP_CR08_11 -0.199474063989656
    CDU_CR08_11 YKER_CR08_11 -0.13012967624359006
    CDU_CR08_11 YDSL_CR08_11 -0.24906213509239003
    CDU_CR08_11 YVGO_CR08_11 -0.24247509330512357
    CDU_CR08_11 YRES_CR08_11 -0.15492814940847022
    M10895 'MARKER' 'INTORG'
    NPAR_CR09_11 PARCEL_CR09_11 -20.0
    M10897 'MARKER' 'INTEND'
    BUY_CR09_11 OBJ -77.69553686686763
    BUY_CR09_11 PARCEL_CR09_11 1.0
    BUY_CR09_11 CBAL_CR09_11 1.0
    CINV_CR09_11 OBJ -0.3
    CINV_CR09_11 CBAL_CR09_11 -1.0
    CDU_CR09_11 CBAL_CR09_11 -1.0
    CDU_CR09_11 CDUCAP_11 1.0
    CDU_CR09_11 CDUMIN_11 1.0
    CDU_CR09_11 YLPG_CR09_11 -0.0254414593142613
    CDU_CR09_11 YNAP_CR09_11 -0.2406668892422991
    CDU_CR09_11 YKER_CR09_11 -0.14150533274546892
    CDU_CR09_11 YDSL_CR09_11 -0.23713673044274025
    CDU_CR09_11 YVGO_CR09_11 -0.23566730460149374
    CDU_CR09_11 YRES_CR09_11 -0.11958228365373665
    M10912 'MARKER' 'INTORG'
    CDUMODE_11 OBJ -150.0
    CDUMODE_11 CDUCAP_11 -150.0
    CDUMODE_11 CDUMIN_11 -90.0
    M10916 'MARKER' 'INTEND'
    LPG_CR00_11 YLPG_CR00_11 1.0
    LPG_CR00_11 LPGBAL_11 -1.0
    NAP_CR00_11 YNAP_CR00_11 1.0
    NAP_CR00_11 NAPBAL_CR00_11 1.0
    KER_CR00_11 YKER_CR00_11 1.0
    KER_CR00_11 KERBAL_CR00_11 1.0
    DSL_CR00_11 YDSL_CR00_11 1.0
    DSL_CR00_11 DSLBAL_CR00_11 1.0
    VGO_CR00_11 YVGO_CR00_11 1.0
    VGO_CR00_11 VGOBAL_CR00_11 1.0
    RES_CR00_11 YRES_CR00_11 1.0
    RES_CR00_11 RESSPLIT_CR00_11 1.0
    LPG_CR01_11 YLPG_CR01_11 1.0
    LPG_CR01_11 LPGBAL_11 -1.0
    NAP_CR01_11 YNAP_CR01_11 1.0
    NAP_CR01_11 NAPBAL_CR01_11 1.0
    KER_CR01_11 YKER_CR01_11 1.0
    KER_CR01_11 KERBAL_CR01_11 1.0
    DSL_CR01_11 YDSL_CR01_11 1.0
    DSL_CR01_11 DSLBAL_CR01_11 1.0
    VGO_CR01_11 YVGO_CR01_11 1.0
    VGO_CR01_11 VGOBAL_CR01_11 1.0
    RES_CR01_11 YRES_CR01_11 1.0
    RES_CR01_11 RESSPLIT_CR01_11 1.0
    LPG_CR02_11 YLPG_CR02_11 1.0
    LPG_CR02_11 LPGBAL_11 -1.0
    NAP_CR02_11 YNAP_CR02_11 1.0
    NAP_CR02_11 NAPBAL_CR02_11 1.0
    KER_CR02_11 YKER_CR02_11 1.0
    KER_CR02_11 KERBAL_CR02_11 1.0
    DSL_CR02_11 YDSL_CR02_11 1.0
    DSL_CR02_11 DSLBAL_CR02_11 1.0
    VGO_CR02_11 YVGO_CR02_11 1.0
    VGO_CR02_11 VGOBAL_CR02_11 1.0
    RES_CR02_11 YRES_CR02_11 1.0
    RES_CR02_11 RESSPLIT_CR02_11 1.0
    LPG_CR03_11 YLPG_CR03_11 1.0
    LPG_CR03_11 LPGBAL_11 -1.0
    NAP_CR03_11 YNAP_CR03_11 1.0
    NAP_CR03_11 NAPBAL_CR03_11 1.0
    KER_CR03_11 YKER_CR03_11 1.0
    KER_CR03_11 KERBAL_CR03_11 1.0
    DSL_CR03_11 YDSL_CR03_11 1.0
    DSL_CR03_11 DSLBAL_CR03_11 1.0
    VGO_CR03_11 YVGO_CR03_11 1.0
    VGO_CR03_11 VGOBAL_CR03_11 1.0
    RES_CR03_11 YRES_CR03_11 1.0
    RES_CR03_11 RESSPLIT_CR03_11 1.0
    LPG_CR04_11 YLPG_CR04_11 1.0
    LPG_CR04_11 LPGBAL_11 -1.0
    NAP_CR04_11 YNAP_CR04_11 1.0
    NAP_CR04_11 NAPBAL_CR04_11 1.0
    KER_CR04_11 YKER_CR04_11 1.0
    KER_CR04_11 KERBAL_CR04_11 1.0
    DSL_CR04_11 YDSL_CR04_11 1.0
    DSL_CR04_11 DSLBAL_CR04_11 1.0
    VGO_CR04_11 YVGO_CR04_11 1.0
    VGO_CR04_11 VGOBAL_CR04_11 1.0
    RES_CR04_11 YRES_CR04_11 1.0
    RES_CR04_11 RESSPLIT_CR04_11 1.0
    LPG_CR05_11 YLPG_CR05_11 1.0
    LPG_CR05_11 LPGBAL_11 -1.0
    NAP_CR05_11 YNAP_CR05_11 1.0
    NAP_CR05_11 NAPBAL_CR05_11 1.0
    KER_CR05_11 YKER_CR05_11 1.0
    KER_CR05_11 KERBAL_CR05_11 1.0
    DSL_CR05_11 YDSL_CR05_11 1.0
    DSL_CR05_11 DSLBAL_CR05_11 1.0
    VGO_CR05_11 YVGO_CR05_11 1.0
    VGO_CR05_11 VGOBAL_CR05_11 1.0
    RES_CR05_11 YRES_CR05_11 1.0
    RES_CR05_11 RESSPLIT_CR05_11 1.0
    LPG_CR06_11 YLPG_CR06_11 1.0
    LPG_CR06_11 LPGBAL_11 -1.0
    NAP_CR06_11 YNAP_CR06_11 1.0
    NAP_CR06_11 NAPBAL_CR06_11 1.0
    KER_CR06_11 YKER_CR06_11 1.0
    KER_CR06_11 KERBAL_CR06_11 1.0
    DSL_CR06_11 YDSL_CR06_11 1.0
    DSL_CR06_11 DSLBAL_CR06_11 1.0
    VGO_CR06_11 YVGO_CR06_11 1.0
    VGO_CR06_11 VGOBAL_CR06_11 1.0
    RES_CR06_11 YRES_CR06_11 1.0
    RES_CR06_11 RESSPLIT_CR06_11 1.0
    LPG_CR07_11 YLPG_CR07_11 1.0
    LPG_CR07_11 LPGBAL_11 -1.0
    NAP_CR07_11 YNAP_CR07_11 1.0
    NAP_CR07_11 NAPBAL_CR07_11 1.0
    KER_CR07_11 YKER_CR07_11 1.0
    KER_CR07_11 KERBAL_CR07_11 1.0
    DSL_CR07_11 YDSL_CR07_11 1.0
    DSL_CR07_11 DSLBAL_CR07_11 1.0
    VGO_CR07_11 YVGO_CR07_11 1.0
    VGO_CR07_11 VGOBAL_CR07_11 1.0
    RES_CR07_11 YRES_CR07_11 1.0
    RES_CR07_11 RESSPLIT_CR07_11 1.0
    LPG_CR08_11 YLPG_CR08_11 1.0
    LPG_CR08_11 LPGBAL_11 -1.0
    NAP_CR08_11 YNAP_CR08_11 1.0
    NAP_CR08_11 NAPBAL_CR08_11 1.0
    KER_CR08_11 YKER_CR08_11 1.0
    KER_CR08_11 KERBAL_CR08_11 1.0
    DSL_CR08_11 YDSL_CR08_11 1.0
    DSL_CR08_11 DSLBAL_CR08_11 1.0
    VGO_CR08_11 YVGO_CR08_11 1.0
    VGO_CR08_11 VGOBAL_CR08_11 1.0
    RES_CR08_11 YRES_CR08_11 1.0
    RES_CR08_11 RESSPLIT_CR08_11 1.0
    LPG_CR09_11 YLPG_CR09_11 1.0
    LPG_CR09_11 LPGBAL_11 -1.0
    NAP_CR09_11 YNAP_CR09_11 1.0
    NAP_CR09_11 NAPBAL_CR09_11 1.0
    KER_CR09_11 YKER_CR09_11 1.0
    KER_CR09_11 KERBAL_CR09_11 1.0
    DSL_CR09_11 YDSL_CR09_11 1.0
    DSL_CR09_11 DSLBAL_CR09_11 1.0
    VGO_CR09_11 YVGO_CR09_11 1.0
    VGO_CR09_11 VGOBAL_CR09_11 1.0
    RES_CR09_11 YRES_CR09_11 1.0
    RES_CR09_11 RESSPLIT_CR09_11 1.0
    VDUIN_CR00_11 RESSPLIT_CR00_11 -1.0
    VDUIN_CR00_11 VDUY1_CR00_11 -0.45
    VDUIN_CR00_11 VDUY2_CR00_11 -0.55
    VDUIN_CR00_11 VDUCAP_11 1.0
    RESFO_CR00_11 RESSPLIT_CR00_11 -1.0
    RESFO_CR00_11 FOBAL_11 -1.0
    RESFO_CR00_11 FOSUL_11 1.9540891690108433
    VGO2_CR00_11 VDUY1_CR00_11 1.0
    VGO2_CR00_11 VGOBAL_CR00_11 1.0
    VR_CR00_11 VDUY2_CR00_11 1.0
    VR_CR00_11 FOBAL_11 -1.0
    VR_CR00_11 FOSUL_11 3.5903159197140964
    VDUIN_CR01_11 RESSPLIT_CR01_11 -1.0
    VDUIN_CR01_11 VDUY1_CR01_11 -0.45
    VDUIN_CR01_11 VDUY2_CR01_11 -0.55
    VDUIN_CR01_11 VDUCAP_11 1.0
    RESFO_CR01_11 RESSPLIT_CR01_11 -1.0
    RESFO_CR01_11 FOBAL_11 -1.0
    RESFO_CR01_11 FOSUL_11 -0.6168441789886687
    VGO2_CR01_11 VDUY1_CR01_11 1.0
    VGO2_CR01_11 VGOBAL_CR01_11 1.0
    VR_CR01_11 VDUY2_CR01_11 1.0
    VR_CR01_11 FOBAL_11 -1.0
    VR_CR01_11 FOSUL_11 0.24810256731473057
    VDUIN_CR02_11 RESSPLIT_CR02_11 -1.0
    VDUIN_CR02_11 VDUY1_CR02_11 -0.45
    VDUIN_CR02_11 VDUY2_CR02_11 -0.55
    VDUIN_CR02_11 VDUCAP_11 1.0
    RESFO_CR02_11 RESSPLIT_CR02_11 -1.0
    RESFO_CR02_11 FOBAL_11 -1.0
    RESFO_CR02_11 FOSUL_11 0.05675733131967897
    VGO2_CR02_11 VDUY1_CR02_11 1.0
    VGO2_CR02_11 VGOBAL_CR02_11 1.0
    VR_CR02_11 VDUY2_CR02_11 1.0
    VR_CR02_11 FOBAL_11 -1.0
    VR_CR02_11 FOSUL_11 1.1237845307155832
    VDUIN_CR03_11 RESSPLIT_CR03_11 -1.0
    VDUIN_CR03_11 VDUY1_CR03_11 -0.45
    VDUIN_CR03_11 VDUY2_CR03_11 -0.55
    VDUIN_CR03_11 VDUCAP_11 1.0
    RESFO_CR03_11 RESSPLIT_CR03_11 -1.0
    RESFO_CR03_11 FOBAL_11 -1.0
    RESFO_CR03_11 FOSUL_11 -1.8686274424458973
    VGO2_CR03_11 VDUY1_CR03_11 1.0
    VGO2_CR03_11 VGOBAL_CR03_11 1.0
    VR_CR03_11 VDUY2_CR03_11 1.0
    VR_CR03_11 FOBAL_11 -1.0
    VR_CR03_11 FOSUL_11 -1.3792156751796663
    VDUIN_CR04_11 RESSPLIT_CR04_11 -1.0
    VDUIN_CR04_11 VDUY1_CR04_11 -0.45
    VDUIN_CR04_11 VDUY2_CR04_11 -0.55
    VDUIN_CR04_11 VDUCAP_11 1.0
    RESFO_CR04_11 RESSPLIT_CR04_11 -1.0
    RESFO_CR04_11 FOBAL_11 -1.0
    RESFO_CR04_11 FOSUL_11 2.031668478530798
    VGO2_CR04_11 VDUY1_CR04_11 1.0
    VGO2_CR04_11 VGOBAL_CR04_11 1.0
    VR_CR04_11 VDUY2_CR04_11 1.0
    VR_CR04_11 FOBAL_11 -1.0
    VR_CR04_11 FOSUL_11 3.6911690220900377
    VDUIN_CR05_11 RESSPLIT_CR05_11 -1.0
    VDUIN_CR05_11 VDUY1_CR05_11 -0.45
    VDUIN_CR05_11 VDUY2_CR05_11 -0.55
    VDUIN_CR05_11 VDUCAP_11 1.0
    RESFO_CR05_11 RESSPLIT_CR05_11 -1.0
    RESFO_CR05_11 FOBAL_11 -1.0
    RESFO_CR05_11 FOSUL_11 0.3429997580900688
    VGO2_CR05_11 VDUY1_CR05_11 1.0
    VGO2_CR05_11 VGOBAL_CR05_11 1.0
    VR_CR05_11 VDUY2_CR05_11 1.0
    VR_CR05_11 FOBAL_11 -1.0
    VR_CR05_11 FOSUL_11 1.4958996855170898
    VDUIN_CR06_11 RESSPLIT_CR06_11 -1.0
    VDUIN_CR06_11 VDUY1_CR06_11 -0.45
    VDUIN_CR06_11 VDUY2_CR06_11 -0.55
    VDUIN_CR06_11 VDUCAP_11 1.0
    RESFO_CR06_11 RESSPLIT_CR06_11 -1.0
    RESFO_CR06_11 FOBAL_11 -1.0
    RESFO_CR06_11 FOSUL_11 0.10255232060654862
    VGO2_CR06_11 VDUY1_CR06_11 1.0
    VGO2_CR06_11 VGOBAL_CR06_11 1.0
    VR_CR06_11 VDUY2_CR06_11 1.0
    VR_CR06_11 FOBAL_11 -1.0
    VR_CR06_11 FOSUL_11 1.1833180167885136
    VDUIN_CR07_11 RESSPLIT_CR07_11 -1.0
    VDUIN_CR07_11 VDUY1_CR07_11 -0.45
    VDUIN_CR07_11 VDUY2_CR07_11 -0.55
    VDUIN_CR07_11 VDUCAP_11 1.0
    RESFO_CR07_11 RESSPLIT_CR07_11 -1.0
    RESFO_CR07_11 FOBAL_11 -1.0
    RESFO_CR07_11 FOSUL_11 -3.116635223405176
    VGO2_CR07_11 VDUY1_CR07_11 1.0
    VGO2_CR07_11 VGOBAL_CR07_11 1.0
    VR_CR07_11 VDUY2_CR07_11 1.0
    VR_CR07_11 FOBAL_11 -1.0
    VR_CR07_11 FOSUL_11 -3.001625790426729
    VDUIN_CR08_11 RESSPLIT_CR08_11 -1.0
    VDUIN_CR08_11 VDUY1_CR08_11 -0.45
    VDUIN_CR08_11 VDUY2_CR08_11 -0.55
    VDUIN_CR08_11 VDUCAP_11 1.0
    RESFO_CR08_11 RESSPLIT_CR08_11 -1.0
    RESFO_CR08_11 FOBAL_11 -1.0
    RESFO_CR08_11 FOSUL_11 0.0456281803886287
    VGO2_CR08_11 VDUY1_CR08_11 1.0
    VGO2_CR08_11 VGOBAL_CR08_11 1.0
    VR_CR08_11 VDUY2_CR08_11 1.0
    VR_CR08_11 FOBAL_11 -1.0
    VR_CR08_11 FOSUL_11 1.109316634505218
    VDUIN_CR09_11 RESSPLIT_CR09_11 -1.0
    VDUIN_CR09_11 VDUY1_CR09_11 -0.45
    VDUIN_CR09_11 VDUY2_CR09_11 -0.55
    VDUIN_CR09_11 VDUCAP_11 1.0
    RESFO_CR09_11 RESSPLIT_CR09_11 -1.0
    RESFO_CR09_11 FOBAL_11 -1.0
    RESFO_CR09_11 FOSUL_11 -3.264603397407564
    VGO2_CR09_11 VDUY1_CR09_11 1.0
    VGO2_CR09_11 VGOBAL_CR09_11 1.0
    VR_CR09_11 VDUY2_CR09_11 1.0
    VR_CR09_11 FOBAL_11 -1.0
    VR_CR09_11 FOSUL_11 -3.1939844166298332
    FCCIN_CR00_11 OBJ -2.5
    FCCIN_CR00_11 VGOBAL_CR00_11 -1.0
    FCCIN_CR00_11 FCCCAP_11 1.0
    FCCIN_CR00_11 FCCY_FCCG_11 -0.55
    FCCIN_CR00_11 FCCY_LCO_11 -0.2
    FCCIN_CR00_11 FCCY_FLPG_11 -0.15
    FCCIN_CR00_11 FCCY_SLURRY_11 -0.07
    FCCIN_CR01_11 OBJ -2.5
    FCCIN_CR01_11 VGOBAL_CR01_11 -1.0
    FCCIN_CR01_11 FCCCAP_11 1.0
    FCCIN_CR01_11 FCCY_FCCG_11 -0.55
    FCCIN_CR01_11 FCCY_LCO_11 -0.2
    FCCIN_CR01_11 FCCY_FLPG_11 -0.15
    FCCIN_CR01_11 FCCY_SLURRY_11 -0.07
    FCCIN_CR02_11 OBJ -2.5
    FCCIN_CR02_11 VGOBAL_CR02_11 -1.0
    FCCIN_CR02_11 FCCCAP_11 1.0
    FCCIN_CR02_11 FCCY_FCCG_11 -0.55
    FCCIN_CR02_11 FCCY_LCO_11 -0.2
    FCCIN_CR02_11 FCCY_FLPG_11 -0.15
    FCCIN_CR02_11 FCCY_SLURRY_11 -0.07
    FCCIN_CR03_11 OBJ -2.5
    FCCIN_CR03_11 VGOBAL_CR03_11 -1.0
    FCCIN_CR03_11 FCCCAP_11 1.0
    FCCIN_CR03_11 FCCY_FCCG_11 -0.55
    FCCIN_CR03_11 FCCY_LCO_11 -0.2
    FCCIN_CR03_11 FCCY_FLPG_11 -0.15
    FCCIN_CR03_11 FCCY_SLURRY_11 -0.07
    FCCIN_CR04_11 OBJ -2.5
    FCCIN_CR04_11 VGOBAL_CR04_11 -1.0
    FCCIN_CR04_11 FCCCAP_11 1.0
    FCCIN_CR04_11 FCCY_FCCG_11 -0.55
    FCCIN_CR04_11 FCCY_LCO_11 -0.2
    FCCIN_CR04_11 FCCY_FLPG_11 -0.15
    FCCIN_CR04_11 FCCY_SLURRY_11 -0.07
    FCCIN_CR05_11 OBJ -2.5
    FCCIN_CR05_11 VGOBAL_CR05_11 -1.0
    FCCIN_CR05_11 FCCCAP_11 1.0
    FCCIN_CR05_11 FCCY_FCCG_11 -0.55
    FCCIN_CR05_11 FCCY_LCO_11 -0.2
    FCCIN_CR05_11 FCCY_FLPG_11 -0.15
    FCCIN_CR05_11 FCCY_SLURRY_11 -0.07
    FCCIN_CR06_11 OBJ -2.5
    FCCIN_CR06_11 VGOBAL_CR06_11 -1.0
    FCCIN_CR06_11 FCCCAP_11 1.0
    FCCIN_CR06_11 FCCY_FCCG_11 -0.55
    FCCIN_CR06_11 FCCY_LCO_11 -0.2
    FCCIN_CR06_11 FCCY_FLPG_11 -0.15
    FCCIN_CR06_11 FCCY_SLURRY_11 -0.07
    FCCIN_CR07_11 OBJ -2.5
    FCCIN_CR07_11 VGOBAL_CR07_11 -1.0
    FCCIN_CR07_11 FCCCAP_11 1.0
    FCCIN_CR07_11 FCCY_FCCG_11 -0.55
    FCCIN_CR07_11 FCCY_LCO_11 -0.2
    FCCIN_CR07_11 FCCY_FLPG_11 -0.15
    FCCIN_CR07_11 FCCY_SLURRY_11 -0.07
    FCCIN_CR08_11 OBJ -2.5
    FCCIN_CR08_11 VGOBAL_CR08_11 -1.0
    FCCIN_CR08_11 FCCCAP_11 1.0
    FCCIN_CR08_11 FCCY_FCCG_11 -0.55
    FCCIN_CR08_11 FCCY_LCO_11 -0.2
    FCCIN_CR08_11 FCCY_FLPG_11 -0.15
    FCCIN_CR08_11 FCCY_SLURRY_11 -0.07
    FCCIN_CR09_11 OBJ -2.5
    FCCIN_CR09_11 VGOBAL_CR09_11 -1.0
    FCCIN_CR09_11 FCCCAP_11 1.0
    FCCIN_CR09_11 FCCY_FCCG_11 -0.55
    FCCIN_CR09_11 FCCY_LCO_11 -0.2
    FCCIN_CR09_11 FCCY_FLPG_11 -0.15
    FCCIN_CR09_11 FCCY_SLURRY_11 -0.07
    FCCG_11 FCCY_FCCG_11 1.0
    FCCG_11 GASBAL_11 -1.0
    FCCG_11 GASRON_11 1.0
    LCO_11 FCCY_LCO_11 1.0
    LCO_11 LCOBAL_11 1.0
    FLPG_11 FCCY_FLPG_11 1.0
    FLPG_11 LPGBAL_11 -1.0
    SLURRY_11 FCCY_SLURRY_11 1.0
    SLURRY_11 FOBAL_11 -1.0
    SLURRY_11 FOSUL_11 -1.5
    REFIN_CR00_11 OBJ -3.0
    REFIN_CR00_11 NAPBAL_CR00_11 -1.0
    REFIN_CR00_11 REFCAP_11 1.0
    REFIN_CR00_11 REFY_11 -0.85
    NAPGAS_CR00_11 NAPBAL_CR00_11 -1.0
    NAPGAS_CR00_11 GASBAL_11 -1.0
    NAPGAS_CR00_11 GASRON_11 -41.351908455631545
    REFIN_CR01_11 OBJ -3.0
    REFIN_CR01_11 NAPBAL_CR01_11 -1.0
    REFIN_CR01_11 REFCAP_11 1.0
    REFIN_CR01_11 REFY_11 -0.85
    NAPGAS_CR01_11 NAPBAL_CR01_11 -1.0
    NAPGAS_CR01_11 GASBAL_11 -1.0
    NAPGAS_CR01_11 GASRON_11 -33.623043958680114
    REFIN_CR02_11 OBJ -3.0
    REFIN_CR02_11 NAPBAL_CR02_11 -1.0
    REFIN_CR02_11 REFCAP_11 1.0
    REFIN_CR02_11 REFY_11 -0.85
    NAPGAS_CR02_11 NAPBAL_CR02_11 -1.0
    NAPGAS_CR02_11 GASBAL_11 -1.0
    NAPGAS_CR02_11 GASRON_11 -39.74522208078083
    REFIN_CR03_11 OBJ -3.0
    REFIN_CR03_11 NAPBAL_CR03_11 -1.0
    REFIN_CR03_11 REFCAP_11 1.0
    REFIN_CR03_11 REFY_11 -0.85
    NAPGAS_CR03_11 NAPBAL_CR03_11 -1.0
    NAPGAS_CR03_11 GASBAL_11 -1.0
    NAPGAS_CR03_11 GASRON_11 -39.32063345179839
    REFIN_CR04_11 OBJ -3.0
    REFIN_CR04_11 NAPBAL_CR04_11 -1.0
    REFIN_CR04_11 REFCAP_11 1.0
    REFIN_CR04_11 REFY_11 -0.85
    NAPGAS_CR04_11 NAPBAL_CR04_11 -1.0
    NAPGAS_CR04_11 GASBAL_11 -1.0
    NAPGAS_CR04_11 GASRON_11 -28.06018906757886
    REFIN_CR05_11 OBJ -3.0
    REFIN_CR05_11 NAPBAL_CR05_11 -1.0
    REFIN_CR05_11 REFCAP_11 1.0
    REFIN_CR05_11 REFY_11 -0.85
    NAPGAS_CR05_11 NAPBAL_CR05_11 -1.0
    NAPGAS_CR05_11 GASBAL_11 -1.0
    NAPGAS_CR05_11 GASRON_11 -37.177062383933254
    REFIN_CR06_11 OBJ -3.0
    REFIN_CR06_11 NAPBAL_CR06_11 -1.0
    REFIN_CR06_11 REFCAP_11 1.0
    REFIN_CR06_11 REFY_11 -0.85
    NAPGAS_CR06_11 NAPBAL_CR06_11 -1.0
    NAPGAS_CR06_11 GASBAL_11 -1.0
    NAPGAS_CR06_11 GASRON_11 -38.73738801284508
    REFIN_CR07_11 OBJ -3.0
    REFIN_CR07_11 NAPBAL_CR07_11 -1.0
    REFIN_CR07_11 REFCAP_11 1.0
    REFIN_CR07_11 REFY_11 -0.85
    NAPGAS_CR07_11 NAPBAL_CR07_11 -1.0
    NAPGAS_CR07_11 GASBAL_11 -1.0
    NAPGAS_CR07_11 GASRON_11 -31.720911449683953
    REFIN_CR08_11 OBJ -3.0
    REFIN_CR08_11 NAPBAL_CR08_11 -1.0
    REFIN_CR08_11 REFCAP_11 1.0
    REFIN_CR08_11 REFY_11 -0.85
    NAPGAS_CR08_11 NAPBAL_CR08_11 -1.0
    NAPGAS_CR08_11 GASBAL_11 -1.0
    NAPGAS_CR08_11 GASRON_11 -31.236267605063702
    REFIN_CR09_11 OBJ -3.0
    REFIN_CR09_11 NAPBAL_CR09_11 -1.0
    REFIN_CR09_11 REFCAP_11 1.0
    REFIN_CR09_11 REFY_11 -0.85
    NAPGAS_CR09_11 NAPBAL_CR09_11 -1.0
    NAPGAS_CR09_11 GASBAL_11 -1.0
    NAPGAS_CR09_11 GASRON_11 -29.9151768258086
    REFORMATE_11 REFY_11 1.0
    REFORMATE_11 GASBAL_11 -1.0
    REFORMATE_11 GASRON_11 7.0
    DHTIN_CR00_11 OBJ -2.0
    DHTIN_CR00_11 DSLBAL_CR00_11 -1.0
    DHTIN_CR00_11 DHTCAP_11 1.0
    DHTIN_CR00_11 DHTY_11 -0.98
    DSLDIR_CR00_11 DSLBAL_CR00_11 -1.0
    DSLDIR_CR00_11 DSLPB_11 -1.0
    DSLDIR_CR00_11 DSLSUL_11 1.5862267507032528
    DHTIN_CR01_11 OBJ -2.0
    DHTIN_CR01_11 DSLBAL_CR01_11 -1.0
    DHTIN_CR01_11 DHTCAP_11 1.0
    DHTIN_CR01_11 DHTY_11 -0.98
    DSLDIR_CR01_11 DSLBAL_CR01_11 -1.0
    DSLDIR_CR01_11 DSLPB_11 -1.0
    DSLDIR_CR01_11 DSLSUL_11 0.8149467463033994
    DHTIN_CR02_11 OBJ -2.0
    DHTIN_CR02_11 DSLBAL_CR02_11 -1.0
    DHTIN_CR02_11 DHTCAP_11 1.0
    DHTIN_CR02_11 DHTY_11 -0.98
    DSLDIR_CR02_11 DSLBAL_CR02_11 -1.0
    DSLDIR_CR02_11 DSLPB_11 -1.0
    DSLDIR_CR02_11 DSLSUL_11 1.0170271993959037
    DHTIN_CR03_11 OBJ -2.0
    DHTIN_CR03_11 DSLBAL_CR03_11 -1.0
    DHTIN_CR03_11 DHTCAP_11 1.0
    DHTIN_CR03_11 DHTY_11 -0.98
    DSLDIR_CR03_11 DSLBAL_CR03_11 -1.0
    DSLDIR_CR03_11 DSLPB_11 -1.0
    DSLDIR_CR03_11 DSLSUL_11 0.4394117672662308
    DHTIN_CR04_11 OBJ -2.0
    DHTIN_CR04_11 DSLBAL_CR04_11 -1.0
    DHTIN_CR04_11 DHTCAP_11 1.0
    DHTIN_CR04_11 DHTY_11 -0.98
    DSLDIR_CR04_11 DSLBAL_CR04_11 -1.0
    DSLDIR_CR04_11 DSLPB_11 -1.0
    DSLDIR_CR04_11 DSLSUL_11 1.6095005435592393
    DHTIN_CR05_11 OBJ -2.0
    DHTIN_CR05_11 DSLBAL_CR05_11 -1.0
    DHTIN_CR05_11 DHTCAP_11 1.0
    DHTIN_CR05_11 DHTY_11 -0.98
    DSLDIR_CR05_11 DSLBAL_CR05_11 -1.0
    DSLDIR_CR05_11 DSLPB_11 -1.0
    DSLDIR_CR05_11 DSLSUL_11 1.1028999274270206
    DHTIN_CR06_11 OBJ -2.0
    DHTIN_CR06_11 DSLBAL_CR06_11 -1.0
    DHTIN_CR06_11 DHTCAP_11 1.0
    DHTIN_CR06_11 DHTY_11 -0.98
    DSLDIR_CR06_11 DSLBAL_CR06_11 -1.0
    DSLDIR_CR06_11 DSLPB_11 -1.0
    DSLDIR_CR06_11 DSLSUL_11 1.0307656961819645
    DHTIN_CR07_11 OBJ -2.0
    DHTIN_CR07_11 DSLBAL_CR07_11 -1.0
    DHTIN_CR07_11 DHTCAP_11 1.0
    DHTIN_CR07_11 DHTY_11 -0.98
    DSLDIR_CR07_11 DSLBAL_CR07_11 -1.0
    DSLDIR_CR07_11 DSLPB_11 -1.0
    DSLDIR_CR07_11 DSLSUL_11 0.06500943297844713
    DHTIN_CR08_11 OBJ -2.0
    DHTIN_CR08_11 DSLBAL_CR08_11 -1.0
    DHTIN_CR08_11 DHTCAP_11 1.0
    DHTIN_CR08_11 DHTY_11 -0.98
    DSLDIR_CR08_11 DSLBAL_CR08_11 -1.0
    DSLDIR_CR08_11 DSLPB_11 -1.0
    DSLDIR_CR08_11 DSLSUL_11 1.0136884541165885
    DHTIN_CR09_11 OBJ -2.0
    DHTIN_CR09_11 DSLBAL_CR09_11 -1.0
    DHTIN_CR09_11 DHTCAP_11 1.0
    DHTIN_CR09_11 DHTY_11 -0.98
    DSLDIR_CR09_11 DSLBAL_CR09_11 -1.0
    DSLDIR_CR09_11 DSLPB_11 -1.0
    DSLDIR_CR09_11 DSLSUL_11 0.020618980777730833
    LCODHT_11 LCOBAL_11 -1.0
    LCODHT_11 DHTCAP_11 1.0
    LCODHT_11 DHTY_11 -0.95
    LCOFO_11 LCOBAL_11 -1.0
    LCOFO_11 FOBAL_11 -1.0
    LCOFO_11 FOSUL_11 -2.5
    ULSD_11 DHTY_11 1.0
    ULSD_11 DSLPB_11 -1.0
    ULSD_11 DSLSUL_11 -0.049
    SELL_LPG_11 OBJ 52.25
    SELL_LPG_11 PBAL_LPG_11 -1.0
    SELL_LPG_11 DMAX_LPG_11 1.0
    SELL_LPG_11 DMIN_LPG_11 1.0
    SELL_GAS_11 OBJ 99.75
    SELL_GAS_11 PBAL_GAS_11 -1.0
    SELL_GAS_11 DMAX_GAS_11 1.0
    SELL_GAS_11 DMIN_GAS_11 1.0
    SELL_JET_11 OBJ 95.0
    SELL_JET_11 PBAL_JET_11 -1.0
    SELL_JET_11 DMAX_JET_11 1.0
    SELL_JET_11 DMIN_JET_11 1.0
    SELL_DSL_11 OBJ 93.1
    SELL_DSL_11 PBAL_DSL_11 -1.0
    SELL_DSL_11 DMAX_DSL_11 1.0
    SELL_DSL_11 DMIN_DSL_11 1.0
    SELL_FO_11 OBJ 57.0
    SELL_FO_11 PBAL_FO_11 -1.0
    SELL_FO_11 DMAX_FO_11 1.0
    SELL_FO_11 DMIN_FO_11 1.0
    PINV_LPG_11 OBJ -0.5
    PINV_LPG_11 PBAL_LPG_11 -1.0
    PINV_GAS_11 OBJ -0.5
    PINV_GAS_11 PBAL_GAS_11 -1.0
    PINV_JET_11 OBJ -0.5
    PINV_JET_11 PBAL_JET_11 -1.0
    PINV_DSL_11 OBJ -0.5
    PINV_DSL_11 PBAL_DSL_11 -1.0
    PINV_FO_11 OBJ -0.5
    PINV_FO_11 PBAL_FO_11 -1.0
    SHORT_LPG_11 OBJ -400.0
    SHORT_LPG_11 DMIN_LPG_11 1.0
    SHORT_GAS_11 OBJ -400.0
    SHORT_GAS_11 DMIN_GAS_11 1.0
    SHORT_JET_11 OBJ -400.0
    SHORT_JET_11 DMIN_JET_11 1.0
    SHORT_DSL_11 OBJ -400.0
    SHORT_DSL_11 DMIN_DSL_11 1.0
    SHORT_FO_11 OBJ -400.0
    SHORT_FO_11 DMIN_FO_11 1.0
    GASPOOL_11 GASBAL_11 1.0
    GASPOOL_11 PBAL_GAS_11 1.0
    JETPOOL_11 JETBAL_11 1.0
    JETPOOL_11 PBAL_JET_11 1.0
    KERJET_CR00_11 KERBAL_CR00_11 -1.0
    KERJET_CR00_11 JETBAL_11 -1.0
    KERJET_CR00_11 JETSUL_11 0.10905668767581322
    KERDSL_CR00_11 KERBAL_CR00_11 -1.0
    KERDSL_CR00_11 DSLPB_11 -1.0
    KERDSL_CR00_11 DSLSUL_11 0.3590566876758132
    KERJET_CR01_11 KERBAL_CR01_11 -1.0
    KERJET_CR01_11 JETBAL_11 -1.0
    KERJET_CR01_11 JETSUL_11 -0.08376331342415014
    KERDSL_CR01_11 KERBAL_CR01_11 -1.0
    KERDSL_CR01_11 DSLPB_11 -1.0
    KERDSL_CR01_11 DSLSUL_11 0.16623668657584983
    KERJET_CR02_11 KERBAL_CR02_11 -1.0
    KERJET_CR02_11 JETBAL_11 -1.0
    KERJET_CR02_11 JETSUL_11 -0.033243200151024055
    KERDSL_CR02_11 KERBAL_CR02_11 -1.0
    KERDSL_CR02_11 DSLPB_11 -1.0
    KERDSL_CR02_11 DSLSUL_11 0.21675679984897595
    KERJET_CR03_11 KERBAL_CR03_11 -1.0
    KERJET_CR03_11 JETBAL_11 -1.0
    KERJET_CR03_11 JETSUL_11 -0.17764705818344229
    KERDSL_CR03_11 KERBAL_CR03_11 -1.0
    KERDSL_CR03_11 DSLPB_11 -1.0
    KERDSL_CR03_11 DSLSUL_11 0.0723529418165577
    KERJET_CR04_11 KERBAL_CR04_11 -1.0
    KERJET_CR04_11 JETBAL_11 -1.0
    KERJET_CR04_11 JETSUL_11 0.11487513588980985
    KERDSL_CR04_11 KERBAL_CR04_11 -1.0
    KERDSL_CR04_11 DSLPB_11 -1.0
    KERDSL_CR04_11 DSLSUL_11 0.36487513588980985
    KERJET_CR05_11 KERBAL_CR05_11 -1.0
    KERJET_CR05_11 JETBAL_11 -1.0
    KERJET_CR05_11 JETSUL_11 -0.011775018143244831
    KERDSL_CR05_11 KERBAL_CR05_11 -1.0
    KERDSL_CR05_11 DSLPB_11 -1.0
    KERDSL_CR05_11 DSLSUL_11 0.23822498185675517
    KERJET_CR06_11 KERBAL_CR06_11 -1.0
    KERJET_CR06_11 JETBAL_11 -1.0
    KERJET_CR06_11 JETSUL_11 -0.029808575954508865
    KERDSL_CR06_11 KERBAL_CR06_11 -1.0
    KERDSL_CR06_11 DSLPB_11 -1.0
    KERDSL_CR06_11 DSLSUL_11 0.22019142404549114
    KERJET_CR07_11 KERBAL_CR07_11 -1.0
    KERJET_CR07_11 JETBAL_11 -1.0
    KERJET_CR07_11 JETSUL_11 -0.2712476417553882
    KERDSL_CR07_11 KERBAL_CR07_11 -1.0
    KERDSL_CR07_11 DSLPB_11 -1.0
    KERDSL_CR07_11 DSLSUL_11 -0.02124764175538822
    KERJET_CR08_11 KERBAL_CR08_11 -1.0
    KERJET_CR08_11 JETBAL_11 -1.0
    KERJET_CR08_11 JETSUL_11 -0.03407788647085286
    KERDSL_CR08_11 KERBAL_CR08_11 -1.0
    KERDSL_CR08_11 DSLPB_11 -1.0
    KERDSL_CR08_11 DSLSUL_11 0.21592211352914714
    KERJET_CR09_11 KERBAL_CR09_11 -1.0
    KERJET_CR09_11 JETBAL_11 -1.0
    KERJET_CR09_11 JETSUL_11 -0.28234525480556727
    KERDSL_CR09_11 KERBAL_CR09_11 -1.0
    KERDSL_CR09_11 DSLPB_11 -1.0
    KERDSL_CR09_11 DSLSUL_11 -0.0323452548055673
    DSLPOOL_11 DSLPB_11 1.0
    DSLPOOL_11 PBAL_DSL_11 1.0
    LPGPOOL_11 LPGBAL_11 1.0
    LPGPOOL_11 PBAL_LPG_11 1.0
    FOPOOL_11 FOBAL_11 1.0
    FOPOOL_11 PBAL_FO_11 1.0
RHS
    RHS CBAL_CR00_0 -7.5
    RHS CBAL_CR01_0 -7.5
    RHS CBAL_CR02_0 -7.5
    RHS CBAL_CR03_0 -7.5
    RHS CBAL_CR04_0 -7.5
    RHS CBAL_CR05_0 -7.5
    RHS CBAL_CR06_0 -7.5
    RHS CBAL_CR07_0 -7.5
    RHS CBAL_CR08_0 -7.5
    RHS CBAL_CR09_0 -7.5
    RHS VDUCAP_0 37.5
    RHS FCCCAP_0 52.5
    RHS REFCAP_0 30.0
    RHS DHTCAP_0 45.0
    RHS DMAX_LPG_0 7.199999999999999
    RHS DMIN_LPG_0 3.0
    RHS DMAX_GAS_0 54.0
    RHS DMIN_GAS_0 22.5
    RHS DMAX_JET_0 18.0
    RHS DMIN_JET_0 7.5
    RHS DMAX_DSL_0 63.0
    RHS DMIN_DSL_0 26.25
    RHS DMAX_FO_0 36.0
    RHS DMIN_FO_0 15.0
    RHS VDUCAP_1 37.5
    RHS FCCCAP_1 52.5
    RHS REFCAP_1 30.0
    RHS DHTCAP_1 45.0
    RHS DMAX_LPG_1 7.5600000000000005
    RHS DMIN_LPG_1 3.1500000000000004
    RHS DMAX_GAS_1 56.699999999999996
    RHS DMIN_GAS_1 23.625
    RHS DMAX_JET_1 18.9
    RHS DMIN_JET_1 7.875
    RHS DMAX_DSL_1 66.14999999999999
    RHS DMIN_DSL_1 27.5625
    RHS DMAX_FO_1 37.8
    RHS DMIN_FO_1 15.75
    RHS VDUCAP_2 37.5
    RHS FCCCAP_2 52.5
    RHS REFCAP_2 30.0
    RHS DHTCAP_2 45.0
    RHS DMAX_LPG_2 7.8235382907247955
    RHS DMIN_LPG_2 3.2598076211353315
    RHS DMAX_GAS_2 58.676537180435965
    RHS DMIN_GAS_2 24.448557158514987
    RHS DMAX_JET_2 19.558845726811988
    RHS DMIN_JET_2 8.149519052838329
    RHS DMAX_DSL_2 68.45596004384196
    RHS DMIN_DSL_2 28.52331668493415
    RHS DMAX_FO_2 39.117691453623976
    RHS DMIN_FO_2 16.299038105676658
    RHS VDUCAP_3 37.5
    RHS FCCCAP_3 52.5
    RHS REFCAP_3 30.0
    RHS DHTCAP_3 45.0
    RHS DMAX_LPG_3 7.92
    RHS DMIN_LPG_3 3.3000000000000003
    RHS DMAX_GAS_3 59.400000000000006
    RHS DMIN_GAS_3 24.750000000000004
    RHS DMAX_JET_3 19.8
    RHS DMIN_JET_3 8.25
    RHS DMAX_DSL_3 69.30000000000001
    RHS DMIN_DSL_3 28.875000000000004
    RHS DMAX_FO_3 39.6
    RHS DMIN_FO_3 16.5
    RHS VDUCAP_4 37.5
    RHS FCCCAP_4 52.5
    RHS REFCAP_4 30.0
    RHS DHTCAP_4 45.0
    RHS DMAX_LPG_4 7.8235382907247955
    RHS DMIN_LPG_4 3.2598076211353315
    RHS DMAX_GAS_4 58.676537180435965
    RHS DMIN_GAS_4 24.448557158514987
    RHS DMAX_JET_4 19.558845726811988
    RHS DMIN_JET_4 8.149519052838329
    RHS DMAX_DSL_4 68.45596004384196
    RHS DMIN_DSL_4 28.52331668493415
    RHS DMAX_FO_4 39.117691453623976
    RHS DMIN_FO_4 16.299038105676658
    RHS VDUCAP_5 37.5
    RHS FCCCAP_5 52.5
    RHS REFCAP_5 30.0
    RHS DHTCAP_5 45.0
    RHS DMAX_LPG_5 7.5600000000000005
    RHS DMIN_LPG_5 3.1500000000000004
    RHS DMAX_GAS_5 56.699999999999996
    RHS DMIN_GAS_5 23.625
    RHS DMAX_JET_5 18.9
    RHS DMIN_JET_5 7.875
    RHS DMAX_DSL_5 66.14999999999999
    RHS DMIN_DSL_5 27.5625
    RHS DMAX_FO_5 37.8
    RHS DMIN_FO_5 15.75
    RHS VDUCAP_6 37.5
    RHS FCCCAP_6 52.5
    RHS REFCAP_6 30.0
    RHS DHTCAP_6 45.0
    RHS DMAX_LPG_6 7.199999999999999
    RHS DMIN_LPG_6 3.0
    RHS DMAX_GAS_6 54.0
    RHS DMIN_GAS_6 22.5
    RHS DMAX_JET_6 18.0
    RHS DMIN_JET_6 7.5
    RHS DMAX_DSL_6 63.0
    RHS DMIN_DSL_6 26.25
    RHS DMAX_FO_6 36.0
    RHS DMIN_FO_6 15.0
    RHS VDUCAP_7 37.5
    RHS FCCCAP_7 52.5
    RHS REFCAP_7 30.0
    RHS DHTCAP_7 45.0
    RHS DMAX_LPG_7 6.84
    RHS DMIN_LPG_7 2.85
    RHS DMAX_GAS_7 51.3
    RHS DMIN_GAS_7 21.375
    RHS DMAX_JET_7 17.1
    RHS DMIN_JET_7 7.125000000000001
    RHS DMAX_DSL_7 59.849999999999994
    RHS DMIN_DSL_7 24.9375
    RHS DMAX_FO_7 34.2
    RHS DMIN_FO_7 14.250000000000002
    RHS VDUCAP_8 37.5
    RHS FCCCAP_8 52.5
    RHS REFCAP_8 30.0
    RHS DHTCAP_8 45.0
    RHS DMAX_LPG_8 6.576461709275204
    RHS DMIN_LPG_8 2.7401923788646685
    RHS DMAX_GAS_8 49.32346281956403
    RHS DMIN_GAS_8 20.551442841485013
    RHS DMAX_JET_8 16.44115427318801
    RHS DMIN_JET_8 6.850480947161671
    RHS DMAX_DSL_8 57.54403995615804
    RHS DMIN_DSL_8 23.97668331506585
    RHS DMAX_FO_8 32.88230854637602
    RHS DMIN_FO_8 13.700961894323342
    RHS VDUCAP_9 37.5
    RHS FCCCAP_9 52.5
    RHS REFCAP_9 30.0
    RHS DHTCAP_9 45.0
    RHS DMAX_LPG_9 6.48
    RHS DMIN_LPG_9 2.7
    RHS DMAX_GAS_9 48.6
    RHS DMIN_GAS_9 20.25
    RHS DMAX_JET_9 16.2
    RHS DMIN_JET_9 6.75
    RHS DMAX_DSL_9 56.699999999999996
    RHS DMIN_DSL_9 23.625
    RHS DMAX_FO_9 32.4
    RHS DMIN_FO_9 13.5
    RHS VDUCAP_10 37.5
    RHS FCCCAP_10 52.5
    RHS REFCAP_10 30.0
    RHS DHTCAP_10 45.0
    RHS DMAX_LPG_10 6.576461709275204
    RHS DMIN_LPG_10 2.7401923788646685
    RHS DMAX_GAS_10 49.32346281956403
    RHS DMIN_GAS_10 20.551442841485013
    RHS DMAX_JET_10 16.44115427318801
    RHS DMIN_JET_10 6.850480947161671
    RHS DMAX_DSL_10 57.54403995615804
    RHS DMIN_DSL_10 23.97668331506585
    RHS DMAX_FO_10 32.88230854637602
    RHS DMIN_FO_10 13.700961894323342
    RHS VDUCAP_11 37.5
    RHS FCCCAP_11 52.5
    RHS REFCAP_11 30.0
    RHS DHTCAP_11 45.0
    RHS DMAX_LPG_11 6.839999999999999
    RHS DMIN_LPG_11 2.8499999999999996
    RHS DMAX_GAS_11 51.3
    RHS DMIN_GAS_11 21.375
    RHS DMAX_JET_11 17.099999999999998
    RHS DMIN_JET_11 7.125
    RHS DMAX_DSL_11 59.849999999999994
    RHS DMIN_DSL_11 24.9375
    RHS DMAX_FO_11 34.199999999999996
    RHS DMIN_FO_11 14.25
BOUNDS
 UP BND NPAR_CR00_0 1.0
 UP BND CINV_CR00_0 75.0
 UP BND NPAR_CR01_0 3.0
 UP BND CINV_CR01_0 75.0
 UP BND NPAR_CR02_0 2.0
 UP BND CINV_CR02_0 75.0
 UP BND NPAR_CR03_0 2.0
 UP BND CINV_CR03_0 75.0
 UP BND NPAR_CR04_0 2.0
 UP BND CINV_CR04_0 75.0
 UP BND NPAR_CR05_0 3.0
 UP BND CINV_CR05_0 75.0
 UP BND NPAR_CR06_0 1.0
 UP BND CINV_CR06_0 75.0
 UP BND NPAR_CR07_0 1.0
 UP BND CINV_CR07_0 75.0
 UP BND NPAR_CR08_0 4.0
 UP BND CINV_CR08_0 75.0
 UP BND NPAR_CR09_0 3.0
 UP BND CINV_CR09_0 75.0
 UP BND CDUMODE_0 1.0
 UP BND PINV_LPG_0 15.0
 UP BND PINV_GAS_0 15.0
 UP BND PINV_JET_0 15.0
 UP BND PINV_DSL_0 15.0
 UP BND PINV_FO_0 15.0
 UP BND NPAR_CR00_1 1.0
 UP BND CINV_CR00_1 75.0
 UP BND NPAR_CR01_1 3.0
 UP BND CINV_CR01_1 75.0
 UP BND NPAR_CR02_1 1.0
 UP BND CINV_CR02_1 75.0
 UP BND NPAR_CR03_1 3.0
 UP BND CINV_CR03_1 75.0
 UP BND NPAR_CR04_1 1.0
 UP BND CINV_CR04_1 75.0
 UP BND NPAR_CR05_1 2.0
 UP BND CINV_CR05_1 75.0
 UP BND NPAR_CR06_1 1.0
 UP BND CINV_CR06_1 75.0
 UP BND NPAR_CR07_1 1.0
 UP BND CINV_CR07_1 75.0
 UP BND NPAR_CR08_1 3.0
 UP BND CINV_CR08_1 75.0
 UP BND NPAR_CR09_1 2.0
 UP BND CINV_CR09_1 75.0
 UP BND CDUMODE_1 1.0
 UP BND PINV_LPG_1 15.0
 UP BND PINV_GAS_1 15.0
 UP BND PINV_JET_1 15.0
 UP BND PINV_DSL_1 15.0
 UP BND PINV_FO_1 15.0
 UP BND NPAR_CR00_2 1.0
 UP BND CINV_CR00_2 75.0
 UP BND NPAR_CR01_2 2.0
 UP BND CINV_CR01_2 75.0
 UP BND NPAR_CR02_2 1.0
 UP BND CINV_CR02_2 75.0
 UP BND NPAR_CR03_2 2.0
 UP BND CINV_CR03_2 75.0
 UP BND NPAR_CR04_2 3.0
 UP BND CINV_CR04_2 75.0
 UP BND NPAR_CR05_2 1.0
 UP BND CINV_CR05_2 75.0
 UP BND NPAR_CR06_2 1.0
 UP BND CINV_CR06_2 75.0
 UP BND NPAR_CR07_2 1.0
 UP BND CINV_CR07_2 75.0
 UP BND NPAR_CR08_2 3.0
 UP BND CINV_CR08_2 75.0
 UP BND NPAR_CR09_2 1.0
 UP BND CINV_CR09_2 75.0
 UP BND CDUMODE_2 1.0
 UP BND PINV_LPG_2 15.0
 UP BND PINV_GAS_2 15.0
 UP BND PINV_JET_2 15.0
 UP BND PINV_DSL_2 15.0
 UP BND PINV_FO_2 15.0
 UP BND NPAR_CR00_3 3.0
 UP BND CINV_CR00_3 75.0
 UP BND NPAR_CR01_3 1.0
 UP BND CINV_CR01_3 75.0
 UP BND NPAR_CR02_3 2.0
 UP BND CINV_CR02_3 75.0
 UP BND NPAR_CR03_3 2.0
 UP BND CINV_CR03_3 75.0
 UP BND NPAR_CR04_3 1.0
 UP BND CINV_CR04_3 75.0
 UP BND NPAR_CR05_3 4.0
 UP BND CINV_CR05_3 75.0
 UP BND NPAR_CR06_3 2.0
 UP BND CINV_CR06_3 75.0
 UP BND NPAR_CR07_3 2.0
 UP BND CINV_CR07_3 75.0
 UP BND NPAR_CR08_3 3.0
 UP BND CINV_CR08_3 75.0
 UP BND NPAR_CR09_3 1.0
 UP BND CINV_CR09_3 75.0
 UP BND CDUMODE_3 1.0
 UP BND PINV_LPG_3 15.0
 UP BND PINV_GAS_3 15.0
 UP BND PINV_JET_3 15.0
 UP BND PINV_DSL_3 15.0
 UP BND PINV_FO_3 15.0
 UP BND NPAR_CR00_4 4.0
 UP BND CINV_CR00_4 75.0
 UP BND NPAR_CR01_4 3.0
 UP BND CINV_CR01_4 75.0
 UP BND NPAR_CR02_4 3.0
 UP BND CINV_CR02_4 75.0
 UP BND NPAR_CR03_4 4.0
 UP BND CINV_CR03_4 75.0
 UP BND NPAR_CR04_4 3.0
 UP BND CINV_CR04_4 75.0
 UP BND NPAR_CR05_4 2.0
 UP BND CINV_CR05_4 75.0
 UP BND NPAR_CR06_4 1.0
 UP BND CINV_CR06_4 75.0
 UP BND NPAR_CR07_4 2.0
 UP BND CINV_CR07_4 75.0
 UP BND NPAR_CR08_4 1.0
 UP BND CINV_CR08_4 75.0
 UP BND NPAR_CR09_4 2.0
 UP BND CINV_CR09_4 75.0
 UP BND CDUMODE_4 1.0
 UP BND PINV_LPG_4 15.0
 UP BND PINV_GAS_4 15.0
 UP BND PINV_JET_4 15.0
 UP BND PINV_DSL_4 15.0
 UP BND PINV_FO_4 15.0
 UP BND NPAR_CR00_5 2.0
 UP BND CINV_CR00_5 75.0
 UP BND NPAR_CR01_5 4.0
 UP BND CINV_CR01_5 75.0
 UP BND NPAR_CR02_5 1.0
 UP BND CINV_CR02_5 75.0
 UP BND NPAR_CR03_5 4.0
 UP BND CINV_CR03_5 75.0
 UP BND NPAR_CR04_5 2.0
 UP BND CINV_CR04_5 75.0
 UP BND NPAR_CR05_5 3.0
 UP BND CINV_CR05_5 75.0
 UP BND NPAR_CR06_5 4.0
 UP BND CINV_CR06_5 75.0
 UP BND NPAR_CR07_5 4.0
 UP BND CINV_CR07_5 75.0
 UP BND NPAR_CR08_5 2.0
 UP BND CINV_CR08_5 75.0
 UP BND NPAR_CR09_5 1.0
 UP BND CINV_CR09_5 75.0
 UP BND CDUMODE_5 1.0
 UP BND PINV_LPG_5 15.0
 UP BND PINV_GAS_5 15.0
 UP BND PINV_JET_5 15.0
 UP BND PINV_DSL_5 15.0
 UP BND PINV_FO_5 15.0
 UP BND NPAR_CR00_6 1.0
 UP BND CINV_CR00_6 75.0
 UP BND NPAR_CR01_6 4.0
 UP BND CINV_CR01_6 75.0
 UP BND NPAR_CR02_6 3.0
 UP BND CINV_CR02_6 75.0
 UP BND NPAR_CR03_6 3.0
 UP BND CINV_CR03_6 75.0
 UP BND NPAR_CR04_6 2.0
 UP BND CINV_CR04_6 75.0
 UP BND NPAR_CR05_6 4.0
 UP BND CINV_CR05_6 75.0
 UP BND NPAR_CR06_6 4.0
 UP BND CINV_CR06_6 75.0
 UP BND NPAR_CR07_6 1.0
 UP BND CINV_CR07_6 75.0
 UP BND NPAR_CR08_6 1.0
 UP BND CINV_CR08_6 75.0
 UP BND NPAR_CR09_6 1.0
 UP BND CINV_CR09_6 75.0
 UP BND CDUMODE_6 1.0
 UP BND PINV_LPG_6 15.0
 UP BND PINV_GAS_6 15.0
 UP BND PINV_JET_6 15.0
 UP BND PINV_DSL_6 15.0
 UP BND PINV_FO_6 15.0
 UP BND NPAR_CR00_7 3.0
 UP BND CINV_CR00_7 75.0
 UP BND NPAR_CR01_7 2.0
 UP BND CINV_CR01_7 75.0
 UP BND NPAR_CR02_7 3.0
 UP BND CINV_CR02_7 75.0
 UP BND NPAR_CR03_7 3.0
 UP BND CINV_CR03_7 75.0
 UP BND NPAR_CR04_7 1.0
 UP BND CINV_CR04_7 75.0
 UP BND NPAR_CR05_7 4.0
 UP BND CINV_CR05_7 75.0
 UP BND NPAR_CR06_7 4.0
 UP BND CINV_CR06_7 75.0
 UP BND NPAR_CR07_7 2.0
 UP BND CINV_CR07_7 75.0
 UP BND NPAR_CR08_7 3.0
 UP BND CINV_CR08_7 75.0
 UP BND NPAR_CR09_7 3.0
 UP BND CINV_CR09_7 75.0
 UP BND CDUMODE_7 1.0
 UP BND PINV_LPG_7 15.0
 UP BND PINV_GAS_7 15.0
 UP BND PINV_JET_7 15.0
 UP BND PINV_DSL_7 15.0
 UP BND PINV_FO_7 15.0
 UP BND NPAR_CR00_8 1.0
 UP BND CINV_CR00_8 75.0
 UP BND NPAR_CR01_8 1.0
 UP BND CINV_CR01_8 75.0
 UP BND NPAR_CR02_8 4.0
 UP BND CINV_CR02_8 75.0
 UP BND NPAR_CR03_8 1.0
 UP BND CINV_CR03_8 75.0
 UP BND NPAR_CR04_8 1.0
 UP BND CINV_CR04_8 75.0
 UP BND NPAR_CR05_8 1.0
 UP BND CINV_CR05_8 75.0
 UP BND NPAR_CR06_8 2.0
 UP BND CINV_CR06_8 75.0
 UP BND NPAR_CR07_8 4.0
 UP BND CINV_CR07_8 75.0
 UP BND NPAR_CR08_8 1.0
 UP BND CINV_CR08_8 75.0
 UP BND NPAR_CR09_8 1.0
 UP BND CINV_CR09_8 75.0
 UP BND CDUMODE_8 1.0
 UP BND PINV_LPG_8 15.0
 UP BND PINV_GAS_8 15.0
 UP BND PINV_JET_8 15.0
 UP BND PINV_DSL_8 15.0
 UP BND PINV_FO_8 15.0
 UP BND NPAR_CR00_9 1.0
 UP BND CINV_CR00_9 75.0
 UP BND NPAR_CR01_9 4.0
 UP BND CINV_CR01_9 75.0
 UP BND NPAR_CR02_9 3.0
 UP BND CINV_CR02_9 75.0
 UP BND NPAR_CR03_9 2.0
 UP BND CINV_CR03_9 75.0
 UP BND NPAR_CR04_9 4.0
 UP BND CINV_CR04_9 75.0
 UP BND NPAR_CR05_9 4.0
 UP BND CINV_CR05_9 75.0
 UP BND NPAR_CR06_9 1.0
 UP BND CINV_CR06_9 75.0
 UP BND NPAR_CR07_9 4.0
 UP BND CINV_CR07_9 75.0
 UP BND NPAR_CR08_9 3.0
 UP BND CINV_CR08_9 75.0
 UP BND NPAR_CR09_9 1.0
 UP BND CINV_CR09_9 75.0
 UP BND CDUMODE_9 1.0
 UP BND PINV_LPG_9 15.0
 UP BND PINV_GAS_9 15.0
 UP BND PINV_JET_9 15.0
 UP BND PINV_DSL_9 15.0
 UP BND PINV_FO_9 15.0
 UP BND NPAR_CR00_10 2.0
 UP BND CINV_CR00_10 75.0
 UP BND NPAR_CR01_10 1.0
 UP BND CINV_CR01_10 75.0
 UP BND NPAR_CR02_10 4.0
 UP BND CINV_CR02_10 75.0
 UP BND NPAR_CR03_10 3.0
 UP BND CINV_CR03_10 75.0
 UP BND NPAR_CR04_10 4.0
 UP BND CINV_CR04_10 75.0
 UP BND NPAR_CR05_10 2.0
 UP BND CINV_CR05_10 75.0
 UP BND NPAR_CR06_10 2.0
 UP BND CINV_CR06_10 75.0
 UP BND NPAR_CR07_10 4.0
 UP BND CINV_CR07_10 75.0
 UP BND NPAR_CR08_10 2.0
 UP BND CINV_CR08_10 75.0
 UP BND NPAR_CR09_10 3.0
 UP BND CINV_CR09_10 75.0
 UP BND CDUMODE_10 1.0
 UP BND PINV_LPG_10 15.0
 UP BND PINV_GAS_10 15.0
 UP BND PINV_JET_10 15.0
 UP BND PINV_DSL_10 15.0
 UP BND PINV_FO_10 15.0
 UP BND NPAR_CR00_11 1.0
 UP BND CINV_CR00_11 75.0
 UP BND NPAR_CR01_11 1.0
 UP BND CINV_CR01_11 75.0
 UP BND NPAR_CR02_11 2.0
 UP BND CINV_CR02_11 75.0
 UP BND NPAR_CR03_11 1.0
 UP BND CINV_CR03_11 75.0
 UP BND NPAR_CR04_11 2.0
 UP BND CINV_CR04_11 75.0
 UP BND NPAR_CR05_11 2.0
 UP BND CINV_CR05_11 75.0
 UP BND NPAR_CR06_11 1.0
 UP BND CINV_CR06_11 75.0
 UP BND NPAR_CR07_11 3.0
 UP BND CINV_CR07_11 75.0
 UP BND NPAR_CR08_11 4.0
 UP BND CINV_CR08_11 75.0
 UP BND NPAR_CR09_11 3.0
 UP BND CINV_CR09_11 75.0
 UP BND CDUMODE_11 1.0
 UP BND PINV_LPG_11 15.0
 UP BND PINV_GAS_11 15.0
 UP BND PINV_JET_11 15.0
 UP BND PINV_DSL_11 15.0
 UP BND PINV_FO_11 15.0
ENDATA
