NAME REFPLAN_20x12
OBJSENSE
    MAX
ROWS
 N  OBJ
 E  CBAL_CR00_0
 E  CBAL_CR01_0
 E  CBAL_CR02_0
 E  CBAL_CR03_0
 E  CBAL_CR04_0
 E  CBAL_CR05_0
 E  CBAL_CR06_0
 E  CBAL_CR07_0
 E  CBAL_CR08_0
 E  CBAL_CR09_0
 E  CBAL_CR10_0
 E  CBAL_CR11_0
 E  CBAL_CR12_0
 E  CBAL_CR13_0
 E  CBAL_CR14_0
 E  CBAL_CR15_0
 E  CBAL_CR16_0
 E  CBAL_CR17_0
 E  CBAL_CR18_0
 E  CBAL_CR19_0
 L  CDUCAP_0
 E  YLPG_CR00_0
 E  YNAP_CR00_0
 E  YKER_CR00_0
 E  YDSL_CR00_0
 E  YVGO_CR00_0
 E  YRES_CR00_0
 E  YLPG_CR01_0
 E  YNAP_CR01_0
 E  YKER_CR01_0
 E  YDSL_CR01_0
 E  YVGO_CR01_0
 E  YRES_CR01_0
 E  YLPG_CR02_0
 E  YNAP_CR02_0
 E  YKER_CR02_0
 E  YDSL_CR02_0
 E  YVGO_CR02_0
 E  YRES_CR02_0
 E  YLPG_CR03_0
 E  YNAP_CR03_0
 E  YKER_CR03_0
 E  YDSL_CR03_0
 E  YVGO_CR03_0
 E  YRES_CR03_0
 E  YLPG_CR04_0
 E  YNAP_CR04_0
 E  YKER_CR04_0
 E  YDSL_CR04_0
 E  YVGO_CR04_0
 E  YRES_CR04_0
 E  YLPG_CR05_0
 E  YNAP_CR05_0
 E  YKER_CR05_0
 E  YDSL_CR05_0
 E  YVGO_CR05_0
 E  YRES_CR05_0
 E  YLPG_CR06_0
 E  YNAP_CR06_0
 E  YKER_CR06_0
 E  YDSL_CR06_0
 E  YVGO_CR06_0
 E  YRES_CR06_0
 E  YLPG_CR07_0
 E  YNAP_CR07_0
 E  YKER_CR07_0
 E  YDSL_CR07_0
 E  YVGO_CR07_0
 E  YRES_CR07_0
 E  YLPG_CR08_0
 E  YNAP_CR08_0
 E  YKER_CR08_0
 E  YDSL_CR08_0
 E  YVGO_CR08_0
 E  YRES_CR08_0
 E  YLPG_CR09_0
 E  YNAP_CR09_0
 E  YKER_CR09_0
 E  YDSL_CR09_0
 E  YVGO_CR09_0
 E  YRES_CR09_0
 E  YLPG_CR10_0
 E  YNAP_CR10_0
 E  YKER_CR10_0
 E  YDSL_CR10_0
 E  YVGO_CR10_0
 E  YRES_CR10_0
 E  YLPG_CR11_0
 E  YNAP_CR11_0
 E  YKER_CR11_0
 E  YDSL_CR11_0
 E  YVGO_CR11_0
 E  YRES_CR11_0
 E  YLPG_CR12_0
 E  YNAP_CR12_0
 E  YKER_CR12_0
 E  YDSL_CR12_0
 E  YVGO_CR12_0
 E  YRES_CR12_0
 E  YLPG_CR13_0
 E  YNAP_CR13_0
 E  YKER_CR13_0
 E  YDSL_CR13_0
 E  YVGO_CR13_0
 E  YRES_CR13_0
 E  YLPG_CR14_0
 E  YNAP_CR14_0
 E  YKER_CR14_0
 E  YDSL_CR14_0
 E  YVGO_CR14_0
 E  YRES_CR14_0
 E  YLPG_CR15_0
 E  YNAP_CR15_0
 E  YKER_CR15_0
 E  YDSL_CR15_0
 E  YVGO_CR15_0
 E  YRES_CR15_0
 E  YLPG_CR16_0
 E  YNAP_CR16_0
 E  YKER_CR16_0
 E  YDSL_CR16_0
 E  YVGO_CR16_0
 E  YRES_CR16_0
 E  YLPG_CR17_0
 E  YNAP_CR17_0
 E  YKER_CR17_0
 E  YDSL_CR17_0
 E  YVGO_CR17_0
 E  YRES_CR17_0
 E  YLPG_CR18_0
 E  YNAP_CR18_0
 E  YKER_CR18_0
 E  YDSL_CR18_0
 E  YVGO_CR18_0
 E  YRES_CR18_0
 E  YLPG_CR19_0
 E  YNAP_CR19_0
 E  YKER_CR19_0
 E  YDSL_CR19_0
 E  YVGO_CR19_0
 E  YRES_CR19_0
 E  RESSPLIT_CR00_0
 E  VDUY1_CR00_0
 E  VDUY2_CR00_0
 E  RESSPLIT_CR01_0
 E  VDUY1_CR01_0
 E  VDUY2_CR01_0
 E  RESSPLIT_CR02_0
 E  VDUY1_CR02_0
 E  VDUY2_CR02_0
 E  RESSPLIT_CR03_0
 E  VDUY1_CR03_0
 E  VDUY2_CR03_0
 E  RESSPLIT_CR04_0
 E  VDUY1_CR04_0
 E  VDUY2_CR04_0
 E  RESSPLIT_CR05_0
 E  VDUY1_CR05_0
 E  VDUY2_CR05_0
 E  RESSPLIT_CR06_0
 E  VDUY1_CR06_0
 E  VDUY2_CR06_0
 E  RESSPLIT_CR07_0
 E  VDUY1_CR07_0
 E  VDUY2_CR07_0
 E  RESSPLIT_CR08_0
 E  VDUY1_CR08_0
 E  VDUY2_CR08_0
 E  RESSPLIT_CR09_0
 E  VDUY1_CR09_0
 E  VDUY2_CR09_0
 E  RESSPLIT_CR10_0
 E  VDUY1_CR10_0
 E  VDUY2_CR10_0
 E  RESSPLIT_CR11_0
 E  VDUY1_CR11_0
 E  VDUY2_CR11_0
 E  RESSPLIT_CR12_0
 E  VDUY1_CR12_0
 E  VDUY2_CR12_0
 E  RESSPLIT_CR13_0
 E  VDUY1_CR13_0
 E  VDUY2_CR13_0
 E  RESSPLIT_CR14_0
 E  VDUY1_CR14_0
 E  VDUY2_CR14_0
 E  RESSPLIT_CR15_0
 E  VDUY1_CR15_0
 E  VDUY2_CR15_0
 E  RESSPLIT_CR16_0
 E  VDUY1_CR16_0
 E  VDUY2_CR16_0
 E  RESSPLIT_CR17_0
 E  VDUY1_CR17_0
 E  VDUY2_CR17_0
 E  RESSPLIT_CR18_0
 E  VDUY1_CR18_0
 E  VDUY2_CR18_0
 E  RESSPLIT_CR19_0
 E  VDUY1_CR19_0
 E  VDUY2_CR19_0
 L  VDUCAP_0
 E  VGOBAL_CR00_0
 E  VGOBAL_CR01_0
 E  VGOBAL_CR02_0
 E  VGOBAL_CR03_0
 E  VGOBAL_CR04_0
 E  VGOBAL_CR05_0
 E  VGOBAL_CR06_0
 E  VGOBAL_CR07_0
 E  VGOBAL_CR08_0
 E  VGOBAL_CR09_0
 E  VGOBAL_CR10_0
 E  VGOBAL_CR11_0
 E  VGOBAL_CR12_0
 E  VGOBAL_CR13_0
 E  VGOBAL_CR14_0
 E  VGOBAL_CR15_0
 E  VGOBAL_CR16_0
 E  VGOBAL_CR17_0
 E  VGOBAL_CR18_0
 E  VGOBAL_CR19_0
 L  FCCCAP_0
 E  FCCY_FCCG_0
 E  FCCY_LCO_0
 E  FCCY_FLPG_0
 E  FCCY_SLURRY_0
 E  NAPBAL_CR00_0
 E  NAPBAL_CR01_0
 E  NAPBAL_CR02_0
 E  NAPBAL_CR03_0
 E  NAPBAL_CR04_0
 E  NAPBAL_CR05_0
 E  NAPBAL_CR06_0
 E  NAPBAL_CR07_0
 E  NAPBAL_CR08_0
 E  NAPBAL_CR09_0
 E  NAPBAL_CR10_0
 E  NAPBAL_CR11_0
 E  NAPBAL_CR12_0
 E  NAPBAL_CR13_0
 E  NAPBAL_CR14_0
 E  NAPBAL_CR15_0
 E  NAPBAL_CR16_0
 E  NAPBAL_CR17_0
 E  NAPBAL_CR18_0
 E  NAPBAL_CR19_0
 L  REFCAP_0
 E  REFY_0
 E  DSLBAL_CR00_0
 E  DSLBAL_CR01_0
 E  DSLBAL_CR02_0
 E  DSLBAL_CR03_0
 E  DSLBAL_CR04_0
 E  DSLBAL_CR05_0
 E  DSLBAL_CR06_0
 E  DSLBAL_CR07_0
 E  DSLBAL_CR08_0
 E  DSLBAL_CR09_0
 E  DSLBAL_CR10_0
 E  DSLBAL_CR11_0
 E  DSLBAL_CR12_0
 E  DSLBAL_CR13_0
 E  DSLBAL_CR14_0
 E  DSLBAL_CR15_0
 E  DSLBAL_CR16_0
 E  DSLBAL_CR17_0
 E  DSLBAL_CR18_0
 E  DSLBAL_CR19_0
 E  LCOBAL_0
 L  DHTCAP_0
 E  DHTY_0
 E  GASBAL_0
 G  GASRON_0
 E  KERBAL_CR00_0
 E  KERBAL_CR01_0
 E  KERBAL_CR02_0
 E  KERBAL_CR03_0
 E  KERBAL_CR04_0
 E  KERBAL_CR05_0
 E  KERBAL_CR06_0
 E  KERBAL_CR07_0
 E  KERBAL_CR08_0
 E  KERBAL_CR09_0
 E  KERBAL_CR10_0
 E  KERBAL_CR11_0
 E  KERBAL_CR12_0
 E  KERBAL_CR13_0
 E  KERBAL_CR14_0
 E  KERBAL_CR15_0
 E  KERBAL_CR16_0
 E  KERBAL_CR17_0
 E  KERBAL_CR18_0
 E  KERBAL_CR19_0
 E  JETBAL_0
 L  JETSUL_0
 E  DSLPB_0
 L  DSLSUL_0
 E  LPGBAL_0
 E  FOBAL_0
 L  FOSUL_0
 E  PBAL_LPG_0
 L  DMAX_LPG_0
 G  DMIN_LPG_0
 E  PBAL_GAS_0
 L  DMAX_GAS_0
 G  DMIN_GAS_0
 E  PBAL_JET_0
 L  DMAX_JET_0
 G  DMIN_JET_0
 E  PBAL_DSL_0
 L  DMAX_DSL_0
 G  DMIN_DSL_0
 E  PBAL_FO_0
 L  DMAX_FO_0
 G  DMIN_FO_0
 E  CBAL_CR00_1
 E  CBAL_CR01_1
 E  CBAL_CR02_1
 E  CBAL_CR03_1
 E  CBAL_CR04_1
 E  CBAL_CR05_1
 E  CBAL_CR06_1
 E  CBAL_CR07_1
 E  CBAL_CR08_1
 E  CBAL_CR09_1
 E  CBAL_CR10_1
 E  CBAL_CR11_1
 E  CBAL_CR12_1
 E  CBAL_CR13_1
 E  CBAL_CR14_1
 E  CBAL_CR15_1
 E  CBAL_CR16_1
 E  CBAL_CR17_1
 E  CBAL_CR18_1
 E  CBAL_CR19_1
 L  CDUCAP_1
 E  YLPG_CR00_1
 E  YNAP_CR00_1
 E  YKER_CR00_1
 E  YDSL_CR00_1
 E  YVGO_CR00_1
 E  YRES_CR00_1
 E  YLPG_CR01_1
 E  YNAP_CR01_1
 E  YKER_CR01_1
 E  YDSL_CR01_1
 E  YVGO_CR01_1
 E  YRES_CR01_1
 E  YLPG_CR02_1
 E  YNAP_CR02_1
 E  YKER_CR02_1
 E  YDSL_CR02_1
 E  YVGO_CR02_1
 E  YRES_CR02_1
 E  YLPG_CR03_1
 E  YNAP_CR03_1
 E  YKER_CR03_1
 E  YDSL_CR03_1
 E  YVGO_CR03_1
 E  YRES_CR03_1
 E  YLPG_CR04_1
 E  YNAP_CR04_1
 E  YKER_CR04_1
 E  YDSL_CR04_1
 E  YVGO_CR04_1
 E  YRES_CR04_1
 E  YLPG_CR05_1
 E  YNAP_CR05_1
 E  YKER_CR05_1
 E  YDSL_CR05_1
 E  YVGO_CR05_1
 E  YRES_CR05_1
 E  YLPG_CR06_1
 E  YNAP_CR06_1
 E  YKER_CR06_1
 E  YDSL_CR06_1
 E  YVGO_CR06_1
 E  YRES_CR06_1
 E  YLPG_CR07_1
 E  YNAP_CR07_1
 E  YKER_CR07_1
 E  YDSL_CR07_1
 E  YVGO_CR07_1
 E  YRES_CR07_1
 E  YLPG_CR08_1
 E  YNAP_CR08_1
 E  YKER_CR08_1
 E  YDSL_CR08_1
 E  YVGO_CR08_1
 E  YRES_CR08_1
 E  YLPG_CR09_1
 E  YNAP_CR09_1
 E  YKER_CR09_1
 E  YDSL_CR09_1
 E  YVGO_CR09_1
 E  YRES_CR09_1
 E  YLPG_CR10_1
 E  YNAP_CR10_1
 E  YKER_CR10_1
 E  YDSL_CR10_1
 E  YVGO_CR10_1
 E  YRES_CR10_1
 E  YLPG_CR11_1
 E  YNAP_CR11_1
 E  YKER_CR11_1
 E  YDSL_CR11_1
 E  YVGO_CR11_1
 E  YRES_CR11_1
 E  YLPG_CR12_1
 E  YNAP_CR12_1
 E  YKER_CR12_1
 E  YDSL_CR12_1
 E  YVGO_CR12_1
 E  YRES_CR12_1
 E  YLPG_CR13_1
 E  YNAP_CR13_1
 E  YKER_CR13_1
 E  YDSL_CR13_1
 E  YVGO_CR13_1
 E  YRES_CR13_1
 E  YLPG_CR14_1
 E  YNAP_CR14_1
 E  YKER_CR14_1
 E  YDSL_CR14_1
 E  YVGO_CR14_1
 E  YRES_CR14_1
 E  YLPG_CR15_1
 E  YNAP_CR15_1
 E  YKER_CR15_1
 E  YDSL_CR15_1
 E  YVGO_CR15_1
 E  YRES_CR15_1
 E  YLPG_CR16_1
 E  YNAP_CR16_1
 E  YKER_CR16_1
 E  YDSL_CR16_1
 E  YVGO_CR16_1
 E  YRES_CR16_1
 E  YLPG_CR17_1
 E  YNAP_CR17_1
 E  YKER_CR17_1
 E  YDSL_CR17_1
 E  YVGO_CR17_1
 E  YRES_CR17_1
 E  YLPG_CR18_1
 E  YNAP_CR18_1
 E  YKER_CR18_1
 E  YDSL_CR18_1
 E  YVGO_CR18_1
 E  YRES_CR18_1
 E  YLPG_CR19_1
 E  YNAP_CR19_1
 E  YKER_CR19_1
 E  YDSL_CR19_1
 E  YVGO_CR19_1
 E  YRES_CR19_1
 E  RESSPLIT_CR00_1
 E  VDUY1_CR00_1
 E  VDUY2_CR00_1
 E  RESSPLIT_CR01_1
 E  VDUY1_CR01_1
 E  VDUY2_CR01_1
 E  RESSPLIT_CR02_1
 E  VDUY1_CR02_1
 E  VDUY2_CR02_1
 E  RESSPLIT_CR03_1
 E  VDUY1_CR03_1
 E  VDUY2_CR03_1
 E  RESSPLIT_CR04_1
 E  VDUY1_CR04_1
 E  VDUY2_CR04_1
 E  RESSPLIT_CR05_1
 E  VDUY1_CR05_1
 E  VDUY2_CR05_1
 E  RESSPLIT_CR06_1
 E  VDUY1_CR06_1
 E  VDUY2_CR06_1
 E  RESSPLIT_CR07_1
 E  VDUY1_CR07_1
 E  VDUY2_CR07_1
 E  RESSPLIT_CR08_1
 E  VDUY1_CR08_1
 E  VDUY2_CR08_1
 E  RESSPLIT_CR09_1
 E  VDUY1_CR09_1
 E  VDUY2_CR09_1
 E  RESSPLIT_CR10_1
 E  VDUY1_CR10_1
 E  VDUY2_CR10_1
 E  RESSPLIT_CR11_1
 E  VDUY1_CR11_1
 E  VDUY2_CR11_1
 E  RESSPLIT_CR12_1
 E  VDUY1_CR12_1
 E  VDUY2_CR12_1
 E  RESSPLIT_CR13_1
 E  VDUY1_CR13_1
 E  VDUY2_CR13_1
 E  RESSPLIT_CR14_1
 E  VDUY1_CR14_1
 E  VDUY2_CR14_1
 E  RESSPLIT_CR15_1
 E  VDUY1_CR15_1
 E  VDUY2_CR15_1
 E  RESSPLIT_CR16_1
 E  VDUY1_CR16_1
 E  VDUY2_CR16_1
 E  RESSPLIT_CR17_1
 E  VDUY1_CR17_1
 E  VDUY2_CR17_1
 E  RESSPLIT_CR18_1
 E  VDUY1_CR18_1
 E  VDUY2_CR18_1
 E  RESSPLIT_CR19_1
 E  VDUY1_CR19_1
 E  VDUY2_CR19_1
 L  VDUCAP_1
 E  VGOBAL_CR00_1
 E  VGOBAL_CR01_1
 E  VGOBAL_CR02_1
 E  VGOBAL_CR03_1
 E  VGOBAL_CR04_1
 E  VGOBAL_CR05_1
 E  VGOBAL_CR06_1
 E  VGOBAL_CR07_1
 E  VGOBAL_CR08_1
 E  VGOBAL_CR09_1
 E  VGOBAL_CR10_1
 E  VGOBAL_CR11_1
 E  VGOBAL_CR12_1
 E  VGOBAL_CR13_1
 E  VGOBAL_CR14_1
 E  VGOBAL_CR15_1
 E  VGOBAL_CR16_1
 E  VGOBAL_CR17_1
 E  VGOBAL_CR18_1
 E  VGOBAL_CR19_1
 L  FCCCAP_1
 E  FCCY_FCCG_1
 E  FCCY_LCO_1
 E  FCCY_FLPG_1
 E  FCCY_SLURRY_1
 E  NAPBAL_CR00_1
 E  NAPBAL_CR01_1
 E  NAPBAL_CR02_1
 E  NAPBAL_CR03_1
 E  NAPBAL_CR04_1
 E  NAPBAL_CR05_1
 E  NAPBAL_CR06_1
 E  NAPBAL_CR07_1
 E  NAPBAL_CR08_1
 E  NAPBAL_CR09_1
 E  NAPBAL_CR10_1
 E  NAPBAL_CR11_1
 E  NAPBAL_CR12_1
 E  NAPBAL_CR13_1
 E  NAPBAL_CR14_1
 E  NAPBAL_CR15_1
 E  NAPBAL_CR16_1
 E  NAPBAL_CR17_1
 E  NAPBAL_CR18_1
 E  NAPBAL_CR19_1
 L  REFCAP_1
 E  REFY_1
 E  DSLBAL_CR00_1
 E  DSLBAL_CR01_1
 E  DSLBAL_CR02_1
 E  DSLBAL_CR03_1
 E  DSLBAL_CR04_1
 E  DSLBAL_CR05_1
 E  DSLBAL_CR06_1
 E  DSLBAL_CR07_1
 E  DSLBAL_CR08_1
 E  DSLBAL_CR09_1
 E  DSLBAL_CR10_1
 E  DSLBAL_CR11_1
 E  DSLBAL_CR12_1
 E  DSLBAL_CR13_1
 E  DSLBAL_CR14_1
 E  DSLBAL_CR15_1
 E  DSLBAL_CR16_1
 E  DSLBAL_CR17_1
 E  DSLBAL_CR18_1
 E  DSLBAL_CR19_1
 E  LCOBAL_1
 L  DHTCAP_1
 E  DHTY_1
 E  GASBAL_1
 G  GASRON_1
 E  KERBAL_CR00_1
 E  KERBAL_CR01_1
 E  KERBAL_CR02_1
 E  KERBAL_CR03_1
 E  KERBAL_CR04_1
 E  KERBAL_CR05_1
 E  KERBAL_CR06_1
 E  KERBAL_CR07_1
 E  KERBAL_CR08_1
 E  KERBAL_CR09_1
 E  KERBAL_CR10_1
 E  KERBAL_CR11_1
 E  KERBAL_CR12_1
 E  KERBAL_CR13_1
 E  KERBAL_CR14_1
 E  KERBAL_CR15_1
 E  KERBAL_CR16_1
 E  KERBAL_CR17_1
 E  KERBAL_CR18_1
 E  KERBAL_CR19_1
 E  JETBAL_1
 L  JETSUL_1
 E  DSLPB_1
 L  DSLSUL_1
 E  LPGBAL_1
 E  FOBAL_1
 L  FOSUL_1
 E  PBAL_LPG_1
 L  DMAX_LPG_1
 G  DMIN_LPG_1
 E  PBAL_GAS_1
 L  DMAX_GAS_1
 G  DMIN_GAS_1
 E  PBAL_JET_1
 L  DMAX_JET_1
 G  DMIN_JET_1
 E  PBAL_DSL_1
 L  DMAX_DSL_1
 G  DMIN_DSL_1
 E  PBAL_FO_1
 L  DMAX_FO_1
 G  DMIN_FO_1
 E  CBAL_CR00_2
 E  CBAL_CR01_2
 E  CBAL_CR02_2
 E  CBAL_CR03_2
 E  CBAL_CR04_2
 E  CBAL_CR05_2
 E  CBAL_CR06_2
 E  CBAL_CR07_2
 E  CBAL_CR08_2
 E  CBAL_CR09_2
 E  CBAL_CR10_2
 E  CBAL_CR11_2
 E  CBAL_CR12_2
 E  CBAL_CR13_2
 E  CBAL_CR14_2
 E  CBAL_CR15_2
 E  CBAL_CR16_2
 E  CBAL_CR17_2
 E  CBAL_CR18_2
 E  CBAL_CR19_2
 L  CDUCAP_2
 E  YLPG_CR00_2
 E  YNAP_CR00_2
 E  YKER_CR00_2
 E  YDSL_CR00_2
 E  YVGO_CR00_2
 E  YRES_CR00_2
 E  YLPG_CR01_2
 E  YNAP_CR01_2
 E  YKER_CR01_2
 E  YDSL_CR01_2
 E  YVGO_CR01_2
 E  YRES_CR01_2
 E  YLPG_CR02_2
 E  YNAP_CR02_2
 E  YKER_CR02_2
 E  YDSL_CR02_2
 E  YVGO_CR02_2
 E  YRES_CR02_2
 E  YLPG_CR03_2
 E  YNAP_CR03_2
 E  YKER_CR03_2
 E  YDSL_CR03_2
 E  YVGO_CR03_2
 E  YRES_CR03_2
 E  YLPG_CR04_2
 E  YNAP_CR04_2
 E  YKER_CR04_2
 E  YDSL_CR04_2
 E  YVGO_CR04_2
 E  YRES_CR04_2
 E  YLPG_CR05_2
 E  YNAP_CR05_2
 E  YKER_CR05_2
 E  YDSL_CR05_2
 E  YVGO_CR05_2
 E  YRES_CR05_2
 E  YLPG_CR06_2
 E  YNAP_CR06_2
 E  YKER_CR06_2
 E  YDSL_CR06_2
 E  YVGO_CR06_2
 E  YRES_CR06_2
 E  YLPG_CR07_2
 E  YNAP_CR07_2
 E  YKER_CR07_2
 E  YDSL_CR07_2
 E  YVGO_CR07_2
 E  YRES_CR07_2
 E  YLPG_CR08_2
 E  YNAP_CR08_2
 E  YKER_CR08_2
 E  YDSL_CR08_2
 E  YVGO_CR08_2
 E  YRES_CR08_2
 E  YLPG_CR09_2
 E  YNAP_CR09_2
 E  YKER_CR09_2
 E  YDSL_CR09_2
 E  YVGO_CR09_2
 E  YRES_CR09_2
 E  YLPG_CR10_2
 E  YNAP_CR10_2
 E  YKER_CR10_2
 E  YDSL_CR10_2
 E  YVGO_CR10_2
 E  YRES_CR10_2
 E  YLPG_CR11_2
 E  YNAP_CR11_2
 E  YKER_CR11_2
 E  YDSL_CR11_2
 E  YVGO_CR11_2
 E  YRES_CR11_2
 E  YLPG_CR12_2
 E  YNAP_CR12_2
 E  YKER_CR12_2
 E  YDSL_CR12_2
 E  YVGO_CR12_2
 E  YRES_CR12_2
 E  YLPG_CR13_2
 E  YNAP_CR13_2
 E  YKER_CR13_2
 E  YDSL_CR13_2
 E  YVGO_CR13_2
 E  YRES_CR13_2
 E  YLPG_CR14_2
 E  YNAP_CR14_2
 E  YKER_CR14_2
 E  YDSL_CR14_2
 E  YVGO_CR14_2
 E  YRES_CR14_2
 E  YLPG_CR15_2
 E  YNAP_CR15_2
 E  YKER_CR15_2
 E  YDSL_CR15_2
 E  YVGO_CR15_2
 E  YRES_CR15_2
 E  YLPG_CR16_2
 E  YNAP_CR16_2
 E  YKER_CR16_2
 E  YDSL_CR16_2
 E  YVGO_CR16_2
 E  YRES_CR16_2
 E  YLPG_CR17_2
 E  YNAP_CR17_2
 E  YKER_CR17_2
 E  YDSL_CR17_2
 E  YVGO_CR17_2
 E  YRES_CR17_2
 E  YLPG_CR18_2
 E  YNAP_CR18_2
 E  YKER_CR18_2
 E  YDSL_CR18_2
 E  YVGO_CR18_2
 E  YRES_CR18_2
 E  YLPG_CR19_2
 E  YNAP_CR19_2
 E  YKER_CR19_2
 E  YDSL_CR19_2
 E  YVGO_CR19_2
 E  YRES_CR19_2
 E  RESSPLIT_CR00_2
 E  VDUY1_CR00_2
 E  VDUY2_CR00_2
 E  RESSPLIT_CR01_2
 E  VDUY1_CR01_2
 E  VDUY2_CR01_2
 E  RESSPLIT_CR02_2
 E  VDUY1_CR02_2
 E  VDUY2_CR02_2
 E  RESSPLIT_CR03_2
 E  VDUY1_CR03_2
 E  VDUY2_CR03_2
 E  RESSPLIT_CR04_2
 E  VDUY1_CR04_2
 E  VDUY2_CR04_2
 E  RESSPLIT_CR05_2
 E  VDUY1_CR05_2
 E  VDUY2_CR05_2
 E  RESSPLIT_CR06_2
 E  VDUY1_CR06_2
 E  VDUY2_CR06_2
 E  RESSPLIT_CR07_2
 E  VDUY1_CR07_2
 E  VDUY2_CR07_2
 E  RESSPLIT_CR08_2
 E  VDUY1_CR08_2
 E  VDUY2_CR08_2
 E  RESSPLIT_CR09_2
 E  VDUY1_CR09_2
 E  VDUY2_CR09_2
 E  RESSPLIT_CR10_2
 E  VDUY1_CR10_2
 E  VDUY2_CR10_2
 E  RESSPLIT_CR11_2
 E  VDUY1_CR11_2
 E  VDUY2_CR11_2
 E  RESSPLIT_CR12_2
 E  VDUY1_CR12_2
 E  VDUY2_CR12_2
 E  RESSPLIT_CR13_2
 E  VDUY1_CR13_2
 E  VDUY2_CR13_2
 E  RESSPLIT_CR14_2
 E  VDUY1_CR14_2
 E  VDUY2_CR14_2
 E  RESSPLIT_CR15_2
 E  VDUY1_CR15_2
 E  VDUY2_CR15_2
 E  RESSPLIT_CR16_2
 E  VDUY1_CR16_2
 E  VDUY2_CR16_2
 E  RESSPLIT_CR17_2
 E  VDUY1_CR17_2
 E  VDUY2_CR17_2
 E  RESSPLIT_CR18_2
 E  VDUY1_CR18_2
 E  VDUY2_CR18_2
 E  RESSPLIT_CR19_2
 E  VDUY1_CR19_2
 E  VDUY2_CR19_2
 L  VDUCAP_2
 E  VGOBAL_CR00_2
 E  VGOBAL_CR01_2
 E  VGOBAL_CR02_2
 E  VGOBAL_CR03_2
 E  VGOBAL_CR04_2
 E  VGOBAL_CR05_2
 E  VGOBAL_CR06_2
 E  VGOBAL_CR07_2
 E  VGOBAL_CR08_2
 E  VGOBAL_CR09_2
 E  VGOBAL_CR10_2
 E  VGOBAL_CR11_2
 E  VGOBAL_CR12_2
 E  VGOBAL_CR13_2
 E  VGOBAL_CR14_2
 E  VGOBAL_CR15_2
 E  VGOBAL_CR16_2
 E  VGOBAL_CR17_2
 E  VGOBAL_CR18_2
 E  VGOBAL_CR19_2
 L  FCCCAP_2
 E  FCCY_FCCG_2
 E  FCCY_LCO_2
 E  FCCY_FLPG_2
 E  FCCY_SLURRY_2
 E  NAPBAL_CR00_2
 E  NAPBAL_CR01_2
 E  NAPBAL_CR02_2
 E  NAPBAL_CR03_2
 E  NAPBAL_CR04_2
 E  NAPBAL_CR05_2
 E  NAPBAL_CR06_2
 E  NAPBAL_CR07_2
 E  NAPBAL_CR08_2
 E  NAPBAL_CR09_2
 E  NAPBAL_CR10_2
 E  NAPBAL_CR11_2
 E  NAPBAL_CR12_2
 E  NAPBAL_CR13_2
 E  NAPBAL_CR14_2
 E  NAPBAL_CR15_2
 E  NAPBAL_CR16_2
 E  NAPBAL_CR17_2
 E  NAPBAL_CR18_2
 E  NAPBAL_CR19_2
 L  REFCAP_2
 E  REFY_2
 E  DSLBAL_CR00_2
 E  DSLBAL_CR01_2
 E  DSLBAL_CR02_2
 E  DSLBAL_CR03_2
 E  DSLBAL_CR04_2
 E  DSLBAL_CR05_2
 E  DSLBAL_CR06_2
 E  DSLBAL_CR07_2
 E  DSLBAL_CR08_2
 E  DSLBAL_CR09_2
 E  DSLBAL_CR10_2
 E  DSLBAL_CR11_2
 E  DSLBAL_CR12_2
 E  DSLBAL_CR13_2
 E  DSLBAL_CR14_2
 E  DSLBAL_CR15_2
 E  DSLBAL_CR16_2
 E  DSLBAL_CR17_2
 E  DSLBAL_CR18_2
 E  DSLBAL_CR19_2
 E  LCOBAL_2
 L  DHTCAP_2
 E  DHTY_2
 E  GASBAL_2
 G  GASRON_2
 E  KERBAL_CR00_2
 E  KERBAL_CR01_2
 E  KERBAL_CR02_2
 E  KERBAL_CR03_2
 E  KERBAL_CR04_2
 E  KERBAL_CR05_2
 E  KERBAL_CR06_2
 E  KERBAL_CR07_2
 E  KERBAL_CR08_2
 E  KERBAL_CR09_2
 E  KERBAL_CR10_2
 E  KERBAL_CR11_2
 E  KERBAL_CR12_2
 E  KERBAL_CR13_2
 E  KERBAL_CR14_2
 E  KERBAL_CR15_2
 E  KERBAL_CR16_2
 E  KERBAL_CR17_2
 E  KERBAL_CR18_2
 E  KERBAL_CR19_2
 E  JETBAL_2
 L  JETSUL_2
 E  DSLPB_2
 L  DSLSUL_2
 E  LPGBAL_2
 E  FOBAL_2
 L  FOSUL_2
 E  PBAL_LPG_2
 L  DMAX_LPG_2
 G  DMIN_LPG_2
 E  PBAL_GAS_2
 L  DMAX_GAS_2
 G  DMIN_GAS_2
 E  PBAL_JET_2
 L  DMAX_JET_2
 G  DMIN_JET_2
 E  PBAL_DSL_2
 L  DMAX_DSL_2
 G  DMIN_DSL_2
 E  PBAL_FO_2
 L  DMAX_FO_2
 G  DMIN_FO_2
 E  CBAL_CR00_3
 E  CBAL_CR01_3
 E  CBAL_CR02_3
 E  CBAL_CR03_3
 E  CBAL_CR04_3
 E  CBAL_CR05_3
 E  CBAL_CR06_3
 E  CBAL_CR07_3
 E  CBAL_CR08_3
 E  CBAL_CR09_3
 E  CBAL_CR10_3
 E  CBAL_CR11_3
 E  CBAL_CR12_3
 E  CBAL_CR13_3
 E  CBAL_CR14_3
 E  CBAL_CR15_3
 E  CBAL_CR16_3
 E  CBAL_CR17_3
 E  CBAL_CR18_3
 E  CBAL_CR19_3
 L  CDUCAP_3
 E  YLPG_CR00_3
 E  YNAP_CR00_3
 E  YKER_CR00_3
 E  YDSL_CR00_3
 E  YVGO_CR00_3
 E  YRES_CR00_3
 E  YLPG_CR01_3
 E  YNAP_CR01_3
 E  YKER_CR01_3
 E  YDSL_CR01_3
 E  YVGO_CR01_3
 E  YRES_CR01_3
 E  YLPG_CR02_3
 E  YNAP_CR02_3
 E  YKER_CR02_3
 E  YDSL_CR02_3
 E  YVGO_CR02_3
 E  YRES_CR02_3
 E  YLPG_CR03_3
 E  YNAP_CR03_3
 E  YKER_CR03_3
 E  YDSL_CR03_3
 E  YVGO_CR03_3
 E  YRES_CR03_3
 E  YLPG_CR04_3
 E  YNAP_CR04_3
 E  YKER_CR04_3
 E  YDSL_CR04_3
 E  YVGO_CR04_3
 E  YRES_CR04_3
 E  YLPG_CR05_3
 E  YNAP_CR05_3
 E  YKER_CR05_3
 E  YDSL_CR05_3
 E  YVGO_CR05_3
 E  YRES_CR05_3
 E  YLPG_CR06_3
 E  YNAP_CR06_3
 E  YKER_CR06_3
 E  YDSL_CR06_3
 E  YVGO_CR06_3
 E  YRES_CR06_3
 E  YLPG_CR07_3
 E  YNAP_CR07_3
 E  YKER_CR07_3
 E  YDSL_CR07_3
 E  YVGO_CR07_3
 E  YRES_CR07_3
 E  YLPG_CR08_3
 E  YNAP_CR08_3
 E  YKER_CR08_3
 E  YDSL_CR08_3
 E  YVGO_CR08_3
 E  YRES_CR08_3
 E  YLPG_CR09_3
 E  YNAP_CR09_3
 E  YKER_CR09_3
 E  YDSL_CR09_3
 E  YVGO_CR09_3
 E  YRES_CR09_3
 E  YLPG_CR10_3
 E  YNAP_CR10_3
 E  YKER_CR10_3
 E  YDSL_CR10_3
 E  YVGO_CR10_3
 E  YRES_CR10_3
 E  YLPG_CR11_3
 E  YNAP_CR11_3
 E  YKER_CR11_3
 E  YDSL_CR11_3
 E  YVGO_CR11_3
 E  YRES_CR11_3
 E  YLPG_CR12_3
 E  YNAP_CR12_3
 E  YKER_CR12_3
 E  YDSL_CR12_3
 E  YVGO_CR12_3
 E  YRES_CR12_3
 E  YLPG_CR13_3
 E  YNAP_CR13_3
 E  YKER_CR13_3
 E  YDSL_CR13_3
 E  YVGO_CR13_3
 E  YRES_CR13_3
 E  YLPG_CR14_3
 E  YNAP_CR14_3
 E  YKER_CR14_3
 E  YDSL_CR14_3
 E  YVGO_CR14_3
 E  YRES_CR14_3
 E  YLPG_CR15_3
 E  YNAP_CR15_3
 E  YKER_CR15_3
 E  YDSL_CR15_3
 E  YVGO_CR15_3
 E  YRES_CR15_3
 E  YLPG_CR16_3
 E  YNAP_CR16_3
 E  YKER_CR16_3
 E  YDSL_CR16_3
 E  YVGO_CR16_3
 E  YRES_CR16_3
 E  YLPG_CR17_3
 E  YNAP_CR17_3
 E  YKER_CR17_3
 E  YDSL_CR17_3
 E  YVGO_CR17_3
 E  YRES_CR17_3
 E  YLPG_CR18_3
 E  YNAP_CR18_3
 E  YKER_CR18_3
 E  YDSL_CR18_3
 E  YVGO_CR18_3
 E  YRES_CR18_3
 E  YLPG_CR19_3
 E  YNAP_CR19_3
 E  YKER_CR19_3
 E  YDSL_CR19_3
 E  YVGO_CR19_3
 E  YRES_CR19_3
 E  RESSPLIT_CR00_3
 E  VDUY1_CR00_3
 E  VDUY2_CR00_3
 E  RESSPLIT_CR01_3
 E  VDUY1_CR01_3
 E  VDUY2_CR01_3
 E  RESSPLIT_CR02_3
 E  VDUY1_CR02_3
 E  VDUY2_CR02_3
 E  RESSPLIT_CR03_3
 E  VDUY1_CR03_3
 E  VDUY2_CR03_3
 E  RESSPLIT_CR04_3
 E  VDUY1_CR04_3
 E  VDUY2_CR04_3
 E  RESSPLIT_CR05_3
 E  VDUY1_CR05_3
 E  VDUY2_CR05_3
 E  RESSPLIT_CR06_3
 E  VDUY1_CR06_3
 E  VDUY2_CR06_3
 E  RESSPLIT_CR07_3
 E  VDUY1_CR07_3
 E  VDUY2_CR07_3
 E  RESSPLIT_CR08_3
 E  VDUY1_CR08_3
 E  VDUY2_CR08_3
 E  RESSPLIT_CR09_3
 E  VDUY1_CR09_3
 E  VDUY2_CR09_3
 E  RESSPLIT_CR10_3
 E  VDUY1_CR10_3
 E  VDUY2_CR10_3
 E  RESSPLIT_CR11_3
 E  VDUY1_CR11_3
 E  VDUY2_CR11_3
 E  RESSPLIT_CR12_3
 E  VDUY1_CR12_3
 E  VDUY2_CR12_3
 E  RESSPLIT_CR13_3
 E  VDUY1_CR13_3
 E  VDUY2_CR13_3
 E  RESSPLIT_CR14_3
 E  VDUY1_CR14_3
 E  VDUY2_CR14_3
 E  RESSPLIT_CR15_3
 E  VDUY1_CR15_3
 E  VDUY2_CR15_3
 E  RESSPLIT_CR16_3
 E  VDUY1_CR16_3
 E  VDUY2_CR16_3
 E  RESSPLIT_CR17_3
 E  VDUY1_CR17_3
 E  VDUY2_CR17_3
 E  RESSPLIT_CR18_3
 E  VDUY1_CR18_3
 E  VDUY2_CR18_3
 E  RESSPLIT_CR19_3
 E  VDUY1_CR19_3
 E  VDUY2_CR19_3
 L  VDUCAP_3
 E  VGOBAL_CR00_3
 E  VGOBAL_CR01_3
 E  VGOBAL_CR02_3
 E  VGOBAL_CR03_3
 E  VGOBAL_CR04_3
 E  VGOBAL_CR05_3
 E  VGOBAL_CR06_3
 E  VGOBAL_CR07_3
 E  VGOBAL_CR08_3
 E  VGOBAL_CR09_3
 E  VGOBAL_CR10_3
 E  VGOBAL_CR11_3
 E  VGOBAL_CR12_3
 E  VGOBAL_CR13_3
 E  VGOBAL_CR14_3
 E  VGOBAL_CR15_3
 E  VGOBAL_CR16_3
 E  VGOBAL_CR17_3
 E  VGOBAL_CR18_3
 E  VGOBAL_CR19_3
 L  FCCCAP_3
 E  FCCY_FCCG_3
 E  FCCY_LCO_3
 E  FCCY_FLPG_3
 E  FCCY_SLURRY_3
 E  NAPBAL_CR00_3
 E  NAPBAL_CR01_3
 E  NAPBAL_CR02_3
 E  NAPBAL_CR03_3
 E  NAPBAL_CR04_3
 E  NAPBAL_CR05_3
 E  NAPBAL_CR06_3
 E  NAPBAL_CR07_3
 E  NAPBAL_CR08_3
 E  NAPBAL_CR09_3
 E  NAPBAL_CR10_3
 E  NAPBAL_CR11_3
 E  NAPBAL_CR12_3
 E  NAPBAL_CR13_3
 E  NAPBAL_CR14_3
 E  NAPBAL_CR15_3
 E  NAPBAL_CR16_3
 E  NAPBAL_CR17_3
 E  NAPBAL_CR18_3
 E  NAPBAL_CR19_3
 L  REFCAP_3
 E  REFY_3
 E  DSLBAL_CR00_3
 E  DSLBAL_CR01_3
 E  DSLBAL_CR02_3
 E  DSLBAL_CR03_3
 E  DSLBAL_CR04_3
 E  DSLBAL_CR05_3
 E  DSLBAL_CR06_3
 E  DSLBAL_CR07_3
 E  DSLBAL_CR08_3
 E  DSLBAL_CR09_3
 E  DSLBAL_CR10_3
 E  DSLBAL_CR11_3
 E  DSLBAL_CR12_3
 E  DSLBAL_CR13_3
 E  DSLBAL_CR14_3
 E  DSLBAL_CR15_3
 E  DSLBAL_CR16_3
 E  DSLBAL_CR17_3
 E  DSLBAL_CR18_3
 E  DSLBAL_CR19_3
 E  LCOBAL_3
 L  DHTCAP_3
 E  DHTY_3
 E  GASBAL_3
 G  GASRON_3
 E  KERBAL_CR00_3
 E  KERBAL_CR01_3
 E  KERBAL_CR02_3
 E  KERBAL_CR03_3
 E  KERBAL_CR04_3
 E  KERBAL_CR05_3
 E  KERBAL_CR06_3
 E  KERBAL_CR07_3
 E  KERBAL_CR08_3
 E  KERBAL_CR09_3
 E  KERBAL_CR10_3
 E  KERBAL_CR11_3
 E  KERBAL_CR12_3
 E  KERBAL_CR13_3
 E  KERBAL_CR14_3
 E  KERBAL_CR15_3
 E  KERBAL_CR16_3
 E  KERBAL_CR17_3
 E  KERBAL_CR18_3
 E  KERBAL_CR19_3
 E  JETBAL_3
 L  JETSUL_3
 E  DSLPB_3
 L  DSLSUL_3
 E  LPGBAL_3
 E  FOBAL_3
 L  FOSUL_3
 E  PBAL_LPG_3
 L  DMAX_LPG_3
 G  DMIN_LPG_3
 E  PBAL_GAS_3
 L  DMAX_GAS_3
 G  DMIN_GAS_3
 E  PBAL_JET_3
 L  DMAX_JET_3
 G  DMIN_JET_3
 E  PBAL_DSL_3
 L  DMAX_DSL_3
 G  DMIN_DSL_3
 E  PBAL_FO_3
 L  DMAX_FO_3
 G  DMIN_FO_3
 E  CBAL_CR00_4
 E  CBAL_CR01_4
 E  CBAL_CR02_4
 E  CBAL_CR03_4
 E  CBAL_CR04_4
 E  CBAL_CR05_4
 E  CBAL_CR06_4
 E  CBAL_CR07_4
 E  CBAL_CR08_4
 E  CBAL_CR09_4
 E  CBAL_CR10_4
 E  CBAL_CR11_4
 E  CBAL_CR12_4
 E  CBAL_CR13_4
 E  CBAL_CR14_4
 E  CBAL_CR15_4
 E  CBAL_CR16_4
 E  CBAL_CR17_4
 E  CBAL_CR18_4
 E  CBAL_CR19_4
 L  CDUCAP_4
 E  YLPG_CR00_4
 E  YNAP_CR00_4
 E  YKER_CR00_4
 E  YDSL_CR00_4
 E  YVGO_CR00_4
 E  YRES_CR00_4
 E  YLPG_CR01_4
 E  YNAP_CR01_4
 E  YKER_CR01_4
 E  YDSL_CR01_4
 E  YVGO_CR01_4
 E  YRES_CR01_4
 E  YLPG_CR02_4
 E  YNAP_CR02_4
 E  YKER_CR02_4
 E  YDSL_CR02_4
 E  YVGO_CR02_4
 E  YRES_CR02_4
 E  YLPG_CR03_4
 E  YNAP_CR03_4
 E  YKER_CR03_4
 E  YDSL_CR03_4
 E  YVGO_CR03_4
 E  YRES_CR03_4
 E  YLPG_CR04_4
 E  YNAP_CR04_4
 E  YKER_CR04_4
 E  YDSL_CR04_4
 E  YVGO_CR04_4
 E  YRES_CR04_4
 E  YLPG_CR05_4
 E  YNAP_CR05_4
 E  YKER_CR05_4
 E  YDSL_CR05_4
 E  YVGO_CR05_4
 E  YRES_CR05_4
 E  YLPG_CR06_4
 E  YNAP_CR06_4
 E  YKER_CR06_4
 E  YDSL_CR06_4
 E  YVGO_CR06_4
 E  YRES_CR06_4
 E  YLPG_CR07_4
 E  YNAP_CR07_4
 E  YKER_CR07_4
 E  YDSL_CR07_4
 E  YVGO_CR07_4
 E  YRES_CR07_4
 E  YLPG_CR08_4
 E  YNAP_CR08_4
 E  YKER_CR08_4
 E  YDSL_CR08_4
 E  YVGO_CR08_4
 E  YRES_CR08_4
 E  YLPG_CR09_4
 E  YNAP_CR09_4
 E  YKER_CR09_4
 E  YDSL_CR09_4
 E  YVGO_CR09_4
 E  YRES_CR09_4
 E  YLPG_CR10_4
 E  YNAP_CR10_4
 E  YKER_CR10_4
 E  YDSL_CR10_4
 E  YVGO_CR10_4
 E  YRES_CR10_4
 E  YLPG_CR11_4
 E  YNAP_CR11_4
 E  YKER_CR11_4
 E  YDSL_CR11_4
 E  YVGO_CR11_4
 E  YRES_CR11_4
 E  YLPG_CR12_4
 E  YNAP_CR12_4
 E  YKER_CR12_4
 E  YDSL_CR12_4
 E  YVGO_CR12_4
 E  YRES_CR12_4
 E  YLPG_CR13_4
 E  YNAP_CR13_4
 E  YKER_CR13_4
 E  YDSL_CR13_4
 E  YVGO_CR13_4
 E  YRES_CR13_4
 E  YLPG_CR14_4
 E  YNAP_CR14_4
 E  YKER_CR14_4
 E  YDSL_CR14_4
 E  YVGO_CR14_4
 E  YRES_CR14_4
 E  YLPG_CR15_4
 E  YNAP_CR15_4
 E  YKER_CR15_4
 E  YDSL_CR15_4
 E  YVGO_CR15_4
 E  YRES_CR15_4
 E  YLPG_CR16_4
 E  YNAP_CR16_4
 E  YKER_CR16_4
 E  YDSL_CR16_4
 E  YVGO_CR16_4
 E  YRES_CR16_4
 E  YLPG_CR17_4
 E  YNAP_CR17_4
 E  YKER_CR17_4
 E  YDSL_CR17_4
 E  YVGO_CR17_4
 E  YRES_CR17_4
 E  YLPG_CR18_4
 E  YNAP_CR18_4
 E  YKER_CR18_4
 E  YDSL_CR18_4
 E  YVGO_CR18_4
 E  YRES_CR18_4
 E  YLPG_CR19_4
 E  YNAP_CR19_4
 E  YKER_CR19_4
 E  YDSL_CR19_4
 E  YVGO_CR19_4
 E  YRES_CR19_4
 E  RESSPLIT_CR00_4
 E  VDUY1_CR00_4
 E  VDUY2_CR00_4
 E  RESSPLIT_CR01_4
 E  VDUY1_CR01_4
 E  VDUY2_CR01_4
 E  RESSPLIT_CR02_4
 E  VDUY1_CR02_4
 E  VDUY2_CR02_4
 E  RESSPLIT_CR03_4
 E  VDUY1_CR03_4
 E  VDUY2_CR03_4
 E  RESSPLIT_CR04_4
 E  VDUY1_CR04_4
 E  VDUY2_CR04_4
 E  RESSPLIT_CR05_4
 E  VDUY1_CR05_4
 E  VDUY2_CR05_4
 E  RESSPLIT_CR06_4
 E  VDUY1_CR06_4
 E  VDUY2_CR06_4
 E  RESSPLIT_CR07_4
 E  VDUY1_CR07_4
 E  VDUY2_CR07_4
 E  RESSPLIT_CR08_4
 E  VDUY1_CR08_4
 E  VDUY2_CR08_4
 E  RESSPLIT_CR09_4
 E  VDUY1_CR09_4
 E  VDUY2_CR09_4
 E  RESSPLIT_CR10_4
 E  VDUY1_CR10_4
 E  VDUY2_CR10_4
 E  RESSPLIT_CR11_4
 E  VDUY1_CR11_4
 E  VDUY2_CR11_4
 E  RESSPLIT_CR12_4
 E  VDUY1_CR12_4
 E  VDUY2_CR12_4
 E  RESSPLIT_CR13_4
 E  VDUY1_CR13_4
 E  VDUY2_CR13_4
 E  RESSPLIT_CR14_4
 E  VDUY1_CR14_4
 E  VDUY2_CR14_4
 E  RESSPLIT_CR15_4
 E  VDUY1_CR15_4
 E  VDUY2_CR15_4
 E  RESSPLIT_CR16_4
 E  VDUY1_CR16_4
 E  VDUY2_CR16_4
 E  RESSPLIT_CR17_4
 E  VDUY1_CR17_4
 E  VDUY2_CR17_4
 E  RESSPLIT_CR18_4
 E  VDUY1_CR18_4
 E  VDUY2_CR18_4
 E  RESSPLIT_CR19_4
 E  VDUY1_CR19_4
 E  VDUY2_CR19_4
 L  VDUCAP_4
 E  VGOBAL_CR00_4
 E  VGOBAL_CR01_4
 E  VGOBAL_CR02_4
 E  VGOBAL_CR03_4
 E  VGOBAL_CR04_4
 E  VGOBAL_CR05_4
 E  VGOBAL_CR06_4
 E  VGOBAL_CR07_4
 E  VGOBAL_CR08_4
 E  VGOBAL_CR09_4
 E  VGOBAL_CR10_4
 E  VGOBAL_CR11_4
 E  VGOBAL_CR12_4
 E  VGOBAL_CR13_4
 E  VGOBAL_CR14_4
 E  VGOBAL_CR15_4
 E  VGOBAL_CR16_4
 E  VGOBAL_CR17_4
 E  VGOBAL_CR18_4
 E  VGOBAL_CR19_4
 L  FCCCAP_4
 E  FCCY_FCCG_4
 E  FCCY_LCO_4
 E  FCCY_FLPG_4
 E  FCCY_SLURRY_4
 E  NAPBAL_CR00_4
 E  NAPBAL_CR01_4
 E  NAPBAL_CR02_4
 E  NAPBAL_CR03_4
 E  NAPBAL_CR04_4
 E  NAPBAL_CR05_4
 E  NAPBAL_CR06_4
 E  NAPBAL_CR07_4
 E  NAPBAL_CR08_4
 E  NAPBAL_CR09_4
 E  NAPBAL_CR10_4
 E  NAPBAL_CR11_4
 E  NAPBAL_CR12_4
 E  NAPBAL_CR13_4
 E  NAPBAL_CR14_4
 E  NAPBAL_CR15_4
 E  NAPBAL_CR16_4
 E  NAPBAL_CR17_4
 E  NAPBAL_CR18_4
 E  NAPBAL_CR19_4
 L  REFCAP_4
 E  REFY_4
 E  DSLBAL_CR00_4
 E  DSLBAL_CR01_4
 E  DSLBAL_CR02_4
 E  DSLBAL_CR03_4
 E  DSLBAL_CR04_4
 E  DSLBAL_CR05_4
 E  DSLBAL_CR06_4
 E  DSLBAL_CR07_4
 E  DSLBAL_CR08_4
 E  DSLBAL_CR09_4
 E  DSLBAL_CR10_4
 E  DSLBAL_CR11_4
 E  DSLBAL_CR12_4
 E  DSLBAL_CR13_4
 E  DSLBAL_CR14_4
 E  DSLBAL_CR15_4
 E  DSLBAL_CR16_4
 E  DSLBAL_CR17_4
 E  DSLBAL_CR18_4
 E  DSLBAL_CR19_4
 E  LCOBAL_4
 L  DHTCAP_4
 E  DHTY_4
 E  GASBAL_4
 G  GASRON_4
 E  KERBAL_CR00_4
 E  KERBAL_CR01_4
 E  KERBAL_CR02_4
 E  KERBAL_CR03_4
 E  KERBAL_CR04_4
 E  KERBAL_CR05_4
 E  KERBAL_CR06_4
 E  KERBAL_CR07_4
 E  KERBAL_CR08_4
 E  KERBAL_CR09_4
 E  KERBAL_CR10_4
 E  KERBAL_CR11_4
 E  KERBAL_CR12_4
 E  KERBAL_CR13_4
 E  KERBAL_CR14_4
 E  KERBAL_CR15_4
 E  KERBAL_CR16_4
 E  KERBAL_CR17_4
 E  KERBAL_CR18_4
 E  KERBAL_CR19_4
 E  JETBAL_4
 L  JETSUL_4
 E  DSLPB_4
 L  DSLSUL_4
 E  LPGBAL_4
 E  FOBAL_4
 L  FOSUL_4
 E  PBAL_LPG_4
 L  DMAX_LPG_4
 G  DMIN_LPG_4
 E  PBAL_GAS_4
 L  DMAX_GAS_4
 G  DMIN_GAS_4
 E  PBAL_JET_4
 L  DMAX_JET_4
 G  DMIN_JET_4
 E  PBAL_DSL_4
 L  DMAX_DSL_4
 G  DMIN_DSL_4
 E  PBAL_FO_4
 L  DMAX_FO_4
 G  DMIN_FO_4
 E  CBAL_CR00_5
 E  CBAL_CR01_5
 E  CBAL_CR02_5
 E  CBAL_CR03_5
 E  CBAL_CR04_5
 E  CBAL_CR05_5
 E  CBAL_CR06_5
 E  CBAL_CR07_5
 E  CBAL_CR08_5
 E  CBAL_CR09_5
 E  CBAL_CR10_5
 E  CBAL_CR11_5
 E  CBAL_CR12_5
 E  CBAL_CR13_5
 E  CBAL_CR14_5
 E  CBAL_CR15_5
 E  CBAL_CR16_5
 E  CBAL_CR17_5
 E  CBAL_CR18_5
 E  CBAL_CR19_5
 L  CDUCAP_5
 E  YLPG_CR00_5
 E  YNAP_CR00_5
 E  YKER_CR00_5
 E  YDSL_CR00_5
 E  YVGO_CR00_5
 E  YRES_CR00_5
 E  YLPG_CR01_5
 E  YNAP_CR01_5
 E  YKER_CR01_5
 E  YDSL_CR01_5
 E  YVGO_CR01_5
 E  YRES_CR01_5
 E  YLPG_CR02_5
 E  YNAP_CR02_5
 E  YKER_CR02_5
 E  YDSL_CR02_5
 E  YVGO_CR02_5
 E  YRES_CR02_5
 E  YLPG_CR03_5
 E  YNAP_CR03_5
 E  YKER_CR03_5
 E  YDSL_CR03_5
 E  YVGO_CR03_5
 E  YRES_CR03_5
 E  YLPG_CR04_5
 E  YNAP_CR04_5
 E  YKER_CR04_5
 E  YDSL_CR04_5
 E  YVGO_CR04_5
 E  YRES_CR04_5
 E  YLPG_CR05_5
 E  YNAP_CR05_5
 E  YKER_CR05_5
 E  YDSL_CR05_5
 E  YVGO_CR05_5
 E  YRES_CR05_5
 E  YLPG_CR06_5
 E  YNAP_CR06_5
 E  YKER_CR06_5
 E  YDSL_CR06_5
 E  YVGO_CR06_5
 E  YRES_CR06_5
 E  YLPG_CR07_5
 E  YNAP_CR07_5
 E  YKER_CR07_5
 E  YDSL_CR07_5
 E  YVGO_CR07_5
 E  YRES_CR07_5
 E  YLPG_CR08_5
 E  YNAP_CR08_5
 E  YKER_CR08_5
 E  YDSL_CR08_5
 E  YVGO_CR08_5
 E  YRES_CR08_5
 E  YLPG_CR09_5
 E  YNAP_CR09_5
 E  YKER_CR09_5
 E  YDSL_CR09_5
 E  YVGO_CR09_5
 E  YRES_CR09_5
 E  YLPG_CR10_5
 E  YNAP_CR10_5
 E  YKER_CR10_5
 E  YDSL_CR10_5
 E  YVGO_CR10_5
 E  YRES_CR10_5
 E  YLPG_CR11_5
 E  YNAP_CR11_5
 E  YKER_CR11_5
 E  YDSL_CR11_5
 E  YVGO_CR11_5
 E  YRES_CR11_5
 E  YLPG_CR12_5
 E  YNAP_CR12_5
 E  YKER_CR12_5
 E  YDSL_CR12_5
 E  YVGO_CR12_5
 E  YRES_CR12_5
 E  YLPG_CR13_5
 E  YNAP_CR13_5
 E  YKER_CR13_5
 E  YDSL_CR13_5
 E  YVGO_CR13_5
 E  YRES_CR13_5
 E  YLPG_CR14_5
 E  YNAP_CR14_5
 E  YKER_CR14_5
 E  YDSL_CR14_5
 E  YVGO_CR14_5
 E  YRES_CR14_5
 E  YLPG_CR15_5
 E  YNAP_CR15_5
 E  YKER_CR15_5
 E  YDSL_CR15_5
 E  YVGO_CR15_5
 E  YRES_CR15_5
 E  YLPG_CR16_5
 E  YNAP_CR16_5
 E  YKER_CR16_5
 E  YDSL_CR16_5
 E  YVGO_CR16_5
 E  YRES_CR16_5
 E  YLPG_CR17_5
 E  YNAP_CR17_5
 E  YKER_CR17_5
 E  YDSL_CR17_5
 E  YVGO_CR17_5
 E  YRES_CR17_5
 E  YLPG_CR18_5
 E  YNAP_CR18_5
 E  YKER_CR18_5
 E  YDSL_CR18_5
 E  YVGO_CR18_5
 E  YRES_CR18_5
 E  YLPG_CR19_5
 E  YNAP_CR19_5
 E  YKER_CR19_5
 E  YDSL_CR19_5
 E  YVGO_CR19_5
 E  YRES_CR19_5
 E  RESSPLIT_CR00_5
 E  VDUY1_CR00_5
 E  VDUY2_CR00_5
 E  RESSPLIT_CR01_5
 E  VDUY1_CR01_5
 E  VDUY2_CR01_5
 E  RESSPLIT_CR02_5
 E  VDUY1_CR02_5
 E  VDUY2_CR02_5
 E  RESSPLIT_CR03_5
 E  VDUY1_CR03_5
 E  VDUY2_CR03_5
 E  RESSPLIT_CR04_5
 E  VDUY1_CR04_5
 E  VDUY2_CR04_5
 E  RESSPLIT_CR05_5
 E  VDUY1_CR05_5
 E  VDUY2_CR05_5
 E  RESSPLIT_CR06_5
 E  VDUY1_CR06_5
 E  VDUY2_CR06_5
 E  RESSPLIT_CR07_5
 E  VDUY1_CR07_5
 E  VDUY2_CR07_5
 E  RESSPLIT_CR08_5
 E  VDUY1_CR08_5
 E  VDUY2_CR08_5
 E  RESSPLIT_CR09_5
 E  VDUY1_CR09_5
 E  VDUY2_CR09_5
 E  RESSPLIT_CR10_5
 E  VDUY1_CR10_5
 E  VDUY2_CR10_5
 E  RESSPLIT_CR11_5
 E  VDUY1_CR11_5
 E  VDUY2_CR11_5
 E  RESSPLIT_CR12_5
 E  VDUY1_CR12_5
 E  VDUY2_CR12_5
 E  RESSPLIT_CR13_5
 E  VDUY1_CR13_5
 E  VDUY2_CR13_5
 E  RESSPLIT_CR14_5
 E  VDUY1_CR14_5
 E  VDUY2_CR14_5
 E  RESSPLIT_CR15_5
 E  VDUY1_CR15_5
 E  VDUY2_CR15_5
 E  RESSPLIT_CR16_5
 E  VDUY1_CR16_5
 E  VDUY2_CR16_5
 E  RESSPLIT_CR17_5
 E  VDUY1_CR17_5
 E  VDUY2_CR17_5
 E  RESSPLIT_CR18_5
 E  VDUY1_CR18_5
 E  VDUY2_CR18_5
 E  RESSPLIT_CR19_5
 E  VDUY1_CR19_5
 E  VDUY2_CR19_5
 L  VDUCAP_5
 E  VGOBAL_CR00_5
 E  VGOBAL_CR01_5
 E  VGOBAL_CR02_5
 E  VGOBAL_CR03_5
 E  VGOBAL_CR04_5
 E  VGOBAL_CR05_5
 E  VGOBAL_CR06_5
 E  VGOBAL_CR07_5
 E  VGOBAL_CR08_5
 E  VGOBAL_CR09_5
 E  VGOBAL_CR10_5
 E  VGOBAL_CR11_5
 E  VGOBAL_CR12_5
 E  VGOBAL_CR13_5
 E  VGOBAL_CR14_5
 E  VGOBAL_CR15_5
 E  VGOBAL_CR16_5
 E  VGOBAL_CR17_5
 E  VGOBAL_CR18_5
 E  VGOBAL_CR19_5
 L  FCCCAP_5
 E  FCCY_FCCG_5
 E  FCCY_LCO_5
 E  FCCY_FLPG_5
 E  FCCY_SLURRY_5
 E  NAPBAL_CR00_5
 E  NAPBAL_CR01_5
 E  NAPBAL_CR02_5
 E  NAPBAL_CR03_5
 E  NAPBAL_CR04_5
 E  NAPBAL_CR05_5
 E  NAPBAL_CR06_5
 E  NAPBAL_CR07_5
 E  NAPBAL_CR08_5
 E  NAPBAL_CR09_5
 E  NAPBAL_CR10_5
 E  NAPBAL_CR11_5
 E  NAPBAL_CR12_5
 E  NAPBAL_CR13_5
 E  NAPBAL_CR14_5
 E  NAPBAL_CR15_5
 E  NAPBAL_CR16_5
 E  NAPBAL_CR17_5
 E  NAPBAL_CR18_5
 E  NAPBAL_CR19_5
 L  REFCAP_5
 E  REFY_5
 E  DSLBAL_CR00_5
 E  DSLBAL_CR01_5
 E  DSLBAL_CR02_5
 E  DSLBAL_CR03_5
 E  DSLBAL_CR04_5
 E  DSLBAL_CR05_5
 E  DSLBAL_CR06_5
 E  DSLBAL_CR07_5
 E  DSLBAL_CR08_5
 E  DSLBAL_CR09_5
 E  DSLBAL_CR10_5
 E  DSLBAL_CR11_5
 E  DSLBAL_CR12_5
 E  DSLBAL_CR13_5
 E  DSLBAL_CR14_5
 E  DSLBAL_CR15_5
 E  DSLBAL_CR16_5
 E  DSLBAL_CR17_5
 E  DSLBAL_CR18_5
 E  DSLBAL_CR19_5
 E  LCOBAL_5
 L  DHTCAP_5
 E  DHTY_5
 E  GASBAL_5
 G  GASRON_5
 E  KERBAL_CR00_5
 E  KERBAL_CR01_5
 E  KERBAL_CR02_5
 E  KERBAL_CR03_5
 E  KERBAL_CR04_5
 E  KERBAL_CR05_5
 E  KERBAL_CR06_5
 E  KERBAL_CR07_5
 E  KERBAL_CR08_5
 E  KERBAL_CR09_5
 E  KERBAL_CR10_5
 E  KERBAL_CR11_5
 E  KERBAL_CR12_5
 E  KERBAL_CR13_5
 E  KERBAL_CR14_5
 E  KERBAL_CR15_5
 E  KERBAL_CR16_5
 E  KERBAL_CR17_5
 E  KERBAL_CR18_5
 E  KERBAL_CR19_5
 E  JETBAL_5
 L  JETSUL_5
 E  DSLPB_5
 L  DSLSUL_5
 E  LPGBAL_5
 E  FOBAL_5
 L  FOSUL_5
 E  PBAL_LPG_5
 L  DMAX_LPG_5
 G  DMIN_LPG_5
 E  PBAL_GAS_5
 L  DMAX_GAS_5
 G  DMIN_GAS_5
 E  PBAL_JET_5
 L  DMAX_JET_5
 G  DMIN_JET_5
 E  PBAL_DSL_5
 L  DMAX_DSL_5
 G  DMIN_DSL_5
 E  PBAL_FO_5
 L  DMAX_FO_5
 G  DMIN_FO_5
 E  CBAL_CR00_6
 E  CBAL_CR01_6
 E  CBAL_CR02_6
 E  CBAL_CR03_6
 E  CBAL_CR04_6
 E  CBAL_CR05_6
 E  CBAL_CR06_6
 E  CBAL_CR07_6
 E  CBAL_CR08_6
 E  CBAL_CR09_6
 E  CBAL_CR10_6
 E  CBAL_CR11_6
 E  CBAL_CR12_6
 E  CBAL_CR13_6
 E  CBAL_CR14_6
 E  CBAL_CR15_6
 E  CBAL_CR16_6
 E  CBAL_CR17_6
 E  CBAL_CR18_6
 E  CBAL_CR19_6
 L  CDUCAP_6
 E  YLPG_CR00_6
 E  YNAP_CR00_6
 E  YKER_CR00_6
 E  YDSL_CR00_6
 E  YVGO_CR00_6
 E  YRES_CR00_6
 E  YLPG_CR01_6
 E  YNAP_CR01_6
 E  YKER_CR01_6
 E  YDSL_CR01_6
 E  YVGO_CR01_6
 E  YRES_CR01_6
 E  YLPG_CR02_6
 E  YNAP_CR02_6
 E  YKER_CR02_6
 E  YDSL_CR02_6
 E  YVGO_CR02_6
 E  YRES_CR02_6
 E  YLPG_CR03_6
 E  YNAP_CR03_6
 E  YKER_CR03_6
 E  YDSL_CR03_6
 E  YVGO_CR03_6
 E  YRES_CR03_6
 E  YLPG_CR04_6
 E  YNAP_CR04_6
 E  YKER_CR04_6
 E  YDSL_CR04_6
 E  YVGO_CR04_6
 E  YRES_CR04_6
 E  YLPG_CR05_6
 E  YNAP_CR05_6
 E  YKER_CR05_6
 E  YDSL_CR05_6
 E  YVGO_CR05_6
 E  YRES_CR05_6
 E  YLPG_CR06_6
 E  YNAP_CR06_6
 E  YKER_CR06_6
 E  YDSL_CR06_6
 E  YVGO_CR06_6
 E  YRES_CR06_6
 E  YLPG_CR07_6
 E  YNAP_CR07_6
 E  YKER_CR07_6
 E  YDSL_CR07_6
 E  YVGO_CR07_6
 E  YRES_CR07_6
 E  YLPG_CR08_6
 E  YNAP_CR08_6
 E  YKER_CR08_6
 E  YDSL_CR08_6
 E  YVGO_CR08_6
 E  YRES_CR08_6
 E  YLPG_CR09_6
 E  YNAP_CR09_6
 E  YKER_CR09_6
 E  YDSL_CR09_6
 E  YVGO_CR09_6
 E  YRES_CR09_6
 E  YLPG_CR10_6
 E  YNAP_CR10_6
 E  YKER_CR10_6
 E  YDSL_CR10_6
 E  YVGO_CR10_6
 E  YRES_CR10_6
 E  YLPG_CR11_6
 E  YNAP_CR11_6
 E  YKER_CR11_6
 E  YDSL_CR11_6
 E  YVGO_CR11_6
 E  YRES_CR11_6
 E  YLPG_CR12_6
 E  YNAP_CR12_6
 E  YKER_CR12_6
 E  YDSL_CR12_6
 E  YVGO_CR12_6
 E  YRES_CR12_6
 E  YLPG_CR13_6
 E  YNAP_CR13_6
 E  YKER_CR13_6
 E  YDSL_CR13_6
 E  YVGO_CR13_6
 E  YRES_CR13_6
 E  YLPG_CR14_6
 E  YNAP_CR14_6
 E  YKER_CR14_6
 E  YDSL_CR14_6
 E  YVGO_CR14_6
 E  YRES_CR14_6
 E  YLPG_CR15_6
 E  YNAP_CR15_6
 E  YKER_CR15_6
 E  YDSL_CR15_6
 E  YVGO_CR15_6
 E  YRES_CR15_6
 E  YLPG_CR16_6
 E  YNAP_CR16_6
 E  YKER_CR16_6
 E  YDSL_CR16_6
 E  YVGO_CR16_6
 E  YRES_CR16_6
 E  YLPG_CR17_6
 E  YNAP_CR17_6
 E  YKER_CR17_6
 E  YDSL_CR17_6
 E  YVGO_CR17_6
 E  YRES_CR17_6
 E  YLPG_CR18_6
 E  YNAP_CR18_6
 E  YKER_CR18_6
 E  YDSL_CR18_6
 E  YVGO_CR18_6
 E  YRES_CR18_6
 E  YLPG_CR19_6
 E  YNAP_CR19_6
 E  YKER_CR19_6
 E  YDSL_CR19_6
 E  YVGO_CR19_6
 E  YRES_CR19_6
 E  RESSPLIT_CR00_6
 E  VDUY1_CR00_6
 E  VDUY2_CR00_6
 E  RESSPLIT_CR01_6
 E  VDUY1_CR01_6
 E  VDUY2_CR01_6
 E  RESSPLIT_CR02_6
 E  VDUY1_CR02_6
 E  VDUY2_CR02_6
 E  RESSPLIT_CR03_6
 E  VDUY1_CR03_6
 E  VDUY2_CR03_6
 E  RESSPLIT_CR04_6
 E  VDUY1_CR04_6
 E  VDUY2_CR04_6
 E  RESSPLIT_CR05_6
 E  VDUY1_CR05_6
 E  VDUY2_CR05_6
 E  RESSPLIT_CR06_6
 E  VDUY1_CR06_6
 E  VDUY2_CR06_6
 E  RESSPLIT_CR07_6
 E  VDUY1_CR07_6
 E  VDUY2_CR07_6
 E  RESSPLIT_CR08_6
 E  VDUY1_CR08_6
 E  VDUY2_CR08_6
 E  RESSPLIT_CR09_6
 E  VDUY1_CR09_6
 E  VDUY2_CR09_6
 E  RESSPLIT_CR10_6
 E  VDUY1_CR10_6
 E  VDUY2_CR10_6
 E  RESSPLIT_CR11_6
 E  VDUY1_CR11_6
 E  VDUY2_CR11_6
 E  RESSPLIT_CR12_6
 E  VDUY1_CR12_6
 E  VDUY2_CR12_6
 E  RESSPLIT_CR13_6
 E  VDUY1_CR13_6
 E  VDUY2_CR13_6
 E  RESSPLIT_CR14_6
 E  VDUY1_CR14_6
 E  VDUY2_CR14_6
 E  RESSPLIT_CR15_6
 E  VDUY1_CR15_6
 E  VDUY2_CR15_6
 E  RESSPLIT_CR16_6
 E  VDUY1_CR16_6
 E  VDUY2_CR16_6
 E  RESSPLIT_CR17_6
 E  VDUY1_CR17_6
 E  VDUY2_CR17_6
 E  RESSPLIT_CR18_6
 E  VDUY1_CR18_6
 E  VDUY2_CR18_6
 E  RESSPLIT_CR19_6
 E  VDUY1_CR19_6
 E  VDUY2_CR19_6
 L  VDUCAP_6
 E  VGOBAL_CR00_6
 E  VGOBAL_CR01_6
 E  VGOBAL_CR02_6
 E  VGOBAL_CR03_6
 E  VGOBAL_CR04_6
 E  VGOBAL_CR05_6
 E  VGOBAL_CR06_6
 E  VGOBAL_CR07_6
 E  VGOBAL_CR08_6
 E  VGOBAL_CR09_6
 E  VGOBAL_CR10_6
 E  VGOBAL_CR11_6
 E  VGOBAL_CR12_6
 E  VGOBAL_CR13_6
 E  VGOBAL_CR14_6
 E  VGOBAL_CR15_6
 E  VGOBAL_CR16_6
 E  VGOBAL_CR17_6
 E  VGOBAL_CR18_6
 E  VGOBAL_CR19_6
 L  FCCCAP_6
 E  FCCY_FCCG_6
 E  FCCY_LCO_6
 E  FCCY_FLPG_6
 E  FCCY_SLURRY_6
 E  NAPBAL_CR00_6
 E  NAPBAL_CR01_6
 E  NAPBAL_CR02_6
 E  NAPBAL_CR03_6
 E  NAPBAL_CR04_6
 E  NAPBAL_CR05_6
 E  NAPBAL_CR06_6
 E  NAPBAL_CR07_6
 E  NAPBAL_CR08_6
 E  NAPBAL_CR09_6
 E  NAPBAL_CR10_6
 E  NAPBAL_CR11_6
 E  NAPBAL_CR12_6
 E  NAPBAL_CR13_6
 E  NAPBAL_CR14_6
 E  NAPBAL_CR15_6
 E  NAPBAL_CR16_6
 E  NAPBAL_CR17_6
 E  NAPBAL_CR18_6
 E  NAPBAL_CR19_6
 L  REFCAP_6
 E  REFY_6
 E  DSLBAL_CR00_6
 E  DSLBAL_CR01_6
 E  DSLBAL_CR02_6
 E  DSLBAL_CR03_6
 E  DSLBAL_CR04_6
 E  DSLBAL_CR05_6
 E  DSLBAL_CR06_6
 E  DSLBAL_CR07_6
 E  DSLBAL_CR08_6
 E  DSLBAL_CR09_6
 E  DSLBAL_CR10_6
 E  DSLBAL_CR11_6
 E  DSLBAL_CR12_6
 E  DSLBAL_CR13_6
 E  DSLBAL_CR14_6
 E  DSLBAL_CR15_6
 E  DSLBAL_CR16_6
 E  DSLBAL_CR17_6
 E  DSLBAL_CR18_6
 E  DSLBAL_CR19_6
 E  LCOBAL_6
 L  DHTCAP_6
 E  DHTY_6
 E  GASBAL_6
 G  GASRON_6
 E  KERBAL_CR00_6
 E  KERBAL_CR01_6
 E  KERBAL_CR02_6
 E  KERBAL_CR03_6
 E  KERBAL_CR04_6
 E  KERBAL_CR05_6
 E  KERBAL_CR06_6
 E  KERBAL_CR07_6
 E  KERBAL_CR08_6
 E  KERBAL_CR09_6
 E  KERBAL_CR10_6
 E  KERBAL_CR11_6
 E  KERBAL_CR12_6
 E  KERBAL_CR13_6
 E  KERBAL_CR14_6
 E  KERBAL_CR15_6
 E  KERBAL_CR16_6
 E  KERBAL_CR17_6
 E  KERBAL_CR18_6
 E  KERBAL_CR19_6
 E  JETBAL_6
 L  JETSUL_6
 E  DSLPB_6
 L  DSLSUL_6
 E  LPGBAL_6
 E  FOBAL_6
 L  FOSUL_6
 E  PBAL_LPG_6
 L  DMAX_LPG_6
 G  DMIN_LPG_6
 E  PBAL_GAS_6
 L  DMAX_GAS_6
 G  DMIN_GAS_6
 E  PBAL_JET_6
 L  DMAX_JET_6
 G  DMIN_JET_6
 E  PBAL_DSL_6
 L  DMAX_DSL_6
 G  DMIN_DSL_6
 E  PBAL_FO_6
 L  DMAX_FO_6
 G  DMIN_FO_6
 E  CBAL_CR00_7
 E  CBAL_CR01_7
 E  CBAL_CR02_7
 E  CBAL_CR03_7
 E  CBAL_CR04_7
 E  CBAL_CR05_7
 E  CBAL_CR06_7
 E  CBAL_CR07_7
 E  CBAL_CR08_7
 E  CBAL_CR09_7
 E  CBAL_CR10_7
 E  CBAL_CR11_7
 E  CBAL_CR12_7
 E  CBAL_CR13_7
 E  CBAL_CR14_7
 E  CBAL_CR15_7
 E  CBAL_CR16_7
 E  CBAL_CR17_7
 E  CBAL_CR18_7
 E  CBAL_CR19_7
 L  CDUCAP_7
 E  YLPG_CR00_7
 E  YNAP_CR00_7
 E  YKER_CR00_7
 E  YDSL_CR00_7
 E  YVGO_CR00_7
 E  YRES_CR00_7
 E  YLPG_CR01_7
 E  YNAP_CR01_7
 E  YKER_CR01_7
 E  YDSL_CR01_7
 E  YVGO_CR01_7
 E  YRES_CR01_7
 E  YLPG_CR02_7
 E  YNAP_CR02_7
 E  YKER_CR02_7
 E  YDSL_CR02_7
 E  YVGO_CR02_7
 E  YRES_CR02_7
 E  YLPG_CR03_7
 E  YNAP_CR03_7
 E  YKER_CR03_7
 E  YDSL_CR03_7
 E  YVGO_CR03_7
 E  YRES_CR03_7
 E  YLPG_CR04_7
 E  YNAP_CR04_7
 E  YKER_CR04_7
 E  YDSL_CR04_7
 E  YVGO_CR04_7
 E  YRES_CR04_7
 E  YLPG_CR05_7
 E  YNAP_CR05_7
 E  YKER_CR05_7
 E  YDSL_CR05_7
 E  YVGO_CR05_7
 E  YRES_CR05_7
 E  YLPG_CR06_7
 E  YNAP_CR06_7
 E  YKER_CR06_7
 E  YDSL_CR06_7
 E  YVGO_CR06_7
 E  YRES_CR06_7
 E  YLPG_CR07_7
 E  YNAP_CR07_7
 E  YKER_CR07_7
 E  YDSL_CR07_7
 E  YVGO_CR07_7
 E  YRES_CR07_7
 E  YLPG_CR08_7
 E  YNAP_CR08_7
 E  YKER_CR08_7
 E  YDSL_CR08_7
 E  YVGO_CR08_7
 E  YRES_CR08_7
 E  YLPG_CR09_7
 E  YNAP_CR09_7
 E  YKER_CR09_7
 E  YDSL_CR09_7
 E  YVGO_CR09_7
 E  YRES_CR09_7
 E  YLPG_CR10_7
 E  YNAP_CR10_7
 E  YKER_CR10_7
 E  YDSL_CR10_7
 E  YVGO_CR10_7
 E  YRES_CR10_7
 E  YLPG_CR11_7
 E  YNAP_CR11_7
 E  YKER_CR11_7
 E  YDSL_CR11_7
 E  YVGO_CR11_7
 E  YRES_CR11_7
 E  YLPG_CR12_7
 E  YNAP_CR12_7
 E  YKER_CR12_7
 E  YDSL_CR12_7
 E  YVGO_CR12_7
 E  YRES_CR12_7
 E  YLPG_CR13_7
 E  YNAP_CR13_7
 E  YKER_CR13_7
 E  YDSL_CR13_7
 E  YVGO_CR13_7
 E  YRES_CR13_7
 E  YLPG_CR14_7
 E  YNAP_CR14_7
 E  YKER_CR14_7
 E  YDSL_CR14_7
 E  YVGO_CR14_7
 E  YRES_CR14_7
 E  YLPG_CR15_7
 E  YNAP_CR15_7
 E  YKER_CR15_7
 E  YDSL_CR15_7
 E  YVGO_CR15_7
 E  YRES_CR15_7
 E  YLPG_CR16_7
 E  YNAP_CR16_7
 E  YKER_CR16_7
 E  YDSL_CR16_7
 E  YVGO_CR16_7
 E  YRES_CR16_7
 E  YLPG_CR17_7
 E  YNAP_CR17_7
 E  YKER_CR17_7
 E  YDSL_CR17_7
 E  YVGO_CR17_7
 E  YRES_CR17_7
 E  YLPG_CR18_7
 E  YNAP_CR18_7
 E  YKER_CR18_7
 E  YDSL_CR18_7
 E  YVGO_CR18_7
 E  YRES_CR18_7
 E  YLPG_CR19_7
 E  YNAP_CR19_7
 E  YKER_CR19_7
 E  YDSL_CR19_7
 E  YVGO_CR19_7
 E  YRES_CR19_7
 E  RESSPLIT_CR00_7
 E  VDUY1_CR00_7
 E  VDUY2_CR00_7
 E  RESSPLIT_CR01_7
 E  VDUY1_CR01_7
 E  VDUY2_CR01_7
 E  RESSPLIT_CR02_7
 E  VDUY1_CR02_7
 E  VDUY2_CR02_7
 E  RESSPLIT_CR03_7
 E  VDUY1_CR03_7
 E  VDUY2_CR03_7
 E  RESSPLIT_CR04_7
 E  VDUY1_CR04_7
 E  VDUY2_CR04_7
 E  RESSPLIT_CR05_7
 E  VDUY1_CR05_7
 E  VDUY2_CR05_7
 E  RESSPLIT_CR06_7
 E  VDUY1_CR06_7
 E  VDUY2_CR06_7
 E  RESSPLIT_CR07_7
 E  VDUY1_CR07_7
 E  VDUY2_CR07_7
 E  RESSPLIT_CR08_7
 E  VDUY1_CR08_7
 E  VDUY2_CR08_7
 E  RESSPLIT_CR09_7
 E  VDUY1_CR09_7
 E  VDUY2_CR09_7
 E  RESSPLIT_CR10_7
 E  VDUY1_CR10_7
 E  VDUY2_CR10_7
 E  RESSPLIT_CR11_7
 E  VDUY1_CR11_7
 E  VDUY2_CR11_7
 E  RESSPLIT_CR12_7
 E  VDUY1_CR12_7
 E  VDUY2_CR12_7
 E  RESSPLIT_CR13_7
 E  VDUY1_CR13_7
 E  VDUY2_CR13_7
 E  RESSPLIT_CR14_7
 E  VDUY1_CR14_7
 E  VDUY2_CR14_7
 E  RESSPLIT_CR15_7
 E  VDUY1_CR15_7
 E  VDUY2_CR15_7
 E  RESSPLIT_CR16_7
 E  VDUY1_CR16_7
 E  VDUY2_CR16_7
 E  RESSPLIT_CR17_7
 E  VDUY1_CR17_7
 E  VDUY2_CR17_7
 E  RESSPLIT_CR18_7
 E  VDUY1_CR18_7
 E  VDUY2_CR18_7
 E  RESSPLIT_CR19_7
 E  VDUY1_CR19_7
 E  VDUY2_CR19_7
 L  VDUCAP_7
 E  VGOBAL_CR00_7
 E  VGOBAL_CR01_7
 E  VGOBAL_CR02_7
 E  VGOBAL_CR03_7
 E  VGOBAL_CR04_7
 E  VGOBAL_CR05_7
 E  VGOBAL_CR06_7
 E  VGOBAL_CR07_7
 E  VGOBAL_CR08_7
 E  VGOBAL_CR09_7
 E  VGOBAL_CR10_7
 E  VGOBAL_CR11_7
 E  VGOBAL_CR12_7
 E  VGOBAL_CR13_7
 E  VGOBAL_CR14_7
 E  VGOBAL_CR15_7
 E  VGOBAL_CR16_7
 E  VGOBAL_CR17_7
 E  VGOBAL_CR18_7
 E  VGOBAL_CR19_7
 L  FCCCAP_7
 E  FCCY_FCCG_7
 E  FCCY_LCO_7
 E  FCCY_FLPG_7
 E  FCCY_SLURRY_7
 E  NAPBAL_CR00_7
 E  NAPBAL_CR01_7
 E  NAPBAL_CR02_7
 E  NAPBAL_CR03_7
 E  NAPBAL_CR04_7
 E  NAPBAL_CR05_7
 E  NAPBAL_CR06_7
 E  NAPBAL_CR07_7
 E  NAPBAL_CR08_7
 E  NAPBAL_CR09_7
 E  NAPBAL_CR10_7
 E  NAPBAL_CR11_7
 E  NAPBAL_CR12_7
 E  NAPBAL_CR13_7
 E  NAPBAL_CR14_7
 E  NAPBAL_CR15_7
 E  NAPBAL_CR16_7
 E  NAPBAL_CR17_7
 E  NAPBAL_CR18_7
 E  NAPBAL_CR19_7
 L  REFCAP_7
 E  REFY_7
 E  DSLBAL_CR00_7
 E  DSLBAL_CR01_7
 E  DSLBAL_CR02_7
 E  DSLBAL_CR03_7
 E  DSLBAL_CR04_7
 E  DSLBAL_CR05_7
 E  DSLBAL_CR06_7
 E  DSLBAL_CR07_7
 E  DSLBAL_CR08_7
 E  DSLBAL_CR09_7
 E  DSLBAL_CR10_7
 E  DSLBAL_CR11_7
 E  DSLBAL_CR12_7
 E  DSLBAL_CR13_7
 E  DSLBAL_CR14_7
 E  DSLBAL_CR15_7
 E  DSLBAL_CR16_7
 E  DSLBAL_CR17_7
 E  DSLBAL_CR18_7
 E  DSLBAL_CR19_7
 E  LCOBAL_7
 L  DHTCAP_7
 E  DHTY_7
 E  GASBAL_7
 G  GASRON_7
 E  KERBAL_CR00_7
 E  KERBAL_CR01_7
 E  KERBAL_CR02_7
 E  KERBAL_CR03_7
 E  KERBAL_CR04_7
 E  KERBAL_CR05_7
 E  KERBAL_CR06_7
 E  KERBAL_CR07_7
 E  KERBAL_CR08_7
 E  KERBAL_CR09_7
 E  KERBAL_CR10_7
 E  KERBAL_CR11_7
 E  KERBAL_CR12_7
 E  KERBAL_CR13_7
 E  KERBAL_CR14_7
 E  KERBAL_CR15_7
 E  KERBAL_CR16_7
 E  KERBAL_CR17_7
 E  KERBAL_CR18_7
 E  KERBAL_CR19_7
 E  JETBAL_7
 L  JETSUL_7
 E  DSLPB_7
 L  DSLSUL_7
 E  LPGBAL_7
 E  FOBAL_7
 L  FOSUL_7
 E  PBAL_LPG_7
 L  DMAX_LPG_7
 G  DMIN_LPG_7
 E  PBAL_GAS_7
 L  DMAX_GAS_7
 G  DMIN_GAS_7
 E  PBAL_JET_7
 L  DMAX_JET_7
 G  DMIN_JET_7
 E  PBAL_DSL_7
 L  DMAX_DSL_7
 G  DMIN_DSL_7
 E  PBAL_FO_7
 L  DMAX_FO_7
 G  DMIN_FO_7
 E  CBAL_CR00_8
 E  CBAL_CR01_8
 E  CBAL_CR02_8
 E  CBAL_CR03_8
 E  CBAL_CR04_8
 E  CBAL_CR05_8
 E  CBAL_CR06_8
 E  CBAL_CR07_8
 E  CBAL_CR08_8
 E  CBAL_CR09_8
 E  CBAL_CR10_8
 E  CBAL_CR11_8
 E  CBAL_CR12_8
 E  CBAL_CR13_8
 E  CBAL_CR14_8
 E  CBAL_CR15_8
 E  CBAL_CR16_8
 E  CBAL_CR17_8
 E  CBAL_CR18_8
 E  CBAL_CR19_8
 L  CDUCAP_8
 E  YLPG_CR00_8
 E  YNAP_CR00_8
 E  YKER_CR00_8
 E  YDSL_CR00_8
 E  YVGO_CR00_8
 E  YRES_CR00_8
 E  YLPG_CR01_8
 E  YNAP_CR01_8
 E  YKER_CR01_8
 E  YDSL_CR01_8
 E  YVGO_CR01_8
 E  YRES_CR01_8
 E  YLPG_CR02_8
 E  YNAP_CR02_8
 E  YKER_CR02_8
 E  YDSL_CR02_8
 E  YVGO_CR02_8
 E  YRES_CR02_8
 E  YLPG_CR03_8
 E  YNAP_CR03_8
 E  YKER_CR03_8
 E  YDSL_CR03_8
 E  YVGO_CR03_8
 E  YRES_CR03_8
 E  YLPG_CR04_8
 E  YNAP_CR04_8
 E  YKER_CR04_8
 E  YDSL_CR04_8
 E  YVGO_CR04_8
 E  YRES_CR04_8
 E  YLPG_CR05_8
 E  YNAP_CR05_8
 E  YKER_CR05_8
 E  YDSL_CR05_8
 E  YVGO_CR05_8
 E  YRES_CR05_8
 E  YLPG_CR06_8
 E  YNAP_CR06_8
 E  YKER_CR06_8
 E  YDSL_CR06_8
 E  YVGO_CR06_8
 E  YRES_CR06_8
 E  YLPG_CR07_8
 E  YNAP_CR07_8
 E  YKER_CR07_8
 E  YDSL_CR07_8
 E  YVGO_CR07_8
 E  YRES_CR07_8
 E  YLPG_CR08_8
 E  YNAP_CR08_8
 E  YKER_CR08_8
 E  YDSL_CR08_8
 E  YVGO_CR08_8
 E  YRES_CR08_8
 E  YLPG_CR09_8
 E  YNAP_CR09_8
 E  YKER_CR09_8
 E  YDSL_CR09_8
 E  YVGO_CR09_8
 E  YRES_CR09_8
 E  YLPG_CR10_8
 E  YNAP_CR10_8
 E  YKER_CR10_8
 E  YDSL_CR10_8
 E  YVGO_CR10_8
 E  YRES_CR10_8
 E  YLPG_CR11_8
 E  YNAP_CR11_8
 E  YKER_CR11_8
 E  YDSL_CR11_8
 E  YVGO_CR11_8
 E  YRES_CR11_8
 E  YLPG_CR12_8
 E  YNAP_CR12_8
 E  YKER_CR12_8
 E  YDSL_CR12_8
 E  YVGO_CR12_8
 E  YRES_CR12_8
 E  YLPG_CR13_8
 E  YNAP_CR13_8
 E  YKER_CR13_8
 E  YDSL_CR13_8
 E  YVGO_CR13_8
 E  YRES_CR13_8
 E  YLPG_CR14_8
 E  YNAP_CR14_8
 E  YKER_CR14_8
 E  YDSL_CR14_8
 E  YVGO_CR14_8
 E  YRES_CR14_8
 E  YLPG_CR15_8
 E  YNAP_CR15_8
 E  YKER_CR15_8
 E  YDSL_CR15_8
 E  YVGO_CR15_8
 E  YRES_CR15_8
 E  YLPG_CR16_8
 E  YNAP_CR16_8
 E  YKER_CR16_8
 E  YDSL_CR16_8
 E  YVGO_CR16_8
 E  YRES_CR16_8
 E  YLPG_CR17_8
 E  YNAP_CR17_8
 E  YKER_CR17_8
 E  YDSL_CR17_8
 E  YVGO_CR17_8
 E  YRES_CR17_8
 E  YLPG_CR18_8
 E  YNAP_CR18_8
 E  YKER_CR18_8
 E  YDSL_CR18_8
 E  YVGO_CR18_8
 E  YRES_CR18_8
 E  YLPG_CR19_8
 E  YNAP_CR19_8
 E  YKER_CR19_8
 E  YDSL_CR19_8
 E  YVGO_CR19_8
 E  YRES_CR19_8
 E  RESSPLIT_CR00_8
 E  VDUY1_CR00_8
 E  VDUY2_CR00_8
 E  RESSPLIT_CR01_8
 E  VDUY1_CR01_8
 E  VDUY2_CR01_8
 E  RESSPLIT_CR02_8
 E  VDUY1_CR02_8
 E  VDUY2_CR02_8
 E  RESSPLIT_CR03_8
 E  VDUY1_CR03_8
 E  VDUY2_CR03_8
 E  RESSPLIT_CR04_8
 E  VDUY1_CR04_8
 E  VDUY2_CR04_8
 E  RESSPLIT_CR05_8
 E  VDUY1_CR05_8
 E  VDUY2_CR05_8
 E  RESSPLIT_CR06_8
 E  VDUY1_CR06_8
 E  VDUY2_CR06_8
 E  RESSPLIT_CR07_8
 E  VDUY1_CR07_8
 E  VDUY2_CR07_8
 E  RESSPLIT_CR08_8
 E  VDUY1_CR08_8
 E  VDUY2_CR08_8
 E  RESSPLIT_CR09_8
 E  VDUY1_CR09_8
 E  VDUY2_CR09_8
 E  RESSPLIT_CR10_8
 E  VDUY1_CR10_8
 E  VDUY2_CR10_8
 E  RESSPLIT_CR11_8
 E  VDUY1_CR11_8
 E  VDUY2_CR11_8
 E  RESSPLIT_CR12_8
 E  VDUY1_CR12_8
 E  VDUY2_CR12_8
 E  RESSPLIT_CR13_8
 E  VDUY1_CR13_8
 E  VDUY2_CR13_8
 E  RESSPLIT_CR14_8
 E  VDUY1_CR14_8
 E  VDUY2_CR14_8
 E  RESSPLIT_CR15_8
 E  VDUY1_CR15_8
 E  VDUY2_CR15_8
 E  RESSPLIT_CR16_8
 E  VDUY1_CR16_8
 E  VDUY2_CR16_8
 E  RESSPLIT_CR17_8
 E  VDUY1_CR17_8
 E  VDUY2_CR17_8
 E  RESSPLIT_CR18_8
 E  VDUY1_CR18_8
 E  VDUY2_CR18_8
 E  RESSPLIT_CR19_8
 E  VDUY1_CR19_8
 E  VDUY2_CR19_8
 L  VDUCAP_8
 E  VGOBAL_CR00_8
 E  VGOBAL_CR01_8
 E  VGOBAL_CR02_8
 E  VGOBAL_CR03_8
 E  VGOBAL_CR04_8
 E  VGOBAL_CR05_8
 E  VGOBAL_CR06_8
 E  VGOBAL_CR07_8
 E  VGOBAL_CR08_8
 E  VGOBAL_CR09_8
 E  VGOBAL_CR10_8
 E  VGOBAL_CR11_8
 E  VGOBAL_CR12_8
 E  VGOBAL_CR13_8
 E  VGOBAL_CR14_8
 E  VGOBAL_CR15_8
 E  VGOBAL_CR16_8
 E  VGOBAL_CR17_8
 E  VGOBAL_CR18_8
 E  VGOBAL_CR19_8
 L  FCCCAP_8
 E  FCCY_FCCG_8
 E  FCCY_LCO_8
 E  FCCY_FLPG_8
 E  FCCY_SLURRY_8
 E  NAPBAL_CR00_8
 E  NAPBAL_CR01_8
 E  NAPBAL_CR02_8
 E  NAPBAL_CR03_8
 E  NAPBAL_CR04_8
 E  NAPBAL_CR05_8
 E  NAPBAL_CR06_8
 E  NAPBAL_CR07_8
 E  NAPBAL_CR08_8
 E  NAPBAL_CR09_8
 E  NAPBAL_CR10_8
 E  NAPBAL_CR11_8
 E  NAPBAL_CR12_8
 E  NAPBAL_CR13_8
 E  NAPBAL_CR14_8
 E  NAPBAL_CR15_8
 E  NAPBAL_CR16_8
 E  NAPBAL_CR17_8
 E  NAPBAL_CR18_8
 E  NAPBAL_CR19_8
 L  REFCAP_8
 E  REFY_8
 E  DSLBAL_CR00_8
 E  DSLBAL_CR01_8
 E  DSLBAL_CR02_8
 E  DSLBAL_CR03_8
 E  DSLBAL_CR04_8
 E  DSLBAL_CR05_8
 E  DSLBAL_CR06_8
 E  DSLBAL_CR07_8
 E  DSLBAL_CR08_8
 E  DSLBAL_CR09_8
 E  DSLBAL_CR10_8
 E  DSLBAL_CR11_8
 E  DSLBAL_CR12_8
 E  DSLBAL_CR13_8
 E  DSLBAL_CR14_8
 E  DSLBAL_CR15_8
 E  DSLBAL_CR16_8
 E  DSLBAL_CR17_8
 E  DSLBAL_CR18_8
 E  DSLBAL_CR19_8
 E  LCOBAL_8
 L  DHTCAP_8
 E  DHTY_8
 E  GASBAL_8
 G  GASRON_8
 E  KERBAL_CR00_8
 E  KERBAL_CR01_8
 E  KERBAL_CR02_8
 E  KERBAL_CR03_8
 E  KERBAL_CR04_8
 E  KERBAL_CR05_8
 E  KERBAL_CR06_8
 E  KERBAL_CR07_8
 E  KERBAL_CR08_8
 E  KERBAL_CR09_8
 E  KERBAL_CR10_8
 E  KERBAL_CR11_8
 E  KERBAL_CR12_8
 E  KERBAL_CR13_8
 E  KERBAL_CR14_8
 E  KERBAL_CR15_8
 E  KERBAL_CR16_8
 E  KERBAL_CR17_8
 E  KERBAL_CR18_8
 E  KERBAL_CR19_8
 E  JETBAL_8
 L  JETSUL_8
 E  DSLPB_8
 L  DSLSUL_8
 E  LPGBAL_8
 E  FOBAL_8
 L  FOSUL_8
 E  PBAL_LPG_8
 L  DMAX_LPG_8
 G  DMIN_LPG_8
 E  PBAL_GAS_8
 L  DMAX_GAS_8
 G  DMIN_GAS_8
 E  PBAL_JET_8
 L  DMAX_JET_8
 G  DMIN_JET_8
 E  PBAL_DSL_8
 L  DMAX_DSL_8
 G  DMIN_DSL_8
 E  PBAL_FO_8
 L  DMAX_FO_8
 G  DMIN_FO_8
 E  CBAL_CR00_9
 E  CBAL_CR01_9
 E  CBAL_CR02_9
 E  CBAL_CR03_9
 E  CBAL_CR04_9
 E  CBAL_CR05_9
 E  CBAL_CR06_9
 E  CBAL_CR07_9
 E  CBAL_CR08_9
 E  CBAL_CR09_9
 E  CBAL_CR10_9
 E  CBAL_CR11_9
 E  CBAL_CR12_9
 E  CBAL_CR13_9
 E  CBAL_CR14_9
 E  CBAL_CR15_9
 E  CBAL_CR16_9
 E  CBAL_CR17_9
 E  CBAL_CR18_9
 E  CBAL_CR19_9
 L  CDUCAP_9
 E  YLPG_CR00_9
 E  YNAP_CR00_9
 E  YKER_CR00_9
 E  YDSL_CR00_9
 E  YVGO_CR00_9
 E  YRES_CR00_9
 E  YLPG_CR01_9
 E  YNAP_CR01_9
 E  YKER_CR01_9
 E  YDSL_CR01_9
 E  YVGO_CR01_9
 E  YRES_CR01_9
 E  YLPG_CR02_9
 E  YNAP_CR02_9
 E  YKER_CR02_9
 E  YDSL_CR02_9
 E  YVGO_CR02_9
 E  YRES_CR02_9
 E  YLPG_CR03_9
 E  YNAP_CR03_9
 E  YKER_CR03_9
 E  YDSL_CR03_9
 E  YVGO_CR03_9
 E  YRES_CR03_9
 E  YLPG_CR04_9
 E  YNAP_CR04_9
 E  YKER_CR04_9
 E  YDSL_CR04_9
 E  YVGO_CR04_9
 E  YRES_CR04_9
 E  YLPG_CR05_9
 E  YNAP_CR05_9
 E  YKER_CR05_9
 E  YDSL_CR05_9
 E  YVGO_CR05_9
 E  YRES_CR05_9
 E  YLPG_CR06_9
 E  YNAP_CR06_9
 E  YKER_CR06_9
 E  YDSL_CR06_9
 E  YVGO_CR06_9
 E  YRES_CR06_9
 E  YLPG_CR07_9
 E  YNAP_CR07_9
 E  YKER_CR07_9
 E  YDSL_CR07_9
 E  YVGO_CR07_9
 E  YRES_CR07_9
 E  YLPG_CR08_9
 E  YNAP_CR08_9
 E  YKER_CR08_9
 E  YDSL_CR08_9
 E  YVGO_CR08_9
 E  YRES_CR08_9
 E  YLPG_CR09_9
 E  YNAP_CR09_9
 E  YKER_CR09_9
 E  YDSL_CR09_9
 E  YVGO_CR09_9
 E  YRES_CR09_9
 E  YLPG_CR10_9
 E  YNAP_CR10_9
 E  YKER_CR10_9
 E  YDSL_CR10_9
 E  YVGO_CR10_9
 E  YRES_CR10_9
 E  YLPG_CR11_9
 E  YNAP_CR11_9
 E  YKER_CR11_9
 E  YDSL_CR11_9
 E  YVGO_CR11_9
 E  YRES_CR11_9
 E  YLPG_CR12_9
 E  YNAP_CR12_9
 E  YKER_CR12_9
 E  YDSL_CR12_9
 E  YVGO_CR12_9
 E  YRES_CR12_9
 E  YLPG_CR13_9
 E  YNAP_CR13_9
 E  YKER_CR13_9
 E  YDSL_CR13_9
 E  YVGO_CR13_9
 E  YRES_CR13_9
 E  YLPG_CR14_9
 E  YNAP_CR14_9
 E  YKER_CR14_9
 E  YDSL_CR14_9
 E  YVGO_CR14_9
 E  YRES_CR14_9
 E  YLPG_CR15_9
 E  YNAP_CR15_9
 E  YKER_CR15_9
 E  YDSL_CR15_9
 E  YVGO_CR15_9
 E  YRES_CR15_9
 E  YLPG_CR16_9
 E  YNAP_CR16_9
 E  YKER_CR16_9
 E  YDSL_CR16_9
 E  YVGO_CR16_9
 E  YRES_CR16_9
 E  YLPG_CR17_9
 E  YNAP_CR17_9
 E  YKER_CR17_9
 E  YDSL_CR17_9
 E  YVGO_CR17_9
 E  YRES_CR17_9
 E  YLPG_CR18_9
 E  YNAP_CR18_9
 E  YKER_CR18_9
 E  YDSL_CR18_9
 E  YVGO_CR18_9
 E  YRES_CR18_9
 E  YLPG_CR19_9
 E  YNAP_CR19_9
 E  YKER_CR19_9
 E  YDSL_CR19_9
 E  YVGO_CR19_9
 E  YRES_CR19_9
 E  RESSPLIT_CR00_9
 E  VDUY1_CR00_9
 E  VDUY2_CR00_9
 E  RESSPLIT_CR01_9
 E  VDUY1_CR01_9
 E  VDUY2_CR01_9
 E  RESSPLIT_CR02_9
 E  VDUY1_CR02_9
 E  VDUY2_CR02_9
 E  RESSPLIT_CR03_9
 E  VDUY1_CR03_9
 E  VDUY2_CR03_9
 E  RESSPLIT_CR04_9
 E  VDUY1_CR04_9
 E  VDUY2_CR04_9
 E  RESSPLIT_CR05_9
 E  VDUY1_CR05_9
 E  VDUY2_CR05_9
 E  RESSPLIT_CR06_9
 E  VDUY1_CR06_9
 E  VDUY2_CR06_9
 E  RESSPLIT_CR07_9
 E  VDUY1_CR07_9
 E  VDUY2_CR07_9
 E  RESSPLIT_CR08_9
 E  VDUY1_CR08_9
 E  VDUY2_CR08_9
 E  RESSPLIT_CR09_9
 E  VDUY1_CR09_9
 E  VDUY2_CR09_9
 E  RESSPLIT_CR10_9
 E  VDUY1_CR10_9
 E  VDUY2_CR10_9
 E  RESSPLIT_CR11_9
 E  VDUY1_CR11_9
 E  VDUY2_CR11_9
 E  RESSPLIT_CR12_9
 E  VDUY1_CR12_9
 E  VDUY2_CR12_9
 E  RESSPLIT_CR13_9
 E  VDUY1_CR13_9
 E  VDUY2_CR13_9
 E  RESSPLIT_CR14_9
 E  VDUY1_CR14_9
 E  VDUY2_CR14_9
 E  RESSPLIT_CR15_9
 E  VDUY1_CR15_9
 E  VDUY2_CR15_9
 E  RESSPLIT_CR16_9
 E  VDUY1_CR16_9
 E  VDUY2_CR16_9
 E  RESSPLIT_CR17_9
 E  VDUY1_CR17_9
 E  VDUY2_CR17_9
 E  RESSPLIT_CR18_9
 E  VDUY1_CR18_9
 E  VDUY2_CR18_9
 E  RESSPLIT_CR19_9
 E  VDUY1_CR19_9
 E  VDUY2_CR19_9
 L  VDUCAP_9
 E  VGOBAL_CR00_9
 E  VGOBAL_CR01_9
 E  VGOBAL_CR02_9
 E  VGOBAL_CR03_9
 E  VGOBAL_CR04_9
 E  VGOBAL_CR05_9
 E  VGOBAL_CR06_9
 E  VGOBAL_CR07_9
 E  VGOBAL_CR08_9
 E  VGOBAL_CR09_9
 E  VGOBAL_CR10_9
 E  VGOBAL_CR11_9
 E  VGOBAL_CR12_9
 E  VGOBAL_CR13_9
 E  VGOBAL_CR14_9
 E  VGOBAL_CR15_9
 E  VGOBAL_CR16_9
 E  VGOBAL_CR17_9
 E  VGOBAL_CR18_9
 E  VGOBAL_CR19_9
 L  FCCCAP_9
 E  FCCY_FCCG_9
 E  FCCY_LCO_9
 E  FCCY_FLPG_9
 E  FCCY_SLURRY_9
 E  NAPBAL_CR00_9
 E  NAPBAL_CR01_9
 E  NAPBAL_CR02_9
 E  NAPBAL_CR03_9
 E  NAPBAL_CR04_9
 E  NAPBAL_CR05_9
 E  NAPBAL_CR06_9
 E  NAPBAL_CR07_9
 E  NAPBAL_CR08_9
 E  NAPBAL_CR09_9
 E  NAPBAL_CR10_9
 E  NAPBAL_CR11_9
 E  NAPBAL_CR12_9
 E  NAPBAL_CR13_9
 E  NAPBAL_CR14_9
 E  NAPBAL_CR15_9
 E  NAPBAL_CR16_9
 E  NAPBAL_CR17_9
 E  NAPBAL_CR18_9
 E  NAPBAL_CR19_9
 L  REFCAP_9
 E  REFY_9
 E  DSLBAL_CR00_9
 E  DSLBAL_CR01_9
 E  DSLBAL_CR02_9
 E  DSLBAL_CR03_9
 E  DSLBAL_CR04_9
 E  DSLBAL_CR05_9
 E  DSLBAL_CR06_9
 E  DSLBAL_CR07_9
 E  DSLBAL_CR08_9
 E  DSLBAL_CR09_9
 E  DSLBAL_CR10_9
 E  DSLBAL_CR11_9
 E  DSLBAL_CR12_9
 E  DSLBAL_CR13_9
 E  DSLBAL_CR14_9
 E  DSLBAL_CR15_9
 E  DSLBAL_CR16_9
 E  DSLBAL_CR17_9
 E  DSLBAL_CR18_9
 E  DSLBAL_CR19_9
 E  LCOBAL_9
 L  DHTCAP_9
 E  DHTY_9
 E  GASBAL_9
 G  GASRON_9
 E  KERBAL_CR00_9
 E  KERBAL_CR01_9
 E  KERBAL_CR02_9
 E  KERBAL_CR03_9
 E  KERBAL_CR04_9
 E  KERBAL_CR05_9
 E  KERBAL_CR06_9
 E  KERBAL_CR07_9
 E  KERBAL_CR08_9
 E  KERBAL_CR09_9
 E  KERBAL_CR10_9
 E  KERBAL_CR11_9
 E  KERBAL_CR12_9
 E  KERBAL_CR13_9
 E  KERBAL_CR14_9
 E  KERBAL_CR15_9
 E  KERBAL_CR16_9
 E  KERBAL_CR17_9
 E  KERBAL_CR18_9
 E  KERBAL_CR19_9
 E  JETBAL_9
 L  JETSUL_9
 E  DSLPB_9
 L  DSLSUL_9
 E  LPGBAL_9
 E  FOBAL_9
 L  FOSUL_9
 E  PBAL_LPG_9
 L  DMAX_LPG_9
 G  DMIN_LPG_9
 E  PBAL_GAS_9
 L  DMAX_GAS_9
 G  DMIN_GAS_9
 E  PBAL_JET_9
 L  DMAX_JET_9
 G  DMIN_JET_9
 E  PBAL_DSL_9
 L  DMAX_DSL_9
 G  DMIN_DSL_9
 E  PBAL_FO_9
 L  DMAX_FO_9
 G  DMIN_FO_9
 E  CBAL_CR00_10
 E  CBAL_CR01_10
 E  CBAL_CR02_10
 E  CBAL_CR03_10
 E  CBAL_CR04_10
 E  CBAL_CR05_10
 E  CBAL_CR06_10
 E  CBAL_CR07_10
 E  CBAL_CR08_10
 E  CBAL_CR09_10
 E  CBAL_CR10_10
 E  CBAL_CR11_10
 E  CBAL_CR12_10
 E  CBAL_CR13_10
 E  CBAL_CR14_10
 E  CBAL_CR15_10
 E  CBAL_CR16_10
 E  CBAL_CR17_10
 E  CBAL_CR18_10
 E  CBAL_CR19_10
 L  CDUCAP_10
 E  YLPG_CR00_10
 E  YNAP_CR00_10
 E  YKER_CR00_10
 E  YDSL_CR00_10
 E  YVGO_CR00_10
 E  YRES_CR00_10
 E  YLPG_CR01_10
 E  YNAP_CR01_10
 E  YKER_CR01_10
 E  YDSL_CR01_10
 E  YVGO_CR01_10
 E  YRES_CR01_10
 E  YLPG_CR02_10
 E  YNAP_CR02_10
 E  YKER_CR02_10
 E  YDSL_CR02_10
 E  YVGO_CR02_10
 E  YRES_CR02_10
 E  YLPG_CR03_10
 E  YNAP_CR03_10
 E  YKER_CR03_10
 E  YDSL_CR03_10
 E  YVGO_CR03_10
 E  YRES_CR03_10
 E  YLPG_CR04_10
 E  YNAP_CR04_10
 E  YKER_CR04_10
 E  YDSL_CR04_10
 E  YVGO_CR04_10
 E  YRES_CR04_10
 E  YLPG_CR05_10
 E  YNAP_CR05_10
 E  YKER_CR05_10
 E  YDSL_CR05_10
 E  YVGO_CR05_10
 E  YRES_CR05_10
 E  YLPG_CR06_10
 E  YNAP_CR06_10
 E  YKER_CR06_10
 E  YDSL_CR06_10
 E  YVGO_CR06_10
 E  YRES_CR06_10
 E  YLPG_CR07_10
 E  YNAP_CR07_10
 E  YKER_CR07_10
 E  YDSL_CR07_10
 E  YVGO_CR07_10
 E  YRES_CR07_10
 E  YLPG_CR08_10
 E  YNAP_CR08_10
 E  YKER_CR08_10
 E  YDSL_CR08_10
 E  YVGO_CR08_10
 E  YRES_CR08_10
 E  YLPG_CR09_10
 E  YNAP_CR09_10
 E  YKER_CR09_10
 E  YDSL_CR09_10
 E  YVGO_CR09_10
 E  YRES_CR09_10
 E  YLPG_CR10_10
 E  YNAP_CR10_10
 E  YKER_CR10_10
 E  YDSL_CR10_10
 E  YVGO_CR10_10
 E  YRES_CR10_10
 E  YLPG_CR11_10
 E  YNAP_CR11_10
 E  YKER_CR11_10
 E  YDSL_CR11_10
 E  YVGO_CR11_10
 E  YRES_CR11_10
 E  YLPG_CR12_10
 E  YNAP_CR12_10
 E  YKER_CR12_10
 E  YDSL_CR12_10
 E  YVGO_CR12_10
 E  YRES_CR12_10
 E  YLPG_CR13_10
 E  YNAP_CR13_10
 E  YKER_CR13_10
 E  YDSL_CR13_10
 E  YVGO_CR13_10
 E  YRES_CR13_10
 E  YLPG_CR14_10
 E  YNAP_CR14_10
 E  YKER_CR14_10
 E  YDSL_CR14_10
 E  YVGO_CR14_10
 E  YRES_CR14_10
 E  YLPG_CR15_10
 E  YNAP_CR15_10
 E  YKER_CR15_10
 E  YDSL_CR15_10
 E  YVGO_CR15_10
 E  YRES_CR15_10
 E  YLPG_CR16_10
 E  YNAP_CR16_10
 E  YKER_CR16_10
 E  YDSL_CR16_10
 E  YVGO_CR16_10
 E  YRES_CR16_10
 E  YLPG_CR17_10
 E  YNAP_CR17_10
 E  YKER_CR17_10
 E  YDSL_CR17_10
 E  YVGO_CR17_10
 E  YRES_CR17_10
 E  YLPG_CR18_10
 E  YNAP_CR18_10
 E  YKER_CR18_10
 E  YDSL_CR18_10
 E  YVGO_CR18_10
 E  YRES_CR18_10
 E  YLPG_CR19_10
 E  YNAP_CR19_10
 E  YKER_CR19_10
 E  YDSL_CR19_10
 E  YVGO_CR19_10
 E  YRES_CR19_10
 E  RESSPLIT_CR00_10
 E  VDUY1_CR00_10
 E  VDUY2_CR00_10
 E  RESSPLIT_CR01_10
 E  VDUY1_CR01_10
 E  VDUY2_CR01_10
 E  RESSPLIT_CR02_10
 E  VDUY1_CR02_10
 E  VDUY2_CR02_10
 E  RESSPLIT_CR03_10
 E  VDUY1_CR03_10
 E  VDUY2_CR03_10
 E  RESSPLIT_CR04_10
 E  VDUY1_CR04_10
 E  VDUY2_CR04_10
 E  RESSPLIT_CR05_10
 E  VDUY1_CR05_10
 E  VDUY2_CR05_10
 E  RESSPLIT_CR06_10
 E  VDUY1_CR06_10
 E  VDUY2_CR06_10
 E  RESSPLIT_CR07_10
 E  VDUY1_CR07_10
 E  VDUY2_CR07_10
 E  RESSPLIT_CR08_10
 E  VDUY1_CR08_10
 E  VDUY2_CR08_10
 E  RESSPLIT_CR09_10
 E  VDUY1_CR09_10
 E  VDUY2_CR09_10
 E  RESSPLIT_CR10_10
 E  VDUY1_CR10_10
 E  VDUY2_CR10_10
 E  RESSPLIT_CR11_10
 E  VDUY1_CR11_10
 E  VDUY2_CR11_10
 E  RESSPLIT_CR12_10
 E  VDUY1_CR12_10
 E  VDUY2_CR12_10
 E  RESSPLIT_CR13_10
 E  VDUY1_CR13_10
 E  VDUY2_CR13_10
 E  RESSPLIT_CR14_10
 E  VDUY1_CR14_10
 E  VDUY2_CR14_10
 E  RESSPLIT_CR15_10
 E  VDUY1_CR15_10
 E  VDUY2_CR15_10
 E  RESSPLIT_CR16_10
 E  VDUY1_CR16_10
 E  VDUY2_CR16_10
 E  RESSPLIT_CR17_10
 E  VDUY1_CR17_10
 E  VDUY2_CR17_10
 E  RESSPLIT_CR18_10
 E  VDUY1_CR18_10
 E  VDUY2_CR18_10
 E  RESSPLIT_CR19_10
 E  VDUY1_CR19_10
 E  VDUY2_CR19_10
 L  VDUCAP_10
 E  VGOBAL_CR00_10
 E  VGOBAL_CR01_10
 E  VGOBAL_CR02_10
 E  VGOBAL_CR03_10
 E  VGOBAL_CR04_10
 E  VGOBAL_CR05_10
 E  VGOBAL_CR06_10
 E  VGOBAL_CR07_10
 E  VGOBAL_CR08_10
 E  VGOBAL_CR09_10
 E  VGOBAL_CR10_10
 E  VGOBAL_CR11_10
 E  VGOBAL_CR12_10
 E  VGOBAL_CR13_10
 E  VGOBAL_CR14_10
 E  VGOBAL_CR15_10
 E  VGOBAL_CR16_10
 E  VGOBAL_CR17_10
 E  VGOBAL_CR18_10
 E  VGOBAL_CR19_10
 L  FCCCAP_10
 E  FCCY_FCCG_10
 E  FCCY_LCO_10
 E  FCCY_FLPG_10
 E  FCCY_SLURRY_10
 E  NAPBAL_CR00_10
 E  NAPBAL_CR01_10
 E  NAPBAL_CR02_10
 E  NAPBAL_CR03_10
 E  NAPBAL_CR04_10
 E  NAPBAL_CR05_10
 E  NAPBAL_CR06_10
 E  NAPBAL_CR07_10
 E  NAPBAL_CR08_10
 E  NAPBAL_CR09_10
 E  NAPBAL_CR10_10
 E  NAPBAL_CR11_10
 E  NAPBAL_CR12_10
 E  NAPBAL_CR13_10
 E  NAPBAL_CR14_10
 E  NAPBAL_CR15_10
 E  NAPBAL_CR16_10
 E  NAPBAL_CR17_10
 E  NAPBAL_CR18_10
 E  NAPBAL_CR19_10
 L  REFCAP_10
 E  REFY_10
 E  DSLBAL_CR00_10
 E  DSLBAL_CR01_10
 E  DSLBAL_CR02_10
 E  DSLBAL_CR03_10
 E  DSLBAL_CR04_10
 E  DSLBAL_CR05_10
 E  DSLBAL_CR06_10
 E  DSLBAL_CR07_10
 E  DSLBAL_CR08_10
 E  DSLBAL_CR09_10
 E  DSLBAL_CR10_10
 E  DSLBAL_CR11_10
 E  DSLBAL_CR12_10
 E  DSLBAL_CR13_10
 E  DSLBAL_CR14_10
 E  DSLBAL_CR15_10
 E  DSLBAL_CR16_10
 E  DSLBAL_CR17_10
 E  DSLBAL_CR18_10
 E  DSLBAL_CR19_10
 E  LCOBAL_10
 L  DHTCAP_10
 E  DHTY_10
 E  GASBAL_10
 G  GASRON_10
 E  KERBAL_CR00_10
 E  KERBAL_CR01_10
 E  KERBAL_CR02_10
 E  KERBAL_CR03_10
 E  KERBAL_CR04_10
 E  KERBAL_CR05_10
 E  KERBAL_CR06_10
 E  KERBAL_CR07_10
 E  KERBAL_CR08_10
 E  KERBAL_CR09_10
 E  KERBAL_CR10_10
 E  KERBAL_CR11_10
 E  KERBAL_CR12_10
 E  KERBAL_CR13_10
 E  KERBAL_CR14_10
 E  KERBAL_CR15_10
 E  KERBAL_CR16_10
 E  KERBAL_CR17_10
 E  KERBAL_CR18_10
 E  KERBAL_CR19_10
 E  JETBAL_10
 L  JETSUL_10
 E  DSLPB_10
 L  DSLSUL_10
 E  LPGBAL_10
 E  FOBAL_10
 L  FOSUL_10
 E  PBAL_LPG_10
 L  DMAX_LPG_10
 G  DMIN_LPG_10
 E  PBAL_GAS_10
 L  DMAX_GAS_10
 G  DMIN_GAS_10
 E  PBAL_JET_10
 L  DMAX_JET_10
 G  DMIN_JET_10
 E  PBAL_DSL_10
 L  DMAX_DSL_10
 G  DMIN_DSL_10
 E  PBAL_FO_10
 L  DMAX_FO_10
 G  DMIN_FO_10
 E  CBAL_CR00_11
 E  CBAL_CR01_11
 E  CBAL_CR02_11
 E  CBAL_CR03_11
 E  CBAL_CR04_11
 E  CBAL_CR05_11
 E  CBAL_CR06_11
 E  CBAL_CR07_11
 E  CBAL_CR08_11
 E  CBAL_CR09_11
 E  CBAL_CR10_11
 E  CBAL_CR11_11
 E  CBAL_CR12_11
 E  CBAL_CR13_11
 E  CBAL_CR14_11
 E  CBAL_CR15_11
 E  CBAL_CR16_11
 E  CBAL_CR17_11
 E  CBAL_CR18_11
 E  CBAL_CR19_11
 L  CDUCAP_11
 E  YLPG_CR00_11
 E  YNAP_CR00_11
 E  YKER_CR00_11
 E  YDSL_CR00_11
 E  YVGO_CR00_11
 E  YRES_CR00_11
 E  YLPG_CR01_11
 E  YNAP_CR01_11
 E  YKER_CR01_11
 E  YDSL_CR01_11
 E  YVGO_CR01_11
 E  YRES_CR01_11
 E  YLPG_CR02_11
 E  YNAP_CR02_11
 E  YKER_CR02_11
 E  YDSL_CR02_11
 E  YVGO_CR02_11
 E  YRES_CR02_11
 E  YLPG_CR03_11
 E  YNAP_CR03_11
 E  YKER_CR03_11
 E  YDSL_CR03_11
 E  YVGO_CR03_11
 E  YRES_CR03_11
 E  YLPG_CR04_11
 E  YNAP_CR04_11
 E  YKER_CR04_11
 E  YDSL_CR04_11
 E  YVGO_CR04_11
 E  YRES_CR04_11
 E  YLPG_CR05_11
 E  YNAP_CR05_11
 E  YKER_CR05_11
 E  YDSL_CR05_11
 E  YVGO_CR05_11
 E  YRES_CR05_11
 E  YLPG_CR06_11
 E  YNAP_CR06_11
 E  YKER_CR06_11
 E  YDSL_CR06_11
 E  YVGO_CR06_11
 E  YRES_CR06_11
 E  YLPG_CR07_11
 E  YNAP_CR07_11
 E  YKER_CR07_11
 E  YDSL_CR07_11
 E  YVGO_CR07_11
 E  YRES_CR07_11
 E  YLPG_CR08_11
 E  YNAP_CR08_11
 E  YKER_CR08_11
 E  YDSL_CR08_11
 E  YVGO_CR08_11
 E  YRES_CR08_11
 E  YLPG_CR09_11
 E  YNAP_CR09_11
 E  YKER_CR09_11
 E  YDSL_CR09_11
 E  YVGO_CR09_11
 E  YRES_CR09_11
 E  YLPG_CR10_11
 E  YNAP_CR10_11
 E  YKER_CR10_11
 E  YDSL_CR10_11
 E  YVGO_CR10_11
 E  YRES_CR10_11
 E  YLPG_CR11_11
 E  YNAP_CR11_11
 E  YKER_CR11_11
 E  YDSL_CR11_11
 E  YVGO_CR11_11
 E  YRES_CR11_11
 E  YLPG_CR12_11
 E  YNAP_CR12_11
 E  YKER_CR12_11
 E  YDSL_CR12_11
 E  YVGO_CR12_11
 E  YRES_CR12_11
 E  YLPG_CR13_11
 E  YNAP_CR13_11
 E  YKER_CR13_11
 E  YDSL_CR13_11
 E  YVGO_CR13_11
 E  YRES_CR13_11
 E  YLPG_CR14_11
 E  YNAP_CR14_11
 E  YKER_CR14_11
 E  YDSL_CR14_11
 E  YVGO_CR14_11
 E  YRES_CR14_11
 E  YLPG_CR15_11
 E  YNAP_CR15_11
 E  YKER_CR15_11
 E  YDSL_CR15_11
 E  YVGO_CR15_11
 E  YRES_CR15_11
 E  YLPG_CR16_11
 E  YNAP_CR16_11
 E  YKER_CR16_11
 E  YDSL_CR16_11
 E  YVGO_CR16_11
 E  YRES_CR16_11
 E  YLPG_CR17_11
 E  YNAP_CR17_11
 E  YKER_CR17_11
 E  YDSL_CR17_11
 E  YVGO_CR17_11
 E  YRES_CR17_11
 E  YLPG_CR18_11
 E  YNAP_CR18_11
 E  YKER_CR18_11
 E  YDSL_CR18_11
 E  YVGO_CR18_11
 E  YRES_CR18_11
 E  YLPG_CR19_11
 E  YNAP_CR19_11
 E  YKER_CR19_11
 E  YDSL_CR19_11
 E  YVGO_CR19_11
 E  YRES_CR19_11
 E  RESSPLIT_CR00_11
 E  VDUY1_CR00_11
 E  VDUY2_CR00_11
 E  RESSPLIT_CR01_11
 E  VDUY1_CR01_11
 E  VDUY2_CR01_11
 E  RESSPLIT_CR02_11
 E  VDUY1_CR02_11
 E  VDUY2_CR02_11
 E  RESSPLIT_CR03_11
 E  VDUY1_CR03_11
 E  VDUY2_CR03_11
 E  RESSPLIT_CR04_11
 E  VDUY1_CR04_11
 E  VDUY2_CR04_11
 E  RESSPLIT_CR05_11
 E  VDUY1_CR05_11
 E  VDUY2_CR05_11
 E  RESSPLIT_CR06_11
 E  VDUY1_CR06_11
 E  VDUY2_CR06_11
 E  RESSPLIT_CR07_11
 E  VDUY1_CR07_11
 E  VDUY2_CR07_11
 E  RESSPLIT_CR08_11
 E  VDUY1_CR08_11
 E  VDUY2_CR08_11
 E  RESSPLIT_CR09_11
 E  VDUY1_CR09_11
 E  VDUY2_CR09_11
 E  RESSPLIT_CR10_11
 E  VDUY1_CR10_11
 E  VDUY2_CR10_11
 E  RESSPLIT_CR11_11
 E  VDUY1_CR11_11
 E  VDUY2_CR11_11
 E  RESSPLIT_CR12_11
 E  VDUY1_CR12_11
 E  VDUY2_CR12_11
 E  RESSPLIT_CR13_11
 E  VDUY1_CR13_11
 E  VDUY2_CR13_11
 E  RESSPLIT_CR14_11
 E  VDUY1_CR14_11
 E  VDUY2_CR14_11
 E  RESSPLIT_CR15_11
 E  VDUY1_CR15_11
 E  VDUY2_CR15_11
 E  RESSPLIT_CR16_11
 E  VDUY1_CR16_11
 E  VDUY2_CR16_11
 E  RESSPLIT_CR17_11
 E  VDUY1_CR17_11
 E  VDUY2_CR17_11
 E  RESSPLIT_CR18_11
 E  VDUY1_CR18_11
 E  VDUY2_CR18_11
 E  RESSPLIT_CR19_11
 E  VDUY1_CR19_11
 E  VDUY2_CR19_11
 L  VDUCAP_11
 E  VGOBAL_CR00_11
 E  VGOBAL_CR01_11
 E  VGOBAL_CR02_11
 E  VGOBAL_CR03_11
 E  VGOBAL_CR04_11
 E  VGOBAL_CR05_11
 E  VGOBAL_CR06_11
 E  VGOBAL_CR07_11
 E  VGOBAL_CR08_11
 E  VGOBAL_CR09_11
 E  VGOBAL_CR10_11
 E  VGOBAL_CR11_11
 E  VGOBAL_CR12_11
 E  VGOBAL_CR13_11
 E  VGOBAL_CR14_11
 E  VGOBAL_CR15_11
 E  VGOBAL_CR16_11
 E  VGOBAL_CR17_11
 E  VGOBAL_CR18_11
 E  VGOBAL_CR19_11
 L  FCCCAP_11
 E  FCCY_FCCG_11
 E  FCCY_LCO_11
 E  FCCY_FLPG_11
 E  FCCY_SLURRY_11
 E  NAPBAL_CR00_11
 E  NAPBAL_CR01_11
 E  NAPBAL_CR02_11
 E  NAPBAL_CR03_11
 E  NAPBAL_CR04_11
 E  NAPBAL_CR05_11
 E  NAPBAL_CR06_11
 E  NAPBAL_CR07_11
 E  NAPBAL_CR08_11
 E  NAPBAL_CR09_11
 E  NAPBAL_CR10_11
 E  NAPBAL_CR11_11
 E  NAPBAL_CR12_11
 E  NAPBAL_CR13_11
 E  NAPBAL_CR14_11
 E  NAPBAL_CR15_11
 E  NAPBAL_CR16_11
 E  NAPBAL_CR17_11
 E  NAPBAL_CR18_11
 E  NAPBAL_CR19_11
 L  REFCAP_11
 E  REFY_11
 E  DSLBAL_CR00_11
 E  DSLBAL_CR01_11
 E  DSLBAL_CR02_11
 E  DSLBAL_CR03_11
 E  DSLBAL_CR04_11
 E  DSLBAL_CR05_11
 E  DSLBAL_CR06_11
 E  DSLBAL_CR07_11
 E  DSLBAL_CR08_11
 E  DSLBAL_CR09_11
 E  DSLBAL_CR10_11
 E  DSLBAL_CR11_11
 E  DSLBAL_CR12_11
 E  DSLBAL_CR13_11
 E  DSLBAL_CR14_11
 E  DSLBAL_CR15_11
 E  DSLBAL_CR16_11
 E  DSLBAL_CR17_11
 E  DSLBAL_CR18_11
 E  DSLBAL_CR19_11
 E  LCOBAL_11
 L  DHTCAP_11
 E  DHTY_11
 E  GASBAL_11
 G  GASRON_11
 E  KERBAL_CR00_11
 E  KERBAL_CR01_11
 E  KERBAL_CR02_11
 E  KERBAL_CR03_11
 E  KERBAL_CR04_11
 E  KERBAL_CR05_11
 E  KERBAL_CR06_11
 E  KERBAL_CR07_11
 E  KERBAL_CR08_11
 E  KERBAL_CR09_11
 E  KERBAL_CR10_11
 E  KERBAL_CR11_11
 E  KERBAL_CR12_11
 E  KERBAL_CR13_11
 E  KERBAL_CR14_11
 E  KERBAL_CR15_11
 E  KERBAL_CR16_11
 E  KERBAL_CR17_11
 E  KERBAL_CR18_11
 E  KERBAL_CR19_11
 E  JETBAL_11
 L  JETSUL_11
 E  DSLPB_11
 L  DSLSUL_11
 E  LPGBAL_11
 E  FOBAL_11
 L  FOSUL_11
 E  PBAL_LPG_11
 L  DMAX_LPG_11
 G  DMIN_LPG_11
 E  PBAL_GAS_11
 L  DMAX_GAS_11
 G  DMIN_GAS_11
 E  PBAL_JET_11
 L  DMAX_JET_11
 G  DMIN_JET_11
 E  PBAL_DSL_11
 L  DMAX_DSL_11
 G  DMIN_DSL_11
 E  PBAL_FO_11
 L  DMAX_FO_11
 G  DMIN_FO_11
COLUMNS
    BUY_CR00_0 OBJ -58.42761172631358
    BUY_CR00_0 CBAL_CR00_0 1.0
    CINV_CR00_0 OBJ -0.3
    CINV_CR00_0 CBAL_CR00_0 -1.0
    CINV_CR00_0 CBAL_CR00_1 1.0
    CDU_CR00_0 CBAL_CR00_0 -1.0
    CDU_CR00_0 CDUCAP_0 1.0
    CDU_CR00_0 YLPG_CR00_0 -0.013786055933968056
    CDU_CR00_0 YNAP_CR00_0 -0.1214444916358349
    CDU_CR00_0 YKER_CR00_0 -0.10646372452567733
    CDU_CR00_0 YDSL_CR00_0 -0.20292085263352289
    CDU_CR00_0 YVGO_CR00_0 -0.27390944719057636
    CDU_CR00_0 YRES_CR00_0 -0.28147542808042036
    BUY_CR01_0 OBJ -73.54789612382504
    BUY_CR01_0 CBAL_CR01_0 1.0
    CINV_CR01_0 OBJ -0.3
    CINV_CR01_0 CBAL_CR01_0 -1.0
    CINV_CR01_0 CBAL_CR01_1 1.0
    CDU_CR01_0 CBAL_CR01_0 -1.0
    CDU_CR01_0 CDUCAP_0 1.0
    CDU_CR01_0 YLPG_CR01_0 -0.025127543584387436
    CDU_CR01_0 YNAP_CR01_0 -0.2025917905849106
    CDU_CR01_0 YKER_CR01_0 -0.13410952106049506
    CDU_CR01_0 YDSL_CR01_0 -0.24728591651278542
    CDU_CR01_0 YVGO_CR01_0 -0.22897185950088417
    CDU_CR01_0 YRES_CR01_0 -0.16191336875653717
    BUY_CR02_0 OBJ -60.46418336329481
    BUY_CR02_0 CBAL_CR02_0 1.0
    CINV_CR02_0 OBJ -0.3
    CINV_CR02_0 CBAL_CR02_0 -1.0
    CINV_CR02_0 CBAL_CR02_1 1.0
    CDU_CR02_0 CBAL_CR02_0 -1.0
    CDU_CR02_0 CDUCAP_0 1.0
    CDU_CR02_0 YLPG_CR02_0 -0.013444753666275039
    CDU_CR02_0 YNAP_CR02_0 -0.11889710072836579
    CDU_CR02_0 YKER_CR02_0 -0.103840437143255
    CDU_CR02_0 YDSL_CR02_0 -0.21229612809407214
    CDU_CR02_0 YVGO_CR02_0 -0.2628713956905896
    CDU_CR02_0 YRES_CR02_0 -0.28865018467744247
    BUY_CR03_0 OBJ -67.72164791112243
    BUY_CR03_0 CBAL_CR03_0 1.0
    CINV_CR03_0 OBJ -0.3
    CINV_CR03_0 CBAL_CR03_0 -1.0
    CINV_CR03_0 CBAL_CR03_1 1.0
    CDU_CR03_0 CBAL_CR03_0 -1.0
    CDU_CR03_0 CDUCAP_0 1.0
    CDU_CR03_0 YLPG_CR03_0 -0.01400858068810675
    CDU_CR03_0 YNAP_CR03_0 -0.1424923117986131
    CDU_CR03_0 YKER_CR03_0 -0.10784088582669263
    CDU_CR03_0 YDSL_CR03_0 -0.19279120630762445
    CDU_CR03_0 YVGO_CR03_0 -0.28544626211923063
    CDU_CR03_0 YRES_CR03_0 -0.2574207532597324
    BUY_CR04_0 OBJ -71.72117153347881
    BUY_CR04_0 CBAL_CR04_0 1.0
    CINV_CR04_0 OBJ -0.3
    CINV_CR04_0 CBAL_CR04_0 -1.0
    CINV_CR04_0 CBAL_CR04_1 1.0
    CDU_CR04_0 CBAL_CR04_0 -1.0
    CDU_CR04_0 CDUCAP_0 1.0
    CDU_CR04_0 YLPG_CR04_0 -0.02335213093765316
    CDU_CR04_0 YNAP_CR04_0 -0.2292355396921612
    CDU_CR04_0 YKER_CR04_0 -0.14240695851543803
    CDU_CR04_0 YDSL_CR04_0 -0.24384363627499198
    CDU_CR04_0 YVGO_CR04_0 -0.2465326974706559
    CDU_CR04_0 YRES_CR04_0 -0.1146290371090997
    BUY_CR05_0 OBJ -66.00195799346768
    BUY_CR05_0 CBAL_CR05_0 1.0
    CINV_CR05_0 OBJ -0.3
    CINV_CR05_0 CBAL_CR05_0 -1.0
    CINV_CR05_0 CBAL_CR05_1 1.0
    CDU_CR05_0 CBAL_CR05_0 -1.0
    CDU_CR05_0 CDUCAP_0 1.0
    CDU_CR05_0 YLPG_CR05_0 -0.01735729802728813
    CDU_CR05_0 YNAP_CR05_0 -0.16608619710065003
    CDU_CR05_0 YKER_CR05_0 -0.1170544437563835
    CDU_CR05_0 YDSL_CR05_0 -0.22299235889970878
    CDU_CR05_0 YVGO_CR05_0 -0.2433490540516293
    CDU_CR05_0 YRES_CR05_0 -0.23316064816434035
    BUY_CR06_0 OBJ -62.7201995408684
    BUY_CR06_0 CBAL_CR06_0 1.0
    CINV_CR06_0 OBJ -0.3
    CINV_CR06_0 CBAL_CR06_0 -1.0
    CINV_CR06_0 CBAL_CR06_1 1.0
    CDU_CR06_0 CBAL_CR06_0 -1.0
    CDU_CR06_0 CDUCAP_0 1.0
    CDU_CR06_0 YLPG_CR06_0 -0.014219474855875663
    CDU_CR06_0 YNAP_CR06_0 -0.13746806025500902
    CDU_CR06_0 YKER_CR06_0 -0.10533897185985656
    CDU_CR06_0 YDSL_CR06_0 -0.20403840195434858
    CDU_CR06_0 YVGO_CR06_0 -0.26484358994429863
    CDU_CR06_0 YRES_CR06_0 -0.27409150113061165
    BUY_CR07_0 OBJ -72.34939369248198
    BUY_CR07_0 CBAL_CR07_0 1.0
    CINV_CR07_0 OBJ -0.3
    CINV_CR07_0 CBAL_CR07_0 -1.0
    CINV_CR07_0 CBAL_CR07_1 1.0
    CDU_CR07_0 CBAL_CR07_0 -1.0
    CDU_CR07_0 CDUCAP_0 1.0
    CDU_CR07_0 YLPG_CR07_0 -0.01678766142162217
    CDU_CR07_0 YNAP_CR07_0 -0.18341674311422207
    CDU_CR07_0 YKER_CR07_0 -0.13271469159016522
    CDU_CR07_0 YDSL_CR07_0 -0.2249127244045356
    CDU_CR07_0 YVGO_CR07_0 -0.24848613807316539
    CDU_CR07_0 YRES_CR07_0 -0.19368204139628944
    BUY_CR08_0 OBJ -70.8350575485733
    BUY_CR08_0 CBAL_CR08_0 1.0
    CINV_CR08_0 OBJ -0.3
    CINV_CR08_0 CBAL_CR08_0 -1.0
    CINV_CR08_0 CBAL_CR08_1 1.0
    CDU_CR08_0 CBAL_CR08_0 -1.0
    CDU_CR08_0 CDUCAP_0 1.0
    CDU_CR08_0 YLPG_CR08_0 -0.023930881960770135
    CDU_CR08_0 YNAP_CR08_0 -0.199474063989656
    CDU_CR08_0 YKER_CR08_0 -0.13012967624359006
    CDU_CR08_0 YDSL_CR08_0 -0.24906213509239003
    CDU_CR08_0 YVGO_CR08_0 -0.24247509330512357
    CDU_CR08_0 YRES_CR08_0 -0.15492814940847022
    BUY_CR09_0 OBJ -79.16725303162862
    BUY_CR09_0 CBAL_CR09_0 1.0
    CINV_CR09_0 OBJ -0.3
    CINV_CR09_0 CBAL_CR09_0 -1.0
    CINV_CR09_0 CBAL_CR09_1 1.0
    CDU_CR09_0 CBAL_CR09_0 -1.0
    CDU_CR09_0 CDUCAP_0 1.0
    CDU_CR09_0 YLPG_CR09_0 -0.0254414593142613
    CDU_CR09_0 YNAP_CR09_0 -0.2406668892422991
    CDU_CR09_0 YKER_CR09_0 -0.14150533274546892
    CDU_CR09_0 YDSL_CR09_0 -0.23713673044274025
    CDU_CR09_0 YVGO_CR09_0 -0.23566730460149374
    CDU_CR09_0 YRES_CR09_0 -0.11958228365373665
    BUY_CR10_0 OBJ -57.95966430174468
    BUY_CR10_0 CBAL_CR10_0 1.0
    CINV_CR10_0 OBJ -0.3
    CINV_CR10_0 CBAL_CR10_0 -1.0
    CINV_CR10_0 CBAL_CR10_1 1.0
    CDU_CR10_0 CBAL_CR10_0 -1.0
    CDU_CR10_0 CDUCAP_0 1.0
    CDU_CR10_0 YLPG_CR10_0 -0.012631058640766385
    CDU_CR10_0 YNAP_CR10_0 -0.11501159644639905
    CDU_CR10_0 YKER_CR10_0 -0.1080956731900355
    CDU_CR10_0 YDSL_CR10_0 -0.20982857494392457
    CDU_CR10_0 YVGO_CR10_0 -0.2722572086368098
    CDU_CR10_0 YRES_CR10_0 -0.28217588814206473
    BUY_CR11_0 OBJ -70.3009841786069
    BUY_CR11_0 CBAL_CR11_0 1.0
    CINV_CR11_0 OBJ -0.3
    CINV_CR11_0 CBAL_CR11_0 -1.0
    CINV_CR11_0 CBAL_CR11_1 1.0
    CDU_CR11_0 CBAL_CR11_0 -1.0
    CDU_CR11_0 CDUCAP_0 1.0
    CDU_CR11_0 YLPG_CR11_0 -0.018171926805686592
    CDU_CR11_0 YNAP_CR11_0 -0.18017303538659502
    CDU_CR11_0 YKER_CR11_0 -0.11622304467804759
    CDU_CR11_0 YDSL_CR11_0 -0.22678215323461023
    CDU_CR11_0 YVGO_CR11_0 -0.2637522217068048
    CDU_CR11_0 YRES_CR11_0 -0.19489761818825582
    BUY_CR12_0 OBJ -59.78965503045807
    BUY_CR12_0 CBAL_CR12_0 1.0
    CINV_CR12_0 OBJ -0.3
    CINV_CR12_0 CBAL_CR12_0 -1.0
    CINV_CR12_0 CBAL_CR12_1 1.0
    CDU_CR12_0 CBAL_CR12_0 -1.0
    CDU_CR12_0 CDUCAP_0 1.0
    CDU_CR12_0 YLPG_CR12_0 -0.016285402257558677
    CDU_CR12_0 YNAP_CR12_0 -0.1394251111460902
    CDU_CR12_0 YKER_CR12_0 -0.10627583407346515
    CDU_CR12_0 YDSL_CR12_0 -0.2004859030026821
    CDU_CR12_0 YVGO_CR12_0 -0.29053476615254664
    CDU_CR12_0 YRES_CR12_0 -0.2469929833676572
    BUY_CR13_0 OBJ -68.74000684118381
    BUY_CR13_0 CBAL_CR13_0 1.0
    CINV_CR13_0 OBJ -0.3
    CINV_CR13_0 CBAL_CR13_0 -1.0
    CINV_CR13_0 CBAL_CR13_1 1.0
    CDU_CR13_0 CBAL_CR13_0 -1.0
    CDU_CR13_0 CDUCAP_0 1.0
    CDU_CR13_0 YLPG_CR13_0 -0.015405562084299341
    CDU_CR13_0 YNAP_CR13_0 -0.1597372095049784
    CDU_CR13_0 YKER_CR13_0 -0.109230580221756
    CDU_CR13_0 YDSL_CR13_0 -0.20799117245133522
    CDU_CR13_0 YVGO_CR13_0 -0.2743070543343612
    CDU_CR13_0 YRES_CR13_0 -0.23332842140326976
    BUY_CR14_0 OBJ -62.51074892778912
    BUY_CR14_0 CBAL_CR14_0 1.0
    CINV_CR14_0 OBJ -0.3
    CINV_CR14_0 CBAL_CR14_0 -1.0
    CINV_CR14_0 CBAL_CR14_1 1.0
    CDU_CR14_0 CBAL_CR14_0 -1.0
    CDU_CR14_0 CDUCAP_0 1.0
    CDU_CR14_0 YLPG_CR14_0 -0.011676212845503672
    CDU_CR14_0 YNAP_CR14_0 -0.10963647957865116
    CDU_CR14_0 YKER_CR14_0 -0.09755861914812415
    CDU_CR14_0 YDSL_CR14_0 -0.22400035528460593
    CDU_CR14_0 YVGO_CR14_0 -0.27985390356413214
    CDU_CR14_0 YRES_CR14_0 -0.2772744295789829
    BUY_CR15_0 OBJ -64.88456236405156
    BUY_CR15_0 CBAL_CR15_0 1.0
    CINV_CR15_0 OBJ -0.3
    CINV_CR15_0 CBAL_CR15_0 -1.0
    CINV_CR15_0 CBAL_CR15_1 1.0
    CDU_CR15_0 CBAL_CR15_0 -1.0
    CDU_CR15_0 CDUCAP_0 1.0
    CDU_CR15_0 YLPG_CR15_0 -0.010625779986084445
    CDU_CR15_0 YNAP_CR15_0 -0.11766680402271243
    CDU_CR15_0 YKER_CR15_0 -0.09531893966264804
    CDU_CR15_0 YDSL_CR15_0 -0.2087175638151306
    CDU_CR15_0 YVGO_CR15_0 -0.2798835604956035
    CDU_CR15_0 YRES_CR15_0 -0.287787352017821
    BUY_CR16_0 OBJ -70.40450924024248
    BUY_CR16_0 CBAL_CR16_0 1.0
    CINV_CR16_0 OBJ -0.3
    CINV_CR16_0 CBAL_CR16_0 -1.0
    CINV_CR16_0 CBAL_CR16_1 1.0
    CDU_CR16_0 CBAL_CR16_0 -1.0
    CDU_CR16_0 CDUCAP_0 1.0
    CDU_CR16_0 YLPG_CR16_0 -0.021730435986974463
    CDU_CR16_0 YNAP_CR16_0 -0.22346814322949868
    CDU_CR16_0 YKER_CR16_0 -0.12962692092969477
    CDU_CR16_0 YDSL_CR16_0 -0.23580083169350696
    CDU_CR16_0 YVGO_CR16_0 -0.23197545191976185
    CDU_CR16_0 YRES_CR16_0 -0.1573982162405634
    BUY_CR17_0 OBJ -69.51866859610577
    BUY_CR17_0 CBAL_CR17_0 1.0
    CINV_CR17_0 OBJ -0.3
    CINV_CR17_0 CBAL_CR17_0 -1.0
    CINV_CR17_0 CBAL_CR17_1 1.0
    CDU_CR17_0 CBAL_CR17_0 -1.0
    CDU_CR17_0 CDUCAP_0 1.0
    CDU_CR17_0 YLPG_CR17_0 -0.023568928491133005
    CDU_CR17_0 YNAP_CR17_0 -0.24678008017283823
    CDU_CR17_0 YKER_CR17_0 -0.12826932733432603
    CDU_CR17_0 YDSL_CR17_0 -0.2495178182316694
    CDU_CR17_0 YVGO_CR17_0 -0.23510202280801157
    CDU_CR17_0 YRES_CR17_0 -0.1167618229620217
    BUY_CR18_0 OBJ -77.04139733287967
    BUY_CR18_0 CBAL_CR18_0 1.0
    CINV_CR18_0 OBJ -0.3
    CINV_CR18_0 CBAL_CR18_0 -1.0
    CINV_CR18_0 CBAL_CR18_1 1.0
    CDU_CR18_0 CBAL_CR18_0 -1.0
    CDU_CR18_0 CDUCAP_0 1.0
    CDU_CR18_0 YLPG_CR18_0 -0.02478422291723085
    CDU_CR18_0 YNAP_CR18_0 -0.23955258573301338
    CDU_CR18_0 YKER_CR18_0 -0.1322077813000583
    CDU_CR18_0 YDSL_CR18_0 -0.21167154879043004
    CDU_CR18_0 YVGO_CR18_0 -0.24506150244942554
    CDU_CR18_0 YRES_CR18_0 -0.146722358809842
    BUY_CR19_0 OBJ -67.2895216762745
    BUY_CR19_0 CBAL_CR19_0 1.0
    CINV_CR19_0 OBJ -0.3
    CINV_CR19_0 CBAL_CR19_0 -1.0
    CINV_CR19_0 CBAL_CR19_1 1.0
    CDU_CR19_0 CBAL_CR19_0 -1.0
    CDU_CR19_0 CDUCAP_0 1.0
    CDU_CR19_0 YLPG_CR19_0 -0.01626067739955701
    CDU_CR19_0 YNAP_CR19_0 -0.1715066574732045
    CDU_CR19_0 YKER_CR19_0 -0.11836465284470915
    CDU_CR19_0 YDSL_CR19_0 -0.20874443204167248
    CDU_CR19_0 YVGO_CR19_0 -0.2445178967491453
    CDU_CR19_0 YRES_CR19_0 -0.24060568349171155
    LPG_CR00_0 YLPG_CR00_0 1.0
    LPG_CR00_0 LPGBAL_0 -1.0
    NAP_CR00_0 YNAP_CR00_0 1.0
    NAP_CR00_0 NAPBAL_CR00_0 1.0
    KER_CR00_0 YKER_CR00_0 1.0
    KER_CR00_0 KERBAL_CR00_0 1.0
    DSL_CR00_0 YDSL_CR00_0 1.0
    DSL_CR00_0 DSLBAL_CR00_0 1.0
    VGO_CR00_0 YVGO_CR00_0 1.0
    VGO_CR00_0 VGOBAL_CR00_0 1.0
    RES_CR00_0 YRES_CR00_0 1.0
    RES_CR00_0 RESSPLIT_CR00_0 1.0
    LPG_CR01_0 YLPG_CR01_0 1.0
    LPG_CR01_0 LPGBAL_0 -1.0
    NAP_CR01_0 YNAP_CR01_0 1.0
    NAP_CR01_0 NAPBAL_CR01_0 1.0
    KER_CR01_0 YKER_CR01_0 1.0
    KER_CR01_0 KERBAL_CR01_0 1.0
    DSL_CR01_0 YDSL_CR01_0 1.0
    DSL_CR01_0 DSLBAL_CR01_0 1.0
    VGO_CR01_0 YVGO_CR01_0 1.0
    VGO_CR01_0 VGOBAL_CR01_0 1.0
    RES_CR01_0 YRES_CR01_0 1.0
    RES_CR01_0 RESSPLIT_CR01_0 1.0
    LPG_CR02_0 YLPG_CR02_0 1.0
    LPG_CR02_0 LPGBAL_0 -1.0
    NAP_CR02_0 YNAP_CR02_0 1.0
    NAP_CR02_0 NAPBAL_CR02_0 1.0
    KER_CR02_0 YKER_CR02_0 1.0
    KER_CR02_0 KERBAL_CR02_0 1.0
    DSL_CR02_0 YDSL_CR02_0 1.0
    DSL_CR02_0 DSLBAL_CR02_0 1.0
    VGO_CR02_0 YVGO_CR02_0 1.0
    VGO_CR02_0 VGOBAL_CR02_0 1.0
    RES_CR02_0 YRES_CR02_0 1.0
    RES_CR02_0 RESSPLIT_CR02_0 1.0
    LPG_CR03_0 YLPG_CR03_0 1.0
    LPG_CR03_0 LPGBAL_0 -1.0
    NAP_CR03_0 YNAP_CR03_0 1.0
    NAP_CR03_0 NAPBAL_CR03_0 1.0
    KER_CR03_0 YKER_CR03_0 1.0
    KER_CR03_0 KERBAL_CR03_0 1.0
    DSL_CR03_0 YDSL_CR03_0 1.0
    DSL_CR03_0 DSLBAL_CR03_0 1.0
    VGO_CR03_0 YVGO_CR03_0 1.0
    VGO_CR03_0 VGOBAL_CR03_0 1.0
    RES_CR03_0 YRES_CR03_0 1.0
    RES_CR03_0 RESSPLIT_CR03_0 1.0
    LPG_CR04_0 YLPG_CR04_0 1.0
    LPG_CR04_0 LPGBAL_0 -1.0
    NAP_CR04_0 YNAP_CR04_0 1.0
    NAP_CR04_0 NAPBAL_CR04_0 1.0
    KER_CR04_0 YKER_CR04_0 1.0
    KER_CR04_0 KERBAL_CR04_0 1.0
    DSL_CR04_0 YDSL_CR04_0 1.0
    DSL_CR04_0 DSLBAL_CR04_0 1.0
    VGO_CR04_0 YVGO_CR04_0 1.0
    VGO_CR04_0 VGOBAL_CR04_0 1.0
    RES_CR04_0 YRES_CR04_0 1.0
    RES_CR04_0 RESSPLIT_CR04_0 1.0
    LPG_CR05_0 YLPG_CR05_0 1.0
    LPG_CR05_0 LPGBAL_0 -1.0
    NAP_CR05_0 YNAP_CR05_0 1.0
    NAP_CR05_0 NAPBAL_CR05_0 1.0
    KER_CR05_0 YKER_CR05_0 1.0
    KER_CR05_0 KERBAL_CR05_0 1.0
    DSL_CR05_0 YDSL_CR05_0 1.0
    DSL_CR05_0 DSLBAL_CR05_0 1.0
    VGO_CR05_0 YVGO_CR05_0 1.0
    VGO_CR05_0 VGOBAL_CR05_0 1.0
    RES_CR05_0 YRES_CR05_0 1.0
    RES_CR05_0 RESSPLIT_CR05_0 1.0
    LPG_CR06_0 YLPG_CR06_0 1.0
    LPG_CR06_0 LPGBAL_0 -1.0
    NAP_CR06_0 YNAP_CR06_0 1.0
    NAP_CR06_0 NAPBAL_CR06_0 1.0
    KER_CR06_0 YKER_CR06_0 1.0
    KER_CR06_0 KERBAL_CR06_0 1.0
    DSL_CR06_0 YDSL_CR06_0 1.0
    DSL_CR06_0 DSLBAL_CR06_0 1.0
    VGO_CR06_0 YVGO_CR06_0 1.0
    VGO_CR06_0 VGOBAL_CR06_0 1.0
    RES_CR06_0 YRES_CR06_0 1.0
    RES_CR06_0 RESSPLIT_CR06_0 1.0
    LPG_CR07_0 YLPG_CR07_0 1.0
    LPG_CR07_0 LPGBAL_0 -1.0
    NAP_CR07_0 YNAP_CR07_0 1.0
    NAP_CR07_0 NAPBAL_CR07_0 1.0
    KER_CR07_0 YKER_CR07_0 1.0
    KER_CR07_0 KERBAL_CR07_0 1.0
    DSL_CR07_0 YDSL_CR07_0 1.0
    DSL_CR07_0 DSLBAL_CR07_0 1.0
    VGO_CR07_0 YVGO_CR07_0 1.0
    VGO_CR07_0 VGOBAL_CR07_0 1.0
    RES_CR07_0 YRES_CR07_0 1.0
    RES_CR07_0 RESSPLIT_CR07_0 1.0
    LPG_CR08_0 YLPG_CR08_0 1.0
    LPG_CR08_0 LPGBAL_0 -1.0
    NAP_CR08_0 YNAP_CR08_0 1.0
    NAP_CR08_0 NAPBAL_CR08_0 1.0
    KER_CR08_0 YKER_CR08_0 1.0
    KER_CR08_0 KERBAL_CR08_0 1.0
    DSL_CR08_0 YDSL_CR08_0 1.0
    DSL_CR08_0 DSLBAL_CR08_0 1.0
    VGO_CR08_0 YVGO_CR08_0 1.0
    VGO_CR08_0 VGOBAL_CR08_0 1.0
    RES_CR08_0 YRES_CR08_0 1.0
    RES_CR08_0 RESSPLIT_CR08_0 1.0
    LPG_CR09_0 YLPG_CR09_0 1.0
    LPG_CR09_0 LPGBAL_0 -1.0
    NAP_CR09_0 YNAP_CR09_0 1.0
    NAP_CR09_0 NAPBAL_CR09_0 1.0
    KER_CR09_0 YKER_CR09_0 1.0
    KER_CR09_0 KERBAL_CR09_0 1.0
    DSL_CR09_0 YDSL_CR09_0 1.0
    DSL_CR09_0 DSLBAL_CR09_0 1.0
    VGO_CR09_0 YVGO_CR09_0 1.0
    VGO_CR09_0 VGOBAL_CR09_0 1.0
    RES_CR09_0 YRES_CR09_0 1.0
    RES_CR09_0 RESSPLIT_CR09_0 1.0
    LPG_CR10_0 YLPG_CR10_0 1.0
    LPG_CR10_0 LPGBAL_0 -1.0
    NAP_CR10_0 YNAP_CR10_0 1.0
    NAP_CR10_0 NAPBAL_CR10_0 1.0
    KER_CR10_0 YKER_CR10_0 1.0
    KER_CR10_0 KERBAL_CR10_0 1.0
    DSL_CR10_0 YDSL_CR10_0 1.0
    DSL_CR10_0 DSLBAL_CR10_0 1.0
    VGO_CR10_0 YVGO_CR10_0 1.0
    VGO_CR10_0 VGOBAL_CR10_0 1.0
    RES_CR10_0 YRES_CR10_0 1.0
    RES_CR10_0 RESSPLIT_CR10_0 1.0
    LPG_CR11_0 YLPG_CR11_0 1.0
    LPG_CR11_0 LPGBAL_0 -1.0
    NAP_CR11_0 YNAP_CR11_0 1.0
    NAP_CR11_0 NAPBAL_CR11_0 1.0
    KER_CR11_0 YKER_CR11_0 1.0
    KER_CR11_0 KERBAL_CR11_0 1.0
    DSL_CR11_0 YDSL_CR11_0 1.0
    DSL_CR11_0 DSLBAL_CR11_0 1.0
    VGO_CR11_0 YVGO_CR11_0 1.0
    VGO_CR11_0 VGOBAL_CR11_0 1.0
    RES_CR11_0 YRES_CR11_0 1.0
    RES_CR11_0 RESSPLIT_CR11_0 1.0
    LPG_CR12_0 YLPG_CR12_0 1.0
    LPG_CR12_0 LPGBAL_0 -1.0
    NAP_CR12_0 YNAP_CR12_0 1.0
    NAP_CR12_0 NAPBAL_CR12_0 1.0
    KER_CR12_0 YKER_CR12_0 1.0
    KER_CR12_0 KERBAL_CR12_0 1.0
    DSL_CR12_0 YDSL_CR12_0 1.0
    DSL_CR12_0 DSLBAL_CR12_0 1.0
    VGO_CR12_0 YVGO_CR12_0 1.0
    VGO_CR12_0 VGOBAL_CR12_0 1.0
    RES_CR12_0 YRES_CR12_0 1.0
    RES_CR12_0 RESSPLIT_CR12_0 1.0
    LPG_CR13_0 YLPG_CR13_0 1.0
    LPG_CR13_0 LPGBAL_0 -1.0
    NAP_CR13_0 YNAP_CR13_0 1.0
    NAP_CR13_0 NAPBAL_CR13_0 1.0
    KER_CR13_0 YKER_CR13_0 1.0
    KER_CR13_0 KERBAL_CR13_0 1.0
    DSL_CR13_0 YDSL_CR13_0 1.0
    DSL_CR13_0 DSLBAL_CR13_0 1.0
    VGO_CR13_0 YVGO_CR13_0 1.0
    VGO_CR13_0 VGOBAL_CR13_0 1.0
    RES_CR13_0 YRES_CR13_0 1.0
    RES_CR13_0 RESSPLIT_CR13_0 1.0
    LPG_CR14_0 YLPG_CR14_0 1.0
    LPG_CR14_0 LPGBAL_0 -1.0
    NAP_CR14_0 YNAP_CR14_0 1.0
    NAP_CR14_0 NAPBAL_CR14_0 1.0
    KER_CR14_0 YKER_CR14_0 1.0
    KER_CR14_0 KERBAL_CR14_0 1.0
    DSL_CR14_0 YDSL_CR14_0 1.0
    DSL_CR14_0 DSLBAL_CR14_0 1.0
    VGO_CR14_0 YVGO_CR14_0 1.0
    VGO_CR14_0 VGOBAL_CR14_0 1.0
    RES_CR14_0 YRES_CR14_0 1.0
    RES_CR14_0 RESSPLIT_CR14_0 1.0
    LPG_CR15_0 YLPG_CR15_0 1.0
    LPG_CR15_0 LPGBAL_0 -1.0
    NAP_CR15_0 YNAP_CR15_0 1.0
    NAP_CR15_0 NAPBAL_CR15_0 1.0
    KER_CR15_0 YKER_CR15_0 1.0
    KER_CR15_0 KERBAL_CR15_0 1.0
    DSL_CR15_0 YDSL_CR15_0 1.0
    DSL_CR15_0 DSLBAL_CR15_0 1.0
    VGO_CR15_0 YVGO_CR15_0 1.0
    VGO_CR15_0 VGOBAL_CR15_0 1.0
    RES_CR15_0 YRES_CR15_0 1.0
    RES_CR15_0 RESSPLIT_CR15_0 1.0
    LPG_CR16_0 YLPG_CR16_0 1.0
    LPG_CR16_0 LPGBAL_0 -1.0
    NAP_CR16_0 YNAP_CR16_0 1.0
    NAP_CR16_0 NAPBAL_CR16_0 1.0
    KER_CR16_0 YKER_CR16_0 1.0
    KER_CR16_0 KERBAL_CR16_0 1.0
    DSL_CR16_0 YDSL_CR16_0 1.0
    DSL_CR16_0 DSLBAL_CR16_0 1.0
    VGO_CR16_0 YVGO_CR16_0 1.0
    VGO_CR16_0 VGOBAL_CR16_0 1.0
    RES_CR16_0 YRES_CR16_0 1.0
    RES_CR16_0 RESSPLIT_CR16_0 1.0
    LPG_CR17_0 YLPG_CR17_0 1.0
    LPG_CR17_0 LPGBAL_0 -1.0
    NAP_CR17_0 YNAP_CR17_0 1.0
    NAP_CR17_0 NAPBAL_CR17_0 1.0
    KER_CR17_0 YKER_CR17_0 1.0
    KER_CR17_0 KERBAL_CR17_0 1.0
    DSL_CR17_0 YDSL_CR17_0 1.0
    DSL_CR17_0 DSLBAL_CR17_0 1.0
    VGO_CR17_0 YVGO_CR17_0 1.0
    VGO_CR17_0 VGOBAL_CR17_0 1.0
    RES_CR17_0 YRES_CR17_0 1.0
    RES_CR17_0 RESSPLIT_CR17_0 1.0
    LPG_CR18_0 YLPG_CR18_0 1.0
    LPG_CR18_0 LPGBAL_0 -1.0
    NAP_CR18_0 YNAP_CR18_0 1.0
    NAP_CR18_0 NAPBAL_CR18_0 1.0
    KER_CR18_0 YKER_CR18_0 1.0
    KER_CR18_0 KERBAL_CR18_0 1.0
    DSL_CR18_0 YDSL_CR18_0 1.0
    DSL_CR18_0 DSLBAL_CR18_0 1.0
    VGO_CR18_0 YVGO_CR18_0 1.0
    VGO_CR18_0 VGOBAL_CR18_0 1.0
    RES_CR18_0 YRES_CR18_0 1.0
    RES_CR18_0 RESSPLIT_CR18_0 1.0
    LPG_CR19_0 YLPG_CR19_0 1.0
    LPG_CR19_0 LPGBAL_0 -1.0
    NAP_CR19_0 YNAP_CR19_0 1.0
    NAP_CR19_0 NAPBAL_CR19_0 1.0
    KER_CR19_0 YKER_CR19_0 1.0
    KER_CR19_0 KERBAL_CR19_0 1.0
    DSL_CR19_0 YDSL_CR19_0 1.0
    DSL_CR19_0 DSLBAL_CR19_0 1.0
    VGO_CR19_0 YVGO_CR19_0 1.0
    VGO_CR19_0 VGOBAL_CR19_0 1.0
    RES_CR19_0 YRES_CR19_0 1.0
    RES_CR19_0 RESSPLIT_CR19_0 1.0
    VDUIN_CR00_0 RESSPLIT_CR00_0 -1.0
    VDUIN_CR00_0 VDUY1_CR00_0 -0.45
    VDUIN_CR00_0 VDUY2_CR00_0 -0.55
    VDUIN_CR00_0 VDUCAP_0 1.0
    RESFO_CR00_0 RESSPLIT_CR00_0 -1.0
    RESFO_CR00_0 FOBAL_0 -1.0
    RESFO_CR00_0 FOSUL_0 1.9540891690108433
    VGO2_CR00_0 VDUY1_CR00_0 1.0
    VGO2_CR00_0 VGOBAL_CR00_0 1.0
    VR_CR00_0 VDUY2_CR00_0 1.0
    VR_CR00_0 FOBAL_0 -1.0
    VR_CR00_0 FOSUL_0 3.5903159197140964
    VDUIN_CR01_0 RESSPLIT_CR01_0 -1.0
    VDUIN_CR01_0 VDUY1_CR01_0 -0.45
    VDUIN_CR01_0 VDUY2_CR01_0 -0.55
    VDUIN_CR01_0 VDUCAP_0 1.0
    RESFO_CR01_0 RESSPLIT_CR01_0 -1.0
    RESFO_CR01_0 FOBAL_0 -1.0
    RESFO_CR01_0 FOSUL_0 -0.6168441789886687
    VGO2_CR01_0 VDUY1_CR01_0 1.0
    VGO2_CR01_0 VGOBAL_CR01_0 1.0
    VR_CR01_0 VDUY2_CR01_0 1.0
    VR_CR01_0 FOBAL_0 -1.0
    VR_CR01_0 FOSUL_0 0.24810256731473057
    VDUIN_CR02_0 RESSPLIT_CR02_0 -1.0
    VDUIN_CR02_0 VDUY1_CR02_0 -0.45
    VDUIN_CR02_0 VDUY2_CR02_0 -0.55
    VDUIN_CR02_0 VDUCAP_0 1.0
    RESFO_CR02_0 RESSPLIT_CR02_0 -1.0
    RESFO_CR02_0 FOBAL_0 -1.0
    RESFO_CR02_0 FOSUL_0 0.05675733131967897
    VGO2_CR02_0 VDUY1_CR02_0 1.0
    VGO2_CR02_0 VGOBAL_CR02_0 1.0
    VR_CR02_0 VDUY2_CR02_0 1.0
    VR_CR02_0 FOBAL_0 -1.0
    VR_CR02_0 FOSUL_0 1.1237845307155832
    VDUIN_CR03_0 RESSPLIT_CR03_0 -1.0
    VDUIN_CR03_0 VDUY1_CR03_0 -0.45
    VDUIN_CR03_0 VDUY2_CR03_0 -0.55
    VDUIN_CR03_0 VDUCAP_0 1.0
    RESFO_CR03_0 RESSPLIT_CR03_0 -1.0
    RESFO_CR03_0 FOBAL_0 -1.0
    RESFO_CR03_0 FOSUL_0 -1.8686274424458973
    VGO2_CR03_0 VDUY1_CR03_0 1.0
    VGO2_CR03_0 VGOBAL_CR03_0 1.0
    VR_CR03_0 VDUY2_CR03_0 1.0
    VR_CR03_0 FOBAL_0 -1.0
    VR_CR03_0 FOSUL_0 -1.3792156751796663
    VDUIN_CR04_0 RESSPLIT_CR04_0 -1.0
    VDUIN_CR04_0 VDUY1_CR04_0 -0.45
    VDUIN_CR04_0 VDUY2_CR04_0 -0.55
    VDUIN_CR04_0 VDUCAP_0 1.0
    RESFO_CR04_0 RESSPLIT_CR04_0 -1.0
    RESFO_CR04_0 FOBAL_0 -1.0
    RESFO_CR04_0 FOSUL_0 2.031668478530798
    VGO2_CR04_0 VDUY1_CR04_0 1.0
    VGO2_CR04_0 VGOBAL_CR04_0 1.0
    VR_CR04_0 VDUY2_CR04_0 1.0
    VR_CR04_0 FOBAL_0 -1.0
    VR_CR04_0 FOSUL_0 3.6911690220900377
    VDUIN_CR05_0 RESSPLIT_CR05_0 -1.0
    VDUIN_CR05_0 VDUY1_CR05_0 -0.45
    VDUIN_CR05_0 VDUY2_CR05_0 -0.55
    VDUIN_CR05_0 VDUCAP_0 1.0
    RESFO_CR05_0 RESSPLIT_CR05_0 -1.0
    RESFO_CR05_0 FOBAL_0 -1.0
    RESFO_CR05_0 FOSUL_0 0.3429997580900688
    VGO2_CR05_0 VDUY1_CR05_0 1.0
    VGO2_CR05_0 VGOBAL_CR05_0 1.0
    VR_CR05_0 VDUY2_CR05_0 1.0
    VR_CR05_0 FOBAL_0 -1.0
    VR_CR05_0 FOSUL_0 1.4958996855170898
    VDUIN_CR06_0 RESSPLIT_CR06_0 -1.0
    VDUIN_CR06_0 VDUY1_CR06_0 -0.45
    VDUIN_CR06_0 VDUY2_CR06_0 -0.55
    VDUIN_CR06_0 VDUCAP_0 1.0
    RESFO_CR06_0 RESSPLIT_CR06_0 -1.0
    RESFO_CR06_0 FOBAL_0 -1.0
    RESFO_CR06_0 FOSUL_0 0.10255232060654862
    VGO2_CR06_0 VDUY1_CR06_0 1.0
    VGO2_CR06_0 VGOBAL_CR06_0 1.0
    VR_CR06_0 VDUY2_CR06_0 1.0
    VR_CR06_0 FOBAL_0 -1.0
    VR_CR06_0 FOSUL_0 1.1833180167885136
    VDUIN_CR07_0 RESSPLIT_CR07_0 -1.0
    VDUIN_CR07_0 VDUY1_CR07_0 -0.45
    VDUIN_CR07_0 VDUY2_CR07_0 -0.55
    VDUIN_CR07_0 VDUCAP_0 1.0
    RESFO_CR07_0 RESSPLIT_CR07_0 -1.0
    RESFO_CR07_0 FOBAL_0 -1.0
    RESFO_CR07_0 FOSUL_0 -3.116635223405176
    VGO2_CR07_0 VDUY1_CR07_0 1.0
    VGO2_CR07_0 VGOBAL_CR07_0 1.0
    VR_CR07_0 VDUY2_CR07_0 1.0
    VR_CR07_0 FOBAL_0 -1.0
    VR_CR07_0 FOSUL_0 -3.001625790426729
    VDUIN_CR08_0 RESSPLIT_CR08_0 -1.0
    VDUIN_CR08_0 VDUY1_CR08_0 -0.45
    VDUIN_CR08_0 VDUY2_CR08_0 -0.55
    VDUIN_CR08_0 VDUCAP_0 1.0
    RESFO_CR08_0 RESSPLIT_CR08_0 -1.0
    RESFO_CR08_0 FOBAL_0 -1.0
    RESFO_CR08_0 FOSUL_0 0.0456281803886287
    VGO2_CR08_0 VDUY1_CR08_0 1.0
    VGO2_CR08_0 VGOBAL_CR08_0 1.0
    VR_CR08_0 VDUY2_CR08_0 1.0
    VR_CR08_0 FOBAL_0 -1.0
    VR_CR08_0 FOSUL_0 1.109316634505218
    VDUIN_CR09_0 RESSPLIT_CR09_0 -1.0
    VDUIN_CR09_0 VDUY1_CR09_0 -0.45
    VDUIN_CR09_0 VDUY2_CR09_0 -0.55
    VDUIN_CR09_0 VDUCAP_0 1.0
    RESFO_CR09_0 RESSPLIT_CR09_0 -1.0
    RESFO_CR09_0 FOBAL_0 -1.0
    RESFO_CR09_0 FOSUL_0 -3.264603397407564
    VGO2_CR09_0 VDUY1_CR09_0 1.0
    VGO2_CR09_0 VGOBAL_CR09_0 1.0
    VR_CR09_0 VDUY2_CR09_0 1.0
    VR_CR09_0 FOBAL_0 -1.0
    VR_CR09_0 FOSUL_0 -3.1939844166298332
    VDUIN_CR10_0 RESSPLIT_CR10_0 -1.0
    VDUIN_CR10_0 VDUY1_CR10_0 -0.45
    VDUIN_CR10_0 VDUY2_CR10_0 -0.55
    VDUIN_CR10_0 VDUCAP_0 1.0
    RESFO_CR10_0 RESSPLIT_CR10_0 -1.0
    RESFO_CR10_0 FOBAL_0 -1.0
    RESFO_CR10_0 FOSUL_0 2.094062962095167
    VGO2_CR10_0 VDUY1_CR10_0 1.0
    VGO2_CR10_0 VGOBAL_CR10_0 1.0
    VR_CR10_0 VDUY2_CR10_0 1.0
    VR_CR10_0 FOBAL_0 -1.0
    VR_CR10_0 FOSUL_0 3.7722818507237177
    VDUIN_CR11_0 RESSPLIT_CR11_0 -1.0
    VDUIN_CR11_0 VDUY1_CR11_0 -0.45
    VDUIN_CR11_0 VDUY2_CR11_0 -0.55
    VDUIN_CR11_0 VDUCAP_0 1.0
    RESFO_CR11_0 RESSPLIT_CR11_0 -1.0
    RESFO_CR11_0 FOBAL_0 -1.0
    RESFO_CR11_0 FOSUL_0 -0.4594898393817082
    VGO2_CR11_0 VDUY1_CR11_0 1.0
    VGO2_CR11_0 VGOBAL_CR11_0 1.0
    VR_CR11_0 VDUY2_CR11_0 1.0
    VR_CR11_0 FOBAL_0 -1.0
    VR_CR11_0 FOSUL_0 0.4526632088037794
    VDUIN_CR12_0 RESSPLIT_CR12_0 -1.0
    VDUIN_CR12_0 VDUY1_CR12_0 -0.45
    VDUIN_CR12_0 VDUY2_CR12_0 -0.55
    VDUIN_CR12_0 VDUCAP_0 1.0
    RESFO_CR12_0 RESSPLIT_CR12_0 -1.0
    RESFO_CR12_0 FOBAL_0 -1.0
    RESFO_CR12_0 FOSUL_0 1.9188179600993953
    VGO2_CR12_0 VDUY1_CR12_0 1.0
    VGO2_CR12_0 VGOBAL_CR12_0 1.0
    VR_CR12_0 VDUY2_CR12_0 1.0
    VR_CR12_0 FOBAL_0 -1.0
    VR_CR12_0 FOSUL_0 3.544463348129214
    VDUIN_CR13_0 RESSPLIT_CR13_0 -1.0
    VDUIN_CR13_0 VDUY1_CR13_0 -0.45
    VDUIN_CR13_0 VDUY2_CR13_0 -0.55
    VDUIN_CR13_0 VDUCAP_0 1.0
    RESFO_CR13_0 RESSPLIT_CR13_0 -1.0
    RESFO_CR13_0 FOBAL_0 -1.0
    RESFO_CR13_0 FOSUL_0 -2.8690046531087465
    VGO2_CR13_0 VDUY1_CR13_0 1.0
    VGO2_CR13_0 VGOBAL_CR13_0 1.0
    VR_CR13_0 VDUY2_CR13_0 1.0
    VR_CR13_0 FOBAL_0 -1.0
    VR_CR13_0 FOSUL_0 -2.6797060490413704
    VDUIN_CR14_0 RESSPLIT_CR14_0 -1.0
    VDUIN_CR14_0 VDUY1_CR14_0 -0.45
    VDUIN_CR14_0 VDUY2_CR14_0 -0.55
    VDUIN_CR14_0 VDUCAP_0 1.0
    RESFO_CR14_0 RESSPLIT_CR14_0 -1.0
    RESFO_CR14_0 FOBAL_0 -1.0
    RESFO_CR14_0 FOSUL_0 -0.9033459504788866
    VGO2_CR14_0 VDUY1_CR14_0 1.0
    VGO2_CR14_0 VGOBAL_CR14_0 1.0
    VR_CR14_0 VDUY2_CR14_0 1.0
    VR_CR14_0 FOBAL_0 -1.0
    VR_CR14_0 FOSUL_0 -0.12434973562255225
    VDUIN_CR15_0 RESSPLIT_CR15_0 -1.0
    VDUIN_CR15_0 VDUY1_CR15_0 -0.45
    VDUIN_CR15_0 VDUY2_CR15_0 -0.55
    VDUIN_CR15_0 VDUCAP_0 1.0
    RESFO_CR15_0 RESSPLIT_CR15_0 -1.0
    RESFO_CR15_0 FOBAL_0 -1.0
    RESFO_CR15_0 FOSUL_0 -3.189239970867669
    VGO2_CR15_0 VDUY1_CR15_0 1.0
    VGO2_CR15_0 VGOBAL_CR15_0 1.0
    VR_CR15_0 VDUY2_CR15_0 1.0
    VR_CR15_0 FOBAL_0 -1.0
    VR_CR15_0 FOSUL_0 -3.0960119621279696
    VDUIN_CR16_0 RESSPLIT_CR16_0 -1.0
    VDUIN_CR16_0 VDUY1_CR16_0 -0.45
    VDUIN_CR16_0 VDUY2_CR16_0 -0.55
    VDUIN_CR16_0 VDUCAP_0 1.0
    RESFO_CR16_0 RESSPLIT_CR16_0 -1.0
    RESFO_CR16_0 FOBAL_0 -1.0
    RESFO_CR16_0 FOSUL_0 -0.09708299491376327
    VGO2_CR16_0 VDUY1_CR16_0 1.0
    VGO2_CR16_0 VGOBAL_CR16_0 1.0
    VR_CR16_0 VDUY2_CR16_0 1.0
    VR_CR16_0 FOBAL_0 -1.0
    VR_CR16_0 FOSUL_0 0.9237921066121082
    VDUIN_CR17_0 RESSPLIT_CR17_0 -1.0
    VDUIN_CR17_0 VDUY1_CR17_0 -0.45
    VDUIN_CR17_0 VDUY2_CR17_0 -0.55
    VDUIN_CR17_0 VDUCAP_0 1.0
    RESFO_CR17_0 RESSPLIT_CR17_0 -1.0
    RESFO_CR17_0 FOBAL_0 -1.0
    RESFO_CR17_0 FOSUL_0 2.128312314257988
    VGO2_CR17_0 VDUY1_CR17_0 1.0
    VGO2_CR17_0 VGOBAL_CR17_0 1.0
    VR_CR17_0 VDUY2_CR17_0 1.0
    VR_CR17_0 FOBAL_0 -1.0
    VR_CR17_0 FOSUL_0 3.8168060085353845
    VDUIN_CR18_0 RESSPLIT_CR18_0 -1.0
    VDUIN_CR18_0 VDUY1_CR18_0 -0.45
    VDUIN_CR18_0 VDUY2_CR18_0 -0.55
    VDUIN_CR18_0 VDUCAP_0 1.0
    RESFO_CR18_0 RESSPLIT_CR18_0 -1.0
    RESFO_CR18_0 FOBAL_0 -1.0
    RESFO_CR18_0 FOSUL_0 -3.0649175102888004
    VGO2_CR18_0 VDUY1_CR18_0 1.0
    VGO2_CR18_0 VGOBAL_CR18_0 1.0
    VR_CR18_0 VDUY2_CR18_0 1.0
    VR_CR18_0 FOBAL_0 -1.0
    VR_CR18_0 FOSUL_0 -2.9343927633754405
    VDUIN_CR19_0 RESSPLIT_CR19_0 -1.0
    VDUIN_CR19_0 VDUY1_CR19_0 -0.45
    VDUIN_CR19_0 VDUY2_CR19_0 -0.55
    VDUIN_CR19_0 VDUCAP_0 1.0
    RESFO_CR19_0 RESSPLIT_CR19_0 -1.0
    RESFO_CR19_0 FOBAL_0 -1.0
    RESFO_CR19_0 FOSUL_0 -1.1490285157117452
    VGO2_CR19_0 VDUY1_CR19_0 1.0
    VGO2_CR19_0 VGOBAL_CR19_0 1.0
    VR_CR19_0 VDUY2_CR19_0 1.0
    VR_CR19_0 FOBAL_0 -1.0
    VR_CR19_0 FOSUL_0 -0.4437370704252688
    FCCIN_CR00_0 OBJ -2.5
    FCCIN_CR00_0 VGOBAL_CR00_0 -1.0
    FCCIN_CR00_0 FCCCAP_0 1.0
    FCCIN_CR00_0 FCCY_FCCG_0 -0.55
    FCCIN_CR00_0 FCCY_LCO_0 -0.2
    FCCIN_CR00_0 FCCY_FLPG_0 -0.15
    FCCIN_CR00_0 FCCY_SLURRY_0 -0.07
    FCCIN_CR01_0 OBJ -2.5
    FCCIN_CR01_0 VGOBAL_CR01_0 -1.0
    FCCIN_CR01_0 FCCCAP_0 1.0
    FCCIN_CR01_0 FCCY_FCCG_0 -0.55
    FCCIN_CR01_0 FCCY_LCO_0 -0.2
    FCCIN_CR01_0 FCCY_FLPG_0 -0.15
    FCCIN_CR01_0 FCCY_SLURRY_0 -0.07
    FCCIN_CR02_0 OBJ -2.5
    FCCIN_CR02_0 VGOBAL_CR02_0 -1.0
    FCCIN_CR02_0 FCCCAP_0 1.0
    FCCIN_CR02_0 FCCY_FCCG_0 -0.55
    FCCIN_CR02_0 FCCY_LCO_0 -0.2
    FCCIN_CR02_0 FCCY_FLPG_0 -0.15
    FCCIN_CR02_0 FCCY_SLURRY_0 -0.07
    FCCIN_CR03_0 OBJ -2.5
    FCCIN_CR03_0 VGOBAL_CR03_0 -1.0
    FCCIN_CR03_0 FCCCAP_0 1.0
    FCCIN_CR03_0 FCCY_FCCG_0 -0.55
    FCCIN_CR03_0 FCCY_LCO_0 -0.2
    FCCIN_CR03_0 FCCY_FLPG_0 -0.15
    FCCIN_CR03_0 FCCY_SLURRY_0 -0.07
    FCCIN_CR04_0 OBJ -2.5
    FCCIN_CR04_0 VGOBAL_CR04_0 -1.0
    FCCIN_CR04_0 FCCCAP_0 1.0
    FCCIN_CR04_0 FCCY_FCCG_0 -0.55
    FCCIN_CR04_0 FCCY_LCO_0 -0.2
    FCCIN_CR04_0 FCCY_FLPG_0 -0.15
    FCCIN_CR04_0 FCCY_SLURRY_0 -0.07
    FCCIN_CR05_0 OBJ -2.5
    FCCIN_CR05_0 VGOBAL_CR05_0 -1.0
    FCCIN_CR05_0 FCCCAP_0 1.0
    FCCIN_CR05_0 FCCY_FCCG_0 -0.55
    FCCIN_CR05_0 FCCY_LCO_0 -0.2
    FCCIN_CR05_0 FCCY_FLPG_0 -0.15
    FCCIN_CR05_0 FCCY_SLURRY_0 -0.07
    FCCIN_CR06_0 OBJ -2.5
    FCCIN_CR06_0 VGOBAL_CR06_0 -1.0
    FCCIN_CR06_0 FCCCAP_0 1.0
    FCCIN_CR06_0 FCCY_FCCG_0 -0.55
    FCCIN_CR06_0 FCCY_LCO_0 -0.2
    FCCIN_CR06_0 FCCY_FLPG_0 -0.15
    FCCIN_CR06_0 FCCY_SLURRY_0 -0.07
    FCCIN_CR07_0 OBJ -2.5
    FCCIN_CR07_0 VGOBAL_CR07_0 -1.0
    FCCIN_CR07_0 FCCCAP_0 1.0
    FCCIN_CR07_0 FCCY_FCCG_0 -0.55
    FCCIN_CR07_0 FCCY_LCO_0 -0.2
    FCCIN_CR07_0 FCCY_FLPG_0 -0.15
    FCCIN_CR07_0 FCCY_SLURRY_0 -0.07
    FCCIN_CR08_0 OBJ -2.5
    FCCIN_CR08_0 VGOBAL_CR08_0 -1.0
    FCCIN_CR08_0 FCCCAP_0 1.0
    FCCIN_CR08_0 FCCY_FCCG_0 -0.55
    FCCIN_CR08_0 FCCY_LCO_0 -0.2
    FCCIN_CR08_0 FCCY_FLPG_0 -0.15
    FCCIN_CR08_0 FCCY_SLURRY_0 -0.07
    FCCIN_CR09_0 OBJ -2.5
    FCCIN_CR09_0 VGOBAL_CR09_0 -1.0
    FCCIN_CR09_0 FCCCAP_0 1.0
    FCCIN_CR09_0 FCCY_FCCG_0 -0.55
    FCCIN_CR09_0 FCCY_LCO_0 -0.2
    FCCIN_CR09_0 FCCY_FLPG_0 -0.15
    FCCIN_CR09_0 FCCY_SLURRY_0 -0.07
    FCCIN_CR10_0 OBJ -2.5
    FCCIN_CR10_0 VGOBAL_CR10_0 -1.0
    FCCIN_CR10_0 FCCCAP_0 1.0
    FCCIN_CR10_0 FCCY_FCCG_0 -0.55
    FCCIN_CR10_0 FCCY_LCO_0 -0.2
    FCCIN_CR10_0 FCCY_FLPG_0 -0.15
    FCCIN_CR10_0 FCCY_SLURRY_0 -0.07
    FCCIN_CR11_0 OBJ -2.5
    FCCIN_CR11_0 VGOBAL_CR11_0 -1.0
    FCCIN_CR11_0 FCCCAP_0 1.0
    FCCIN_CR11_0 FCCY_FCCG_0 -0.55
    FCCIN_CR11_0 FCCY_LCO_0 -0.2
    FCCIN_CR11_0 FCCY_FLPG_0 -0.15
    FCCIN_CR11_0 FCCY_SLURRY_0 -0.07
    FCCIN_CR12_0 OBJ -2.5
    FCCIN_CR12_0 VGOBAL_CR12_0 -1.0
    FCCIN_CR12_0 FCCCAP_0 1.0
    FCCIN_CR12_0 FCCY_FCCG_0 -0.55
    FCCIN_CR12_0 FCCY_LCO_0 -0.2
    FCCIN_CR12_0 FCCY_FLPG_0 -0.15
    FCCIN_CR12_0 FCCY_SLURRY_0 -0.07
    FCCIN_CR13_0 OBJ -2.5
    FCCIN_CR13_0 VGOBAL_CR13_0 -1.0
    FCCIN_CR13_0 FCCCAP_0 1.0
    FCCIN_CR13_0 FCCY_FCCG_0 -0.55
    FCCIN_CR13_0 FCCY_LCO_0 -0.2
    FCCIN_CR13_0 FCCY_FLPG_0 -0.15
    FCCIN_CR13_0 FCCY_SLURRY_0 -0.07
    FCCIN_CR14_0 OBJ -2.5
    FCCIN_CR14_0 VGOBAL_CR14_0 -1.0
    FCCIN_CR14_0 FCCCAP_0 1.0
    FCCIN_CR14_0 FCCY_FCCG_0 -0.55
    FCCIN_CR14_0 FCCY_LCO_0 -0.2
    FCCIN_CR14_0 FCCY_FLPG_0 -0.15
    FCCIN_CR14_0 FCCY_SLURRY_0 -0.07
    FCCIN_CR15_0 OBJ -2.5
    FCCIN_CR15_0 VGOBAL_CR15_0 -1.0
    FCCIN_CR15_0 FCCCAP_0 1.0
    FCCIN_CR15_0 FCCY_FCCG_0 -0.55
    FCCIN_CR15_0 FCCY_LCO_0 -0.2
    FCCIN_CR15_0 FCCY_FLPG_0 -0.15
    FCCIN_CR15_0 FCCY_SLURRY_0 -0.07
    FCCIN_CR16_0 OBJ -2.5
    FCCIN_CR16_0 VGOBAL_CR16_0 -1.0
    FCCIN_CR16_0 FCCCAP_0 1.0
    FCCIN_CR16_0 FCCY_FCCG_0 -0.55
    FCCIN_CR16_0 FCCY_LCO_0 -0.2
    FCCIN_CR16_0 FCCY_FLPG_0 -0.15
    FCCIN_CR16_0 FCCY_SLURRY_0 -0.07
    FCCIN_CR17_0 OBJ -2.5
    FCCIN_CR17_0 VGOBAL_CR17_0 -1.0
    FCCIN_CR17_0 FCCCAP_0 1.0
    FCCIN_CR17_0 FCCY_FCCG_0 -0.55
    FCCIN_CR17_0 FCCY_LCO_0 -0.2
    FCCIN_CR17_0 FCCY_FLPG_0 -0.15
    FCCIN_CR17_0 FCCY_SLURRY_0 -0.07
    FCCIN_CR18_0 OBJ -2.5
    FCCIN_CR18_0 VGOBAL_CR18_0 -1.0
    FCCIN_CR18_0 FCCCAP_0 1.0
    FCCIN_CR18_0 FCCY_FCCG_0 -0.55
    FCCIN_CR18_0 FCCY_LCO_0 -0.2
    FCCIN_CR18_0 FCCY_FLPG_0 -0.15
    FCCIN_CR18_0 FCCY_SLURRY_0 -0.07
    FCCIN_CR19_0 OBJ -2.5
    FCCIN_CR19_0 VGOBAL_CR19_0 -1.0
    FCCIN_CR19_0 FCCCAP_0 1.0
    FCCIN_CR19_0 FCCY_FCCG_0 -0.55
    FCCIN_CR19_0 FCCY_LCO_0 -0.2
    FCCIN_CR19_0 FCCY_FLPG_0 -0.15
    FCCIN_CR19_0 FCCY_SLURRY_0 -0.07
    FCCG_0 FCCY_FCCG_0 1.0
    FCCG_0 GASBAL_0 -1.0
    FCCG_0 GASRON_0 1.0
    LCO_0 FCCY_LCO_0 1.0
    LCO_0 LCOBAL_0 1.0
    FLPG_0 FCCY_FLPG_0 1.0
    FLPG_0 LPGBAL_0 -1.0
    SLURRY_0 FCCY_SLURRY_0 1.0
    SLURRY_0 FOBAL_0 -1.0
    SLURRY_0 FOSUL_0 -1.5
    REFIN_CR00_0 OBJ -3.0
    REFIN_CR00_0 NAPBAL_CR00_0 -1.0
    REFIN_CR00_0 REFCAP_0 1.0
    REFIN_CR00_0 REFY_0 -0.85
    NAPGAS_CR00_0 NAPBAL_CR00_0 -1.0
    NAPGAS_CR00_0 GASBAL_0 -1.0
    NAPGAS_CR00_0 GASRON_0 -41.351908455631545
    REFIN_CR01_0 OBJ -3.0
    REFIN_CR01_0 NAPBAL_CR01_0 -1.0
    REFIN_CR01_0 REFCAP_0 1.0
    REFIN_CR01_0 REFY_0 -0.85
    NAPGAS_CR01_0 NAPBAL_CR01_0 -1.0
    NAPGAS_CR01_0 GASBAL_0 -1.0
    NAPGAS_CR01_0 GASRON_0 -33.623043958680114
    REFIN_CR02_0 OBJ -3.0
    REFIN_CR02_0 NAPBAL_CR02_0 -1.0
    REFIN_CR02_0 REFCAP_0 1.0
    REFIN_CR02_0 REFY_0 -0.85
    NAPGAS_CR02_0 NAPBAL_CR02_0 -1.0
    NAPGAS_CR02_0 GASBAL_0 -1.0
    NAPGAS_CR02_0 GASRON_0 -39.74522208078083
    REFIN_CR03_0 OBJ -3.0
    REFIN_CR03_0 NAPBAL_CR03_0 -1.0
    REFIN_CR03_0 REFCAP_0 1.0
    REFIN_CR03_0 REFY_0 -0.85
    NAPGAS_CR03_0 NAPBAL_CR03_0 -1.0
    NAPGAS_CR03_0 GASBAL_0 -1.0
    NAPGAS_CR03_0 GASRON_0 -39.32063345179839
    REFIN_CR04_0 OBJ -3.0
    REFIN_CR04_0 NAPBAL_CR04_0 -1.0
    REFIN_CR04_0 REFCAP_0 1.0
    REFIN_CR04_0 REFY_0 -0.85
    NAPGAS_CR04_0 NAPBAL_CR04_0 -1.0
    NAPGAS_CR04_0 GASBAL_0 -1.0
    NAPGAS_CR04_0 GASRON_0 -28.06018906757886
    REFIN_CR05_0 OBJ -3.0
    REFIN_CR05_0 NAPBAL_CR05_0 -1.0
    REFIN_CR05_0 REFCAP_0 1.0
    REFIN_CR05_0 REFY_0 -0.85
    NAPGAS_CR05_0 NAPBAL_CR05_0 -1.0
    NAPGAS_CR05_0 GASBAL_0 -1.0
    NAPGAS_CR05_0 GASRON_0 -37.177062383933254
    REFIN_CR06_0 OBJ -3.0
    REFIN_CR06_0 NAPBAL_CR06_0 -1.0
    REFIN_CR06_0 REFCAP_0 1.0
    REFIN_CR06_0 REFY_0 -0.85
    NAPGAS_CR06_0 NAPBAL_CR06_0 -1.0
    NAPGAS_CR06_0 GASBAL_0 -1.0
    NAPGAS_CR06_0 GASRON_0 -38.73738801284508
    REFIN_CR07_0 OBJ -3.0
    REFIN_CR07_0 NAPBAL_CR07_0 -1.0
    REFIN_CR07_0 REFCAP_0 1.0
    REFIN_CR07_0 REFY_0 -0.85
    NAPGAS_CR07_0 NAPBAL_CR07_0 -1.0
    NAPGAS_CR07_0 GASBAL_0 -1.0
    NAPGAS_CR07_0 GASRON_0 -31.720911449683953
    REFIN_CR08_0 OBJ -3.0
    REFIN_CR08_0 NAPBAL_CR08_0 -1.0
    REFIN_CR08_0 REFCAP_0 1.0
    REFIN_CR08_0 REFY_0 -0.85
    NAPGAS_CR08_0 NAPBAL_CR08_0 -1.0
    NAPGAS_CR08_0 GASBAL_0 -1.0
    NAPGAS_CR08_0 GASRON_0 -31.236267605063702
    REFIN_CR09_0 OBJ -3.0
    REFIN_CR09_0 NAPBAL_CR09_0 -1.0
    REFIN_CR09_0 REFCAP_0 1.0
    REFIN_CR09_0 REFY_0 -0.85
    NAPGAS_CR09_0 NAPBAL_CR09_0 -1.0
    NAPGAS_CR09_0 GASBAL_0 -1.0
    NAPGAS_CR09_0 GASRON_0 -29.9151768258086
    REFIN_CR10_0 OBJ -3.0
    REFIN_CR10_0 NAPBAL_CR10_0 -1.0
    REFIN_CR10_0 REFCAP_0 1.0
    REFIN_CR10_0 REFY_0 -0.85
    NAPGAS_CR10_0 NAPBAL_CR10_0 -1.0
    NAPGAS_CR10_0 GASBAL_0 -1.0
    NAPGAS_CR10_0 GASRON_0 -38.641707010486826
    REFIN_CR11_0 OBJ -3.0
    REFIN_CR11_0 NAPBAL_CR11_0 -1.0
    REFIN_CR11_0 REFCAP_0 1.0
    REFIN_CR11_0 REFY_0 -0.85
    NAPGAS_CR11_0 NAPBAL_CR11_0 -1.0
    NAPGAS_CR11_0 GASBAL_0 -1.0
    NAPGAS_CR11_0 GASRON_0 -31.364398664025877
    REFIN_CR12_0 OBJ -3.0
    REFIN_CR12_0 NAPBAL_CR12_0 -1.0
    REFIN_CR12_0 REFCAP_0 1.0
    REFIN_CR12_0 REFY_0 -0.85
    NAPGAS_CR12_0 NAPBAL_CR12_0 -1.0
    NAPGAS_CR12_0 GASBAL_0 -1.0
    NAPGAS_CR12_0 GASRON_0 -36.44295305412478
    REFIN_CR13_0 OBJ -3.0
    REFIN_CR13_0 NAPBAL_CR13_0 -1.0
    REFIN_CR13_0 REFCAP_0 1.0
    REFIN_CR13_0 REFY_0 -0.85
    NAPGAS_CR13_0 NAPBAL_CR13_0 -1.0
    NAPGAS_CR13_0 GASBAL_0 -1.0
    NAPGAS_CR13_0 GASRON_0 -36.368722409916884
    REFIN_CR14_0 OBJ -3.0
    REFIN_CR14_0 NAPBAL_CR14_0 -1.0
    REFIN_CR14_0 REFCAP_0 1.0
    REFIN_CR14_0 REFY_0 -0.85
    NAPGAS_CR14_0 NAPBAL_CR14_0 -1.0
    NAPGAS_CR14_0 GASBAL_0 -1.0
    NAPGAS_CR14_0 GASRON_0 -37.837781635780814
    REFIN_CR15_0 OBJ -3.0
    REFIN_CR15_0 NAPBAL_CR15_0 -1.0
    REFIN_CR15_0 REFCAP_0 1.0
    REFIN_CR15_0 REFY_0 -0.85
    NAPGAS_CR15_0 NAPBAL_CR15_0 -1.0
    NAPGAS_CR15_0 GASBAL_0 -1.0
    NAPGAS_CR15_0 GASRON_0 -36.91743369949054
    REFIN_CR16_0 OBJ -3.0
    REFIN_CR16_0 NAPBAL_CR16_0 -1.0
    REFIN_CR16_0 REFCAP_0 1.0
    REFIN_CR16_0 REFY_0 -0.85
    NAPGAS_CR16_0 NAPBAL_CR16_0 -1.0
    NAPGAS_CR16_0 GASBAL_0 -1.0
    NAPGAS_CR16_0 GASRON_0 -32.43244486749426
    REFIN_CR17_0 OBJ -3.0
    REFIN_CR17_0 NAPBAL_CR17_0 -1.0
    REFIN_CR17_0 REFCAP_0 1.0
    REFIN_CR17_0 REFY_0 -0.85
    NAPGAS_CR17_0 NAPBAL_CR17_0 -1.0
    NAPGAS_CR17_0 GASBAL_0 -1.0
    NAPGAS_CR17_0 GASRON_0 -32.30218201355821
    REFIN_CR18_0 OBJ -3.0
    REFIN_CR18_0 NAPBAL_CR18_0 -1.0
    REFIN_CR18_0 REFCAP_0 1.0
    REFIN_CR18_0 REFY_0 -0.85
    NAPGAS_CR18_0 NAPBAL_CR18_0 -1.0
    NAPGAS_CR18_0 GASBAL_0 -1.0
    NAPGAS_CR18_0 GASRON_0 -30.280860643235343
    REFIN_CR19_0 OBJ -3.0
    REFIN_CR19_0 NAPBAL_CR19_0 -1.0
    REFIN_CR19_0 REFCAP_0 1.0
    REFIN_CR19_0 REFY_0 -0.85
    NAPGAS_CR19_0 NAPBAL_CR19_0 -1.0
    NAPGAS_CR19_0 GASBAL_0 -1.0
    NAPGAS_CR19_0 GASRON_0 -35.8435432887995
    REFORMATE_0 REFY_0 1.0
    REFORMATE_0 GASBAL_0 -1.0
    REFORMATE_0 GASRON_0 7.0
    DHTIN_CR00_0 OBJ -2.0
    DHTIN_CR00_0 DSLBAL_CR00_0 -1.0
    DHTIN_CR00_0 DHTCAP_0 1.0
    DHTIN_CR00_0 DHTY_0 -0.98
    DSLDIR_CR00_0 DSLBAL_CR00_0 -1.0
    DSLDIR_CR00_0 DSLPB_0 -1.0
    DSLDIR_CR00_0 DSLSUL_0 1.5862267507032528
    DHTIN_CR01_0 OBJ -2.0
    DHTIN_CR01_0 DSLBAL_CR01_0 -1.0
    DHTIN_CR01_0 DHTCAP_0 1.0
    DHTIN_CR01_0 DHTY_0 -0.98
    DSLDIR_CR01_0 DSLBAL_CR01_0 -1.0
    DSLDIR_CR01_0 DSLPB_0 -1.0
    DSLDIR_CR01_0 DSLSUL_0 0.8149467463033994
    DHTIN_CR02_0 OBJ -2.0
    DHTIN_CR02_0 DSLBAL_CR02_0 -1.0
    DHTIN_CR02_0 DHTCAP_0 1.0
    DHTIN_CR02_0 DHTY_0 -0.98
    DSLDIR_CR02_0 DSLBAL_CR02_0 -1.0
    DSLDIR_CR02_0 DSLPB_0 -1.0
    DSLDIR_CR02_0 DSLSUL_0 1.0170271993959037
    DHTIN_CR03_0 OBJ -2.0
    DHTIN_CR03_0 DSLBAL_CR03_0 -1.0
    DHTIN_CR03_0 DHTCAP_0 1.0
    DHTIN_CR03_0 DHTY_0 -0.98
    DSLDIR_CR03_0 DSLBAL_CR03_0 -1.0
    DSLDIR_CR03_0 DSLPB_0 -1.0
    DSLDIR_CR03_0 DSLSUL_0 0.4394117672662308
    DHTIN_CR04_0 OBJ -2.0
    DHTIN_CR04_0 DSLBAL_CR04_0 -1.0
    DHTIN_CR04_0 DHTCAP_0 1.0
    DHTIN_CR04_0 DHTY_0 -0.98
    DSLDIR_CR04_0 DSLBAL_CR04_0 -1.0
    DSLDIR_CR04_0 DSLPB_0 -1.0
    DSLDIR_CR04_0 DSLSUL_0 1.6095005435592393
    DHTIN_CR05_0 OBJ -2.0
    DHTIN_CR05_0 DSLBAL_CR05_0 -1.0
    DHTIN_CR05_0 DHTCAP_0 1.0
    DHTIN_CR05_0 DHTY_0 -0.98
    DSLDIR_CR05_0 DSLBAL_CR05_0 -1.0
    DSLDIR_CR05_0 DSLPB_0 -1.0
    DSLDIR_CR05_0 DSLSUL_0 1.1028999274270206
    DHTIN_CR06_0 OBJ -2.0
    DHTIN_CR06_0 DSLBAL_CR06_0 -1.0
    DHTIN_CR06_0 DHTCAP_0 1.0
    DHTIN_CR06_0 DHTY_0 -0.98
    DSLDIR_CR06_0 DSLBAL_CR06_0 -1.0
    DSLDIR_CR06_0 DSLPB_0 -1.0
    DSLDIR_CR06_0 DSLSUL_0 1.0307656961819645
    DHTIN_CR07_0 OBJ -2.0
    DHTIN_CR07_0 DSLBAL_CR07_0 -1.0
    DHTIN_CR07_0 DHTCAP_0 1.0
    DHTIN_CR07_0 DHTY_0 -0.98
    DSLDIR_CR07_0 DSLBAL_CR07_0 -1.0
    DSLDIR_CR07_0 DSLPB_0 -1.0
    DSLDIR_CR07_0 DSLSUL_0 0.06500943297844713
    DHTIN_CR08_0 OBJ -2.0
    DHTIN_CR08_0 DSLBAL_CR08_0 -1.0
    DHTIN_CR08_0 DHTCAP_0 1.0
    DHTIN_CR08_0 DHTY_0 -0.98
    DSLDIR_CR08_0 DSLBAL_CR08_0 -1.0
    DSLDIR_CR08_0 DSLPB_0 -1.0
    DSLDIR_CR08_0 DSLSUL_0 1.0136884541165885
    DHTIN_CR09_0 OBJ -2.0
    DHTIN_CR09_0 DSLBAL_CR09_0 -1.0
    DHTIN_CR09_0 DHTCAP_0 1.0
    DHTIN_CR09_0 DHTY_0 -0.98
    DSLDIR_CR09_0 DSLBAL_CR09_0 -1.0
    DSLDIR_CR09_0 DSLPB_0 -1.0
    DSLDIR_CR09_0 DSLSUL_0 0.020618980777730833
    DHTIN_CR10_0 OBJ -2.0
    DHTIN_CR10_0 DSLBAL_CR10_0 -1.0
    DHTIN_CR10_0 DHTCAP_0 1.0
    DHTIN_CR10_0 DHTY_0 -0.98
    DSLDIR_CR10_0 DSLBAL_CR10_0 -1.0
    DSLDIR_CR10_0 DSLPB_0 -1.0
    DSLDIR_CR10_0 DSLSUL_0 1.62821888862855
    DHTIN_CR11_0 OBJ -2.0
    DHTIN_CR11_0 DSLBAL_CR11_0 -1.0
    DHTIN_CR11_0 DHTCAP_0 1.0
    DHTIN_CR11_0 DHTY_0 -0.98
    DSLDIR_CR11_0 DSLBAL_CR11_0 -1.0
    DSLDIR_CR11_0 DSLPB_0 -1.0
    DSLDIR_CR11_0 DSLSUL_0 0.8621530481854874
    DHTIN_CR12_0 OBJ -2.0
    DHTIN_CR12_0 DSLBAL_CR12_0 -1.0
    DHTIN_CR12_0 DHTCAP_0 1.0
    DHTIN_CR12_0 DHTY_0 -0.98
    DSLDIR_CR12_0 DSLBAL_CR12_0 -1.0
    DSLDIR_CR12_0 DSLPB_0 -1.0
    DSLDIR_CR12_0 DSLSUL_0 1.5756453880298185
    DHTIN_CR13_0 OBJ -2.0
    DHTIN_CR13_0 DSLBAL_CR13_0 -1.0
    DHTIN_CR13_0 DHTCAP_0 1.0
    DHTIN_CR13_0 DHTY_0 -0.98
    DSLDIR_CR13_0 DSLBAL_CR13_0 -1.0
    DSLDIR_CR13_0 DSLPB_0 -1.0
    DSLDIR_CR13_0 DSLSUL_0 0.13929860406737604
    DHTIN_CR14_0 OBJ -2.0
    DHTIN_CR14_0 DSLBAL_CR14_0 -1.0
    DHTIN_CR14_0 DHTCAP_0 1.0
    DHTIN_CR14_0 DHTY_0 -0.98
    DSLDIR_CR14_0 DSLBAL_CR14_0 -1.0
    DSLDIR_CR14_0 DSLPB_0 -1.0
    DSLDIR_CR14_0 DSLSUL_0 0.7289962148563339
    DHTIN_CR15_0 OBJ -2.0
    DHTIN_CR15_0 DSLBAL_CR15_0 -1.0
    DHTIN_CR15_0 DHTCAP_0 1.0
    DHTIN_CR15_0 DHTY_0 -0.98
    DSLDIR_CR15_0 DSLBAL_CR15_0 -1.0
    DSLDIR_CR15_0 DSLPB_0 -1.0
    DSLDIR_CR15_0 DSLSUL_0 0.0432280087396993
    DHTIN_CR16_0 OBJ -2.0
    DHTIN_CR16_0 DSLBAL_CR16_0 -1.0
    DHTIN_CR16_0 DHTCAP_0 1.0
    DHTIN_CR16_0 DHTY_0 -0.98
    DSLDIR_CR16_0 DSLBAL_CR16_0 -1.0
    DSLDIR_CR16_0 DSLPB_0 -1.0
    DSLDIR_CR16_0 DSLSUL_0 0.970875101525871
    DHTIN_CR17_0 OBJ -2.0
    DHTIN_CR17_0 DSLBAL_CR17_0 -1.0
    DHTIN_CR17_0 DHTCAP_0 1.0
    DHTIN_CR17_0 DHTY_0 -0.98
    DSLDIR_CR17_0 DSLBAL_CR17_0 -1.0
    DSLDIR_CR17_0 DSLPB_0 -1.0
    DSLDIR_CR17_0 DSLSUL_0 1.6384936942773962
    DHTIN_CR18_0 OBJ -2.0
    DHTIN_CR18_0 DSLBAL_CR18_0 -1.0
    DHTIN_CR18_0 DHTCAP_0 1.0
    DHTIN_CR18_0 DHTY_0 -0.98
    DSLDIR_CR18_0 DSLBAL_CR18_0 -1.0
    DSLDIR_CR18_0 DSLPB_0 -1.0
    DSLDIR_CR18_0 DSLSUL_0 0.08052474691335985
    DHTIN_CR19_0 OBJ -2.0
    DHTIN_CR19_0 DSLBAL_CR19_0 -1.0
    DHTIN_CR19_0 DHTCAP_0 1.0
    DHTIN_CR19_0 DHTY_0 -0.98
    DSLDIR_CR19_0 DSLBAL_CR19_0 -1.0
    DSLDIR_CR19_0 DSLPB_0 -1.0
    DSLDIR_CR19_0 DSLSUL_0 0.6552914452864763
    LCODHT_0 LCOBAL_0 -1.0
    LCODHT_0 DHTCAP_0 1.0
    LCODHT_0 DHTY_0 -0.95
    LCOFO_0 LCOBAL_0 -1.0
    LCOFO_0 FOBAL_0 -1.0
    LCOFO_0 FOSUL_0 -2.5
    ULSD_0 DHTY_0 1.0
    ULSD_0 DSLPB_0 -1.0
    ULSD_0 DSLSUL_0 -0.049
    SELL_LPG_0 OBJ 55.0
    SELL_LPG_0 PBAL_LPG_0 -1.0
    SELL_LPG_0 DMAX_LPG_0 1.0
    SELL_LPG_0 DMIN_LPG_0 1.0
    SELL_GAS_0 OBJ 105.0
    SELL_GAS_0 PBAL_GAS_0 -1.0
    SELL_GAS_0 DMAX_GAS_0 1.0
    SELL_GAS_0 DMIN_GAS_0 1.0
    SELL_JET_0 OBJ 100.0
    SELL_JET_0 PBAL_JET_0 -1.0
    SELL_JET_0 DMAX_JET_0 1.0
    SELL_JET_0 DMIN_JET_0 1.0
    SELL_DSL_0 OBJ 98.0
    SELL_DSL_0 PBAL_DSL_0 -1.0
    SELL_DSL_0 DMAX_DSL_0 1.0
    SELL_DSL_0 DMIN_DSL_0 1.0
    SELL_FO_0 OBJ 60.0
    SELL_FO_0 PBAL_FO_0 -1.0
    SELL_FO_0 DMAX_FO_0 1.0
    SELL_FO_0 DMIN_FO_0 1.0
    PINV_LPG_0 OBJ -0.5
    PINV_LPG_0 PBAL_LPG_0 -1.0
    PINV_LPG_0 PBAL_LPG_1 1.0
    PINV_GAS_0 OBJ -0.5
    PINV_GAS_0 PBAL_GAS_0 -1.0
    PINV_GAS_0 PBAL_GAS_1 1.0
    PINV_JET_0 OBJ -0.5
    PINV_JET_0 PBAL_JET_0 -1.0
    PINV_JET_0 PBAL_JET_1 1.0
    PINV_DSL_0 OBJ -0.5
    PINV_DSL_0 PBAL_DSL_0 -1.0
    PINV_DSL_0 PBAL_DSL_1 1.0
    PINV_FO_0 OBJ -0.5
    PINV_FO_0 PBAL_FO_0 -1.0
    PINV_FO_0 PBAL_FO_1 1.0
    SHORT_LPG_0 OBJ -400.0
    SHORT_LPG_0 DMIN_LPG_0 1.0
    SHORT_GAS_0 OBJ -400.0
    SHORT_GAS_0 DMIN_GAS_0 1.0
    SHORT_JET_0 OBJ -400.0
    SHORT_JET_0 DMIN_JET_0 1.0
    SHORT_DSL_0 OBJ -400.0
    SHORT_DSL_0 DMIN_DSL_0 1.0
    SHORT_FO_0 OBJ -400.0
    SHORT_FO_0 DMIN_FO_0 1.0
    GASPOOL_0 GASBAL_0 1.0
    GASPOOL_0 PBAL_GAS_0 1.0
    JETPOOL_0 JETBAL_0 1.0
    JETPOOL_0 PBAL_JET_0 1.0
    KERJET_CR00_0 KERBAL_CR00_0 -1.0
    KERJET_CR00_0 JETBAL_0 -1.0
    KERJET_CR00_0 JETSUL_0 0.10905668767581322
    KERDSL_CR00_0 KERBAL_CR00_0 -1.0
    KERDSL_CR00_0 DSLPB_0 -1.0
    KERDSL_CR00_0 DSLSUL_0 0.3590566876758132
    KERJET_CR01_0 KERBAL_CR01_0 -1.0
    KERJET_CR01_0 JETBAL_0 -1.0
    KERJET_CR01_0 JETSUL_0 -0.08376331342415014
    KERDSL_CR01_0 KERBAL_CR01_0 -1.0
    KERDSL_CR01_0 DSLPB_0 -1.0
    KERDSL_CR01_0 DSLSUL_0 0.16623668657584983
    KERJET_CR02_0 KERBAL_CR02_0 -1.0
    KERJET_CR02_0 JETBAL_0 -1.0
    KERJET_CR02_0 JETSUL_0 -0.033243200151024055
    KERDSL_CR02_0 KERBAL_CR02_0 -1.0
    KERDSL_CR02_0 DSLPB_0 -1.0
    KERDSL_CR02_0 DSLSUL_0 0.21675679984897595
    KERJET_CR03_0 KERBAL_CR03_0 -1.0
    KERJET_CR03_0 JETBAL_0 -1.0
    KERJET_CR03_0 JETSUL_0 -0.17764705818344229
    KERDSL_CR03_0 KERBAL_CR03_0 -1.0
    KERDSL_CR03_0 DSLPB_0 -1.0
    KERDSL_CR03_0 DSLSUL_0 0.0723529418165577
    KERJET_CR04_0 KERBAL_CR04_0 -1.0
    KERJET_CR04_0 JETBAL_0 -1.0
    KERJET_CR04_0 JETSUL_0 0.11487513588980985
    KERDSL_CR04_0 KERBAL_CR04_0 -1.0
    KERDSL_CR04_0 DSLPB_0 -1.0
    KERDSL_CR04_0 DSLSUL_0 0.36487513588980985
    KERJET_CR05_0 KERBAL_CR05_0 -1.0
    KERJET_CR05_0 JETBAL_0 -1.0
    KERJET_CR05_0 JETSUL_0 -0.011775018143244831
    KERDSL_CR05_0 KERBAL_CR05_0 -1.0
    KERDSL_CR05_0 DSLPB_0 -1.0
    KERDSL_CR05_0 DSLSUL_0 0.23822498185675517
    KERJET_CR06_0 KERBAL_CR06_0 -1.0
    KERJET_CR06_0 JETBAL_0 -1.0
    KERJET_CR06_0 JETSUL_0 -0.029808575954508865
    KERDSL_CR06_0 KERBAL_CR06_0 -1.0
    KERDSL_CR06_0 DSLPB_0 -1.0
    KERDSL_CR06_0 DSLSUL_0 0.22019142404549114
    KERJET_CR07_0 KERBAL_CR07_0 -1.0
    KERJET_CR07_0 JETBAL_0 -1.0
    KERJET_CR07_0 JETSUL_0 -0.2712476417553882
    KERDSL_CR07_0 KERBAL_CR07_0 -1.0
    KERDSL_CR07_0 DSLPB_0 -1.0
    KERDSL_CR07_0 DSLSUL_0 -0.02124764175538822
    KERJET_CR08_0 KERBAL_CR08_0 -1.0
    KERJET_CR08_0 JETBAL_0 -1.0
    KERJET_CR08_0 JETSUL_0 -0.03407788647085286
    KERDSL_CR08_0 KERBAL_CR08_0 -1.0
    KERDSL_CR08_0 DSLPB_0 -1.0
    KERDSL_CR08_0 DSLSUL_0 0.21592211352914714
    KERJET_CR09_0 KERBAL_CR09_0 -1.0
    KERJET_CR09_0 JETBAL_0 -1.0
    KERJET_CR09_0 JETSUL_0 -0.28234525480556727
    KERDSL_CR09_0 KERBAL_CR09_0 -1.0
    KERDSL_CR09_0 DSLPB_0 -1.0
    KERDSL_CR09_0 DSLSUL_0 -0.0323452548055673
    KERJET_CR10_0 KERBAL_CR10_0 -1.0
    KERJET_CR10_0 JETBAL_0 -1.0
    KERJET_CR10_0 JETSUL_0 0.11955472215713753
    KERDSL_CR10_0 KERBAL_CR10_0 -1.0
    KERDSL_CR10_0 DSLPB_0 -1.0
    KERDSL_CR10_0 DSLSUL_0 0.3695547221571375
    KERJET_CR11_0 KERBAL_CR11_0 -1.0
    KERJET_CR11_0 JETBAL_0 -1.0
    KERJET_CR11_0 JETSUL_0 -0.07196173795362812
    KERDSL_CR11_0 KERBAL_CR11_0 -1.0
    KERDSL_CR11_0 DSLPB_0 -1.0
    KERDSL_CR11_0 DSLSUL_0 0.17803826204637185
    KERJET_CR12_0 KERBAL_CR12_0 -1.0
    KERJET_CR12_0 JETBAL_0 -1.0
    KERJET_CR12_0 JETSUL_0 0.10641134700745464
    KERDSL_CR12_0 KERBAL_CR12_0 -1.0
    KERDSL_CR12_0 DSLPB_0 -1.0
    KERDSL_CR12_0 DSLSUL_0 0.35641134700745464
    KERJET_CR13_0 KERBAL_CR13_0 -1.0
    KERJET_CR13_0 JETBAL_0 -1.0
    KERJET_CR13_0 JETSUL_0 -0.25267534898315597
    KERDSL_CR13_0 KERBAL_CR13_0 -1.0
    KERDSL_CR13_0 DSLPB_0 -1.0
    KERDSL_CR13_0 DSLSUL_0 -0.002675348983155995
    KERJET_CR14_0 KERBAL_CR14_0 -1.0
    KERJET_CR14_0 JETBAL_0 -1.0
    KERJET_CR14_0 JETSUL_0 -0.1052509462859165
    KERDSL_CR14_0 KERBAL_CR14_0 -1.0
    KERDSL_CR14_0 DSLPB_0 -1.0
    KERDSL_CR14_0 DSLSUL_0 0.14474905371408348
    KERJET_CR15_0 KERBAL_CR15_0 -1.0
    KERJET_CR15_0 JETBAL_0 -1.0
    KERJET_CR15_0 JETSUL_0 -0.27669299781507517
    KERDSL_CR15_0 KERBAL_CR15_0 -1.0
    KERDSL_CR15_0 DSLPB_0 -1.0
    KERDSL_CR15_0 DSLSUL_0 -0.026692997815075177
    KERJET_CR16_0 KERBAL_CR16_0 -1.0
    KERJET_CR16_0 JETBAL_0 -1.0
    KERJET_CR16_0 JETSUL_0 -0.044781224618532234
    KERDSL_CR16_0 KERBAL_CR16_0 -1.0
    KERDSL_CR16_0 DSLPB_0 -1.0
    KERDSL_CR16_0 DSLSUL_0 0.20521877538146777
    KERJET_CR17_0 KERBAL_CR17_0 -1.0
    KERJET_CR17_0 JETBAL_0 -1.0
    KERJET_CR17_0 JETSUL_0 0.12212342356934908
    KERDSL_CR17_0 KERBAL_CR17_0 -1.0
    KERDSL_CR17_0 DSLPB_0 -1.0
    KERDSL_CR17_0 DSLSUL_0 0.3721234235693491
    KERJET_CR18_0 KERBAL_CR18_0 -1.0
    KERJET_CR18_0 JETBAL_0 -1.0
    KERJET_CR18_0 JETSUL_0 -0.26736881327166
    KERDSL_CR18_0 KERBAL_CR18_0 -1.0
    KERDSL_CR18_0 DSLPB_0 -1.0
    KERDSL_CR18_0 DSLSUL_0 -0.01736881327166004
    KERJET_CR19_0 KERBAL_CR19_0 -1.0
    KERJET_CR19_0 JETBAL_0 -1.0
    KERJET_CR19_0 JETSUL_0 -0.1236771386783809
    KERDSL_CR19_0 KERBAL_CR19_0 -1.0
    KERDSL_CR19_0 DSLPB_0 -1.0
    KERDSL_CR19_0 DSLSUL_0 0.12632286132161907
    DSLPOOL_0 DSLPB_0 1.0
    DSLPOOL_0 PBAL_DSL_0 1.0
    LPGPOOL_0 LPGBAL_0 1.0
    LPGPOOL_0 PBAL_LPG_0 1.0
    FOPOOL_0 FOBAL_0 1.0
    FOPOOL_0 PBAL_FO_0 1.0
    BUY_CR00_1 OBJ -59.505221742481616
    BUY_CR00_1 CBAL_CR00_1 1.0
    CINV_CR00_1 OBJ -0.3
    CINV_CR00_1 CBAL_CR00_1 -1.0
    CINV_CR00_1 CBAL_CR00_2 1.0
    CDU_CR00_1 CBAL_CR00_1 -1.0
    CDU_CR00_1 CDUCAP_1 1.0
    CDU_CR00_1 YLPG_CR00_1 -0.013786055933968056
    CDU_CR00_1 YNAP_CR00_1 -0.1214444916358349
    CDU_CR00_1 YKER_CR00_1 -0.10646372452567733
    CDU_CR00_1 YDSL_CR00_1 -0.20292085263352289
    CDU_CR00_1 YVGO_CR00_1 -0.27390944719057636
    CDU_CR00_1 YRES_CR00_1 -0.28147542808042036
    BUY_CR01_1 OBJ -76.26408837557236
    BUY_CR01_1 CBAL_CR01_1 1.0
    CINV_CR01_1 OBJ -0.3
    CINV_CR01_1 CBAL_CR01_1 -1.0
    CINV_CR01_1 CBAL_CR01_2 1.0
    CDU_CR01_1 CBAL_CR01_1 -1.0
    CDU_CR01_1 CDUCAP_1 1.0
    CDU_CR01_1 YLPG_CR01_1 -0.025127543584387436
    CDU_CR01_1 YNAP_CR01_1 -0.2025917905849106
    CDU_CR01_1 YKER_CR01_1 -0.13410952106049506
    CDU_CR01_1 YDSL_CR01_1 -0.24728591651278542
    CDU_CR01_1 YVGO_CR01_1 -0.22897185950088417
    CDU_CR01_1 YRES_CR01_1 -0.16191336875653717
    BUY_CR02_1 OBJ -61.93234904395974
    BUY_CR02_1 CBAL_CR02_1 1.0
    CINV_CR02_1 OBJ -0.3
    CINV_CR02_1 CBAL_CR02_1 -1.0
    CINV_CR02_1 CBAL_CR02_2 1.0
    CDU_CR02_1 CBAL_CR02_1 -1.0
    CDU_CR02_1 CDUCAP_1 1.0
    CDU_CR02_1 YLPG_CR02_1 -0.013444753666275039
    CDU_CR02_1 YNAP_CR02_1 -0.11889710072836579
    CDU_CR02_1 YKER_CR02_1 -0.103840437143255
    CDU_CR02_1 YDSL_CR02_1 -0.21229612809407214
    CDU_CR02_1 YVGO_CR02_1 -0.2628713956905896
    CDU_CR02_1 YRES_CR02_1 -0.28865018467744247
    BUY_CR03_1 OBJ -68.38344459858308
    BUY_CR03_1 CBAL_CR03_1 1.0
    CINV_CR03_1 OBJ -0.3
    CINV_CR03_1 CBAL_CR03_1 -1.0
    CINV_CR03_1 CBAL_CR03_2 1.0
    CDU_CR03_1 CBAL_CR03_1 -1.0
    CDU_CR03_1 CDUCAP_1 1.0
    CDU_CR03_1 YLPG_CR03_1 -0.01400858068810675
    CDU_CR03_1 YNAP_CR03_1 -0.1424923117986131
    CDU_CR03_1 YKER_CR03_1 -0.10784088582669263
    CDU_CR03_1 YDSL_CR03_1 -0.19279120630762445
    CDU_CR03_1 YVGO_CR03_1 -0.28544626211923063
    CDU_CR03_1 YRES_CR03_1 -0.2574207532597324
    BUY_CR04_1 OBJ -73.51987544440794
    BUY_CR04_1 CBAL_CR04_1 1.0
    CINV_CR04_1 OBJ -0.3
    CINV_CR04_1 CBAL_CR04_1 -1.0
    CINV_CR04_1 CBAL_CR04_2 1.0
    CDU_CR04_1 CBAL_CR04_1 -1.0
    CDU_CR04_1 CDUCAP_1 1.0
    CDU_CR04_1 YLPG_CR04_1 -0.02335213093765316
    CDU_CR04_1 YNAP_CR04_1 -0.2292355396921612
    CDU_CR04_1 YKER_CR04_1 -0.14240695851543803
    CDU_CR04_1 YDSL_CR04_1 -0.24384363627499198
    CDU_CR04_1 YVGO_CR04_1 -0.2465326974706559
    CDU_CR04_1 YRES_CR04_1 -0.1146290371090997
    BUY_CR05_1 OBJ -66.99037273699473
    BUY_CR05_1 CBAL_CR05_1 1.0
    CINV_CR05_1 OBJ -0.3
    CINV_CR05_1 CBAL_CR05_1 -1.0
    CINV_CR05_1 CBAL_CR05_2 1.0
    CDU_CR05_1 CBAL_CR05_1 -1.0
    CDU_CR05_1 CDUCAP_1 1.0
    CDU_CR05_1 YLPG_CR05_1 -0.01735729802728813
    CDU_CR05_1 YNAP_CR05_1 -0.16608619710065003
    CDU_CR05_1 YKER_CR05_1 -0.1170544437563835
    CDU_CR05_1 YDSL_CR05_1 -0.22299235889970878
    CDU_CR05_1 YVGO_CR05_1 -0.2433490540516293
    CDU_CR05_1 YRES_CR05_1 -0.23316064816434035
    BUY_CR06_1 OBJ -64.31230750988942
    BUY_CR06_1 CBAL_CR06_1 1.0
    CINV_CR06_1 OBJ -0.3
    CINV_CR06_1 CBAL_CR06_1 -1.0
    CINV_CR06_1 CBAL_CR06_2 1.0
    CDU_CR06_1 CBAL_CR06_1 -1.0
    CDU_CR06_1 CDUCAP_1 1.0
    CDU_CR06_1 YLPG_CR06_1 -0.014219474855875663
    CDU_CR06_1 YNAP_CR06_1 -0.13746806025500902
    CDU_CR06_1 YKER_CR06_1 -0.10533897185985656
    CDU_CR06_1 YDSL_CR06_1 -0.20403840195434858
    CDU_CR06_1 YVGO_CR06_1 -0.26484358994429863
    CDU_CR06_1 YRES_CR06_1 -0.27409150113061165
    BUY_CR07_1 OBJ -73.95955726032696
    BUY_CR07_1 CBAL_CR07_1 1.0
    CINV_CR07_1 OBJ -0.3
    CINV_CR07_1 CBAL_CR07_1 -1.0
    CINV_CR07_1 CBAL_CR07_2 1.0
    CDU_CR07_1 CBAL_CR07_1 -1.0
    CDU_CR07_1 CDUCAP_1 1.0
    CDU_CR07_1 YLPG_CR07_1 -0.01678766142162217
    CDU_CR07_1 YNAP_CR07_1 -0.18341674311422207
    CDU_CR07_1 YKER_CR07_1 -0.13271469159016522
    CDU_CR07_1 YDSL_CR07_1 -0.2249127244045356
    CDU_CR07_1 YVGO_CR07_1 -0.24848613807316539
    CDU_CR07_1 YRES_CR07_1 -0.19368204139628944
    BUY_CR08_1 OBJ -70.87719055906693
    BUY_CR08_1 CBAL_CR08_1 1.0
    CINV_CR08_1 OBJ -0.3
    CINV_CR08_1 CBAL_CR08_1 -1.0
    CINV_CR08_1 CBAL_CR08_2 1.0
    CDU_CR08_1 CBAL_CR08_1 -1.0
    CDU_CR08_1 CDUCAP_1 1.0
    CDU_CR08_1 YLPG_CR08_1 -0.023930881960770135
    CDU_CR08_1 YNAP_CR08_1 -0.199474063989656
    CDU_CR08_1 YKER_CR08_1 -0.13012967624359006
    CDU_CR08_1 YDSL_CR08_1 -0.24906213509239003
    CDU_CR08_1 YVGO_CR08_1 -0.24247509330512357
    CDU_CR08_1 YRES_CR08_1 -0.15492814940847022
    BUY_CR09_1 OBJ -79.8286960642121
    BUY_CR09_1 CBAL_CR09_1 1.0
    CINV_CR09_1 OBJ -0.3
    CINV_CR09_1 CBAL_CR09_1 -1.0
    CINV_CR09_1 CBAL_CR09_2 1.0
    CDU_CR09_1 CBAL_CR09_1 -1.0
    CDU_CR09_1 CDUCAP_1 1.0
    CDU_CR09_1 YLPG_CR09_1 -0.0254414593142613
    CDU_CR09_1 YNAP_CR09_1 -0.2406668892422991
    CDU_CR09_1 YKER_CR09_1 -0.14150533274546892
    CDU_CR09_1 YDSL_CR09_1 -0.23713673044274025
    CDU_CR09_1 YVGO_CR09_1 -0.23566730460149374
    CDU_CR09_1 YRES_CR09_1 -0.11958228365373665
    BUY_CR10_1 OBJ -60.1109997438373
    BUY_CR10_1 CBAL_CR10_1 1.0
    CINV_CR10_1 OBJ -0.3
    CINV_CR10_1 CBAL_CR10_1 -1.0
    CINV_CR10_1 CBAL_CR10_2 1.0
    CDU_CR10_1 CBAL_CR10_1 -1.0
    CDU_CR10_1 CDUCAP_1 1.0
    CDU_CR10_1 YLPG_CR10_1 -0.012631058640766385
    CDU_CR10_1 YNAP_CR10_1 -0.11501159644639905
    CDU_CR10_1 YKER_CR10_1 -0.1080956731900355
    CDU_CR10_1 YDSL_CR10_1 -0.20982857494392457
    CDU_CR10_1 YVGO_CR10_1 -0.2722572086368098
    CDU_CR10_1 YRES_CR10_1 -0.28217588814206473
    BUY_CR11_1 OBJ -72.02489958666808
    BUY_CR11_1 CBAL_CR11_1 1.0
    CINV_CR11_1 OBJ -0.3
    CINV_CR11_1 CBAL_CR11_1 -1.0
    CINV_CR11_1 CBAL_CR11_2 1.0
    CDU_CR11_1 CBAL_CR11_1 -1.0
    CDU_CR11_1 CDUCAP_1 1.0
    CDU_CR11_1 YLPG_CR11_1 -0.018171926805686592
    CDU_CR11_1 YNAP_CR11_1 -0.18017303538659502
    CDU_CR11_1 YKER_CR11_1 -0.11622304467804759
    CDU_CR11_1 YDSL_CR11_1 -0.22678215323461023
    CDU_CR11_1 YVGO_CR11_1 -0.2637522217068048
    CDU_CR11_1 YRES_CR11_1 -0.19489761818825582
    BUY_CR12_1 OBJ -60.87346832065796
    BUY_CR12_1 CBAL_CR12_1 1.0
    CINV_CR12_1 OBJ -0.3
    CINV_CR12_1 CBAL_CR12_1 -1.0
    CINV_CR12_1 CBAL_CR12_2 1.0
    CDU_CR12_1 CBAL_CR12_1 -1.0
    CDU_CR12_1 CDUCAP_1 1.0
    CDU_CR12_1 YLPG_CR12_1 -0.016285402257558677
    CDU_CR12_1 YNAP_CR12_1 -0.1394251111460902
    CDU_CR12_1 YKER_CR12_1 -0.10627583407346515
    CDU_CR12_1 YDSL_CR12_1 -0.2004859030026821
    CDU_CR12_1 YVGO_CR12_1 -0.29053476615254664
    CDU_CR12_1 YRES_CR12_1 -0.2469929833676572
    BUY_CR13_1 OBJ -70.04162295313346
    BUY_CR13_1 CBAL_CR13_1 1.0
    CINV_CR13_1 OBJ -0.3
    CINV_CR13_1 CBAL_CR13_1 -1.0
    CINV_CR13_1 CBAL_CR13_2 1.0
    CDU_CR13_1 CBAL_CR13_1 -1.0
    CDU_CR13_1 CDUCAP_1 1.0
    CDU_CR13_1 YLPG_CR13_1 -0.015405562084299341
    CDU_CR13_1 YNAP_CR13_1 -0.1597372095049784
    CDU_CR13_1 YKER_CR13_1 -0.109230580221756
    CDU_CR13_1 YDSL_CR13_1 -0.20799117245133522
    CDU_CR13_1 YVGO_CR13_1 -0.2743070543343612
    CDU_CR13_1 YRES_CR13_1 -0.23332842140326976
    BUY_CR14_1 OBJ -64.49461746544404
    BUY_CR14_1 CBAL_CR14_1 1.0
    CINV_CR14_1 OBJ -0.3
    CINV_CR14_1 CBAL_CR14_1 -1.0
    CINV_CR14_1 CBAL_CR14_2 1.0
    CDU_CR14_1 CBAL_CR14_1 -1.0
    CDU_CR14_1 CDUCAP_1 1.0
    CDU_CR14_1 YLPG_CR14_1 -0.011676212845503672
    CDU_CR14_1 YNAP_CR14_1 -0.10963647957865116
    CDU_CR14_1 YKER_CR14_1 -0.09755861914812415
    CDU_CR14_1 YDSL_CR14_1 -0.22400035528460593
    CDU_CR14_1 YVGO_CR14_1 -0.27985390356413214
    CDU_CR14_1 YRES_CR14_1 -0.2772744295789829
    BUY_CR15_1 OBJ -66.5799992327399
    BUY_CR15_1 CBAL_CR15_1 1.0
    CINV_CR15_1 OBJ -0.3
    CINV_CR15_1 CBAL_CR15_1 -1.0
    CINV_CR15_1 CBAL_CR15_2 1.0
    CDU_CR15_1 CBAL_CR15_1 -1.0
    CDU_CR15_1 CDUCAP_1 1.0
    CDU_CR15_1 YLPG_CR15_1 -0.010625779986084445
    CDU_CR15_1 YNAP_CR15_1 -0.11766680402271243
    CDU_CR15_1 YKER_CR15_1 -0.09531893966264804
    CDU_CR15_1 YDSL_CR15_1 -0.2087175638151306
    CDU_CR15_1 YVGO_CR15_1 -0.2798835604956035
    CDU_CR15_1 YRES_CR15_1 -0.287787352017821
    BUY_CR16_1 OBJ -71.8165103244813
    BUY_CR16_1 CBAL_CR16_1 1.0
    CINV_CR16_1 OBJ -0.3
    CINV_CR16_1 CBAL_CR16_1 -1.0
    CINV_CR16_1 CBAL_CR16_2 1.0
    CDU_CR16_1 CBAL_CR16_1 -1.0
    CDU_CR16_1 CDUCAP_1 1.0
    CDU_CR16_1 YLPG_CR16_1 -0.021730435986974463
    CDU_CR16_1 YNAP_CR16_1 -0.22346814322949868
    CDU_CR16_1 YKER_CR16_1 -0.12962692092969477
    CDU_CR16_1 YDSL_CR16_1 -0.23580083169350696
    CDU_CR16_1 YVGO_CR16_1 -0.23197545191976185
    CDU_CR16_1 YRES_CR16_1 -0.1573982162405634
    BUY_CR17_1 OBJ -70.69172706516375
    BUY_CR17_1 CBAL_CR17_1 1.0
    CINV_CR17_1 OBJ -0.3
    CINV_CR17_1 CBAL_CR17_1 -1.0
    CINV_CR17_1 CBAL_CR17_2 1.0
    CDU_CR17_1 CBAL_CR17_1 -1.0
    CDU_CR17_1 CDUCAP_1 1.0
    CDU_CR17_1 YLPG_CR17_1 -0.023568928491133005
    CDU_CR17_1 YNAP_CR17_1 -0.24678008017283823
    CDU_CR17_1 YKER_CR17_1 -0.12826932733432603
    CDU_CR17_1 YDSL_CR17_1 -0.2495178182316694
    CDU_CR17_1 YVGO_CR17_1 -0.23510202280801157
    CDU_CR17_1 YRES_CR17_1 -0.1167618229620217
    BUY_CR18_1 OBJ -79.65063117829344
    BUY_CR18_1 CBAL_CR18_1 1.0
    CINV_CR18_1 OBJ -0.3
    CINV_CR18_1 CBAL_CR18_1 -1.0
    CINV_CR18_1 CBAL_CR18_2 1.0
    CDU_CR18_1 CBAL_CR18_1 -1.0
    CDU_CR18_1 CDUCAP_1 1.0
    CDU_CR18_1 YLPG_CR18_1 -0.02478422291723085
    CDU_CR18_1 YNAP_CR18_1 -0.23955258573301338
    CDU_CR18_1 YKER_CR18_1 -0.1322077813000583
    CDU_CR18_1 YDSL_CR18_1 -0.21167154879043004
    CDU_CR18_1 YVGO_CR18_1 -0.24506150244942554
    CDU_CR18_1 YRES_CR18_1 -0.146722358809842
    BUY_CR19_1 OBJ -68.35283938750939
    BUY_CR19_1 CBAL_CR19_1 1.0
    CINV_CR19_1 OBJ -0.3
    CINV_CR19_1 CBAL_CR19_1 -1.0
    CINV_CR19_1 CBAL_CR19_2 1.0
    CDU_CR19_1 CBAL_CR19_1 -1.0
    CDU_CR19_1 CDUCAP_1 1.0
    CDU_CR19_1 YLPG_CR19_1 -0.01626067739955701
    CDU_CR19_1 YNAP_CR19_1 -0.1715066574732045
    CDU_CR19_1 YKER_CR19_1 -0.11836465284470915
    CDU_CR19_1 YDSL_CR19_1 -0.20874443204167248
    CDU_CR19_1 YVGO_CR19_1 -0.2445178967491453
    CDU_CR19_1 YRES_CR19_1 -0.24060568349171155
    LPG_CR00_1 YLPG_CR00_1 1.0
    LPG_CR00_1 LPGBAL_1 -1.0
    NAP_CR00_1 YNAP_CR00_1 1.0
    NAP_CR00_1 NAPBAL_CR00_1 1.0
    KER_CR00_1 YKER_CR00_1 1.0
    KER_CR00_1 KERBAL_CR00_1 1.0
    DSL_CR00_1 YDSL_CR00_1 1.0
    DSL_CR00_1 DSLBAL_CR00_1 1.0
    VGO_CR00_1 YVGO_CR00_1 1.0
    VGO_CR00_1 VGOBAL_CR00_1 1.0
    RES_CR00_1 YRES_CR00_1 1.0
    RES_CR00_1 RESSPLIT_CR00_1 1.0
    LPG_CR01_1 YLPG_CR01_1 1.0
    LPG_CR01_1 LPGBAL_1 -1.0
    NAP_CR01_1 YNAP_CR01_1 1.0
    NAP_CR01_1 NAPBAL_CR01_1 1.0
    KER_CR01_1 YKER_CR01_1 1.0
    KER_CR01_1 KERBAL_CR01_1 1.0
    DSL_CR01_1 YDSL_CR01_1 1.0
    DSL_CR01_1 DSLBAL_CR01_1 1.0
    VGO_CR01_1 YVGO_CR01_1 1.0
    VGO_CR01_1 VGOBAL_CR01_1 1.0
    RES_CR01_1 YRES_CR01_1 1.0
    RES_CR01_1 RESSPLIT_CR01_1 1.0
    LPG_CR02_1 YLPG_CR02_1 1.0
    LPG_CR02_1 LPGBAL_1 -1.0
    NAP_CR02_1 YNAP_CR02_1 1.0
    NAP_CR02_1 NAPBAL_CR02_1 1.0
    KER_CR02_1 YKER_CR02_1 1.0
    KER_CR02_1 KERBAL_CR02_1 1.0
    DSL_CR02_1 YDSL_CR02_1 1.0
    DSL_CR02_1 DSLBAL_CR02_1 1.0
    VGO_CR02_1 YVGO_CR02_1 1.0
    VGO_CR02_1 VGOBAL_CR02_1 1.0
    RES_CR02_1 YRES_CR02_1 1.0
    RES_CR02_1 RESSPLIT_CR02_1 1.0
    LPG_CR03_1 YLPG_CR03_1 1.0
    LPG_CR03_1 LPGBAL_1 -1.0
    NAP_CR03_1 YNAP_CR03_1 1.0
    NAP_CR03_1 NAPBAL_CR03_1 1.0
    KER_CR03_1 YKER_CR03_1 1.0
    KER_CR03_1 KERBAL_CR03_1 1.0
    DSL_CR03_1 YDSL_CR03_1 1.0
    DSL_CR03_1 DSLBAL_CR03_1 1.0
    VGO_CR03_1 YVGO_CR03_1 1.0
    VGO_CR03_1 VGOBAL_CR03_1 1.0
    RES_CR03_1 YRES_CR03_1 1.0
    RES_CR03_1 RESSPLIT_CR03_1 1.0
    LPG_CR04_1 YLPG_CR04_1 1.0
    LPG_CR04_1 LPGBAL_1 -1.0
    NAP_CR04_1 YNAP_CR04_1 1.0
    NAP_CR04_1 NAPBAL_CR04_1 1.0
    KER_CR04_1 YKER_CR04_1 1.0
    KER_CR04_1 KERBAL_CR04_1 1.0
    DSL_CR04_1 YDSL_CR04_1 1.0
    DSL_CR04_1 DSLBAL_CR04_1 1.0
    VGO_CR04_1 YVGO_CR04_1 1.0
    VGO_CR04_1 VGOBAL_CR04_1 1.0
    RES_CR04_1 YRES_CR04_1 1.0
    RES_CR04_1 RESSPLIT_CR04_1 1.0
    LPG_CR05_1 YLPG_CR05_1 1.0
    LPG_CR05_1 LPGBAL_1 -1.0
    NAP_CR05_1 YNAP_CR05_1 1.0
    NAP_CR05_1 NAPBAL_CR05_1 1.0
    KER_CR05_1 YKER_CR05_1 1.0
    KER_CR05_1 KERBAL_CR05_1 1.0
    DSL_CR05_1 YDSL_CR05_1 1.0
    DSL_CR05_1 DSLBAL_CR05_1 1.0
    VGO_CR05_1 YVGO_CR05_1 1.0
    VGO_CR05_1 VGOBAL_CR05_1 1.0
    RES_CR05_1 YRES_CR05_1 1.0
    RES_CR05_1 RESSPLIT_CR05_1 1.0
    LPG_CR06_1 YLPG_CR06_1 1.0
    LPG_CR06_1 LPGBAL_1 -1.0
    NAP_CR06_1 YNAP_CR06_1 1.0
    NAP_CR06_1 NAPBAL_CR06_1 1.0
    KER_CR06_1 YKER_CR06_1 1.0
    KER_CR06_1 KERBAL_CR06_1 1.0
    DSL_CR06_1 YDSL_CR06_1 1.0
    DSL_CR06_1 DSLBAL_CR06_1 1.0
    VGO_CR06_1 YVGO_CR06_1 1.0
    VGO_CR06_1 VGOBAL_CR06_1 1.0
    RES_CR06_1 YRES_CR06_1 1.0
    RES_CR06_1 RESSPLIT_CR06_1 1.0
    LPG_CR07_1 YLPG_CR07_1 1.0
    LPG_CR07_1 LPGBAL_1 -1.0
    NAP_CR07_1 YNAP_CR07_1 1.0
    NAP_CR07_1 NAPBAL_CR07_1 1.0
    KER_CR07_1 YKER_CR07_1 1.0
    KER_CR07_1 KERBAL_CR07_1 1.0
    DSL_CR07_1 YDSL_CR07_1 1.0
    DSL_CR07_1 DSLBAL_CR07_1 1.0
    VGO_CR07_1 YVGO_CR07_1 1.0
    VGO_CR07_1 VGOBAL_CR07_1 1.0
    RES_CR07_1 YRES_CR07_1 1.0
    RES_CR07_1 RESSPLIT_CR07_1 1.0
    LPG_CR08_1 YLPG_CR08_1 1.0
    LPG_CR08_1 LPGBAL_1 -1.0
    NAP_CR08_1 YNAP_CR08_1 1.0
    NAP_CR08_1 NAPBAL_CR08_1 1.0
    KER_CR08_1 YKER_CR08_1 1.0
    KER_CR08_1 KERBAL_CR08_1 1.0
    DSL_CR08_1 YDSL_CR08_1 1.0
    DSL_CR08_1 DSLBAL_CR08_1 1.0
    VGO_CR08_1 YVGO_CR08_1 1.0
    VGO_CR08_1 VGOBAL_CR08_1 1.0
    RES_CR08_1 YRES_CR08_1 1.0
    RES_CR08_1 RESSPLIT_CR08_1 1.0
    LPG_CR09_1 YLPG_CR09_1 1.0
    LPG_CR09_1 LPGBAL_1 -1.0
    NAP_CR09_1 YNAP_CR09_1 1.0
    NAP_CR09_1 NAPBAL_CR09_1 1.0
    KER_CR09_1 YKER_CR09_1 1.0
    KER_CR09_1 KERBAL_CR09_1 1.0
    DSL_CR09_1 YDSL_CR09_1 1.0
    DSL_CR09_1 DSLBAL_CR09_1 1.0
    VGO_CR09_1 YVGO_CR09_1 1.0
    VGO_CR09_1 VGOBAL_CR09_1 1.0
    RES_CR09_1 YRES_CR09_1 1.0
    RES_CR09_1 RESSPLIT_CR09_1 1.0
    LPG_CR10_1 YLPG_CR10_1 1.0
    LPG_CR10_1 LPGBAL_1 -1.0
    NAP_CR10_1 YNAP_CR10_1 1.0
    NAP_CR10_1 NAPBAL_CR10_1 1.0
    KER_CR10_1 YKER_CR10_1 1.0
    KER_CR10_1 KERBAL_CR10_1 1.0
    DSL_CR10_1 YDSL_CR10_1 1.0
    DSL_CR10_1 DSLBAL_CR10_1 1.0
    VGO_CR10_1 YVGO_CR10_1 1.0
    VGO_CR10_1 VGOBAL_CR10_1 1.0
    RES_CR10_1 YRES_CR10_1 1.0
    RES_CR10_1 RESSPLIT_CR10_1 1.0
    LPG_CR11_1 YLPG_CR11_1 1.0
    LPG_CR11_1 LPGBAL_1 -1.0
    NAP_CR11_1 YNAP_CR11_1 1.0
    NAP_CR11_1 NAPBAL_CR11_1 1.0
    KER_CR11_1 YKER_CR11_1 1.0
    KER_CR11_1 KERBAL_CR11_1 1.0
    DSL_CR11_1 YDSL_CR11_1 1.0
    DSL_CR11_1 DSLBAL_CR11_1 1.0
    VGO_CR11_1 YVGO_CR11_1 1.0
    VGO_CR11_1 VGOBAL_CR11_1 1.0
    RES_CR11_1 YRES_CR11_1 1.0
    RES_CR11_1 RESSPLIT_CR11_1 1.0
    LPG_CR12_1 YLPG_CR12_1 1.0
    LPG_CR12_1 LPGBAL_1 -1.0
    NAP_CR12_1 YNAP_CR12_1 1.0
    NAP_CR12_1 NAPBAL_CR12_1 1.0
    KER_CR12_1 YKER_CR12_1 1.0
    KER_CR12_1 KERBAL_CR12_1 1.0
    DSL_CR12_1 YDSL_CR12_1 1.0
    DSL_CR12_1 DSLBAL_CR12_1 1.0
    VGO_CR12_1 YVGO_CR12_1 1.0
    VGO_CR12_1 VGOBAL_CR12_1 1.0
    RES_CR12_1 YRES_CR12_1 1.0
    RES_CR12_1 RESSPLIT_CR12_1 1.0
    LPG_CR13_1 YLPG_CR13_1 1.0
    LPG_CR13_1 LPGBAL_1 -1.0
    NAP_CR13_1 YNAP_CR13_1 1.0
    NAP_CR13_1 NAPBAL_CR13_1 1.0
    KER_CR13_1 YKER_CR13_1 1.0
    KER_CR13_1 KERBAL_CR13_1 1.0
    DSL_CR13_1 YDSL_CR13_1 1.0
    DSL_CR13_1 DSLBAL_CR13_1 1.0
    VGO_CR13_1 YVGO_CR13_1 1.0
    VGO_CR13_1 VGOBAL_CR13_1 1.0
    RES_CR13_1 YRES_CR13_1 1.0
    RES_CR13_1 RESSPLIT_CR13_1 1.0
    LPG_CR14_1 YLPG_CR14_1 1.0
    LPG_CR14_1 LPGBAL_1 -1.0
    NAP_CR14_1 YNAP_CR14_1 1.0
    NAP_CR14_1 NAPBAL_CR14_1 1.0
    KER_CR14_1 YKER_CR14_1 1.0
    KER_CR14_1 KERBAL_CR14_1 1.0
    DSL_CR14_1 YDSL_CR14_1 1.0
    DSL_CR14_1 DSLBAL_CR14_1 1.0
    VGO_CR14_1 YVGO_CR14_1 1.0
    VGO_CR14_1 VGOBAL_CR14_1 1.0
    RES_CR14_1 YRES_CR14_1 1.0
    RES_CR14_1 RESSPLIT_CR14_1 1.0
    LPG_CR15_1 YLPG_CR15_1 1.0
    LPG_CR15_1 LPGBAL_1 -1.0
    NAP_CR15_1 YNAP_CR15_1 1.0
    NAP_CR15_1 NAPBAL_CR15_1 1.0
    KER_CR15_1 YKER_CR15_1 1.0
    KER_CR15_1 KERBAL_CR15_1 1.0
    DSL_CR15_1 YDSL_CR15_1 1.0
    DSL_CR15_1 DSLBAL_CR15_1 1.0
    VGO_CR15_1 YVGO_CR15_1 1.0
    VGO_CR15_1 VGOBAL_CR15_1 1.0
    RES_CR15_1 YRES_CR15_1 1.0
    RES_CR15_1 RESSPLIT_CR15_1 1.0
    LPG_CR16_1 YLPG_CR16_1 1.0
    LPG_CR16_1 LPGBAL_1 -1.0
    NAP_CR16_1 YNAP_CR16_1 1.0
    NAP_CR16_1 NAPBAL_CR16_1 1.0
    KER_CR16_1 YKER_CR16_1 1.0
    KER_CR16_1 KERBAL_CR16_1 1.0
    DSL_CR16_1 YDSL_CR16_1 1.0
    DSL_CR16_1 DSLBAL_CR16_1 1.0
    VGO_CR16_1 YVGO_CR16_1 1.0
    VGO_CR16_1 VGOBAL_CR16_1 1.0
    RES_CR16_1 YRES_CR16_1 1.0
    RES_CR16_1 RESSPLIT_CR16_1 1.0
    LPG_CR17_1 YLPG_CR17_1 1.0
    LPG_CR17_1 LPGBAL_1 -1.0
    NAP_CR17_1 YNAP_CR17_1 1.0
    NAP_CR17_1 NAPBAL_CR17_1 1.0
    KER_CR17_1 YKER_CR17_1 1.0
    KER_CR17_1 KERBAL_CR17_1 1.0
    DSL_CR17_1 YDSL_CR17_1 1.0
    DSL_CR17_1 DSLBAL_CR17_1 1.0
    VGO_CR17_1 YVGO_CR17_1 1.0
    VGO_CR17_1 VGOBAL_CR17_1 1.0
    RES_CR17_1 YRES_CR17_1 1.0
    RES_CR17_1 RESSPLIT_CR17_1 1.0
    LPG_CR18_1 YLPG_CR18_1 1.0
    LPG_CR18_1 LPGBAL_1 -1.0
    NAP_CR18_1 YNAP_CR18_1 1.0
    NAP_CR18_1 NAPBAL_CR18_1 1.0
    KER_CR18_1 YKER_CR18_1 1.0
    KER_CR18_1 KERBAL_CR18_1 1.0
    DSL_CR18_1 YDSL_CR18_1 1.0
    DSL_CR18_1 DSLBAL_CR18_1 1.0
    VGO_CR18_1 YVGO_CR18_1 1.0
    VGO_CR18_1 VGOBAL_CR18_1 1.0
    RES_CR18_1 YRES_CR18_1 1.0
    RES_CR18_1 RESSPLIT_CR18_1 1.0
    LPG_CR19_1 YLPG_CR19_1 1.0
    LPG_CR19_1 LPGBAL_1 -1.0
    NAP_CR19_1 YNAP_CR19_1 1.0
    NAP_CR19_1 NAPBAL_CR19_1 1.0
    KER_CR19_1 YKER_CR19_1 1.0
    KER_CR19_1 KERBAL_CR19_1 1.0
    DSL_CR19_1 YDSL_CR19_1 1.0
    DSL_CR19_1 DSLBAL_CR19_1 1.0
    VGO_CR19_1 YVGO_CR19_1 1.0
    VGO_CR19_1 VGOBAL_CR19_1 1.0
    RES_CR19_1 YRES_CR19_1 1.0
    RES_CR19_1 RESSPLIT_CR19_1 1.0
    VDUIN_CR00_1 RESSPLIT_CR00_1 -1.0
    VDUIN_CR00_1 VDUY1_CR00_1 -0.45
    VDUIN_CR00_1 VDUY2_CR00_1 -0.55
    VDUIN_CR00_1 VDUCAP_1 1.0
    RESFO_CR00_1 RESSPLIT_CR00_1 -1.0
    RESFO_CR00_1 FOBAL_1 -1.0
    RESFO_CR00_1 FOSUL_1 1.9540891690108433
    VGO2_CR00_1 VDUY1_CR00_1 1.0
    VGO2_CR00_1 VGOBAL_CR00_1 1.0
    VR_CR00_1 VDUY2_CR00_1 1.0
    VR_CR00_1 FOBAL_1 -1.0
    VR_CR00_1 FOSUL_1 3.5903159197140964
    VDUIN_CR01_1 RESSPLIT_CR01_1 -1.0
    VDUIN_CR01_1 VDUY1_CR01_1 -0.45
    VDUIN_CR01_1 VDUY2_CR01_1 -0.55
    VDUIN_CR01_1 VDUCAP_1 1.0
    RESFO_CR01_1 RESSPLIT_CR01_1 -1.0
    RESFO_CR01_1 FOBAL_1 -1.0
    RESFO_CR01_1 FOSUL_1 -0.6168441789886687
    VGO2_CR01_1 VDUY1_CR01_1 1.0
    VGO2_CR01_1 VGOBAL_CR01_1 1.0
    VR_CR01_1 VDUY2_CR01_1 1.0
    VR_CR01_1 FOBAL_1 -1.0
    VR_CR01_1 FOSUL_1 0.24810256731473057
    VDUIN_CR02_1 RESSPLIT_CR02_1 -1.0
    VDUIN_CR02_1 VDUY1_CR02_1 -0.45
    VDUIN_CR02_1 VDUY2_CR02_1 -0.55
    VDUIN_CR02_1 VDUCAP_1 1.0
    RESFO_CR02_1 RESSPLIT_CR02_1 -1.0
    RESFO_CR02_1 FOBAL_1 -1.0
    RESFO_CR02_1 FOSUL_1 0.05675733131967897
    VGO2_CR02_1 VDUY1_CR02_1 1.0
    VGO2_CR02_1 VGOBAL_CR02_1 1.0
    VR_CR02_1 VDUY2_CR02_1 1.0
    VR_CR02_1 FOBAL_1 -1.0
    VR_CR02_1 FOSUL_1 1.1237845307155832
    VDUIN_CR03_1 RESSPLIT_CR03_1 -1.0
    VDUIN_CR03_1 VDUY1_CR03_1 -0.45
    VDUIN_CR03_1 VDUY2_CR03_1 -0.55
    VDUIN_CR03_1 VDUCAP_1 1.0
    RESFO_CR03_1 RESSPLIT_CR03_1 -1.0
    RESFO_CR03_1 FOBAL_1 -1.0
    RESFO_CR03_1 FOSUL_1 -1.8686274424458973
    VGO2_CR03_1 VDUY1_CR03_1 1.0
    VGO2_CR03_1 VGOBAL_CR03_1 1.0
    VR_CR03_1 VDUY2_CR03_1 1.0
    VR_CR03_1 FOBAL_1 -1.0
    VR_CR03_1 FOSUL_1 -1.3792156751796663
    VDUIN_CR04_1 RESSPLIT_CR04_1 -1.0
    VDUIN_CR04_1 VDUY1_CR04_1 -0.45
    VDUIN_CR04_1 VDUY2_CR04_1 -0.55
    VDUIN_CR04_1 VDUCAP_1 1.0
    RESFO_CR04_1 RESSPLIT_CR04_1 -1.0
    RESFO_CR04_1 FOBAL_1 -1.0
    RESFO_CR04_1 FOSUL_1 2.031668478530798
    VGO2_CR04_1 VDUY1_CR04_1 1.0
    VGO2_CR04_1 VGOBAL_CR04_1 1.0
    VR_CR04_1 VDUY2_CR04_1 1.0
    VR_CR04_1 FOBAL_1 -1.0
    VR_CR04_1 FOSUL_1 3.6911690220900377
    VDUIN_CR05_1 RESSPLIT_CR05_1 -1.0
    VDUIN_CR05_1 VDUY1_CR05_1 -0.45
    VDUIN_CR05_1 VDUY2_CR05_1 -0.55
    VDUIN_CR05_1 VDUCAP_1 1.0
    RESFO_CR05_1 RESSPLIT_CR05_1 -1.0
    RESFO_CR05_1 FOBAL_1 -1.0
    RESFO_CR05_1 FOSUL_1 0.3429997580900688
    VGO2_CR05_1 VDUY1_CR05_1 1.0
    VGO2_CR05_1 VGOBAL_CR05_1 1.0
    VR_CR05_1 VDUY2_CR05_1 1.0
    VR_CR05_1 FOBAL_1 -1.0
    VR_CR05_1 FOSUL_1 1.4958996855170898
    VDUIN_CR06_1 RESSPLIT_CR06_1 -1.0
    VDUIN_CR06_1 VDUY1_CR06_1 -0.45
    VDUIN_CR06_1 VDUY2_CR06_1 -0.55
    VDUIN_CR06_1 VDUCAP_1 1.0
    RESFO_CR06_1 RESSPLIT_CR06_1 -1.0
    RESFO_CR06_1 FOBAL_1 -1.0
    RESFO_CR06_1 FOSUL_1 0.10255232060654862
    VGO2_CR06_1 VDUY1_CR06_1 1.0
    VGO2_CR06_1 VGOBAL_CR06_1 1.0
    VR_CR06_1 VDUY2_CR06_1 1.0
    VR_CR06_1 FOBAL_1 -1.0
    VR_CR06_1 FOSUL_1 1.1833180167885136
    VDUIN_CR07_1 RESSPLIT_CR07_1 -1.0
    VDUIN_CR07_1 VDUY1_CR07_1 -0.45
    VDUIN_CR07_1 VDUY2_CR07_1 -0.55
    VDUIN_CR07_1 VDUCAP_1 1.0
    RESFO_CR07_1 RESSPLIT_CR07_1 -1.0
    RESFO_CR07_1 FOBAL_1 -1.0
    RESFO_CR07_1 FOSUL_1 -3.116635223405176
    VGO2_CR07_1 VDUY1_CR07_1 1.0
    VGO2_CR07_1 VGOBAL_CR07_1 1.0
    VR_CR07_1 VDUY2_CR07_1 1.0
    VR_CR07_1 FOBAL_1 -1.0
    VR_CR07_1 FOSUL_1 -3.001625790426729
    VDUIN_CR08_1 RESSPLIT_CR08_1 -1.0
    VDUIN_CR08_1 VDUY1_CR08_1 -0.45
    VDUIN_CR08_1 VDUY2_CR08_1 -0.55
    VDUIN_CR08_1 VDUCAP_1 1.0
    RESFO_CR08_1 RESSPLIT_CR08_1 -1.0
    RESFO_CR08_1 FOBAL_1 -1.0
    RESFO_CR08_1 FOSUL_1 0.0456281803886287
    VGO2_CR08_1 VDUY1_CR08_1 1.0
    VGO2_CR08_1 VGOBAL_CR08_1 1.0
    VR_CR08_1 VDUY2_CR08_1 1.0
    VR_CR08_1 FOBAL_1 -1.0
    VR_CR08_1 FOSUL_1 1.109316634505218
    VDUIN_CR09_1 RESSPLIT_CR09_1 -1.0
    VDUIN_CR09_1 VDUY1_CR09_1 -0.45
    VDUIN_CR09_1 VDUY2_CR09_1 -0.55
    VDUIN_CR09_1 VDUCAP_1 1.0
    RESFO_CR09_1 RESSPLIT_CR09_1 -1.0
    RESFO_CR09_1 FOBAL_1 -1.0
    RESFO_CR09_1 FOSUL_1 -3.264603397407564
    VGO2_CR09_1 VDUY1_CR09_1 1.0
    VGO2_CR09_1 VGOBAL_CR09_1 1.0
    VR_CR09_1 VDUY2_CR09_1 1.0
    VR_CR09_1 FOBAL_1 -1.0
    VR_CR09_1 FOSUL_1 -3.1939844166298332
    VDUIN_CR10_1 RESSPLIT_CR10_1 -1.0
    VDUIN_CR10_1 VDUY1_CR10_1 -0.45
    VDUIN_CR10_1 VDUY2_CR10_1 -0.55
    VDUIN_CR10_1 VDUCAP_1 1.0
    RESFO_CR10_1 RESSPLIT_CR10_1 -1.0
    RESFO_CR10_1 FOBAL_1 -1.0
    RESFO_CR10_1 FOSUL_1 2.094062962095167
    VGO2_CR10_1 VDUY1_CR10_1 1.0
    VGO2_CR10_1 VGOBAL_CR10_1 1.0
    VR_CR10_1 VDUY2_CR10_1 1.0
    VR_CR10_1 FOBAL_1 -1.0
    VR_CR10_1 FOSUL_1 3.7722818507237177
    VDUIN_CR11_1 RESSPLIT_CR11_1 -1.0
    VDUIN_CR11_1 VDUY1_CR11_1 -0.45
    VDUIN_CR11_1 VDUY2_CR11_1 -0.55
    VDUIN_CR11_1 VDUCAP_1 1.0
    RESFO_CR11_1 RESSPLIT_CR11_1 -1.0
    RESFO_CR11_1 FOBAL_1 -1.0
    RESFO_CR11_1 FOSUL_1 -0.4594898393817082
    VGO2_CR11_1 VDUY1_CR11_1 1.0
    VGO2_CR11_1 VGOBAL_CR11_1 1.0
    VR_CR11_1 VDUY2_CR11_1 1.0
    VR_CR11_1 FOBAL_1 -1.0
    VR_CR11_1 FOSUL_1 0.4526632088037794
    VDUIN_CR12_1 RESSPLIT_CR12_1 -1.0
    VDUIN_CR12_1 VDUY1_CR12_1 -0.45
    VDUIN_CR12_1 VDUY2_CR12_1 -0.55
    VDUIN_CR12_1 VDUCAP_1 1.0
    RESFO_CR12_1 RESSPLIT_CR12_1 -1.0
    RESFO_CR12_1 FOBAL_1 -1.0
    RESFO_CR12_1 FOSUL_1 1.9188179600993953
    VGO2_CR12_1 VDUY1_CR12_1 1.0
    VGO2_CR12_1 VGOBAL_CR12_1 1.0
    VR_CR12_1 VDUY2_CR12_1 1.0
    VR_CR12_1 FOBAL_1 -1.0
    VR_CR12_1 FOSUL_1 3.544463348129214
    VDUIN_CR13_1 RESSPLIT_CR13_1 -1.0
    VDUIN_CR13_1 VDUY1_CR13_1 -0.45
    VDUIN_CR13_1 VDUY2_CR13_1 -0.55
    VDUIN_CR13_1 VDUCAP_1 1.0
    RESFO_CR13_1 RESSPLIT_CR13_1 -1.0
    RESFO_CR13_1 FOBAL_1 -1.0
    RESFO_CR13_1 FOSUL_1 -2.8690046531087465
    VGO2_CR13_1 VDUY1_CR13_1 1.0
    VGO2_CR13_1 VGOBAL_CR13_1 1.0
    VR_CR13_1 VDUY2_CR13_1 1.0
    VR_CR13_1 FOBAL_1 -1.0
    VR_CR13_1 FOSUL_1 -2.6797060490413704
    VDUIN_CR14_1 RESSPLIT_CR14_1 -1.0
    VDUIN_CR14_1 VDUY1_CR14_1 -0.45
    VDUIN_CR14_1 VDUY2_CR14_1 -0.55
    VDUIN_CR14_1 VDUCAP_1 1.0
    RESFO_CR14_1 RESSPLIT_CR14_1 -1.0
    RESFO_CR14_1 FOBAL_1 -1.0
    RESFO_CR14_1 FOSUL_1 -0.9033459504788866
    VGO2_CR14_1 VDUY1_CR14_1 1.0
    VGO2_CR14_1 VGOBAL_CR14_1 1.0
    VR_CR14_1 VDUY2_CR14_1 1.0
    VR_CR14_1 FOBAL_1 -1.0
    VR_CR14_1 FOSUL_1 -0.12434973562255225
    VDUIN_CR15_1 RESSPLIT_CR15_1 -1.0
    VDUIN_CR15_1 VDUY1_CR15_1 -0.45
    VDUIN_CR15_1 VDUY2_CR15_1 -0.55
    VDUIN_CR15_1 VDUCAP_1 1.0
    RESFO_CR15_1 RESSPLIT_CR15_1 -1.0
    RESFO_CR15_1 FOBAL_1 -1.0
    RESFO_CR15_1 FOSUL_1 -3.189239970867669
    VGO2_CR15_1 VDUY1_CR15_1 1.0
    VGO2_CR15_1 VGOBAL_CR15_1 1.0
    VR_CR15_1 VDUY2_CR15_1 1.0
    VR_CR15_1 FOBAL_1 -1.0
    VR_CR15_1 FOSUL_1 -3.0960119621279696
    VDUIN_CR16_1 RESSPLIT_CR16_1 -1.0
    VDUIN_CR16_1 VDUY1_CR16_1 -0.45
    VDUIN_CR16_1 VDUY2_CR16_1 -0.55
    VDUIN_CR16_1 VDUCAP_1 1.0
    RESFO_CR16_1 RESSPLIT_CR16_1 -1.0
    RESFO_CR16_1 FOBAL_1 -1.0
    RESFO_CR16_1 FOSUL_1 -0.09708299491376327
    VGO2_CR16_1 VDUY1_CR16_1 1.0
    VGO2_CR16_1 VGOBAL_CR16_1 1.0
    VR_CR16_1 VDUY2_CR16_1 1.0
    VR_CR16_1 FOBAL_1 -1.0
    VR_CR16_1 FOSUL_1 0.9237921066121082
    VDUIN_CR17_1 RESSPLIT_CR17_1 -1.0
    VDUIN_CR17_1 VDUY1_CR17_1 -0.45
    VDUIN_CR17_1 VDUY2_CR17_1 -0.55
    VDUIN_CR17_1 VDUCAP_1 1.0
    RESFO_CR17_1 RESSPLIT_CR17_1 -1.0
    RESFO_CR17_1 FOBAL_1 -1.0
    RESFO_CR17_1 FOSUL_1 2.128312314257988
    VGO2_CR17_1 VDUY1_CR17_1 1.0
    VGO2_CR17_1 VGOBAL_CR17_1 1.0
    VR_CR17_1 VDUY2_CR17_1 1.0
    VR_CR17_1 FOBAL_1 -1.0
    VR_CR17_1 FOSUL_1 3.8168060085353845
    VDUIN_CR18_1 RESSPLIT_CR18_1 -1.0
    VDUIN_CR18_1 VDUY1_CR18_1 -0.45
    VDUIN_CR18_1 VDUY2_CR18_1 -0.55
    VDUIN_CR18_1 VDUCAP_1 1.0
    RESFO_CR18_1 RESSPLIT_CR18_1 -1.0
    RESFO_CR18_1 FOBAL_1 -1.0
    RESFO_CR18_1 FOSUL_1 -3.0649175102888004
    VGO2_CR18_1 VDUY1_CR18_1 1.0
    VGO2_CR18_1 VGOBAL_CR18_1 1.0
    VR_CR18_1 VDUY2_CR18_1 1.0
    VR_CR18_1 FOBAL_1 -1.0
    VR_CR18_1 FOSUL_1 -2.9343927633754405
    VDUIN_CR19_1 RESSPLIT_CR19_1 -1.0
    VDUIN_CR19_1 VDUY1_CR19_1 -0.45
    VDUIN_CR19_1 VDUY2_CR19_1 -0.55
    VDUIN_CR19_1 VDUCAP_1 1.0
    RESFO_CR19_1 RESSPLIT_CR19_1 -1.0
    RESFO_CR19_1 FOBAL_1 -1.0
    RESFO_CR19_1 FOSUL_1 -1.1490285157117452
    VGO2_CR19_1 VDUY1_CR19_1 1.0
    VGO2_CR19_1 VGOBAL_CR19_1 1.0
    VR_CR19_1 VDUY2_CR19_1 1.0
    VR_CR19_1 FOBAL_1 -1.0
    VR_CR19_1 FOSUL_1 -0.4437370704252688
    FCCIN_CR00_1 OBJ -2.5
    FCCIN_CR00_1 VGOBAL_CR00_1 -1.0
    FCCIN_CR00_1 FCCCAP_1 1.0
    FCCIN_CR00_1 FCCY_FCCG_1 -0.55
    FCCIN_CR00_1 FCCY_LCO_1 -0.2
    FCCIN_CR00_1 FCCY_FLPG_1 -0.15
    FCCIN_CR00_1 FCCY_SLURRY_1 -0.07
    FCCIN_CR01_1 OBJ -2.5
    FCCIN_CR01_1 VGOBAL_CR01_1 -1.0
    FCCIN_CR01_1 FCCCAP_1 1.0
    FCCIN_CR01_1 FCCY_FCCG_1 -0.55
    FCCIN_CR01_1 FCCY_LCO_1 -0.2
    FCCIN_CR01_1 FCCY_FLPG_1 -0.15
    FCCIN_CR01_1 FCCY_SLURRY_1 -0.07
    FCCIN_CR02_1 OBJ -2.5
    FCCIN_CR02_1 VGOBAL_CR02_1 -1.0
    FCCIN_CR02_1 FCCCAP_1 1.0
    FCCIN_CR02_1 FCCY_FCCG_1 -0.55
    FCCIN_CR02_1 FCCY_LCO_1 -0.2
    FCCIN_CR02_1 FCCY_FLPG_1 -0.15
    FCCIN_CR02_1 FCCY_SLURRY_1 -0.07
    FCCIN_CR03_1 OBJ -2.5
    FCCIN_CR03_1 VGOBAL_CR03_1 -1.0
    FCCIN_CR03_1 FCCCAP_1 1.0
    FCCIN_CR03_1 FCCY_FCCG_1 -0.55
    FCCIN_CR03_1 FCCY_LCO_1 -0.2
    FCCIN_CR03_1 FCCY_FLPG_1 -0.15
    FCCIN_CR03_1 FCCY_SLURRY_1 -0.07
    FCCIN_CR04_1 OBJ -2.5
    FCCIN_CR04_1 VGOBAL_CR04_1 -1.0
    FCCIN_CR04_1 FCCCAP_1 1.0
    FCCIN_CR04_1 FCCY_FCCG_1 -0.55
    FCCIN_CR04_1 FCCY_LCO_1 -0.2
    FCCIN_CR04_1 FCCY_FLPG_1 -0.15
    FCCIN_CR04_1 FCCY_SLURRY_1 -0.07
    FCCIN_CR05_1 OBJ -2.5
    FCCIN_CR05_1 VGOBAL_CR05_1 -1.0
    FCCIN_CR05_1 FCCCAP_1 1.0
    FCCIN_CR05_1 FCCY_FCCG_1 -0.55
    FCCIN_CR05_1 FCCY_LCO_1 -0.2
    FCCIN_CR05_1 FCCY_FLPG_1 -0.15
    FCCIN_CR05_1 FCCY_SLURRY_1 -0.07
    FCCIN_CR06_1 OBJ -2.5
    FCCIN_CR06_1 VGOBAL_CR06_1 -1.0
    FCCIN_CR06_1 FCCCAP_1 1.0
    FCCIN_CR06_1 FCCY_FCCG_1 -0.55
    FCCIN_CR06_1 FCCY_LCO_1 -0.2
    FCCIN_CR06_1 FCCY_FLPG_1 -0.15
    FCCIN_CR06_1 FCCY_SLURRY_1 -0.07
    FCCIN_CR07_1 OBJ -2.5
    FCCIN_CR07_1 VGOBAL_CR07_1 -1.0
    FCCIN_CR07_1 FCCCAP_1 1.0
    FCCIN_CR07_1 FCCY_FCCG_1 -0.55
    FCCIN_CR07_1 FCCY_LCO_1 -0.2
    FCCIN_CR07_1 FCCY_FLPG_1 -0.15
    FCCIN_CR07_1 FCCY_SLURRY_1 -0.07
    FCCIN_CR08_1 OBJ -2.5
    FCCIN_CR08_1 VGOBAL_CR08_1 -1.0
    FCCIN_CR08_1 FCCCAP_1 1.0
    FCCIN_CR08_1 FCCY_FCCG_1 -0.55
    FCCIN_CR08_1 FCCY_LCO_1 -0.2
    FCCIN_CR08_1 FCCY_FLPG_1 -0.15
    FCCIN_CR08_1 FCCY_SLURRY_1 -0.07
    FCCIN_CR09_1 OBJ -2.5
    FCCIN_CR09_1 VGOBAL_CR09_1 -1.0
    FCCIN_CR09_1 FCCCAP_1 1.0
    FCCIN_CR09_1 FCCY_FCCG_1 -0.55
    FCCIN_CR09_1 FCCY_LCO_1 -0.2
    FCCIN_CR09_1 FCCY_FLPG_1 -0.15
    FCCIN_CR09_1 FCCY_SLURRY_1 -0.07
    FCCIN_CR10_1 OBJ -2.5
    FCCIN_CR10_1 VGOBAL_CR10_1 -1.0
    FCCIN_CR10_1 FCCCAP_1 1.0
    FCCIN_CR10_1 FCCY_FCCG_1 -0.55
    FCCIN_CR10_1 FCCY_LCO_1 -0.2
    FCCIN_CR10_1 FCCY_FLPG_1 -0.15
    FCCIN_CR10_1 FCCY_SLURRY_1 -0.07
    FCCIN_CR11_1 OBJ -2.5
    FCCIN_CR11_1 VGOBAL_CR11_1 -1.0
    FCCIN_CR11_1 FCCCAP_1 1.0
    FCCIN_CR11_1 FCCY_FCCG_1 -0.55
    FCCIN_CR11_1 FCCY_LCO_1 -0.2
    FCCIN_CR11_1 FCCY_FLPG_1 -0.15
    FCCIN_CR11_1 FCCY_SLURRY_1 -0.07
    FCCIN_CR12_1 OBJ -2.5
    FCCIN_CR12_1 VGOBAL_CR12_1 -1.0
    FCCIN_CR12_1 FCCCAP_1 1.0
    FCCIN_CR12_1 FCCY_FCCG_1 -0.55
    FCCIN_CR12_1 FCCY_LCO_1 -0.2
    FCCIN_CR12_1 FCCY_FLPG_1 -0.15
    FCCIN_CR12_1 FCCY_SLURRY_1 -0.07
    FCCIN_CR13_1 OBJ -2.5
    FCCIN_CR13_1 VGOBAL_CR13_1 -1.0
    FCCIN_CR13_1 FCCCAP_1 1.0
    FCCIN_CR13_1 FCCY_FCCG_1 -0.55
    FCCIN_CR13_1 FCCY_LCO_1 -0.2
    FCCIN_CR13_1 FCCY_FLPG_1 -0.15
    FCCIN_CR13_1 FCCY_SLURRY_1 -0.07
    FCCIN_CR14_1 OBJ -2.5
    FCCIN_CR14_1 VGOBAL_CR14_1 -1.0
    FCCIN_CR14_1 FCCCAP_1 1.0
    FCCIN_CR14_1 FCCY_FCCG_1 -0.55
    FCCIN_CR14_1 FCCY_LCO_1 -0.2
    FCCIN_CR14_1 FCCY_FLPG_1 -0.15
    FCCIN_CR14_1 FCCY_SLURRY_1 -0.07
    FCCIN_CR15_1 OBJ -2.5
    FCCIN_CR15_1 VGOBAL_CR15_1 -1.0
    FCCIN_CR15_1 FCCCAP_1 1.0
    FCCIN_CR15_1 FCCY_FCCG_1 -0.55
    FCCIN_CR15_1 FCCY_LCO_1 -0.2
    FCCIN_CR15_1 FCCY_FLPG_1 -0.15
    FCCIN_CR15_1 FCCY_SLURRY_1 -0.07
    FCCIN_CR16_1 OBJ -2.5
    FCCIN_CR16_1 VGOBAL_CR16_1 -1.0
    FCCIN_CR16_1 FCCCAP_1 1.0
    FCCIN_CR16_1 FCCY_FCCG_1 -0.55
    FCCIN_CR16_1 FCCY_LCO_1 -0.2
    FCCIN_CR16_1 FCCY_FLPG_1 -0.15
    FCCIN_CR16_1 FCCY_SLURRY_1 -0.07
    FCCIN_CR17_1 OBJ -2.5
    FCCIN_CR17_1 VGOBAL_CR17_1 -1.0
    FCCIN_CR17_1 FCCCAP_1 1.0
    FCCIN_CR17_1 FCCY_FCCG_1 -0.55
    FCCIN_CR17_1 FCCY_LCO_1 -0.2
    FCCIN_CR17_1 FCCY_FLPG_1 -0.15
    FCCIN_CR17_1 FCCY_SLURRY_1 -0.07
    FCCIN_CR18_1 OBJ -2.5
    FCCIN_CR18_1 VGOBAL_CR18_1 -1.0
    FCCIN_CR18_1 FCCCAP_1 1.0
    FCCIN_CR18_1 FCCY_FCCG_1 -0.55
    FCCIN_CR18_1 FCCY_LCO_1 -0.2
    FCCIN_CR18_1 FCCY_FLPG_1 -0.15
    FCCIN_CR18_1 FCCY_SLURRY_1 -0.07
    FCCIN_CR19_1 OBJ -2.5
    FCCIN_CR19_1 VGOBAL_CR19_1 -1.0
    FCCIN_CR19_1 FCCCAP_1 1.0
    FCCIN_CR19_1 FCCY_FCCG_1 -0.55
    FCCIN_CR19_1 FCCY_LCO_1 -0.2
    FCCIN_CR19_1 FCCY_FLPG_1 -0.15
    FCCIN_CR19_1 FCCY_SLURRY_1 -0.07
    FCCG_1 FCCY_FCCG_1 1.0
    FCCG_1 GASBAL_1 -1.0
    FCCG_1 GASRON_1 1.0
    LCO_1 FCCY_LCO_1 1.0
    LCO_1 LCOBAL_1 1.0
    FLPG_1 FCCY_FLPG_1 1.0
    FLPG_1 LPGBAL_1 -1.0
    SLURRY_1 FCCY_SLURRY_1 1.0
    SLURRY_1 FOBAL_1 -1.0
    SLURRY_1 FOSUL_1 -1.5
    REFIN_CR00_1 OBJ -3.0
    REFIN_CR00_1 NAPBAL_CR00_1 -1.0
    REFIN_CR00_1 REFCAP_1 1.0
    REFIN_CR00_1 REFY_1 -0.85
    NAPGAS_CR00_1 NAPBAL_CR00_1 -1.0
    NAPGAS_CR00_1 GASBAL_1 -1.0
    NAPGAS_CR00_1 GASRON_1 -41.351908455631545
    REFIN_CR01_1 OBJ -3.0
    REFIN_CR01_1 NAPBAL_CR01_1 -1.0
    REFIN_CR01_1 REFCAP_1 1.0
    REFIN_CR01_1 REFY_1 -0.85
    NAPGAS_CR01_1 NAPBAL_CR01_1 -1.0
    NAPGAS_CR01_1 GASBAL_1 -1.0
    NAPGAS_CR01_1 GASRON_1 -33.623043958680114
    REFIN_CR02_1 OBJ -3.0
    REFIN_CR02_1 NAPBAL_CR02_1 -1.0
    REFIN_CR02_1 REFCAP_1 1.0
    REFIN_CR02_1 REFY_1 -0.85
    NAPGAS_CR02_1 NAPBAL_CR02_1 -1.0
    NAPGAS_CR02_1 GASBAL_1 -1.0
    NAPGAS_CR02_1 GASRON_1 -39.74522208078083
    REFIN_CR03_1 OBJ -3.0
    REFIN_CR03_1 NAPBAL_CR03_1 -1.0
    REFIN_CR03_1 REFCAP_1 1.0
    REFIN_CR03_1 REFY_1 -0.85
    NAPGAS_CR03_1 NAPBAL_CR03_1 -1.0
    NAPGAS_CR03_1 GASBAL_1 -1.0
    NAPGAS_CR03_1 GASRON_1 -39.32063345179839
    REFIN_CR04_1 OBJ -3.0
    REFIN_CR04_1 NAPBAL_CR04_1 -1.0
    REFIN_CR04_1 REFCAP_1 1.0
    REFIN_CR04_1 REFY_1 -0.85
    NAPGAS_CR04_1 NAPBAL_CR04_1 -1.0
    NAPGAS_CR04_1 GASBAL_1 -1.0
    NAPGAS_CR04_1 GASRON_1 -28.06018906757886
    REFIN_CR05_1 OBJ -3.0
    REFIN_CR05_1 NAPBAL_CR05_1 -1.0
    REFIN_CR05_1 REFCAP_1 1.0
    REFIN_CR05_1 REFY_1 -0.85
    NAPGAS_CR05_1 NAPBAL_CR05_1 -1.0
    NAPGAS_CR05_1 GASBAL_1 -1.0
    NAPGAS_CR05_1 GASRON_1 -37.177062383933254
    REFIN_CR06_1 OBJ -3.0
    REFIN_CR06_1 NAPBAL_CR06_1 -1.0
    REFIN_CR06_1 REFCAP_1 1.0
    REFIN_CR06_1 REFY_1 -0.85
    NAPGAS_CR06_1 NAPBAL_CR06_1 -1.0
    NAPGAS_CR06_1 GASBAL_1 -1.0
    NAPGAS_CR06_1 GASRON_1 -38.73738801284508
    REFIN_CR07_1 OBJ -3.0
    REFIN_CR07_1 NAPBAL_CR07_1 -1.0
    REFIN_CR07_1 REFCAP_1 1.0
    REFIN_CR07_1 REFY_1 -0.85
    NAPGAS_CR07_1 NAPBAL_CR07_1 -1.0
    NAPGAS_CR07_1 GASBAL_1 -1.0
    NAPGAS_CR07_1 GASRON_1 -31.720911449683953
    REFIN_CR08_1 OBJ -3.0
    REFIN_CR08_1 NAPBAL_CR08_1 -1.0
    REFIN_CR08_1 REFCAP_1 1.0
    REFIN_CR08_1 REFY_1 -0.85
    NAPGAS_CR08_1 NAPBAL_CR08_1 -1.0
    NAPGAS_CR08_1 GASBAL_1 -1.0
    NAPGAS_CR08_1 GASRON_1 -31.236267605063702
    REFIN_CR09_1 OBJ -3.0
    REFIN_CR09_1 NAPBAL_CR09_1 -1.0
    REFIN_CR09_1 REFCAP_1 1.0
    REFIN_CR09_1 REFY_1 -0.85
    NAPGAS_CR09_1 NAPBAL_CR09_1 -1.0
    NAPGAS_CR09_1 GASBAL_1 -1.0
    NAPGAS_CR09_1 GASRON_1 -29.9151768258086
    REFIN_CR10_1 OBJ -3.0
    REFIN_CR10_1 NAPBAL_CR10_1 -1.0
    REFIN_CR10_1 REFCAP_1 1.0
    REFIN_CR10_1 REFY_1 -0.85
    NAPGAS_CR10_1 NAPBAL_CR10_1 -1.0
    NAPGAS_CR10_1 GASBAL_1 -1.0
    NAPGAS_CR10_1 GASRON_1 -38.641707010486826
    REFIN_CR11_1 OBJ -3.0
    REFIN_CR11_1 NAPBAL_CR11_1 -1.0
    REFIN_CR11_1 REFCAP_1 1.0
    REFIN_CR11_1 REFY_1 -0.85
    NAPGAS_CR11_1 NAPBAL_CR11_1 -1.0
    NAPGAS_CR11_1 GASBAL_1 -1.0
    NAPGAS_CR11_1 GASRON_1 -31.364398664025877
    REFIN_CR12_1 OBJ -3.0
    REFIN_CR12_1 NAPBAL_CR12_1 -1.0
    REFIN_CR12_1 REFCAP_1 1.0
    REFIN_CR12_1 REFY_1 -0.85
    NAPGAS_CR12_1 NAPBAL_CR12_1 -1.0
    NAPGAS_CR12_1 GASBAL_1 -1.0
    NAPGAS_CR12_1 GASRON_1 -36.44295305412478
    REFIN_CR13_1 OBJ -3.0
    REFIN_CR13_1 NAPBAL_CR13_1 -1.0
    REFIN_CR13_1 REFCAP_1 1.0
    REFIN_CR13_1 REFY_1 -0.85
    NAPGAS_CR13_1 NAPBAL_CR13_1 -1.0
    NAPGAS_CR13_1 GASBAL_1 -1.0
    NAPGAS_CR13_1 GASRON_1 -36.368722409916884
    REFIN_CR14_1 OBJ -3.0
    REFIN_CR14_1 NAPBAL_CR14_1 -1.0
    REFIN_CR14_1 REFCAP_1 1.0
    REFIN_CR14_1 REFY_1 -0.85
    NAPGAS_CR14_1 NAPBAL_CR14_1 -1.0
    NAPGAS_CR14_1 GASBAL_1 -1.0
    NAPGAS_CR14_1 GASRON_1 -37.837781635780814
    REFIN_CR15_1 OBJ -3.0
    REFIN_CR15_1 NAPBAL_CR15_1 -1.0
    REFIN_CR15_1 REFCAP_1 1.0
    REFIN_CR15_1 REFY_1 -0.85
    NAPGAS_CR15_1 NAPBAL_CR15_1 -1.0
    NAPGAS_CR15_1 GASBAL_1 -1.0
    NAPGAS_CR15_1 GASRON_1 -36.91743369949054
    REFIN_CR16_1 OBJ -3.0
    REFIN_CR16_1 NAPBAL_CR16_1 -1.0
    REFIN_CR16_1 REFCAP_1 1.0
    REFIN_CR16_1 REFY_1 -0.85
    NAPGAS_CR16_1 NAPBAL_CR16_1 -1.0
    NAPGAS_CR16_1 GASBAL_1 -1.0
    NAPGAS_CR16_1 GASRON_1 -32.43244486749426
    REFIN_CR17_1 OBJ -3.0
    REFIN_CR17_1 NAPBAL_CR17_1 -1.0
    REFIN_CR17_1 REFCAP_1 1.0
    REFIN_CR17_1 REFY_1 -0.85
    NAPGAS_CR17_1 NAPBAL_CR17_1 -1.0
    NAPGAS_CR17_1 GASBAL_1 -1.0
    NAPGAS_CR17_1 GASRON_1 -32.30218201355821
    REFIN_CR18_1 OBJ -3.0
    REFIN_CR18_1 NAPBAL_CR18_1 -1.0
    REFIN_CR18_1 REFCAP_1 1.0
    REFIN_CR18_1 REFY_1 -0.85
    NAPGAS_CR18_1 NAPBAL_CR18_1 -1.0
    NAPGAS_CR18_1 GASBAL_1 -1.0
    NAPGAS_CR18_1 GASRON_1 -30.280860643235343
    REFIN_CR19_1 OBJ -3.0
    REFIN_CR19_1 NAPBAL_CR19_1 -1.0
    REFIN_CR19_1 REFCAP_1 1.0
    REFIN_CR19_1 REFY_1 -0.85
    NAPGAS_CR19_1 NAPBAL_CR19_1 -1.0
    NAPGAS_CR19_1 GASBAL_1 -1.0
    NAPGAS_CR19_1 GASRON_1 -35.8435432887995
    REFORMATE_1 REFY_1 1.0
    REFORMATE_1 GASBAL_1 -1.0
    REFORMATE_1 GASRON_1 7.0
    DHTIN_CR00_1 OBJ -2.0
    DHTIN_CR00_1 DSLBAL_CR00_1 -1.0
    DHTIN_CR00_1 DHTCAP_1 1.0
    DHTIN_CR00_1 DHTY_1 -0.98
    DSLDIR_CR00_1 DSLBAL_CR00_1 -1.0
    DSLDIR_CR00_1 DSLPB_1 -1.0
    DSLDIR_CR00_1 DSLSUL_1 1.5862267507032528
    DHTIN_CR01_1 OBJ -2.0
    DHTIN_CR01_1 DSLBAL_CR01_1 -1.0
    DHTIN_CR01_1 DHTCAP_1 1.0
    DHTIN_CR01_1 DHTY_1 -0.98
    DSLDIR_CR01_1 DSLBAL_CR01_1 -1.0
    DSLDIR_CR01_1 DSLPB_1 -1.0
    DSLDIR_CR01_1 DSLSUL_1 0.8149467463033994
    DHTIN_CR02_1 OBJ -2.0
    DHTIN_CR02_1 DSLBAL_CR02_1 -1.0
    DHTIN_CR02_1 DHTCAP_1 1.0
    DHTIN_CR02_1 DHTY_1 -0.98
    DSLDIR_CR02_1 DSLBAL_CR02_1 -1.0
    DSLDIR_CR02_1 DSLPB_1 -1.0
    DSLDIR_CR02_1 DSLSUL_1 1.0170271993959037
    DHTIN_CR03_1 OBJ -2.0
    DHTIN_CR03_1 DSLBAL_CR03_1 -1.0
    DHTIN_CR03_1 DHTCAP_1 1.0
    DHTIN_CR03_1 DHTY_1 -0.98
    DSLDIR_CR03_1 DSLBAL_CR03_1 -1.0
    DSLDIR_CR03_1 DSLPB_1 -1.0
    DSLDIR_CR03_1 DSLSUL_1 0.4394117672662308
    DHTIN_CR04_1 OBJ -2.0
    DHTIN_CR04_1 DSLBAL_CR04_1 -1.0
    DHTIN_CR04_1 DHTCAP_1 1.0
    DHTIN_CR04_1 DHTY_1 -0.98
    DSLDIR_CR04_1 DSLBAL_CR04_1 -1.0
    DSLDIR_CR04_1 DSLPB_1 -1.0
    DSLDIR_CR04_1 DSLSUL_1 1.6095005435592393
    DHTIN_CR05_1 OBJ -2.0
    DHTIN_CR05_1 DSLBAL_CR05_1 -1.0
    DHTIN_CR05_1 DHTCAP_1 1.0
    DHTIN_CR05_1 DHTY_1 -0.98
    DSLDIR_CR05_1 DSLBAL_CR05_1 -1.0
    DSLDIR_CR05_1 DSLPB_1 -1.0
    DSLDIR_CR05_1 DSLSUL_1 1.1028999274270206
    DHTIN_CR06_1 OBJ -2.0
    DHTIN_CR06_1 DSLBAL_CR06_1 -1.0
    DHTIN_CR06_1 DHTCAP_1 1.0
    DHTIN_CR06_1 DHTY_1 -0.98
    DSLDIR_CR06_1 DSLBAL_CR06_1 -1.0
    DSLDIR_CR06_1 DSLPB_1 -1.0
    DSLDIR_CR06_1 DSLSUL_1 1.0307656961819645
    DHTIN_CR07_1 OBJ -2.0
    DHTIN_CR07_1 DSLBAL_CR07_1 -1.0
    DHTIN_CR07_1 DHTCAP_1 1.0
    DHTIN_CR07_1 DHTY_1 -0.98
    DSLDIR_CR07_1 DSLBAL_CR07_1 -1.0
    DSLDIR_CR07_1 DSLPB_1 -1.0
    DSLDIR_CR07_1 DSLSUL_1 0.06500943297844713
    DHTIN_CR08_1 OBJ -2.0
    DHTIN_CR08_1 DSLBAL_CR08_1 -1.0
    DHTIN_CR08_1 DHTCAP_1 1.0
    DHTIN_CR08_1 DHTY_1 -0.98
    DSLDIR_CR08_1 DSLBAL_CR08_1 -1.0
    DSLDIR_CR08_1 DSLPB_1 -1.0
    DSLDIR_CR08_1 DSLSUL_1 1.0136884541165885
    DHTIN_CR09_1 OBJ -2.0
    DHTIN_CR09_1 DSLBAL_CR09_1 -1.0
    DHTIN_CR09_1 DHTCAP_1 1.0
    DHTIN_CR09_1 DHTY_1 -0.98
    DSLDIR_CR09_1 DSLBAL_CR09_1 -1.0
    DSLDIR_CR09_1 DSLPB_1 -1.0
    DSLDIR_CR09_1 DSLSUL_1 0.020618980777730833
    DHTIN_CR10_1 OBJ -2.0
    DHTIN_CR10_1 DSLBAL_CR10_1 -1.0
    DHTIN_CR10_1 DHTCAP_1 1.0
    DHTIN_CR10_1 DHTY_1 -0.98
    DSLDIR_CR10_1 DSLBAL_CR10_1 -1.0
    DSLDIR_CR10_1 DSLPB_1 -1.0
    DSLDIR_CR10_1 DSLSUL_1 1.62821888862855
    DHTIN_CR11_1 OBJ -2.0
    DHTIN_CR11_1 DSLBAL_CR11_1 -1.0
    DHTIN_CR11_1 DHTCAP_1 1.0
    DHTIN_CR11_1 DHTY_1 -0.98
    DSLDIR_CR11_1 DSLBAL_CR11_1 -1.0
    DSLDIR_CR11_1 DSLPB_1 -1.0
    DSLDIR_CR11_1 DSLSUL_1 0.8621530481854874
    DHTIN_CR12_1 OBJ -2.0
    DHTIN_CR12_1 DSLBAL_CR12_1 -1.0
    DHTIN_CR12_1 DHTCAP_1 1.0
    DHTIN_CR12_1 DHTY_1 -0.98
    DSLDIR_CR12_1 DSLBAL_CR12_1 -1.0
    DSLDIR_CR12_1 DSLPB_1 -1.0
    DSLDIR_CR12_1 DSLSUL_1 1.5756453880298185
    DHTIN_CR13_1 OBJ -2.0
    DHTIN_CR13_1 DSLBAL_CR13_1 -1.0
    DHTIN_CR13_1 DHTCAP_1 1.0
    DHTIN_CR13_1 DHTY_1 -0.98
    DSLDIR_CR13_1 DSLBAL_CR13_1 -1.0
    DSLDIR_CR13_1 DSLPB_1 -1.0
    DSLDIR_CR13_1 DSLSUL_1 0.13929860406737604
    DHTIN_CR14_1 OBJ -2.0
    DHTIN_CR14_1 DSLBAL_CR14_1 -1.0
    DHTIN_CR14_1 DHTCAP_1 1.0
    DHTIN_CR14_1 DHTY_1 -0.98
    DSLDIR_CR14_1 DSLBAL_CR14_1 -1.0
    DSLDIR_CR14_1 DSLPB_1 -1.0
    DSLDIR_CR14_1 DSLSUL_1 0.7289962148563339
    DHTIN_CR15_1 OBJ -2.0
    DHTIN_CR15_1 DSLBAL_CR15_1 -1.0
    DHTIN_CR15_1 DHTCAP_1 1.0
    DHTIN_CR15_1 DHTY_1 -0.98
    DSLDIR_CR15_1 DSLBAL_CR15_1 -1.0
    DSLDIR_CR15_1 DSLPB_1 -1.0
    DSLDIR_CR15_1 DSLSUL_1 0.0432280087396993
    DHTIN_CR16_1 OBJ -2.0
    DHTIN_CR16_1 DSLBAL_CR16_1 -1.0
    DHTIN_CR16_1 DHTCAP_1 1.0
    DHTIN_CR16_1 DHTY_1 -0.98
    DSLDIR_CR16_1 DSLBAL_CR16_1 -1.0
    DSLDIR_CR16_1 DSLPB_1 -1.0
    DSLDIR_CR16_1 DSLSUL_1 0.970875101525871
    DHTIN_CR17_1 OBJ -2.0
    DHTIN_CR17_1 DSLBAL_CR17_1 -1.0
    DHTIN_CR17_1 DHTCAP_1 1.0
    DHTIN_CR17_1 DHTY_1 -0.98
    DSLDIR_CR17_1 DSLBAL_CR17_1 -1.0
    DSLDIR_CR17_1 DSLPB_1 -1.0
    DSLDIR_CR17_1 DSLSUL_1 1.6384936942773962
    DHTIN_CR18_1 OBJ -2.0
    DHTIN_CR18_1 DSLBAL_CR18_1 -1.0
    DHTIN_CR18_1 DHTCAP_1 1.0
    DHTIN_CR18_1 DHTY_1 -0.98
    DSLDIR_CR18_1 DSLBAL_CR18_1 -1.0
    DSLDIR_CR18_1 DSLPB_1 -1.0
    DSLDIR_CR18_1 DSLSUL_1 0.08052474691335985
    DHTIN_CR19_1 OBJ -2.0
    DHTIN_CR19_1 DSLBAL_CR19_1 -1.0
    DHTIN_CR19_1 DHTCAP_1 1.0
    DHTIN_CR19_1 DHTY_1 -0.98
    DSLDIR_CR19_1 DSLBAL_CR19_1 -1.0
    DSLDIR_CR19_1 DSLPB_1 -1.0
    DSLDIR_CR19_1 DSLSUL_1 0.6552914452864763
    LCODHT_1 LCOBAL_1 -1.0
    LCODHT_1 DHTCAP_1 1.0
    LCODHT_1 DHTY_1 -0.95
    LCOFO_1 LCOBAL_1 -1.0
    LCOFO_1 FOBAL_1 -1.0
    LCOFO_1 FOSUL_1 -2.5
    ULSD_1 DHTY_1 1.0
    ULSD_1 DSLPB_1 -1.0
    ULSD_1 DSLSUL_1 -0.049
    SELL_LPG_1 OBJ 57.75
    SELL_LPG_1 PBAL_LPG_1 -1.0
    SELL_LPG_1 DMAX_LPG_1 1.0
    SELL_LPG_1 DMIN_LPG_1 1.0
    SELL_GAS_1 OBJ 110.25
    SELL_GAS_1 PBAL_GAS_1 -1.0
    SELL_GAS_1 DMAX_GAS_1 1.0
    SELL_GAS_1 DMIN_GAS_1 1.0
    SELL_JET_1 OBJ 105.0
    SELL_JET_1 PBAL_JET_1 -1.0
    SELL_JET_1 DMAX_JET_1 1.0
    SELL_JET_1 DMIN_JET_1 1.0
    SELL_DSL_1 OBJ 102.9
    SELL_DSL_1 PBAL_DSL_1 -1.0
    SELL_DSL_1 DMAX_DSL_1 1.0
    SELL_DSL_1 DMIN_DSL_1 1.0
    SELL_FO_1 OBJ 63.0
    SELL_FO_1 PBAL_FO_1 -1.0
    SELL_FO_1 DMAX_FO_1 1.0
    SELL_FO_1 DMIN_FO_1 1.0
    PINV_LPG_1 OBJ -0.5
    PINV_LPG_1 PBAL_LPG_1 -1.0
    PINV_LPG_1 PBAL_LPG_2 1.0
    PINV_GAS_1 OBJ -0.5
    PINV_GAS_1 PBAL_GAS_1 -1.0
    PINV_GAS_1 PBAL_GAS_2 1.0
    PINV_JET_1 OBJ -0.5
    PINV_JET_1 PBAL_JET_1 -1.0
    PINV_JET_1 PBAL_JET_2 1.0
    PINV_DSL_1 OBJ -0.5
    PINV_DSL_1 PBAL_DSL_1 -1.0
    PINV_DSL_1 PBAL_DSL_2 1.0
    PINV_FO_1 OBJ -0.5
    PINV_FO_1 PBAL_FO_1 -1.0
    PINV_FO_1 PBAL_FO_2 1.0
    SHORT_LPG_1 OBJ -400.0
    SHORT_LPG_1 DMIN_LPG_1 1.0
    SHORT_GAS_1 OBJ -400.0
    SHORT_GAS_1 DMIN_GAS_1 1.0
    SHORT_JET_1 OBJ -400.0
    SHORT_JET_1 DMIN_JET_1 1.0
    SHORT_DSL_1 OBJ -400.0
    SHORT_DSL_1 DMIN_DSL_1 1.0
    SHORT_FO_1 OBJ -400.0
    SHORT_FO_1 DMIN_FO_1 1.0
    GASPOOL_1 GASBAL_1 1.0
    GASPOOL_1 PBAL_GAS_1 1.0
    JETPOOL_1 JETBAL_1 1.0
    JETPOOL_1 PBAL_JET_1 1.0
    KERJET_CR00_1 KERBAL_CR00_1 -1.0
    KERJET_CR00_1 JETBAL_1 -1.0
    KERJET_CR00_1 JETSUL_1 0.10905668767581322
    KERDSL_CR00_1 KERBAL_CR00_1 -1.0
    KERDSL_CR00_1 DSLPB_1 -1.0
    KERDSL_CR00_1 DSLSUL_1 0.3590566876758132
    KERJET_CR01_1 KERBAL_CR01_1 -1.0
    KERJET_CR01_1 JETBAL_1 -1.0
    KERJET_CR01_1 JETSUL_1 -0.08376331342415014
    KERDSL_CR01_1 KERBAL_CR01_1 -1.0
    KERDSL_CR01_1 DSLPB_1 -1.0
    KERDSL_CR01_1 DSLSUL_1 0.16623668657584983
    KERJET_CR02_1 KERBAL_CR02_1 -1.0
    KERJET_CR02_1 JETBAL_1 -1.0
    KERJET_CR02_1 JETSUL_1 -0.033243200151024055
    KERDSL_CR02_1 KERBAL_CR02_1 -1.0
    KERDSL_CR02_1 DSLPB_1 -1.0
    KERDSL_CR02_1 DSLSUL_1 0.21675679984897595
    KERJET_CR03_1 KERBAL_CR03_1 -1.0
    KERJET_CR03_1 JETBAL_1 -1.0
    KERJET_CR03_1 JETSUL_1 -0.17764705818344229
    KERDSL_CR03_1 KERBAL_CR03_1 -1.0
    KERDSL_CR03_1 DSLPB_1 -1.0
    KERDSL_CR03_1 DSLSUL_1 0.0723529418165577
    KERJET_CR04_1 KERBAL_CR04_1 -1.0
    KERJET_CR04_1 JETBAL_1 -1.0
    KERJET_CR04_1 JETSUL_1 0.11487513588980985
    KERDSL_CR04_1 KERBAL_CR04_1 -1.0
    KERDSL_CR04_1 DSLPB_1 -1.0
    KERDSL_CR04_1 DSLSUL_1 0.36487513588980985
    KERJET_CR05_1 KERBAL_CR05_1 -1.0
    KERJET_CR05_1 JETBAL_1 -1.0
    KERJET_CR05_1 JETSUL_1 -0.011775018143244831
    KERDSL_CR05_1 KERBAL_CR05_1 -1.0
    KERDSL_CR05_1 DSLPB_1 -1.0
    KERDSL_CR05_1 DSLSUL_1 0.23822498185675517
    KERJET_CR06_1 KERBAL_CR06_1 -1.0
    KERJET_CR06_1 JETBAL_1 -1.0
    KERJET_CR06_1 JETSUL_1 -0.029808575954508865
    KERDSL_CR06_1 KERBAL_CR06_1 -1.0
    KERDSL_CR06_1 DSLPB_1 -1.0
    KERDSL_CR06_1 DSLSUL_1 0.22019142404549114
    KERJET_CR07_1 KERBAL_CR07_1 -1.0
    KERJET_CR07_1 JETBAL_1 -1.0
    KERJET_CR07_1 JETSUL_1 -0.2712476417553882
    KERDSL_CR07_1 KERBAL_CR07_1 -1.0
    KERDSL_CR07_1 DSLPB_1 -1.0
    KERDSL_CR07_1 DSLSUL_1 -0.02124764175538822
    KERJET_CR08_1 KERBAL_CR08_1 -1.0
    KERJET_CR08_1 JETBAL_1 -1.0
    KERJET_CR08_1 JETSUL_1 -0.03407788647085286
    KERDSL_CR08_1 KERBAL_CR08_1 -1.0
    KERDSL_CR08_1 DSLPB_1 -1.0
    KERDSL_CR08_1 DSLSUL_1 0.21592211352914714
    KERJET_CR09_1 KERBAL_CR09_1 -1.0
    KERJET_CR09_1 JETBAL_1 -1.0
    KERJET_CR09_1 JETSUL_1 -0.28234525480556727
    KERDSL_CR09_1 KERBAL_CR09_1 -1.0
    KERDSL_CR09_1 DSLPB_1 -1.0
    KERDSL_CR09_1 DSLSUL_1 -0.0323452548055673
    KERJET_CR10_1 KERBAL_CR10_1 -1.0
    KERJET_CR10_1 JETBAL_1 -1.0
    KERJET_CR10_1 JETSUL_1 0.11955472215713753
    KERDSL_CR10_1 KERBAL_CR10_1 -1.0
    KERDSL_CR10_1 DSLPB_1 -1.0
    KERDSL_CR10_1 DSLSUL_1 0.3695547221571375
    KERJET_CR11_1 KERBAL_CR11_1 -1.0
    KERJET_CR11_1 JETBAL_1 -1.0
    KERJET_CR11_1 JETSUL_1 -0.07196173795362812
    KERDSL_CR11_1 KERBAL_CR11_1 -1.0
    KERDSL_CR11_1 DSLPB_1 -1.0
    KERDSL_CR11_1 DSLSUL_1 0.17803826204637185
    KERJET_CR12_1 KERBAL_CR12_1 -1.0
    KERJET_CR12_1 JETBAL_1 -1.0
    KERJET_CR12_1 JETSUL_1 0.10641134700745464
    KERDSL_CR12_1 KERBAL_CR12_1 -1.0
    KERDSL_CR12_1 DSLPB_1 -1.0
    KERDSL_CR12_1 DSLSUL_1 0.35641134700745464
    KERJET_CR13_1 KERBAL_CR13_1 -1.0
    KERJET_CR13_1 JETBAL_1 -1.0
    KERJET_CR13_1 JETSUL_1 -0.25267534898315597
    KERDSL_CR13_1 KERBAL_CR13_1 -1.0
    KERDSL_CR13_1 DSLPB_1 -1.0
    KERDSL_CR13_1 DSLSUL_1 -0.002675348983155995
    KERJET_CR14_1 KERBAL_CR14_1 -1.0
    KERJET_CR14_1 JETBAL_1 -1.0
    KERJET_CR14_1 JETSUL_1 -0.1052509462859165
    KERDSL_CR14_1 KERBAL_CR14_1 -1.0
    KERDSL_CR14_1 DSLPB_1 -1.0
    KERDSL_CR14_1 DSLSUL_1 0.14474905371408348
    KERJET_CR15_1 KERBAL_CR15_1 -1.0
    KERJET_CR15_1 JETBAL_1 -1.0
    KERJET_CR15_1 JETSUL_1 -0.27669299781507517
    KERDSL_CR15_1 KERBAL_CR15_1 -1.0
    KERDSL_CR15_1 DSLPB_1 -1.0
    KERDSL_CR15_1 DSLSUL_1 -0.026692997815075177
    KERJET_CR16_1 KERBAL_CR16_1 -1.0
    KERJET_CR16_1 JETBAL_1 -1.0
    KERJET_CR16_1 JETSUL_1 -0.044781224618532234
    KERDSL_CR16_1 KERBAL_CR16_1 -1.0
    KERDSL_CR16_1 DSLPB_1 -1.0
    KERDSL_CR16_1 DSLSUL_1 0.20521877538146777
    KERJET_CR17_1 KERBAL_CR17_1 -1.0
    KERJET_CR17_1 JETBAL_1 -1.0
    KERJET_CR17_1 JETSUL_1 0.12212342356934908
    KERDSL_CR17_1 KERBAL_CR17_1 -1.0
    KERDSL_CR17_1 DSLPB_1 -1.0
    KERDSL_CR17_1 DSLSUL_1 0.3721234235693491
    KERJET_CR18_1 KERBAL_CR18_1 -1.0
    KERJET_CR18_1 JETBAL_1 -1.0
    KERJET_CR18_1 JETSUL_1 -0.26736881327166
    KERDSL_CR18_1 KERBAL_CR18_1 -1.0
    KERDSL_CR18_1 DSLPB_1 -1.0
    KERDSL_CR18_1 DSLSUL_1 -0.01736881327166004
    KERJET_CR19_1 KERBAL_CR19_1 -1.0
    KERJET_CR19_1 JETBAL_1 -1.0
    KERJET_CR19_1 JETSUL_1 -0.1236771386783809
    KERDSL_CR19_1 KERBAL_CR19_1 -1.0
    KERDSL_CR19_1 DSLPB_1 -1.0
    KERDSL_CR19_1 DSLSUL_1 0.12632286132161907
    DSLPOOL_1 DSLPB_1 1.0
    DSLPOOL_1 PBAL_DSL_1 1.0
    LPGPOOL_1 LPGBAL_1 1.0
    LPGPOOL_1 PBAL_LPG_1 1.0
    FOPOOL_1 FOBAL_1 1.0
    FOPOOL_1 PBAL_FO_1 1.0
    BUY_CR00_2 OBJ -59.65118038055322
    BUY_CR00_2 CBAL_CR00_2 1.0
    CINV_CR00_2 OBJ -0.3
    CINV_CR00_2 CBAL_CR00_2 -1.0
    CINV_CR00_2 CBAL_CR00_3 1.0
    CDU_CR00_2 CBAL_CR00_2 -1.0
    CDU_CR00_2 CDUCAP_2 1.0
    CDU_CR00_2 YLPG_CR00_2 -0.013786055933968056
    CDU_CR00_2 YNAP_CR00_2 -0.1214444916358349
    CDU_CR00_2 YKER_CR00_2 -0.10646372452567733
    CDU_CR00_2 YDSL_CR00_2 -0.20292085263352289
    CDU_CR00_2 YVGO_CR00_2 -0.27390944719057636
    CDU_CR00_2 YRES_CR00_2 -0.28147542808042036
    BUY_CR01_2 OBJ -76.94151529886535
    BUY_CR01_2 CBAL_CR01_2 1.0
    CINV_CR01_2 OBJ -0.3
    CINV_CR01_2 CBAL_CR01_2 -1.0
    CINV_CR01_2 CBAL_CR01_3 1.0
    CDU_CR01_2 CBAL_CR01_2 -1.0
    CDU_CR01_2 CDUCAP_2 1.0
    CDU_CR01_2 YLPG_CR01_2 -0.025127543584387436
    CDU_CR01_2 YNAP_CR01_2 -0.2025917905849106
    CDU_CR01_2 YKER_CR01_2 -0.13410952106049506
    CDU_CR01_2 YDSL_CR01_2 -0.24728591651278542
    CDU_CR01_2 YVGO_CR01_2 -0.22897185950088417
    CDU_CR01_2 YRES_CR01_2 -0.16191336875653717
    BUY_CR02_2 OBJ -62.826402837751395
    BUY_CR02_2 CBAL_CR02_2 1.0
    CINV_CR02_2 OBJ -0.3
    CINV_CR02_2 CBAL_CR02_2 -1.0
    CINV_CR02_2 CBAL_CR02_3 1.0
    CDU_CR02_2 CBAL_CR02_2 -1.0
    CDU_CR02_2 CDUCAP_2 1.0
    CDU_CR02_2 YLPG_CR02_2 -0.013444753666275039
    CDU_CR02_2 YNAP_CR02_2 -0.11889710072836579
    CDU_CR02_2 YKER_CR02_2 -0.103840437143255
    CDU_CR02_2 YDSL_CR02_2 -0.21229612809407214
    CDU_CR02_2 YVGO_CR02_2 -0.2628713956905896
    CDU_CR02_2 YRES_CR02_2 -0.28865018467744247
    BUY_CR03_2 OBJ -69.32714129167309
    BUY_CR03_2 CBAL_CR03_2 1.0
    CINV_CR03_2 OBJ -0.3
    CINV_CR03_2 CBAL_CR03_2 -1.0
    CINV_CR03_2 CBAL_CR03_3 1.0
    CDU_CR03_2 CBAL_CR03_2 -1.0
    CDU_CR03_2 CDUCAP_2 1.0
    CDU_CR03_2 YLPG_CR03_2 -0.01400858068810675
    CDU_CR03_2 YNAP_CR03_2 -0.1424923117986131
    CDU_CR03_2 YKER_CR03_2 -0.10784088582669263
    CDU_CR03_2 YDSL_CR03_2 -0.19279120630762445
    CDU_CR03_2 YVGO_CR03_2 -0.28544626211923063
    CDU_CR03_2 YRES_CR03_2 -0.2574207532597324
    BUY_CR04_2 OBJ -74.88997830269174
    BUY_CR04_2 CBAL_CR04_2 1.0
    CINV_CR04_2 OBJ -0.3
    CINV_CR04_2 CBAL_CR04_2 -1.0
    CINV_CR04_2 CBAL_CR04_3 1.0
    CDU_CR04_2 CBAL_CR04_2 -1.0
    CDU_CR04_2 CDUCAP_2 1.0
    CDU_CR04_2 YLPG_CR04_2 -0.02335213093765316
    CDU_CR04_2 YNAP_CR04_2 -0.2292355396921612
    CDU_CR04_2 YKER_CR04_2 -0.14240695851543803
    CDU_CR04_2 YDSL_CR04_2 -0.24384363627499198
    CDU_CR04_2 YVGO_CR04_2 -0.2465326974706559
    CDU_CR04_2 YRES_CR04_2 -0.1146290371090997
    BUY_CR05_2 OBJ -67.51752761155757
    BUY_CR05_2 CBAL_CR05_2 1.0
    CINV_CR05_2 OBJ -0.3
    CINV_CR05_2 CBAL_CR05_2 -1.0
    CINV_CR05_2 CBAL_CR05_3 1.0
    CDU_CR05_2 CBAL_CR05_2 -1.0
    CDU_CR05_2 CDUCAP_2 1.0
    CDU_CR05_2 YLPG_CR05_2 -0.01735729802728813
    CDU_CR05_2 YNAP_CR05_2 -0.16608619710065003
    CDU_CR05_2 YKER_CR05_2 -0.1170544437563835
    CDU_CR05_2 YDSL_CR05_2 -0.22299235889970878
    CDU_CR05_2 YVGO_CR05_2 -0.2433490540516293
    CDU_CR05_2 YRES_CR05_2 -0.23316064816434035
    BUY_CR06_2 OBJ -65.20977579036312
    BUY_CR06_2 CBAL_CR06_2 1.0
    CINV_CR06_2 OBJ -0.3
    CINV_CR06_2 CBAL_CR06_2 -1.0
    CINV_CR06_2 CBAL_CR06_3 1.0
    CDU_CR06_2 CBAL_CR06_2 -1.0
    CDU_CR06_2 CDUCAP_2 1.0
    CDU_CR06_2 YLPG_CR06_2 -0.014219474855875663
    CDU_CR06_2 YNAP_CR06_2 -0.13746806025500902
    CDU_CR06_2 YKER_CR06_2 -0.10533897185985656
    CDU_CR06_2 YDSL_CR06_2 -0.20403840195434858
    CDU_CR06_2 YVGO_CR06_2 -0.26484358994429863
    CDU_CR06_2 YRES_CR06_2 -0.27409150113061165
    BUY_CR07_2 OBJ -74.5514294850645
    BUY_CR07_2 CBAL_CR07_2 1.0
    CINV_CR07_2 OBJ -0.3
    CINV_CR07_2 CBAL_CR07_2 -1.0
    CINV_CR07_2 CBAL_CR07_3 1.0
    CDU_CR07_2 CBAL_CR07_2 -1.0
    CDU_CR07_2 CDUCAP_2 1.0
    CDU_CR07_2 YLPG_CR07_2 -0.01678766142162217
    CDU_CR07_2 YNAP_CR07_2 -0.18341674311422207
    CDU_CR07_2 YKER_CR07_2 -0.13271469159016522
    CDU_CR07_2 YDSL_CR07_2 -0.2249127244045356
    CDU_CR07_2 YVGO_CR07_2 -0.24848613807316539
    CDU_CR07_2 YRES_CR07_2 -0.19368204139628944
    BUY_CR08_2 OBJ -72.53201893490275
    BUY_CR08_2 CBAL_CR08_2 1.0
    CINV_CR08_2 OBJ -0.3
    CINV_CR08_2 CBAL_CR08_2 -1.0
    CINV_CR08_2 CBAL_CR08_3 1.0
    CDU_CR08_2 CBAL_CR08_2 -1.0
    CDU_CR08_2 CDUCAP_2 1.0
    CDU_CR08_2 YLPG_CR08_2 -0.023930881960770135
    CDU_CR08_2 YNAP_CR08_2 -0.199474063989656
    CDU_CR08_2 YKER_CR08_2 -0.13012967624359006
    CDU_CR08_2 YDSL_CR08_2 -0.24906213509239003
    CDU_CR08_2 YVGO_CR08_2 -0.24247509330512357
    CDU_CR08_2 YRES_CR08_2 -0.15492814940847022
    BUY_CR09_2 OBJ -81.50118018930698
    BUY_CR09_2 CBAL_CR09_2 1.0
    CINV_CR09_2 OBJ -0.3
    CINV_CR09_2 CBAL_CR09_2 -1.0
    CINV_CR09_2 CBAL_CR09_3 1.0
    CDU_CR09_2 CBAL_CR09_2 -1.0
    CDU_CR09_2 CDUCAP_2 1.0
    CDU_CR09_2 YLPG_CR09_2 -0.0254414593142613
    CDU_CR09_2 YNAP_CR09_2 -0.2406668892422991
    CDU_CR09_2 YKER_CR09_2 -0.14150533274546892
    CDU_CR09_2 YDSL_CR09_2 -0.23713673044274025
    CDU_CR09_2 YVGO_CR09_2 -0.23566730460149374
    CDU_CR09_2 YRES_CR09_2 -0.11958228365373665
    BUY_CR10_2 OBJ -60.367112390629295
    BUY_CR10_2 CBAL_CR10_2 1.0
    CINV_CR10_2 OBJ -0.3
    CINV_CR10_2 CBAL_CR10_2 -1.0
    CINV_CR10_2 CBAL_CR10_3 1.0
    CDU_CR10_2 CBAL_CR10_2 -1.0
    CDU_CR10_2 CDUCAP_2 1.0
    CDU_CR10_2 YLPG_CR10_2 -0.012631058640766385
    CDU_CR10_2 YNAP_CR10_2 -0.11501159644639905
    CDU_CR10_2 YKER_CR10_2 -0.1080956731900355
    CDU_CR10_2 YDSL_CR10_2 -0.20982857494392457
    CDU_CR10_2 YVGO_CR10_2 -0.2722572086368098
    CDU_CR10_2 YRES_CR10_2 -0.28217588814206473
    BUY_CR11_2 OBJ -73.16265391386281
    BUY_CR11_2 CBAL_CR11_2 1.0
    CINV_CR11_2 OBJ -0.3
    CINV_CR11_2 CBAL_CR11_2 -1.0
    CINV_CR11_2 CBAL_CR11_3 1.0
    CDU_CR11_2 CBAL_CR11_2 -1.0
    CDU_CR11_2 CDUCAP_2 1.0
    CDU_CR11_2 YLPG_CR11_2 -0.018171926805686592
    CDU_CR11_2 YNAP_CR11_2 -0.18017303538659502
    CDU_CR11_2 YKER_CR11_2 -0.11622304467804759
    CDU_CR11_2 YDSL_CR11_2 -0.22678215323461023
    CDU_CR11_2 YVGO_CR11_2 -0.2637522217068048
    CDU_CR11_2 YRES_CR11_2 -0.19489761818825582
    BUY_CR12_2 OBJ -61.70143534703311
    BUY_CR12_2 CBAL_CR12_2 1.0
    CINV_CR12_2 OBJ -0.3
    CINV_CR12_2 CBAL_CR12_2 -1.0
    CINV_CR12_2 CBAL_CR12_3 1.0
    CDU_CR12_2 CBAL_CR12_2 -1.0
    CDU_CR12_2 CDUCAP_2 1.0
    CDU_CR12_2 YLPG_CR12_2 -0.016285402257558677
    CDU_CR12_2 YNAP_CR12_2 -0.1394251111460902
    CDU_CR12_2 YKER_CR12_2 -0.10627583407346515
    CDU_CR12_2 YDSL_CR12_2 -0.2004859030026821
    CDU_CR12_2 YVGO_CR12_2 -0.29053476615254664
    CDU_CR12_2 YRES_CR12_2 -0.2469929833676572
    BUY_CR13_2 OBJ -71.43314166447345
    BUY_CR13_2 CBAL_CR13_2 1.0
    CINV_CR13_2 OBJ -0.3
    CINV_CR13_2 CBAL_CR13_2 -1.0
    CINV_CR13_2 CBAL_CR13_3 1.0
    CDU_CR13_2 CBAL_CR13_2 -1.0
    CDU_CR13_2 CDUCAP_2 1.0
    CDU_CR13_2 YLPG_CR13_2 -0.015405562084299341
    CDU_CR13_2 YNAP_CR13_2 -0.1597372095049784
    CDU_CR13_2 YKER_CR13_2 -0.109230580221756
    CDU_CR13_2 YDSL_CR13_2 -0.20799117245133522
    CDU_CR13_2 YVGO_CR13_2 -0.2743070543343612
    CDU_CR13_2 YRES_CR13_2 -0.23332842140326976
    BUY_CR14_2 OBJ -64.98493223586014
    BUY_CR14_2 CBAL_CR14_2 1.0
    CINV_CR14_2 OBJ -0.3
    CINV_CR14_2 CBAL_CR14_2 -1.0
    CINV_CR14_2 CBAL_CR14_3 1.0
    CDU_CR14_2 CBAL_CR14_2 -1.0
    CDU_CR14_2 CDUCAP_2 1.0
    CDU_CR14_2 YLPG_CR14_2 -0.011676212845503672
    CDU_CR14_2 YNAP_CR14_2 -0.10963647957865116
    CDU_CR14_2 YKER_CR14_2 -0.09755861914812415
    CDU_CR14_2 YDSL_CR14_2 -0.22400035528460593
    CDU_CR14_2 YVGO_CR14_2 -0.27985390356413214
    CDU_CR14_2 YRES_CR14_2 -0.2772744295789829
    BUY_CR15_2 OBJ -66.88945540751921
    BUY_CR15_2 CBAL_CR15_2 1.0
    CINV_CR15_2 OBJ -0.3
    CINV_CR15_2 CBAL_CR15_2 -1.0
    CINV_CR15_2 CBAL_CR15_3 1.0
    CDU_CR15_2 CBAL_CR15_2 -1.0
    CDU_CR15_2 CDUCAP_2 1.0
    CDU_CR15_2 YLPG_CR15_2 -0.010625779986084445
    CDU_CR15_2 YNAP_CR15_2 -0.11766680402271243
    CDU_CR15_2 YKER_CR15_2 -0.09531893966264804
    CDU_CR15_2 YDSL_CR15_2 -0.2087175638151306
    CDU_CR15_2 YVGO_CR15_2 -0.2798835604956035
    CDU_CR15_2 YRES_CR15_2 -0.287787352017821
    BUY_CR16_2 OBJ -72.2939386463907
    BUY_CR16_2 CBAL_CR16_2 1.0
    CINV_CR16_2 OBJ -0.3
    CINV_CR16_2 CBAL_CR16_2 -1.0
    CINV_CR16_2 CBAL_CR16_3 1.0
    CDU_CR16_2 CBAL_CR16_2 -1.0
    CDU_CR16_2 CDUCAP_2 1.0
    CDU_CR16_2 YLPG_CR16_2 -0.021730435986974463
    CDU_CR16_2 YNAP_CR16_2 -0.22346814322949868
    CDU_CR16_2 YKER_CR16_2 -0.12962692092969477
    CDU_CR16_2 YDSL_CR16_2 -0.23580083169350696
    CDU_CR16_2 YVGO_CR16_2 -0.23197545191976185
    CDU_CR16_2 YRES_CR16_2 -0.1573982162405634
    BUY_CR17_2 OBJ -71.74462436887747
    BUY_CR17_2 CBAL_CR17_2 1.0
    CINV_CR17_2 OBJ -0.3
    CINV_CR17_2 CBAL_CR17_2 -1.0
    CINV_CR17_2 CBAL_CR17_3 1.0
    CDU_CR17_2 CBAL_CR17_2 -1.0
    CDU_CR17_2 CDUCAP_2 1.0
    CDU_CR17_2 YLPG_CR17_2 -0.023568928491133005
    CDU_CR17_2 YNAP_CR17_2 -0.24678008017283823
    CDU_CR17_2 YKER_CR17_2 -0.12826932733432603
    CDU_CR17_2 YDSL_CR17_2 -0.2495178182316694
    CDU_CR17_2 YVGO_CR17_2 -0.23510202280801157
    CDU_CR17_2 YRES_CR17_2 -0.1167618229620217
    BUY_CR18_2 OBJ -80.70161503131824
    BUY_CR18_2 CBAL_CR18_2 1.0
    CINV_CR18_2 OBJ -0.3
    CINV_CR18_2 CBAL_CR18_2 -1.0
    CINV_CR18_2 CBAL_CR18_3 1.0
    CDU_CR18_2 CBAL_CR18_2 -1.0
    CDU_CR18_2 CDUCAP_2 1.0
    CDU_CR18_2 YLPG_CR18_2 -0.02478422291723085
    CDU_CR18_2 YNAP_CR18_2 -0.23955258573301338
    CDU_CR18_2 YKER_CR18_2 -0.1322077813000583
    CDU_CR18_2 YDSL_CR18_2 -0.21167154879043004
    CDU_CR18_2 YVGO_CR18_2 -0.24506150244942554
    CDU_CR18_2 YRES_CR18_2 -0.146722358809842
    BUY_CR19_2 OBJ -69.06597313948721
    BUY_CR19_2 CBAL_CR19_2 1.0
    CINV_CR19_2 OBJ -0.3
    CINV_CR19_2 CBAL_CR19_2 -1.0
    CINV_CR19_2 CBAL_CR19_3 1.0
    CDU_CR19_2 CBAL_CR19_2 -1.0
    CDU_CR19_2 CDUCAP_2 1.0
    CDU_CR19_2 YLPG_CR19_2 -0.01626067739955701
    CDU_CR19_2 YNAP_CR19_2 -0.1715066574732045
    CDU_CR19_2 YKER_CR19_2 -0.11836465284470915
    CDU_CR19_2 YDSL_CR19_2 -0.20874443204167248
    CDU_CR19_2 YVGO_CR19_2 -0.2445178967491453
    CDU_CR19_2 YRES_CR19_2 -0.24060568349171155
    LPG_CR00_2 YLPG_CR00_2 1.0
    LPG_CR00_2 LPGBAL_2 -1.0
    NAP_CR00_2 YNAP_CR00_2 1.0
    NAP_CR00_2 NAPBAL_CR00_2 1.0
    KER_CR00_2 YKER_CR00_2 1.0
    KER_CR00_2 KERBAL_CR00_2 1.0
    DSL_CR00_2 YDSL_CR00_2 1.0
    DSL_CR00_2 DSLBAL_CR00_2 1.0
    VGO_CR00_2 YVGO_CR00_2 1.0
    VGO_CR00_2 VGOBAL_CR00_2 1.0
    RES_CR00_2 YRES_CR00_2 1.0
    RES_CR00_2 RESSPLIT_CR00_2 1.0
    LPG_CR01_2 YLPG_CR01_2 1.0
    LPG_CR01_2 LPGBAL_2 -1.0
    NAP_CR01_2 YNAP_CR01_2 1.0
    NAP_CR01_2 NAPBAL_CR01_2 1.0
    KER_CR01_2 YKER_CR01_2 1.0
    KER_CR01_2 KERBAL_CR01_2 1.0
    DSL_CR01_2 YDSL_CR01_2 1.0
    DSL_CR01_2 DSLBAL_CR01_2 1.0
    VGO_CR01_2 YVGO_CR01_2 1.0
    VGO_CR01_2 VGOBAL_CR01_2 1.0
    RES_CR01_2 YRES_CR01_2 1.0
    RES_CR01_2 RESSPLIT_CR01_2 1.0
    LPG_CR02_2 YLPG_CR02_2 1.0
    LPG_CR02_2 LPGBAL_2 -1.0
    NAP_CR02_2 YNAP_CR02_2 1.0
    NAP_CR02_2 NAPBAL_CR02_2 1.0
    KER_CR02_2 YKER_CR02_2 1.0
    KER_CR02_2 KERBAL_CR02_2 1.0
    DSL_CR02_2 YDSL_CR02_2 1.0
    DSL_CR02_2 DSLBAL_CR02_2 1.0
    VGO_CR02_2 YVGO_CR02_2 1.0
    VGO_CR02_2 VGOBAL_CR02_2 1.0
    RES_CR02_2 YRES_CR02_2 1.0
    RES_CR02_2 RESSPLIT_CR02_2 1.0
    LPG_CR03_2 YLPG_CR03_2 1.0
    LPG_CR03_2 LPGBAL_2 -1.0
    NAP_CR03_2 YNAP_CR03_2 1.0
    NAP_CR03_2 NAPBAL_CR03_2 1.0
    KER_CR03_2 YKER_CR03_2 1.0
    KER_CR03_2 KERBAL_CR03_2 1.0
    DSL_CR03_2 YDSL_CR03_2 1.0
    DSL_CR03_2 DSLBAL_CR03_2 1.0
    VGO_CR03_2 YVGO_CR03_2 1.0
    VGO_CR03_2 VGOBAL_CR03_2 1.0
    RES_CR03_2 YRES_CR03_2 1.0
    RES_CR03_2 RESSPLIT_CR03_2 1.0
    LPG_CR04_2 YLPG_CR04_2 1.0
    LPG_CR04_2 LPGBAL_2 -1.0
    NAP_CR04_2 YNAP_CR04_2 1.0
    NAP_CR04_2 NAPBAL_CR04_2 1.0
    KER_CR04_2 YKER_CR04_2 1.0
    KER_CR04_2 KERBAL_CR04_2 1.0
    DSL_CR04_2 YDSL_CR04_2 1.0
    DSL_CR04_2 DSLBAL_CR04_2 1.0
    VGO_CR04_2 YVGO_CR04_2 1.0
    VGO_CR04_2 VGOBAL_CR04_2 1.0
    RES_CR04_2 YRES_CR04_2 1.0
    RES_CR04_2 RESSPLIT_CR04_2 1.0
    LPG_CR05_2 YLPG_CR05_2 1.0
    LPG_CR05_2 LPGBAL_2 -1.0
    NAP_CR05_2 YNAP_CR05_2 1.0
    NAP_CR05_2 NAPBAL_CR05_2 1.0
    KER_CR05_2 YKER_CR05_2 1.0
    KER_CR05_2 KERBAL_CR05_2 1.0
    DSL_CR05_2 YDSL_CR05_2 1.0
    DSL_CR05_2 DSLBAL_CR05_2 1.0
    VGO_CR05_2 YVGO_CR05_2 1.0
    VGO_CR05_2 VGOBAL_CR05_2 1.0
    RES_CR05_2 YRES_CR05_2 1.0
    RES_CR05_2 RESSPLIT_CR05_2 1.0
    LPG_CR06_2 YLPG_CR06_2 1.0
    LPG_CR06_2 LPGBAL_2 -1.0
    NAP_CR06_2 YNAP_CR06_2 1.0
    NAP_CR06_2 NAPBAL_CR06_2 1.0
    KER_CR06_2 YKER_CR06_2 1.0
    KER_CR06_2 KERBAL_CR06_2 1.0
    DSL_CR06_2 YDSL_CR06_2 1.0
    DSL_CR06_2 DSLBAL_CR06_2 1.0
    VGO_CR06_2 YVGO_CR06_2 1.0
    VGO_CR06_2 VGOBAL_CR06_2 1.0
    RES_CR06_2 YRES_CR06_2 1.0
    RES_CR06_2 RESSPLIT_CR06_2 1.0
    LPG_CR07_2 YLPG_CR07_2 1.0
    LPG_CR07_2 LPGBAL_2 -1.0
    NAP_CR07_2 YNAP_CR07_2 1.0
    NAP_CR07_2 NAPBAL_CR07_2 1.0
    KER_CR07_2 YKER_CR07_2 1.0
    KER_CR07_2 KERBAL_CR07_2 1.0
    DSL_CR07_2 YDSL_CR07_2 1.0
    DSL_CR07_2 DSLBAL_CR07_2 1.0
    VGO_CR07_2 YVGO_CR07_2 1.0
    VGO_CR07_2 VGOBAL_CR07_2 1.0
    RES_CR07_2 YRES_CR07_2 1.0
    RES_CR07_2 RESSPLIT_CR07_2 1.0
    LPG_CR08_2 YLPG_CR08_2 1.0
    LPG_CR08_2 LPGBAL_2 -1.0
    NAP_CR08_2 YNAP_CR08_2 1.0
    NAP_CR08_2 NAPBAL_CR08_2 1.0
    KER_CR08_2 YKER_CR08_2 1.0
    KER_CR08_2 KERBAL_CR08_2 1.0
    DSL_CR08_2 YDSL_CR08_2 1.0
    DSL_CR08_2 DSLBAL_CR08_2 1.0
    VGO_CR08_2 YVGO_CR08_2 1.0
    VGO_CR08_2 VGOBAL_CR08_2 1.0
    RES_CR08_2 YRES_CR08_2 1.0
    RES_CR08_2 RESSPLIT_CR08_2 1.0
    LPG_CR09_2 YLPG_CR09_2 1.0
    LPG_CR09_2 LPGBAL_2 -1.0
    NAP_CR09_2 YNAP_CR09_2 1.0
    NAP_CR09_2 NAPBAL_CR09_2 1.0
    KER_CR09_2 YKER_CR09_2 1.0
    KER_CR09_2 KERBAL_CR09_2 1.0
    DSL_CR09_2 YDSL_CR09_2 1.0
    DSL_CR09_2 DSLBAL_CR09_2 1.0
    VGO_CR09_2 YVGO_CR09_2 1.0
    VGO_CR09_2 VGOBAL_CR09_2 1.0
    RES_CR09_2 YRES_CR09_2 1.0
    RES_CR09_2 RESSPLIT_CR09_2 1.0
    LPG_CR10_2 YLPG_CR10_2 1.0
    LPG_CR10_2 LPGBAL_2 -1.0
    NAP_CR10_2 YNAP_CR10_2 1.0
    NAP_CR10_2 NAPBAL_CR10_2 1.0
    KER_CR10_2 YKER_CR10_2 1.0
    KER_CR10_2 KERBAL_CR10_2 1.0
    DSL_CR10_2 YDSL_CR10_2 1.0
    DSL_CR10_2 DSLBAL_CR10_2 1.0
    VGO_CR10_2 YVGO_CR10_2 1.0
    VGO_CR10_2 VGOBAL_CR10_2 1.0
    RES_CR10_2 YRES_CR10_2 1.0
    RES_CR10_2 RESSPLIT_CR10_2 1.0
    LPG_CR11_2 YLPG_CR11_2 1.0
    LPG_CR11_2 LPGBAL_2 -1.0
    NAP_CR11_2 YNAP_CR11_2 1.0
    NAP_CR11_2 NAPBAL_CR11_2 1.0
    KER_CR11_2 YKER_CR11_2 1.0
    KER_CR11_2 KERBAL_CR11_2 1.0
    DSL_CR11_2 YDSL_CR11_2 1.0
    DSL_CR11_2 DSLBAL_CR11_2 1.0
    VGO_CR11_2 YVGO_CR11_2 1.0
    VGO_CR11_2 VGOBAL_CR11_2 1.0
    RES_CR11_2 YRES_CR11_2 1.0
    RES_CR11_2 RESSPLIT_CR11_2 1.0
    LPG_CR12_2 YLPG_CR12_2 1.0
    LPG_CR12_2 LPGBAL_2 -1.0
    NAP_CR12_2 YNAP_CR12_2 1.0
    NAP_CR12_2 NAPBAL_CR12_2 1.0
    KER_CR12_2 YKER_CR12_2 1.0
    KER_CR12_2 KERBAL_CR12_2 1.0
    DSL_CR12_2 YDSL_CR12_2 1.0
    DSL_CR12_2 DSLBAL_CR12_2 1.0
    VGO_CR12_2 YVGO_CR12_2 1.0
    VGO_CR12_2 VGOBAL_CR12_2 1.0
    RES_CR12_2 YRES_CR12_2 1.0
    RES_CR12_2 RESSPLIT_CR12_2 1.0
    LPG_CR13_2 YLPG_CR13_2 1.0
    LPG_CR13_2 LPGBAL_2 -1.0
    NAP_CR13_2 YNAP_CR13_2 1.0
    NAP_CR13_2 NAPBAL_CR13_2 1.0
    KER_CR13_2 YKER_CR13_2 1.0
    KER_CR13_2 KERBAL_CR13_2 1.0
    DSL_CR13_2 YDSL_CR13_2 1.0
    DSL_CR13_2 DSLBAL_CR13_2 1.0
    VGO_CR13_2 YVGO_CR13_2 1.0
    VGO_CR13_2 VGOBAL_CR13_2 1.0
    RES_CR13_2 YRES_CR13_2 1.0
    RES_CR13_2 RESSPLIT_CR13_2 1.0
    LPG_CR14_2 YLPG_CR14_2 1.0
    LPG_CR14_2 LPGBAL_2 -1.0
    NAP_CR14_2 YNAP_CR14_2 1.0
    NAP_CR14_2 NAPBAL_CR14_2 1.0
    KER_CR14_2 YKER_CR14_2 1.0
    KER_CR14_2 KERBAL_CR14_2 1.0
    DSL_CR14_2 YDSL_CR14_2 1.0
    DSL_CR14_2 DSLBAL_CR14_2 1.0
    VGO_CR14_2 YVGO_CR14_2 1.0
    VGO_CR14_2 VGOBAL_CR14_2 1.0
    RES_CR14_2 YRES_CR14_2 1.0
    RES_CR14_2 RESSPLIT_CR14_2 1.0
    LPG_CR15_2 YLPG_CR15_2 1.0
    LPG_CR15_2 LPGBAL_2 -1.0
    NAP_CR15_2 YNAP_CR15_2 1.0
    NAP_CR15_2 NAPBAL_CR15_2 1.0
    KER_CR15_2 YKER_CR15_2 1.0
    KER_CR15_2 KERBAL_CR15_2 1.0
    DSL_CR15_2 YDSL_CR15_2 1.0
    DSL_CR15_2 DSLBAL_CR15_2 1.0
    VGO_CR15_2 YVGO_CR15_2 1.0
    VGO_CR15_2 VGOBAL_CR15_2 1.0
    RES_CR15_2 YRES_CR15_2 1.0
    RES_CR15_2 RESSPLIT_CR15_2 1.0
    LPG_CR16_2 YLPG_CR16_2 1.0
    LPG_CR16_2 LPGBAL_2 -1.0
    NAP_CR16_2 YNAP_CR16_2 1.0
    NAP_CR16_2 NAPBAL_CR16_2 1.0
    KER_CR16_2 YKER_CR16_2 1.0
    KER_CR16_2 KERBAL_CR16_2 1.0
    DSL_CR16_2 YDSL_CR16_2 1.0
    DSL_CR16_2 DSLBAL_CR16_2 1.0
    VGO_CR16_2 YVGO_CR16_2 1.0
    VGO_CR16_2 VGOBAL_CR16_2 1.0
    RES_CR16_2 YRES_CR16_2 1.0
    RES_CR16_2 RESSPLIT_CR16_2 1.0
    LPG_CR17_2 YLPG_CR17_2 1.0
    LPG_CR17_2 LPGBAL_2 -1.0
    NAP_CR17_2 YNAP_CR17_2 1.0
    NAP_CR17_2 NAPBAL_CR17_2 1.0
    KER_CR17_2 YKER_CR17_2 1.0
    KER_CR17_2 KERBAL_CR17_2 1.0
    DSL_CR17_2 YDSL_CR17_2 1.0
    DSL_CR17_2 DSLBAL_CR17_2 1.0
    VGO_CR17_2 YVGO_CR17_2 1.0
    VGO_CR17_2 VGOBAL_CR17_2 1.0
    RES_CR17_2 YRES_CR17_2 1.0
    RES_CR17_2 RESSPLIT_CR17_2 1.0
    LPG_CR18_2 YLPG_CR18_2 1.0
    LPG_CR18_2 LPGBAL_2 -1.0
    NAP_CR18_2 YNAP_CR18_2 1.0
    NAP_CR18_2 NAPBAL_CR18_2 1.0
    KER_CR18_2 YKER_CR18_2 1.0
    KER_CR18_2 KERBAL_CR18_2 1.0
    DSL_CR18_2 YDSL_CR18_2 1.0
    DSL_CR18_2 DSLBAL_CR18_2 1.0
    VGO_CR18_2 YVGO_CR18_2 1.0
    VGO_CR18_2 VGOBAL_CR18_2 1.0
    RES_CR18_2 YRES_CR18_2 1.0
    RES_CR18_2 RESSPLIT_CR18_2 1.0
    LPG_CR19_2 YLPG_CR19_2 1.0
    LPG_CR19_2 LPGBAL_2 -1.0
    NAP_CR19_2 YNAP_CR19_2 1.0
    NAP_CR19_2 NAPBAL_CR19_2 1.0
    KER_CR19_2 YKER_CR19_2 1.0
    KER_CR19_2 KERBAL_CR19_2 1.0
    DSL_CR19_2 YDSL_CR19_2 1.0
    DSL_CR19_2 DSLBAL_CR19_2 1.0
    VGO_CR19_2 YVGO_CR19_2 1.0
    VGO_CR19_2 VGOBAL_CR19_2 1.0
    RES_CR19_2 YRES_CR19_2 1.0
    RES_CR19_2 RESSPLIT_CR19_2 1.0
    VDUIN_CR00_2 RESSPLIT_CR00_2 -1.0
    VDUIN_CR00_2 VDUY1_CR00_2 -0.45
    VDUIN_CR00_2 VDUY2_CR00_2 -0.55
    VDUIN_CR00_2 VDUCAP_2 1.0
    RESFO_CR00_2 RESSPLIT_CR00_2 -1.0
    RESFO_CR00_2 FOBAL_2 -1.0
    RESFO_CR00_2 FOSUL_2 1.9540891690108433
    VGO2_CR00_2 VDUY1_CR00_2 1.0
    VGO2_CR00_2 VGOBAL_CR00_2 1.0
    VR_CR00_2 VDUY2_CR00_2 1.0
    VR_CR00_2 FOBAL_2 -1.0
    VR_CR00_2 FOSUL_2 3.5903159197140964
    VDUIN_CR01_2 RESSPLIT_CR01_2 -1.0
    VDUIN_CR01_2 VDUY1_CR01_2 -0.45
    VDUIN_CR01_2 VDUY2_CR01_2 -0.55
    VDUIN_CR01_2 VDUCAP_2 1.0
    RESFO_CR01_2 RESSPLIT_CR01_2 -1.0
    RESFO_CR01_2 FOBAL_2 -1.0
    RESFO_CR01_2 FOSUL_2 -0.6168441789886687
    VGO2_CR01_2 VDUY1_CR01_2 1.0
    VGO2_CR01_2 VGOBAL_CR01_2 1.0
    VR_CR01_2 VDUY2_CR01_2 1.0
    VR_CR01_2 FOBAL_2 -1.0
    VR_CR01_2 FOSUL_2 0.24810256731473057
    VDUIN_CR02_2 RESSPLIT_CR02_2 -1.0
    VDUIN_CR02_2 VDUY1_CR02_2 -0.45
    VDUIN_CR02_2 VDUY2_CR02_2 -0.55
    VDUIN_CR02_2 VDUCAP_2 1.0
    RESFO_CR02_2 RESSPLIT_CR02_2 -1.0
    RESFO_CR02_2 FOBAL_2 -1.0
    RESFO_CR02_2 FOSUL_2 0.05675733131967897
    VGO2_CR02_2 VDUY1_CR02_2 1.0
    VGO2_CR02_2 VGOBAL_CR02_2 1.0
    VR_CR02_2 VDUY2_CR02_2 1.0
    VR_CR02_2 FOBAL_2 -1.0
    VR_CR02_2 FOSUL_2 1.1237845307155832
    VDUIN_CR03_2 RESSPLIT_CR03_2 -1.0
    VDUIN_CR03_2 VDUY1_CR03_2 -0.45
    VDUIN_CR03_2 VDUY2_CR03_2 -0.55
    VDUIN_CR03_2 VDUCAP_2 1.0
    RESFO_CR03_2 RESSPLIT_CR03_2 -1.0
    RESFO_CR03_2 FOBAL_2 -1.0
    RESFO_CR03_2 FOSUL_2 -1.8686274424458973
    VGO2_CR03_2 VDUY1_CR03_2 1.0
    VGO2_CR03_2 VGOBAL_CR03_2 1.0
    VR_CR03_2 VDUY2_CR03_2 1.0
    VR_CR03_2 FOBAL_2 -1.0
    VR_CR03_2 FOSUL_2 -1.3792156751796663
    VDUIN_CR04_2 RESSPLIT_CR04_2 -1.0
    VDUIN_CR04_2 VDUY1_CR04_2 -0.45
    VDUIN_CR04_2 VDUY2_CR04_2 -0.55
    VDUIN_CR04_2 VDUCAP_2 1.0
    RESFO_CR04_2 RESSPLIT_CR04_2 -1.0
    RESFO_CR04_2 FOBAL_2 -1.0
    RESFO_CR04_2 FOSUL_2 2.031668478530798
    VGO2_CR04_2 VDUY1_CR04_2 1.0
    VGO2_CR04_2 VGOBAL_CR04_2 1.0
    VR_CR04_2 VDUY2_CR04_2 1.0
    VR_CR04_2 FOBAL_2 -1.0
    VR_CR04_2 FOSUL_2 3.6911690220900377
    VDUIN_CR05_2 RESSPLIT_CR05_2 -1.0
    VDUIN_CR05_2 VDUY1_CR05_2 -0.45
    VDUIN_CR05_2 VDUY2_CR05_2 -0.55
    VDUIN_CR05_2 VDUCAP_2 1.0
    RESFO_CR05_2 RESSPLIT_CR05_2 -1.0
    RESFO_CR05_2 FOBAL_2 -1.0
    RESFO_CR05_2 FOSUL_2 0.3429997580900688
    VGO2_CR05_2 VDUY1_CR05_2 1.0
    VGO2_CR05_2 VGOBAL_CR05_2 1.0
    VR_CR05_2 VDUY2_CR05_2 1.0
    VR_CR05_2 FOBAL_2 -1.0
    VR_CR05_2 FOSUL_2 1.4958996855170898
    VDUIN_CR06_2 RESSPLIT_CR06_2 -1.0
    VDUIN_CR06_2 VDUY1_CR06_2 -0.45
    VDUIN_CR06_2 VDUY2_CR06_2 -0.55
    VDUIN_CR06_2 VDUCAP_2 1.0
    RESFO_CR06_2 RESSPLIT_CR06_2 -1.0
    RESFO_CR06_2 FOBAL_2 -1.0
    RESFO_CR06_2 FOSUL_2 0.10255232060654862
    VGO2_CR06_2 VDUY1_CR06_2 1.0
    VGO2_CR06_2 VGOBAL_CR06_2 1.0
    VR_CR06_2 VDUY2_CR06_2 1.0
    VR_CR06_2 FOBAL_2 -1.0
    VR_CR06_2 FOSUL_2 1.1833180167885136
    VDUIN_CR07_2 RESSPLIT_CR07_2 -1.0
    VDUIN_CR07_2 VDUY1_CR07_2 -0.45
    VDUIN_CR07_2 VDUY2_CR07_2 -0.55
    VDUIN_CR07_2 VDUCAP_2 1.0
    RESFO_CR07_2 RESSPLIT_CR07_2 -1.0
    RESFO_CR07_2 FOBAL_2 -1.0
    RESFO_CR07_2 FOSUL_2 -3.116635223405176
    VGO2_CR07_2 VDUY1_CR07_2 1.0
    VGO2_CR07_2 VGOBAL_CR07_2 1.0
    VR_CR07_2 VDUY2_CR07_2 1.0
    VR_CR07_2 FOBAL_2 -1.0
    VR_CR07_2 FOSUL_2 -3.001625790426729
    VDUIN_CR08_2 RESSPLIT_CR08_2 -1.0
    VDUIN_CR08_2 VDUY1_CR08_2 -0.45
    VDUIN_CR08_2 VDUY2_CR08_2 -0.55
    VDUIN_CR08_2 VDUCAP_2 1.0
    RESFO_CR08_2 RESSPLIT_CR08_2 -1.0
    RESFO_CR08_2 FOBAL_2 -1.0
    RESFO_CR08_2 FOSUL_2 0.0456281803886287
    VGO2_CR08_2 VDUY1_CR08_2 1.0
    VGO2_CR08_2 VGOBAL_CR08_2 1.0
    VR_CR08_2 VDUY2_CR08_2 1.0
    VR_CR08_2 FOBAL_2 -1.0
    VR_CR08_2 FOSUL_2 1.109316634505218
    VDUIN_CR09_2 RESSPLIT_CR09_2 -1.0
    VDUIN_CR09_2 VDUY1_CR09_2 -0.45
    VDUIN_CR09_2 VDUY2_CR09_2 -0.55
    VDUIN_CR09_2 VDUCAP_2 1.0
    RESFO_CR09_2 RESSPLIT_CR09_2 -1.0
    RESFO_CR09_2 FOBAL_2 -1.0
    RESFO_CR09_2 FOSUL_2 -3.264603397407564
    VGO2_CR09_2 VDUY1_CR09_2 1.0
    VGO2_CR09_2 VGOBAL_CR09_2 1.0
    VR_CR09_2 VDUY2_CR09_2 1.0
    VR_CR09_2 FOBAL_2 -1.0
    VR_CR09_2 FOSUL_2 -3.1939844166298332
    VDUIN_CR10_2 RESSPLIT_CR10_2 -1.0
    VDUIN_CR10_2 VDUY1_CR10_2 -0.45
    VDUIN_CR10_2 VDUY2_CR10_2 -0.55
    VDUIN_CR10_2 VDUCAP_2 1.0
    RESFO_CR10_2 RESSPLIT_CR10_2 -1.0
    RESFO_CR10_2 FOBAL_2 -1.0
    RESFO_CR10_2 FOSUL_2 2.094062962095167
    VGO2_CR10_2 VDUY1_CR10_2 1.0
    VGO2_CR10_2 VGOBAL_CR10_2 1.0
    VR_CR10_2 VDUY2_CR10_2 1.0
    VR_CR10_2 FOBAL_2 -1.0
    VR_CR10_2 FOSUL_2 3.7722818507237177
    VDUIN_CR11_2 RESSPLIT_CR11_2 -1.0
    VDUIN_CR11_2 VDUY1_CR11_2 -0.45
    VDUIN_CR11_2 VDUY2_CR11_2 -0.55
    VDUIN_CR11_2 VDUCAP_2 1.0
    RESFO_CR11_2 RESSPLIT_CR11_2 -1.0
    RESFO_CR11_2 FOBAL_2 -1.0
    RESFO_CR11_2 FOSUL_2 -0.4594898393817082
    VGO2_CR11_2 VDUY1_CR11_2 1.0
    VGO2_CR11_2 VGOBAL_CR11_2 1.0
    VR_CR11_2 VDUY2_CR11_2 1.0
    VR_CR11_2 FOBAL_2 -1.0
    VR_CR11_2 FOSUL_2 0.4526632088037794
    VDUIN_CR12_2 RESSPLIT_CR12_2 -1.0
    VDUIN_CR12_2 VDUY1_CR12_2 -0.45
    VDUIN_CR12_2 VDUY2_CR12_2 -0.55
    VDUIN_CR12_2 VDUCAP_2 1.0
    RESFO_CR12_2 RESSPLIT_CR12_2 -1.0
    RESFO_CR12_2 FOBAL_2 -1.0
    RESFO_CR12_2 FOSUL_2 1.9188179600993953
    VGO2_CR12_2 VDUY1_CR12_2 1.0
    VGO2_CR12_2 VGOBAL_CR12_2 1.0
    VR_CR12_2 VDUY2_CR12_2 1.0
    VR_CR12_2 FOBAL_2 -1.0
    VR_CR12_2 FOSUL_2 3.544463348129214
    VDUIN_CR13_2 RESSPLIT_CR13_2 -1.0
    VDUIN_CR13_2 VDUY1_CR13_2 -0.45
    VDUIN_CR13_2 VDUY2_CR13_2 -0.55
    VDUIN_CR13_2 VDUCAP_2 1.0
    RESFO_CR13_2 RESSPLIT_CR13_2 -1.0
    RESFO_CR13_2 FOBAL_2 -1.0
    RESFO_CR13_2 FOSUL_2 -2.8690046531087465
    VGO2_CR13_2 VDUY1_CR13_2 1.0
    VGO2_CR13_2 VGOBAL_CR13_2 1.0
    VR_CR13_2 VDUY2_CR13_2 1.0
    VR_CR13_2 FOBAL_2 -1.0
    VR_CR13_2 FOSUL_2 -2.6797060490413704
    VDUIN_CR14_2 RESSPLIT_CR14_2 -1.0
    VDUIN_CR14_2 VDUY1_CR14_2 -0.45
    VDUIN_CR14_2 VDUY2_CR14_2 -0.55
    VDUIN_CR14_2 VDUCAP_2 1.0
    RESFO_CR14_2 RESSPLIT_CR14_2 -1.0
    RESFO_CR14_2 FOBAL_2 -1.0
    RESFO_CR14_2 FOSUL_2 -0.9033459504788866
    VGO2_CR14_2 VDUY1_CR14_2 1.0
    VGO2_CR14_2 VGOBAL_CR14_2 1.0
    VR_CR14_2 VDUY2_CR14_2 1.0
    VR_CR14_2 FOBAL_2 -1.0
    VR_CR14_2 FOSUL_2 -0.12434973562255225
    VDUIN_CR15_2 RESSPLIT_CR15_2 -1.0
    VDUIN_CR15_2 VDUY1_CR15_2 -0.45
    VDUIN_CR15_2 VDUY2_CR15_2 -0.55
    VDUIN_CR15_2 VDUCAP_2 1.0
    RESFO_CR15_2 RESSPLIT_CR15_2 -1.0
    RESFO_CR15_2 FOBAL_2 -1.0
    RESFO_CR15_2 FOSUL_2 -3.189239970867669
    VGO2_CR15_2 VDUY1_CR15_2 1.0
    VGO2_CR15_2 VGOBAL_CR15_2 1.0
    VR_CR15_2 VDUY2_CR15_2 1.0
    VR_CR15_2 FOBAL_2 -1.0
    VR_CR15_2 FOSUL_2 -3.0960119621279696
    VDUIN_CR16_2 RESSPLIT_CR16_2 -1.0
    VDUIN_CR16_2 VDUY1_CR16_2 -0.45
    VDUIN_CR16_2 VDUY2_CR16_2 -0.55
    VDUIN_CR16_2 VDUCAP_2 1.0
    RESFO_CR16_2 RESSPLIT_CR16_2 -1.0
    RESFO_CR16_2 FOBAL_2 -1.0
    RESFO_CR16_2 FOSUL_2 -0.09708299491376327
    VGO2_CR16_2 VDUY1_CR16_2 1.0
    VGO2_CR16_2 VGOBAL_CR16_2 1.0
    VR_CR16_2 VDUY2_CR16_2 1.0
    VR_CR16_2 FOBAL_2 -1.0
    VR_CR16_2 FOSUL_2 0.9237921066121082
    VDUIN_CR17_2 RESSPLIT_CR17_2 -1.0
    VDUIN_CR17_2 VDUY1_CR17_2 -0.45
    VDUIN_CR17_2 VDUY2_CR17_2 -0.55
    VDUIN_CR17_2 VDUCAP_2 1.0
    RESFO_CR17_2 RESSPLIT_CR17_2 -1.0
    RESFO_CR17_2 FOBAL_2 -1.0
    RESFO_CR17_2 FOSUL_2 2.128312314257988
    VGO2_CR17_2 VDUY1_CR17_2 1.0
    VGO2_CR17_2 VGOBAL_CR17_2 1.0
    VR_CR17_2 VDUY2_CR17_2 1.0
    VR_CR17_2 FOBAL_2 -1.0
    VR_CR17_2 FOSUL_2 3.8168060085353845
    VDUIN_CR18_2 RESSPLIT_CR18_2 -1.0
    VDUIN_CR18_2 VDUY1_CR18_2 -0.45
    VDUIN_CR18_2 VDUY2_CR18_2 -0.55
    VDUIN_CR18_2 VDUCAP_2 1.0
    RESFO_CR18_2 RESSPLIT_CR18_2 -1.0
    RESFO_CR18_2 FOBAL_2 -1.0
    RESFO_CR18_2 FOSUL_2 -3.0649175102888004
    VGO2_CR18_2 VDUY1_CR18_2 1.0
    VGO2_CR18_2 VGOBAL_CR18_2 1.0
    VR_CR18_2 VDUY2_CR18_2 1.0
    VR_CR18_2 FOBAL_2 -1.0
    VR_CR18_2 FOSUL_2 -2.9343927633754405
    VDUIN_CR19_2 RESSPLIT_CR19_2 -1.0
    VDUIN_CR19_2 VDUY1_CR19_2 -0.45
    VDUIN_CR19_2 VDUY2_CR19_2 -0.55
    VDUIN_CR19_2 VDUCAP_2 1.0
    RESFO_CR19_2 RESSPLIT_CR19_2 -1.0
    RESFO_CR19_2 FOBAL_2 -1.0
    RESFO_CR19_2 FOSUL_2 -1.1490285157117452
    VGO2_CR19_2 VDUY1_CR19_2 1.0
    VGO2_CR19_2 VGOBAL_CR19_2 1.0
    VR_CR19_2 VDUY2_CR19_2 1.0
    VR_CR19_2 FOBAL_2 -1.0
    VR_CR19_2 FOSUL_2 -0.4437370704252688
    FCCIN_CR00_2 OBJ -2.5
    FCCIN_CR00_2 VGOBAL_CR00_2 -1.0
    FCCIN_CR00_2 FCCCAP_2 1.0
    FCCIN_CR00_2 FCCY_FCCG_2 -0.55
    FCCIN_CR00_2 FCCY_LCO_2 -0.2
    FCCIN_CR00_2 FCCY_FLPG_2 -0.15
    FCCIN_CR00_2 FCCY_SLURRY_2 -0.07
    FCCIN_CR01_2 OBJ -2.5
    FCCIN_CR01_2 VGOBAL_CR01_2 -1.0
    FCCIN_CR01_2 FCCCAP_2 1.0
    FCCIN_CR01_2 FCCY_FCCG_2 -0.55
    FCCIN_CR01_2 FCCY_LCO_2 -0.2
    FCCIN_CR01_2 FCCY_FLPG_2 -0.15
    FCCIN_CR01_2 FCCY_SLURRY_2 -0.07
    FCCIN_CR02_2 OBJ -2.5
    FCCIN_CR02_2 VGOBAL_CR02_2 -1.0
    FCCIN_CR02_2 FCCCAP_2 1.0
    FCCIN_CR02_2 FCCY_FCCG_2 -0.55
    FCCIN_CR02_2 FCCY_LCO_2 -0.2
    FCCIN_CR02_2 FCCY_FLPG_2 -0.15
    FCCIN_CR02_2 FCCY_SLURRY_2 -0.07
    FCCIN_CR03_2 OBJ -2.5
    FCCIN_CR03_2 VGOBAL_CR03_2 -1.0
    FCCIN_CR03_2 FCCCAP_2 1.0
    FCCIN_CR03_2 FCCY_FCCG_2 -0.55
    FCCIN_CR03_2 FCCY_LCO_2 -0.2
    FCCIN_CR03_2 FCCY_FLPG_2 -0.15
    FCCIN_CR03_2 FCCY_SLURRY_2 -0.07
    FCCIN_CR04_2 OBJ -2.5
    FCCIN_CR04_2 VGOBAL_CR04_2 -1.0
    FCCIN_CR04_2 FCCCAP_2 1.0
    FCCIN_CR04_2 FCCY_FCCG_2 -0.55
    FCCIN_CR04_2 FCCY_LCO_2 -0.2
    FCCIN_CR04_2 FCCY_FLPG_2 -0.15
    FCCIN_CR04_2 FCCY_SLURRY_2 -0.07
    FCCIN_CR05_2 OBJ -2.5
    FCCIN_CR05_2 VGOBAL_CR05_2 -1.0
    FCCIN_CR05_2 FCCCAP_2 1.0
    FCCIN_CR05_2 FCCY_FCCG_2 -0.55
    FCCIN_CR05_2 FCCY_LCO_2 -0.2
    FCCIN_CR05_2 FCCY_FLPG_2 -0.15
    FCCIN_CR05_2 FCCY_SLURRY_2 -0.07
    FCCIN_CR06_2 OBJ -2.5
    FCCIN_CR06_2 VGOBAL_CR06_2 -1.0
    FCCIN_CR06_2 FCCCAP_2 1.0
    FCCIN_CR06_2 FCCY_FCCG_2 -0.55
    FCCIN_CR06_2 FCCY_LCO_2 -0.2
    FCCIN_CR06_2 FCCY_FLPG_2 -0.15
    FCCIN_CR06_2 FCCY_SLURRY_2 -0.07
    FCCIN_CR07_2 OBJ -2.5
    FCCIN_CR07_2 VGOBAL_CR07_2 -1.0
    FCCIN_CR07_2 FCCCAP_2 1.0
    FCCIN_CR07_2 FCCY_FCCG_2 -0.55
    FCCIN_CR07_2 FCCY_LCO_2 -0.2
    FCCIN_CR07_2 FCCY_FLPG_2 -0.15
    FCCIN_CR07_2 FCCY_SLURRY_2 -0.07
    FCCIN_CR08_2 OBJ -2.5
    FCCIN_CR08_2 VGOBAL_CR08_2 -1.0
    FCCIN_CR08_2 FCCCAP_2 1.0
    FCCIN_CR08_2 FCCY_FCCG_2 -0.55
    FCCIN_CR08_2 FCCY_LCO_2 -0.2
    FCCIN_CR08_2 FCCY_FLPG_2 -0.15
    FCCIN_CR08_2 FCCY_SLURRY_2 -0.07
    FCCIN_CR09_2 OBJ -2.5
    FCCIN_CR09_2 VGOBAL_CR09_2 -1.0
    FCCIN_CR09_2 FCCCAP_2 1.0
    FCCIN_CR09_2 FCCY_FCCG_2 -0.55
    FCCIN_CR09_2 FCCY_LCO_2 -0.2
    FCCIN_CR09_2 FCCY_FLPG_2 -0.15
    FCCIN_CR09_2 FCCY_SLURRY_2 -0.07
    FCCIN_CR10_2 OBJ -2.5
    FCCIN_CR10_2 VGOBAL_CR10_2 -1.0
    FCCIN_CR10_2 FCCCAP_2 1.0
    FCCIN_CR10_2 FCCY_FCCG_2 -0.55
    FCCIN_CR10_2 FCCY_LCO_2 -0.2
    FCCIN_CR10_2 FCCY_FLPG_2 -0.15
    FCCIN_CR10_2 FCCY_SLURRY_2 -0.07
    FCCIN_CR11_2 OBJ -2.5
    FCCIN_CR11_2 VGOBAL_CR11_2 -1.0
    FCCIN_CR11_2 FCCCAP_2 1.0
    FCCIN_CR11_2 FCCY_FCCG_2 -0.55
    FCCIN_CR11_2 FCCY_LCO_2 -0.2
    FCCIN_CR11_2 FCCY_FLPG_2 -0.15
    FCCIN_CR11_2 FCCY_SLURRY_2 -0.07
    FCCIN_CR12_2 OBJ -2.5
    FCCIN_CR12_2 VGOBAL_CR12_2 -1.0
    FCCIN_CR12_2 FCCCAP_2 1.0
    FCCIN_CR12_2 FCCY_FCCG_2 -0.55
    FCCIN_CR12_2 FCCY_LCO_2 -0.2
    FCCIN_CR12_2 FCCY_FLPG_2 -0.15
    FCCIN_CR12_2 FCCY_SLURRY_2 -0.07
    FCCIN_CR13_2 OBJ -2.5
    FCCIN_CR13_2 VGOBAL_CR13_2 -1.0
    FCCIN_CR13_2 FCCCAP_2 1.0
    FCCIN_CR13_2 FCCY_FCCG_2 -0.55
    FCCIN_CR13_2 FCCY_LCO_2 -0.2
    FCCIN_CR13_2 FCCY_FLPG_2 -0.15
    FCCIN_CR13_2 FCCY_SLURRY_2 -0.07
    FCCIN_CR14_2 OBJ -2.5
    FCCIN_CR14_2 VGOBAL_CR14_2 -1.0
    FCCIN_CR14_2 FCCCAP_2 1.0
    FCCIN_CR14_2 FCCY_FCCG_2 -0.55
    FCCIN_CR14_2 FCCY_LCO_2 -0.2
    FCCIN_CR14_2 FCCY_FLPG_2 -0.15
    FCCIN_CR14_2 FCCY_SLURRY_2 -0.07
    FCCIN_CR15_2 OBJ -2.5
    FCCIN_CR15_2 VGOBAL_CR15_2 -1.0
    FCCIN_CR15_2 FCCCAP_2 1.0
    FCCIN_CR15_2 FCCY_FCCG_2 -0.55
    FCCIN_CR15_2 FCCY_LCO_2 -0.2
    FCCIN_CR15_2 FCCY_FLPG_2 -0.15
    FCCIN_CR15_2 FCCY_SLURRY_2 -0.07
    FCCIN_CR16_2 OBJ -2.5
    FCCIN_CR16_2 VGOBAL_CR16_2 -1.0
    FCCIN_CR16_2 FCCCAP_2 1.0
    FCCIN_CR16_2 FCCY_FCCG_2 -0.55
    FCCIN_CR16_2 FCCY_LCO_2 -0.2
    FCCIN_CR16_2 FCCY_FLPG_2 -0.15
    FCCIN_CR16_2 FCCY_SLURRY_2 -0.07
    FCCIN_CR17_2 OBJ -2.5
    FCCIN_CR17_2 VGOBAL_CR17_2 -1.0
    FCCIN_CR17_2 FCCCAP_2 1.0
    FCCIN_CR17_2 FCCY_FCCG_2 -0.55
    FCCIN_CR17_2 FCCY_LCO_2 -0.2
    FCCIN_CR17_2 FCCY_FLPG_2 -0.15
    FCCIN_CR17_2 FCCY_SLURRY_2 -0.07
    FCCIN_CR18_2 OBJ -2.5
    FCCIN_CR18_2 VGOBAL_CR18_2 -1.0
    FCCIN_CR18_2 FCCCAP_2 1.0
    FCCIN_CR18_2 FCCY_FCCG_2 -0.55
    FCCIN_CR18_2 FCCY_LCO_2 -0.2
    FCCIN_CR18_2 FCCY_FLPG_2 -0.15
    FCCIN_CR18_2 FCCY_SLURRY_2 -0.07
    FCCIN_CR19_2 OBJ -2.5
    FCCIN_CR19_2 VGOBAL_CR19_2 -1.0
    FCCIN_CR19_2 FCCCAP_2 1.0
    FCCIN_CR19_2 FCCY_FCCG_2 -0.55
    FCCIN_CR19_2 FCCY_LCO_2 -0.2
    FCCIN_CR19_2 FCCY_FLPG_2 -0.15
    FCCIN_CR19_2 FCCY_SLURRY_2 -0.07
    FCCG_2 FCCY_FCCG_2 1.0
    FCCG_2 GASBAL_2 -1.0
    FCCG_2 GASRON_2 1.0
    LCO_2 FCCY_LCO_2 1.0
    LCO_2 LCOBAL_2 1.0
    FLPG_2 FCCY_FLPG_2 1.0
    FLPG_2 LPGBAL_2 -1.0
    SLURRY_2 FCCY_SLURRY_2 1.0
    SLURRY_2 FOBAL_2 -1.0
    SLURRY_2 FOSUL_2 -1.5
    REFIN_CR00_2 OBJ -3.0
    REFIN_CR00_2 NAPBAL_CR00_2 -1.0
    REFIN_CR00_2 REFCAP_2 1.0
    REFIN_CR00_2 REFY_2 -0.85
    NAPGAS_CR00_2 NAPBAL_CR00_2 -1.0
    NAPGAS_CR00_2 GASBAL_2 -1.0
    NAPGAS_CR00_2 GASRON_2 -41.351908455631545
    REFIN_CR01_2 OBJ -3.0
    REFIN_CR01_2 NAPBAL_CR01_2 -1.0
    REFIN_CR01_2 REFCAP_2 1.0
    REFIN_CR01_2 REFY_2 -0.85
    NAPGAS_CR01_2 NAPBAL_CR01_2 -1.0
    NAPGAS_CR01_2 GASBAL_2 -1.0
    NAPGAS_CR01_2 GASRON_2 -33.623043958680114
    REFIN_CR02_2 OBJ -3.0
    REFIN_CR02_2 NAPBAL_CR02_2 -1.0
    REFIN_CR02_2 REFCAP_2 1.0
    REFIN_CR02_2 REFY_2 -0.85
    NAPGAS_CR02_2 NAPBAL_CR02_2 -1.0
    NAPGAS_CR02_2 GASBAL_2 -1.0
    NAPGAS_CR02_2 GASRON_2 -39.74522208078083
    REFIN_CR03_2 OBJ -3.0
    REFIN_CR03_2 NAPBAL_CR03_2 -1.0
    REFIN_CR03_2 REFCAP_2 1.0
    REFIN_CR03_2 REFY_2 -0.85
    NAPGAS_CR03_2 NAPBAL_CR03_2 -1.0
    NAPGAS_CR03_2 GASBAL_2 -1.0
    NAPGAS_CR03_2 GASRON_2 -39.32063345179839
    REFIN_CR04_2 OBJ -3.0
    REFIN_CR04_2 NAPBAL_CR04_2 -1.0
    REFIN_CR04_2 REFCAP_2 1.0
    REFIN_CR04_2 REFY_2 -0.85
    NAPGAS_CR04_2 NAPBAL_CR04_2 -1.0
    NAPGAS_CR04_2 GASBAL_2 -1.0
    NAPGAS_CR04_2 GASRON_2 -28.06018906757886
    REFIN_CR05_2 OBJ -3.0
    REFIN_CR05_2 NAPBAL_CR05_2 -1.0
    REFIN_CR05_2 REFCAP_2 1.0
    REFIN_CR05_2 REFY_2 -0.85
    NAPGAS_CR05_2 NAPBAL_CR05_2 -1.0
    NAPGAS_CR05_2 GASBAL_2 -1.0
    NAPGAS_CR05_2 GASRON_2 -37.177062383933254
    REFIN_CR06_2 OBJ -3.0
    REFIN_CR06_2 NAPBAL_CR06_2 -1.0
    REFIN_CR06_2 REFCAP_2 1.0
    REFIN_CR06_2 REFY_2 -0.85
    NAPGAS_CR06_2 NAPBAL_CR06_2 -1.0
    NAPGAS_CR06_2 GASBAL_2 -1.0
    NAPGAS_CR06_2 GASRON_2 -38.73738801284508
    REFIN_CR07_2 OBJ -3.0
    REFIN_CR07_2 NAPBAL_CR07_2 -1.0
    REFIN_CR07_2 REFCAP_2 1.0
    REFIN_CR07_2 REFY_2 -0.85
    NAPGAS_CR07_2 NAPBAL_CR07_2 -1.0
    NAPGAS_CR07_2 GASBAL_2 -1.0
    NAPGAS_CR07_2 GASRON_2 -31.720911449683953
    REFIN_CR08_2 OBJ -3.0
    REFIN_CR08_2 NAPBAL_CR08_2 -1.0
    REFIN_CR08_2 REFCAP_2 1.0
    REFIN_CR08_2 REFY_2 -0.85
    NAPGAS_CR08_2 NAPBAL_CR08_2 -1.0
    NAPGAS_CR08_2 GASBAL_2 -1.0
    NAPGAS_CR08_2 GASRON_2 -31.236267605063702
    REFIN_CR09_2 OBJ -3.0
    REFIN_CR09_2 NAPBAL_CR09_2 -1.0
    REFIN_CR09_2 REFCAP_2 1.0
    REFIN_CR09_2 REFY_2 -0.85
    NAPGAS_CR09_2 NAPBAL_CR09_2 -1.0
    NAPGAS_CR09_2 GASBAL_2 -1.0
    NAPGAS_CR09_2 GASRON_2 -29.9151768258086
    REFIN_CR10_2 OBJ -3.0
    REFIN_CR10_2 NAPBAL_CR10_2 -1.0
    REFIN_CR10_2 REFCAP_2 1.0
    REFIN_CR10_2 REFY_2 -0.85
    NAPGAS_CR10_2 NAPBAL_CR10_2 -1.0
    NAPGAS_CR10_2 GASBAL_2 -1.0
    NAPGAS_CR10_2 GASRON_2 -38.641707010486826
    REFIN_CR11_2 OBJ -3.0
    REFIN_CR11_2 NAPBAL_CR11_2 -1.0
    REFIN_CR11_2 REFCAP_2 1.0
    REFIN_CR11_2 REFY_2 -0.85
    NAPGAS_CR11_2 NAPBAL_CR11_2 -1.0
    NAPGAS_CR11_2 GASBAL_2 -1.0
    NAPGAS_CR11_2 GASRON_2 -31.364398664025877
    REFIN_CR12_2 OBJ -3.0
    REFIN_CR12_2 NAPBAL_CR12_2 -1.0
    REFIN_CR12_2 REFCAP_2 1.0
    REFIN_CR12_2 REFY_2 -0.85
    NAPGAS_CR12_2 NAPBAL_CR12_2 -1.0
    NAPGAS_CR12_2 GASBAL_2 -1.0
    NAPGAS_CR12_2 GASRON_2 -36.44295305412478
    REFIN_CR13_2 OBJ -3.0
    REFIN_CR13_2 NAPBAL_CR13_2 -1.0
    REFIN_CR13_2 REFCAP_2 1.0
    REFIN_CR13_2 REFY_2 -0.85
    NAPGAS_CR13_2 NAPBAL_CR13_2 -1.0
    NAPGAS_CR13_2 GASBAL_2 -1.0
    NAPGAS_CR13_2 GASRON_2 -36.368722409916884
    REFIN_CR14_2 OBJ -3.0
    REFIN_CR14_2 NAPBAL_CR14_2 -1.0
    REFIN_CR14_2 REFCAP_2 1.0
    REFIN_CR14_2 REFY_2 -0.85
    NAPGAS_CR14_2 NAPBAL_CR14_2 -1.0
    NAPGAS_CR14_2 GASBAL_2 -1.0
    NAPGAS_CR14_2 GASRON_2 -37.837781635780814
    REFIN_CR15_2 OBJ -3.0
    REFIN_CR15_2 NAPBAL_CR15_2 -1.0
    REFIN_CR15_2 REFCAP_2 1.0
    REFIN_CR15_2 REFY_2 -0.85
    NAPGAS_CR15_2 NAPBAL_CR15_2 -1.0
    NAPGAS_CR15_2 GASBAL_2 -1.0
    NAPGAS_CR15_2 GASRON_2 -36.91743369949054
    REFIN_CR16_2 OBJ -3.0
    REFIN_CR16_2 NAPBAL_CR16_2 -1.0
    REFIN_CR16_2 REFCAP_2 1.0
    REFIN_CR16_2 REFY_2 -0.85
    NAPGAS_CR16_2 NAPBAL_CR16_2 -1.0
    NAPGAS_CR16_2 GASBAL_2 -1.0
    NAPGAS_CR16_2 GASRON_2 -32.43244486749426
    REFIN_CR17_2 OBJ -3.0
    REFIN_CR17_2 NAPBAL_CR17_2 -1.0
    REFIN_CR17_2 REFCAP_2 1.0
    REFIN_CR17_2 REFY_2 -0.85
    NAPGAS_CR17_2 NAPBAL_CR17_2 -1.0
    NAPGAS_CR17_2 GASBAL_2 -1.0
    NAPGAS_CR17_2 GASRON_2 -32.30218201355821
    REFIN_CR18_2 OBJ -3.0
    REFIN_CR18_2 NAPBAL_CR18_2 -1.0
    REFIN_CR18_2 REFCAP_2 1.0
    REFIN_CR18_2 REFY_2 -0.85
    NAPGAS_CR18_2 NAPBAL_CR18_2 -1.0
    NAPGAS_CR18_2 GASBAL_2 -1.0
    NAPGAS_CR18_2 GASRON_2 -30.280860643235343
    REFIN_CR19_2 OBJ -3.0
    REFIN_CR19_2 NAPBAL_CR19_2 -1.0
    REFIN_CR19_2 REFCAP_2 1.0
    REFIN_CR19_2 REFY_2 -0.85
    NAPGAS_CR19_2 NAPBAL_CR19_2 -1.0
    NAPGAS_CR19_2 GASBAL_2 -1.0
    NAPGAS_CR19_2 GASRON_2 -35.8435432887995
    REFORMATE_2 REFY_2 1.0
    REFORMATE_2 GASBAL_2 -1.0
    REFORMATE_2 GASRON_2 7.0
    DHTIN_CR00_2 OBJ -2.0
    DHTIN_CR00_2 DSLBAL_CR00_2 -1.0
    DHTIN_CR00_2 DHTCAP_2 1.0
    DHTIN_CR00_2 DHTY_2 -0.98
    DSLDIR_CR00_2 DSLBAL_CR00_2 -1.0
    DSLDIR_CR00_2 DSLPB_2 -1.0
    DSLDIR_CR00_2 DSLSUL_2 1.5862267507032528
    DHTIN_CR01_2 OBJ -2.0
    DHTIN_CR01_2 DSLBAL_CR01_2 -1.0
    DHTIN_CR01_2 DHTCAP_2 1.0
    DHTIN_CR01_2 DHTY_2 -0.98
    DSLDIR_CR01_2 DSLBAL_CR01_2 -1.0
    DSLDIR_CR01_2 DSLPB_2 -1.0
    DSLDIR_CR01_2 DSLSUL_2 0.8149467463033994
    DHTIN_CR02_2 OBJ -2.0
    DHTIN_CR02_2 DSLBAL_CR02_2 -1.0
    DHTIN_CR02_2 DHTCAP_2 1.0
    DHTIN_CR02_2 DHTY_2 -0.98
    DSLDIR_CR02_2 DSLBAL_CR02_2 -1.0
    DSLDIR_CR02_2 DSLPB_2 -1.0
    DSLDIR_CR02_2 DSLSUL_2 1.0170271993959037
    DHTIN_CR03_2 OBJ -2.0
    DHTIN_CR03_2 DSLBAL_CR03_2 -1.0
    DHTIN_CR03_2 DHTCAP_2 1.0
    DHTIN_CR03_2 DHTY_2 -0.98
    DSLDIR_CR03_2 DSLBAL_CR03_2 -1.0
    DSLDIR_CR03_2 DSLPB_2 -1.0
    DSLDIR_CR03_2 DSLSUL_2 0.4394117672662308
    DHTIN_CR04_2 OBJ -2.0
    DHTIN_CR04_2 DSLBAL_CR04_2 -1.0
    DHTIN_CR04_2 DHTCAP_2 1.0
    DHTIN_CR04_2 DHTY_2 -0.98
    DSLDIR_CR04_2 DSLBAL_CR04_2 -1.0
    DSLDIR_CR04_2 DSLPB_2 -1.0
    DSLDIR_CR04_2 DSLSUL_2 1.6095005435592393
    DHTIN_CR05_2 OBJ -2.0
    DHTIN_CR05_2 DSLBAL_CR05_2 -1.0
    DHTIN_CR05_2 DHTCAP_2 1.0
    DHTIN_CR05_2 DHTY_2 -0.98
    DSLDIR_CR05_2 DSLBAL_CR05_2 -1.0
    DSLDIR_CR05_2 DSLPB_2 -1.0
    DSLDIR_CR05_2 DSLSUL_2 1.1028999274270206
    DHTIN_CR06_2 OBJ -2.0
    DHTIN_CR06_2 DSLBAL_CR06_2 -1.0
    DHTIN_CR06_2 DHTCAP_2 1.0
    DHTIN_CR06_2 DHTY_2 -0.98
    DSLDIR_CR06_2 DSLBAL_CR06_2 -1.0
    DSLDIR_CR06_2 DSLPB_2 -1.0
    DSLDIR_CR06_2 DSLSUL_2 1.0307656961819645
    DHTIN_CR07_2 OBJ -2.0
    DHTIN_CR07_2 DSLBAL_CR07_2 -1.0
    DHTIN_CR07_2 DHTCAP_2 1.0
    DHTIN_CR07_2 DHTY_2 -0.98
    DSLDIR_CR07_2 DSLBAL_CR07_2 -1.0
    DSLDIR_CR07_2 DSLPB_2 -1.0
    DSLDIR_CR07_2 DSLSUL_2 0.06500943297844713
    DHTIN_CR08_2 OBJ -2.0
    DHTIN_CR08_2 DSLBAL_CR08_2 -1.0
    DHTIN_CR08_2 DHTCAP_2 1.0
    DHTIN_CR08_2 DHTY_2 -0.98
    DSLDIR_CR08_2 DSLBAL_CR08_2 -1.0
    DSLDIR_CR08_2 DSLPB_2 -1.0
    DSLDIR_CR08_2 DSLSUL_2 1.0136884541165885
    DHTIN_CR09_2 OBJ -2.0
    DHTIN_CR09_2 DSLBAL_CR09_2 -1.0
    DHTIN_CR09_2 DHTCAP_2 1.0
    DHTIN_CR09_2 DHTY_2 -0.98
    DSLDIR_CR09_2 DSLBAL_CR09_2 -1.0
    DSLDIR_CR09_2 DSLPB_2 -1.0
    DSLDIR_CR09_2 DSLSUL_2 0.020618980777730833
    DHTIN_CR10_2 OBJ -2.0
    DHTIN_CR10_2 DSLBAL_CR10_2 -1.0
    DHTIN_CR10_2 DHTCAP_2 1.0
    DHTIN_CR10_2 DHTY_2 -0.98
    DSLDIR_CR10_2 DSLBAL_CR10_2 -1.0
    DSLDIR_CR10_2 DSLPB_2 -1.0
    DSLDIR_CR10_2 DSLSUL_2 1.62821888862855
    DHTIN_CR11_2 OBJ -2.0
    DHTIN_CR11_2 DSLBAL_CR11_2 -1.0
    DHTIN_CR11_2 DHTCAP_2 1.0
    DHTIN_CR11_2 DHTY_2 -0.98
    DSLDIR_CR11_2 DSLBAL_CR11_2 -1.0
    DSLDIR_CR11_2 DSLPB_2 -1.0
    DSLDIR_CR11_2 DSLSUL_2 0.8621530481854874
    DHTIN_CR12_2 OBJ -2.0
    DHTIN_CR12_2 DSLBAL_CR12_2 -1.0
    DHTIN_CR12_2 DHTCAP_2 1.0
    DHTIN_CR12_2 DHTY_2 -0.98
    DSLDIR_CR12_2 DSLBAL_CR12_2 -1.0
    DSLDIR_CR12_2 DSLPB_2 -1.0
    DSLDIR_CR12_2 DSLSUL_2 1.5756453880298185
    DHTIN_CR13_2 OBJ -2.0
    DHTIN_CR13_2 DSLBAL_CR13_2 -1.0
    DHTIN_CR13_2 DHTCAP_2 1.0
    DHTIN_CR13_2 DHTY_2 -0.98
    DSLDIR_CR13_2 DSLBAL_CR13_2 -1.0
    DSLDIR_CR13_2 DSLPB_2 -1.0
    DSLDIR_CR13_2 DSLSUL_2 0.13929860406737604
    DHTIN_CR14_2 OBJ -2.0
    DHTIN_CR14_2 DSLBAL_CR14_2 -1.0
    DHTIN_CR14_2 DHTCAP_2 1.0
    DHTIN_CR14_2 DHTY_2 -0.98
    DSLDIR_CR14_2 DSLBAL_CR14_2 -1.0
    DSLDIR_CR14_2 DSLPB_2 -1.0
    DSLDIR_CR14_2 DSLSUL_2 0.7289962148563339
    DHTIN_CR15_2 OBJ -2.0
    DHTIN_CR15_2 DSLBAL_CR15_2 -1.0
    DHTIN_CR15_2 DHTCAP_2 1.0
    DHTIN_CR15_2 DHTY_2 -0.98
    DSLDIR_CR15_2 DSLBAL_CR15_2 -1.0
    DSLDIR_CR15_2 DSLPB_2 -1.0
    DSLDIR_CR15_2 DSLSUL_2 0.0432280087396993
    DHTIN_CR16_2 OBJ -2.0
    DHTIN_CR16_2 DSLBAL_CR16_2 -1.0
    DHTIN_CR16_2 DHTCAP_2 1.0
    DHTIN_CR16_2 DHTY_2 -0.98
    DSLDIR_CR16_2 DSLBAL_CR16_2 -1.0
    DSLDIR_CR16_2 DSLPB_2 -1.0
    DSLDIR_CR16_2 DSLSUL_2 0.970875101525871
    DHTIN_CR17_2 OBJ -2.0
    DHTIN_CR17_2 DSLBAL_CR17_2 -1.0
    DHTIN_CR17_2 DHTCAP_2 1.0
    DHTIN_CR17_2 DHTY_2 -0.98
    DSLDIR_CR17_2 DSLBAL_CR17_2 -1.0
    DSLDIR_CR17_2 DSLPB_2 -1.0
    DSLDIR_CR17_2 DSLSUL_2 1.6384936942773962
    DHTIN_CR18_2 OBJ -2.0
    DHTIN_CR18_2 DSLBAL_CR18_2 -1.0
    DHTIN_CR18_2 DHTCAP_2 1.0
    DHTIN_CR18_2 DHTY_2 -0.98
    DSLDIR_CR18_2 DSLBAL_CR18_2 -1.0
    DSLDIR_CR18_2 DSLPB_2 -1.0
    DSLDIR_CR18_2 DSLSUL_2 0.08052474691335985
    DHTIN_CR19_2 OBJ -2.0
    DHTIN_CR19_2 DSLBAL_CR19_2 -1.0
    DHTIN_CR19_2 DHTCAP_2 1.0
    DHTIN_CR19_2 DHTY_2 -0.98
    DSLDIR_CR19_2 DSLBAL_CR19_2 -1.0
    DSLDIR_CR19_2 DSLPB_2 -1.0
    DSLDIR_CR19_2 DSLSUL_2 0.6552914452864763
    LCODHT_2 LCOBAL_2 -1.0
    LCODHT_2 DHTCAP_2 1.0
    LCODHT_2 DHTY_2 -0.95
    LCOFO_2 LCOBAL_2 -1.0
    LCOFO_2 FOBAL_2 -1.0
    LCOFO_2 FOSUL_2 -2.5
    ULSD_2 DHTY_2 1.0
    ULSD_2 DSLPB_2 -1.0
    ULSD_2 DSLSUL_2 -0.049
    SELL_LPG_2 OBJ 59.76313972081441
    SELL_LPG_2 PBAL_LPG_2 -1.0
    SELL_LPG_2 DMAX_LPG_2 1.0
    SELL_LPG_2 DMIN_LPG_2 1.0
    SELL_GAS_2 OBJ 114.0932667397366
    SELL_GAS_2 PBAL_GAS_2 -1.0
    SELL_GAS_2 DMAX_GAS_2 1.0
    SELL_GAS_2 DMIN_GAS_2 1.0
    SELL_JET_2 OBJ 108.66025403784438
    SELL_JET_2 PBAL_JET_2 -1.0
    SELL_JET_2 DMAX_JET_2 1.0
    SELL_JET_2 DMIN_JET_2 1.0
    SELL_DSL_2 OBJ 106.4870489570875
    SELL_DSL_2 PBAL_DSL_2 -1.0
    SELL_DSL_2 DMAX_DSL_2 1.0
    SELL_DSL_2 DMIN_DSL_2 1.0
    SELL_FO_2 OBJ 65.19615242270663
    SELL_FO_2 PBAL_FO_2 -1.0
    SELL_FO_2 DMAX_FO_2 1.0
    SELL_FO_2 DMIN_FO_2 1.0
    PINV_LPG_2 OBJ -0.5
    PINV_LPG_2 PBAL_LPG_2 -1.0
    PINV_LPG_2 PBAL_LPG_3 1.0
    PINV_GAS_2 OBJ -0.5
    PINV_GAS_2 PBAL_GAS_2 -1.0
    PINV_GAS_2 PBAL_GAS_3 1.0
    PINV_JET_2 OBJ -0.5
    PINV_JET_2 PBAL_JET_2 -1.0
    PINV_JET_2 PBAL_JET_3 1.0
    PINV_DSL_2 OBJ -0.5
    PINV_DSL_2 PBAL_DSL_2 -1.0
    PINV_DSL_2 PBAL_DSL_3 1.0
    PINV_FO_2 OBJ -0.5
    PINV_FO_2 PBAL_FO_2 -1.0
    PINV_FO_2 PBAL_FO_3 1.0
    SHORT_LPG_2 OBJ -400.0
    SHORT_LPG_2 DMIN_LPG_2 1.0
    SHORT_GAS_2 OBJ -400.0
    SHORT_GAS_2 DMIN_GAS_2 1.0
    SHORT_JET_2 OBJ -400.0
    SHORT_JET_2 DMIN_JET_2 1.0
    SHORT_DSL_2 OBJ -400.0
    SHORT_DSL_2 DMIN_DSL_2 1.0
    SHORT_FO_2 OBJ -400.0
    SHORT_FO_2 DMIN_FO_2 1.0
    GASPOOL_2 GASBAL_2 1.0
    GASPOOL_2 PBAL_GAS_2 1.0
    JETPOOL_2 JETBAL_2 1.0
    JETPOOL_2 PBAL_JET_2 1.0
    KERJET_CR00_2 KERBAL_CR00_2 -1.0
    KERJET_CR00_2 JETBAL_2 -1.0
    KERJET_CR00_2 JETSUL_2 0.10905668767581322
    KERDSL_CR00_2 KERBAL_CR00_2 -1.0
    KERDSL_CR00_2 DSLPB_2 -1.0
    KERDSL_CR00_2 DSLSUL_2 0.3590566876758132
    KERJET_CR01_2 KERBAL_CR01_2 -1.0
    KERJET_CR01_2 JETBAL_2 -1.0
    KERJET_CR01_2 JETSUL_2 -0.08376331342415014
    KERDSL_CR01_2 KERBAL_CR01_2 -1.0
    KERDSL_CR01_2 DSLPB_2 -1.0
    KERDSL_CR01_2 DSLSUL_2 0.16623668657584983
    KERJET_CR02_2 KERBAL_CR02_2 -1.0
    KERJET_CR02_2 JETBAL_2 -1.0
    KERJET_CR02_2 JETSUL_2 -0.033243200151024055
    KERDSL_CR02_2 KERBAL_CR02_2 -1.0
    KERDSL_CR02_2 DSLPB_2 -1.0
    KERDSL_CR02_2 DSLSUL_2 0.21675679984897595
    KERJET_CR03_2 KERBAL_CR03_2 -1.0
    KERJET_CR03_2 JETBAL_2 -1.0
    KERJET_CR03_2 JETSUL_2 -0.17764705818344229
    KERDSL_CR03_2 KERBAL_CR03_2 -1.0
    KERDSL_CR03_2 DSLPB_2 -1.0
    KERDSL_CR03_2 DSLSUL_2 0.0723529418165577
    KERJET_CR04_2 KERBAL_CR04_2 -1.0
    KERJET_CR04_2 JETBAL_2 -1.0
    KERJET_CR04_2 JETSUL_2 0.11487513588980985
    KERDSL_CR04_2 KERBAL_CR04_2 -1.0
    KERDSL_CR04_2 DSLPB_2 -1.0
    KERDSL_CR04_2 DSLSUL_2 0.36487513588980985
    KERJET_CR05_2 KERBAL_CR05_2 -1.0
    KERJET_CR05_2 JETBAL_2 -1.0
    KERJET_CR05_2 JETSUL_2 -0.011775018143244831
    KERDSL_CR05_2 KERBAL_CR05_2 -1.0
    KERDSL_CR05_2 DSLPB_2 -1.0
    KERDSL_CR05_2 DSLSUL_2 0.23822498185675517
    KERJET_CR06_2 KERBAL_CR06_2 -1.0
    KERJET_CR06_2 JETBAL_2 -1.0
    KERJET_CR06_2 JETSUL_2 -0.029808575954508865
    KERDSL_CR06_2 KERBAL_CR06_2 -1.0
    KERDSL_CR06_2 DSLPB_2 -1.0
    KERDSL_CR06_2 DSLSUL_2 0.22019142404549114
    KERJET_CR07_2 KERBAL_CR07_2 -1.0
    KERJET_CR07_2 JETBAL_2 -1.0
    KERJET_CR07_2 JETSUL_2 -0.2712476417553882
    KERDSL_CR07_2 KERBAL_CR07_2 -1.0
    KERDSL_CR07_2 DSLPB_2 -1.0
    KERDSL_CR07_2 DSLSUL_2 -0.02124764175538822
    KERJET_CR08_2 KERBAL_CR08_2 -1.0
    KERJET_CR08_2 JETBAL_2 -1.0
    KERJET_CR08_2 JETSUL_2 -0.03407788647085286
    KERDSL_CR08_2 KERBAL_CR08_2 -1.0
    KERDSL_CR08_2 DSLPB_2 -1.0
    KERDSL_CR08_2 DSLSUL_2 0.21592211352914714
    KERJET_CR09_2 KERBAL_CR09_2 -1.0
    KERJET_CR09_2 JETBAL_2 -1.0
    KERJET_CR09_2 JETSUL_2 -0.28234525480556727
    KERDSL_CR09_2 KERBAL_CR09_2 -1.0
    KERDSL_CR09_2 DSLPB_2 -1.0
    KERDSL_CR09_2 DSLSUL_2 -0.0323452548055673
    KERJET_CR10_2 KERBAL_CR10_2 -1.0
    KERJET_CR10_2 JETBAL_2 -1.0
    KERJET_CR10_2 JETSUL_2 0.11955472215713753
    KERDSL_CR10_2 KERBAL_CR10_2 -1.0
    KERDSL_CR10_2 DSLPB_2 -1.0
    KERDSL_CR10_2 DSLSUL_2 0.3695547221571375
    KERJET_CR11_2 KERBAL_CR11_2 -1.0
    KERJET_CR11_2 JETBAL_2 -1.0
    KERJET_CR11_2 JETSUL_2 -0.07196173795362812
    KERDSL_CR11_2 KERBAL_CR11_2 -1.0
    KERDSL_CR11_2 DSLPB_2 -1.0
    KERDSL_CR11_2 DSLSUL_2 0.17803826204637185
    KERJET_CR12_2 KERBAL_CR12_2 -1.0
    KERJET_CR12_2 JETBAL_2 -1.0
    KERJET_CR12_2 JETSUL_2 0.10641134700745464
    KERDSL_CR12_2 KERBAL_CR12_2 -1.0
    KERDSL_CR12_2 DSLPB_2 -1.0
    KERDSL_CR12_2 DSLSUL_2 0.35641134700745464
    KERJET_CR13_2 KERBAL_CR13_2 -1.0
    KERJET_CR13_2 JETBAL_2 -1.0
    KERJET_CR13_2 JETSUL_2 -0.25267534898315597
    KERDSL_CR13_2 KERBAL_CR13_2 -1.0
    KERDSL_CR13_2 DSLPB_2 -1.0
    KERDSL_CR13_2 DSLSUL_2 -0.002675348983155995
    KERJET_CR14_2 KERBAL_CR14_2 -1.0
    KERJET_CR14_2 JETBAL_2 -1.0
    KERJET_CR14_2 JETSUL_2 -0.1052509462859165
    KERDSL_CR14_2 KERBAL_CR14_2 -1.0
    KERDSL_CR14_2 DSLPB_2 -1.0
    KERDSL_CR14_2 DSLSUL_2 0.14474905371408348
    KERJET_CR15_2 KERBAL_CR15_2 -1.0
    KERJET_CR15_2 JETBAL_2 -1.0
    KERJET_CR15_2 JETSUL_2 -0.27669299781507517
    KERDSL_CR15_2 KERBAL_CR15_2 -1.0
    KERDSL_CR15_2 DSLPB_2 -1.0
    KERDSL_CR15_2 DSLSUL_2 -0.026692997815075177
    KERJET_CR16_2 KERBAL_CR16_2 -1.0
    KERJET_CR16_2 JETBAL_2 -1.0
    KERJET_CR16_2 JETSUL_2 -0.044781224618532234
    KERDSL_CR16_2 KERBAL_CR16_2 -1.0
    KERDSL_CR16_2 DSLPB_2 -1.0
    KERDSL_CR16_2 DSLSUL_2 0.20521877538146777
    KERJET_CR17_2 KERBAL_CR17_2 -1.0
    KERJET_CR17_2 JETBAL_2 -1.0
    KERJET_CR17_2 JETSUL_2 0.12212342356934908
    KERDSL_CR17_2 KERBAL_CR17_2 -1.0
    KERDSL_CR17_2 DSLPB_2 -1.0
    KERDSL_CR17_2 DSLSUL_2 0.3721234235693491
    KERJET_CR18_2 KERBAL_CR18_2 -1.0
    KERJET_CR18_2 JETBAL_2 -1.0
    KERJET_CR18_2 JETSUL_2 -0.26736881327166
    KERDSL_CR18_2 KERBAL_CR18_2 -1.0
    KERDSL_CR18_2 DSLPB_2 -1.0
    KERDSL_CR18_2 DSLSUL_2 -0.01736881327166004
    KERJET_CR19_2 KERBAL_CR19_2 -1.0
    KERJET_CR19_2 JETBAL_2 -1.0
    KERJET_CR19_2 JETSUL_2 -0.1236771386783809
    KERDSL_CR19_2 KERBAL_CR19_2 -1.0
    KERDSL_CR19_2 DSLPB_2 -1.0
    KERDSL_CR19_2 DSLSUL_2 0.12632286132161907
    DSLPOOL_2 DSLPB_2 1.0
    DSLPOOL_2 PBAL_DSL_2 1.0
    LPGPOOL_2 LPGBAL_2 1.0
    LPGPOOL_2 PBAL_LPG_2 1.0
    FOPOOL_2 FOBAL_2 1.0
    FOPOOL_2 PBAL_FO_2 1.0
    BUY_CR00_3 OBJ -60.026145602193424
    BUY_CR00_3 CBAL_CR00_3 1.0
    CINV_CR00_3 OBJ -0.3
    CINV_CR00_3 CBAL_CR00_3 -1.0
    CINV_CR00_3 CBAL_CR00_4 1.0
    CDU_CR00_3 CBAL_CR00_3 -1.0
    CDU_CR00_3 CDUCAP_3 1.0
    CDU_CR00_3 YLPG_CR00_3 -0.013786055933968056
    CDU_CR00_3 YNAP_CR00_3 -0.1214444916358349
    CDU_CR00_3 YKER_CR00_3 -0.10646372452567733
    CDU_CR00_3 YDSL_CR00_3 -0.20292085263352289
    CDU_CR00_3 YVGO_CR00_3 -0.27390944719057636
    CDU_CR00_3 YRES_CR00_3 -0.28147542808042036
    BUY_CR01_3 OBJ -77.18609377919438
    BUY_CR01_3 CBAL_CR01_3 1.0
    CINV_CR01_3 OBJ -0.3
    CINV_CR01_3 CBAL_CR01_3 -1.0
    CINV_CR01_3 CBAL_CR01_4 1.0
    CDU_CR01_3 CBAL_CR01_3 -1.0
    CDU_CR01_3 CDUCAP_3 1.0
    CDU_CR01_3 YLPG_CR01_3 -0.025127543584387436
    CDU_CR01_3 YNAP_CR01_3 -0.2025917905849106
    CDU_CR01_3 YKER_CR01_3 -0.13410952106049506
    CDU_CR01_3 YDSL_CR01_3 -0.24728591651278542
    CDU_CR01_3 YVGO_CR01_3 -0.22897185950088417
    CDU_CR01_3 YRES_CR01_3 -0.16191336875653717
    BUY_CR02_3 OBJ -62.94784846418028
    BUY_CR02_3 CBAL_CR02_3 1.0
    CINV_CR02_3 OBJ -0.3
    CINV_CR02_3 CBAL_CR02_3 -1.0
    CINV_CR02_3 CBAL_CR02_4 1.0
    CDU_CR02_3 CBAL_CR02_3 -1.0
    CDU_CR02_3 CDUCAP_3 1.0
    CDU_CR02_3 YLPG_CR02_3 -0.013444753666275039
    CDU_CR02_3 YNAP_CR02_3 -0.11889710072836579
    CDU_CR02_3 YKER_CR02_3 -0.103840437143255
    CDU_CR02_3 YDSL_CR02_3 -0.21229612809407214
    CDU_CR02_3 YVGO_CR02_3 -0.2628713956905896
    CDU_CR02_3 YRES_CR02_3 -0.28865018467744247
    BUY_CR03_3 OBJ -69.53673859285693
    BUY_CR03_3 CBAL_CR03_3 1.0
    CINV_CR03_3 OBJ -0.3
    CINV_CR03_3 CBAL_CR03_3 -1.0
    CINV_CR03_3 CBAL_CR03_4 1.0
    CDU_CR03_3 CBAL_CR03_3 -1.0
    CDU_CR03_3 CDUCAP_3 1.0
    CDU_CR03_3 YLPG_CR03_3 -0.01400858068810675
    CDU_CR03_3 YNAP_CR03_3 -0.1424923117986131
    CDU_CR03_3 YKER_CR03_3 -0.10784088582669263
    CDU_CR03_3 YDSL_CR03_3 -0.19279120630762445
    CDU_CR03_3 YVGO_CR03_3 -0.28544626211923063
    CDU_CR03_3 YRES_CR03_3 -0.2574207532597324
    BUY_CR04_3 OBJ -74.58801690290775
    BUY_CR04_3 CBAL_CR04_3 1.0
    CINV_CR04_3 OBJ -0.3
    CINV_CR04_3 CBAL_CR04_3 -1.0
    CINV_CR04_3 CBAL_CR04_4 1.0
    CDU_CR04_3 CBAL_CR04_3 -1.0
    CDU_CR04_3 CDUCAP_3 1.0
    CDU_CR04_3 YLPG_CR04_3 -0.02335213093765316
    CDU_CR04_3 YNAP_CR04_3 -0.2292355396921612
    CDU_CR04_3 YKER_CR04_3 -0.14240695851543803
    CDU_CR04_3 YDSL_CR04_3 -0.24384363627499198
    CDU_CR04_3 YVGO_CR04_3 -0.2465326974706559
    CDU_CR04_3 YRES_CR04_3 -0.1146290371090997
    BUY_CR05_3 OBJ -67.53698944435804
    BUY_CR05_3 CBAL_CR05_3 1.0
    CINV_CR05_3 OBJ -0.3
    CINV_CR05_3 CBAL_CR05_3 -1.0
    CINV_CR05_3 CBAL_CR05_4 1.0
    CDU_CR05_3 CBAL_CR05_3 -1.0
    CDU_CR05_3 CDUCAP_3 1.0
    CDU_CR05_3 YLPG_CR05_3 -0.01735729802728813
    CDU_CR05_3 YNAP_CR05_3 -0.16608619710065003
    CDU_CR05_3 YKER_CR05_3 -0.1170544437563835
    CDU_CR05_3 YDSL_CR05_3 -0.22299235889970878
    CDU_CR05_3 YVGO_CR05_3 -0.2433490540516293
    CDU_CR05_3 YRES_CR05_3 -0.23316064816434035
    BUY_CR06_3 OBJ -65.16529233027283
    BUY_CR06_3 CBAL_CR06_3 1.0
    CINV_CR06_3 OBJ -0.3
    CINV_CR06_3 CBAL_CR06_3 -1.0
    CINV_CR06_3 CBAL_CR06_4 1.0
    CDU_CR06_3 CBAL_CR06_3 -1.0
    CDU_CR06_3 CDUCAP_3 1.0
    CDU_CR06_3 YLPG_CR06_3 -0.014219474855875663
    CDU_CR06_3 YNAP_CR06_3 -0.13746806025500902
    CDU_CR06_3 YKER_CR06_3 -0.10533897185985656
    CDU_CR06_3 YDSL_CR06_3 -0.20403840195434858
    CDU_CR06_3 YVGO_CR06_3 -0.26484358994429863
    CDU_CR06_3 YRES_CR06_3 -0.27409150113061165
    BUY_CR07_3 OBJ -74.64985779090588
    BUY_CR07_3 CBAL_CR07_3 1.0
    CINV_CR07_3 OBJ -0.3
    CINV_CR07_3 CBAL_CR07_3 -1.0
    CINV_CR07_3 CBAL_CR07_4 1.0
    CDU_CR07_3 CBAL_CR07_3 -1.0
    CDU_CR07_3 CDUCAP_3 1.0
    CDU_CR07_3 YLPG_CR07_3 -0.01678766142162217
    CDU_CR07_3 YNAP_CR07_3 -0.18341674311422207
    CDU_CR07_3 YKER_CR07_3 -0.13271469159016522
    CDU_CR07_3 YDSL_CR07_3 -0.2249127244045356
    CDU_CR07_3 YVGO_CR07_3 -0.24848613807316539
    CDU_CR07_3 YRES_CR07_3 -0.19368204139628944
    BUY_CR08_3 OBJ -72.57184960870079
    BUY_CR08_3 CBAL_CR08_3 1.0
    CINV_CR08_3 OBJ -0.3
    CINV_CR08_3 CBAL_CR08_3 -1.0
    CINV_CR08_3 CBAL_CR08_4 1.0
    CDU_CR08_3 CBAL_CR08_3 -1.0
    CDU_CR08_3 CDUCAP_3 1.0
    CDU_CR08_3 YLPG_CR08_3 -0.023930881960770135
    CDU_CR08_3 YNAP_CR08_3 -0.199474063989656
    CDU_CR08_3 YKER_CR08_3 -0.13012967624359006
    CDU_CR08_3 YDSL_CR08_3 -0.24906213509239003
    CDU_CR08_3 YVGO_CR08_3 -0.24247509330512357
    CDU_CR08_3 YRES_CR08_3 -0.15492814940847022
    BUY_CR09_3 OBJ -81.10717980340267
    BUY_CR09_3 CBAL_CR09_3 1.0
    CINV_CR09_3 OBJ -0.3
    CINV_CR09_3 CBAL_CR09_3 -1.0
    CINV_CR09_3 CBAL_CR09_4 1.0
    CDU_CR09_3 CBAL_CR09_3 -1.0
    CDU_CR09_3 CDUCAP_3 1.0
    CDU_CR09_3 YLPG_CR09_3 -0.0254414593142613
    CDU_CR09_3 YNAP_CR09_3 -0.2406668892422991
    CDU_CR09_3 YKER_CR09_3 -0.14150533274546892
    CDU_CR09_3 YDSL_CR09_3 -0.23713673044274025
    CDU_CR09_3 YVGO_CR09_3 -0.23566730460149374
    CDU_CR09_3 YRES_CR09_3 -0.11958228365373665
    BUY_CR10_3 OBJ -60.54848109169462
    BUY_CR10_3 CBAL_CR10_3 1.0
    CINV_CR10_3 OBJ -0.3
    CINV_CR10_3 CBAL_CR10_3 -1.0
    CINV_CR10_3 CBAL_CR10_4 1.0
    CDU_CR10_3 CBAL_CR10_3 -1.0
    CDU_CR10_3 CDUCAP_3 1.0
    CDU_CR10_3 YLPG_CR10_3 -0.012631058640766385
    CDU_CR10_3 YNAP_CR10_3 -0.11501159644639905
    CDU_CR10_3 YKER_CR10_3 -0.1080956731900355
    CDU_CR10_3 YDSL_CR10_3 -0.20982857494392457
    CDU_CR10_3 YVGO_CR10_3 -0.2722572086368098
    CDU_CR10_3 YRES_CR10_3 -0.28217588814206473
    BUY_CR11_3 OBJ -73.28159067985503
    BUY_CR11_3 CBAL_CR11_3 1.0
    CINV_CR11_3 OBJ -0.3
    CINV_CR11_3 CBAL_CR11_3 -1.0
    CINV_CR11_3 CBAL_CR11_4 1.0
    CDU_CR11_3 CBAL_CR11_3 -1.0
    CDU_CR11_3 CDUCAP_3 1.0
    CDU_CR11_3 YLPG_CR11_3 -0.018171926805686592
    CDU_CR11_3 YNAP_CR11_3 -0.18017303538659502
    CDU_CR11_3 YKER_CR11_3 -0.11622304467804759
    CDU_CR11_3 YDSL_CR11_3 -0.22678215323461023
    CDU_CR11_3 YVGO_CR11_3 -0.2637522217068048
    CDU_CR11_3 YRES_CR11_3 -0.19489761818825582
    BUY_CR12_3 OBJ -61.78889709229196
    BUY_CR12_3 CBAL_CR12_3 1.0
    CINV_CR12_3 OBJ -0.3
    CINV_CR12_3 CBAL_CR12_3 -1.0
    CINV_CR12_3 CBAL_CR12_4 1.0
    CDU_CR12_3 CBAL_CR12_3 -1.0
    CDU_CR12_3 CDUCAP_3 1.0
    CDU_CR12_3 YLPG_CR12_3 -0.016285402257558677
    CDU_CR12_3 YNAP_CR12_3 -0.1394251111460902
    CDU_CR12_3 YKER_CR12_3 -0.10627583407346515
    CDU_CR12_3 YDSL_CR12_3 -0.2004859030026821
    CDU_CR12_3 YVGO_CR12_3 -0.29053476615254664
    CDU_CR12_3 YRES_CR12_3 -0.2469929833676572
    BUY_CR13_3 OBJ -71.48292734141043
    BUY_CR13_3 CBAL_CR13_3 1.0
    CINV_CR13_3 OBJ -0.3
    CINV_CR13_3 CBAL_CR13_3 -1.0
    CINV_CR13_3 CBAL_CR13_4 1.0
    CDU_CR13_3 CBAL_CR13_3 -1.0
    CDU_CR13_3 CDUCAP_3 1.0
    CDU_CR13_3 YLPG_CR13_3 -0.015405562084299341
    CDU_CR13_3 YNAP_CR13_3 -0.1597372095049784
    CDU_CR13_3 YKER_CR13_3 -0.109230580221756
    CDU_CR13_3 YDSL_CR13_3 -0.20799117245133522
    CDU_CR13_3 YVGO_CR13_3 -0.2743070543343612
    CDU_CR13_3 YRES_CR13_3 -0.23332842140326976
    BUY_CR14_3 OBJ -65.14114050649677
    BUY_CR14_3 CBAL_CR14_3 1.0
    CINV_CR14_3 OBJ -0.3
    CINV_CR14_3 CBAL_CR14_3 -1.0
    CINV_CR14_3 CBAL_CR14_4 1.0
    CDU_CR14_3 CBAL_CR14_3 -1.0
    CDU_CR14_3 CDUCAP_3 1.0
    CDU_CR14_3 YLPG_CR14_3 -0.011676212845503672
    CDU_CR14_3 YNAP_CR14_3 -0.10963647957865116
    CDU_CR14_3 YKER_CR14_3 -0.09755861914812415
    CDU_CR14_3 YDSL_CR14_3 -0.22400035528460593
    CDU_CR14_3 YVGO_CR14_3 -0.27985390356413214
    CDU_CR14_3 YRES_CR14_3 -0.2772744295789829
    BUY_CR15_3 OBJ -66.73507657436558
    BUY_CR15_3 CBAL_CR15_3 1.0
    CINV_CR15_3 OBJ -0.3
    CINV_CR15_3 CBAL_CR15_3 -1.0
    CINV_CR15_3 CBAL_CR15_4 1.0
    CDU_CR15_3 CBAL_CR15_3 -1.0
    CDU_CR15_3 CDUCAP_3 1.0
    CDU_CR15_3 YLPG_CR15_3 -0.010625779986084445
    CDU_CR15_3 YNAP_CR15_3 -0.11766680402271243
    CDU_CR15_3 YKER_CR15_3 -0.09531893966264804
    CDU_CR15_3 YDSL_CR15_3 -0.2087175638151306
    CDU_CR15_3 YVGO_CR15_3 -0.2798835604956035
    CDU_CR15_3 YRES_CR15_3 -0.287787352017821
    BUY_CR16_3 OBJ -71.92381043855036
    BUY_CR16_3 CBAL_CR16_3 1.0
    CINV_CR16_3 OBJ -0.3
    CINV_CR16_3 CBAL_CR16_3 -1.0
    CINV_CR16_3 CBAL_CR16_4 1.0
    CDU_CR16_3 CBAL_CR16_3 -1.0
    CDU_CR16_3 CDUCAP_3 1.0
    CDU_CR16_3 YLPG_CR16_3 -0.021730435986974463
    CDU_CR16_3 YNAP_CR16_3 -0.22346814322949868
    CDU_CR16_3 YKER_CR16_3 -0.12962692092969477
    CDU_CR16_3 YDSL_CR16_3 -0.23580083169350696
    CDU_CR16_3 YVGO_CR16_3 -0.23197545191976185
    CDU_CR16_3 YRES_CR16_3 -0.1573982162405634
    BUY_CR17_3 OBJ -71.71218821578483
    BUY_CR17_3 CBAL_CR17_3 1.0
    CINV_CR17_3 OBJ -0.3
    CINV_CR17_3 CBAL_CR17_3 -1.0
    CINV_CR17_3 CBAL_CR17_4 1.0
    CDU_CR17_3 CBAL_CR17_3 -1.0
    CDU_CR17_3 CDUCAP_3 1.0
    CDU_CR17_3 YLPG_CR17_3 -0.023568928491133005
    CDU_CR17_3 YNAP_CR17_3 -0.24678008017283823
    CDU_CR17_3 YKER_CR17_3 -0.12826932733432603
    CDU_CR17_3 YDSL_CR17_3 -0.2495178182316694
    CDU_CR17_3 YVGO_CR17_3 -0.23510202280801157
    CDU_CR17_3 YRES_CR17_3 -0.1167618229620217
    BUY_CR18_3 OBJ -80.79394230060045
    BUY_CR18_3 CBAL_CR18_3 1.0
    CINV_CR18_3 OBJ -0.3
    CINV_CR18_3 CBAL_CR18_3 -1.0
    CINV_CR18_3 CBAL_CR18_4 1.0
    CDU_CR18_3 CBAL_CR18_3 -1.0
    CDU_CR18_3 CDUCAP_3 1.0
    CDU_CR18_3 YLPG_CR18_3 -0.02478422291723085
    CDU_CR18_3 YNAP_CR18_3 -0.23955258573301338
    CDU_CR18_3 YKER_CR18_3 -0.1322077813000583
    CDU_CR18_3 YDSL_CR18_3 -0.21167154879043004
    CDU_CR18_3 YVGO_CR18_3 -0.24506150244942554
    CDU_CR18_3 YRES_CR18_3 -0.146722358809842
    BUY_CR19_3 OBJ -69.12812782080819
    BUY_CR19_3 CBAL_CR19_3 1.0
    CINV_CR19_3 OBJ -0.3
    CINV_CR19_3 CBAL_CR19_3 -1.0
    CINV_CR19_3 CBAL_CR19_4 1.0
    CDU_CR19_3 CBAL_CR19_3 -1.0
    CDU_CR19_3 CDUCAP_3 1.0
    CDU_CR19_3 YLPG_CR19_3 -0.01626067739955701
    CDU_CR19_3 YNAP_CR19_3 -0.1715066574732045
    CDU_CR19_3 YKER_CR19_3 -0.11836465284470915
    CDU_CR19_3 YDSL_CR19_3 -0.20874443204167248
    CDU_CR19_3 YVGO_CR19_3 -0.2445178967491453
    CDU_CR19_3 YRES_CR19_3 -0.24060568349171155
    LPG_CR00_3 YLPG_CR00_3 1.0
    LPG_CR00_3 LPGBAL_3 -1.0
    NAP_CR00_3 YNAP_CR00_3 1.0
    NAP_CR00_3 NAPBAL_CR00_3 1.0
    KER_CR00_3 YKER_CR00_3 1.0
    KER_CR00_3 KERBAL_CR00_3 1.0
    DSL_CR00_3 YDSL_CR00_3 1.0
    DSL_CR00_3 DSLBAL_CR00_3 1.0
    VGO_CR00_3 YVGO_CR00_3 1.0
    VGO_CR00_3 VGOBAL_CR00_3 1.0
    RES_CR00_3 YRES_CR00_3 1.0
    RES_CR00_3 RESSPLIT_CR00_3 1.0
    LPG_CR01_3 YLPG_CR01_3 1.0
    LPG_CR01_3 LPGBAL_3 -1.0
    NAP_CR01_3 YNAP_CR01_3 1.0
    NAP_CR01_3 NAPBAL_CR01_3 1.0
    KER_CR01_3 YKER_CR01_3 1.0
    KER_CR01_3 KERBAL_CR01_3 1.0
    DSL_CR01_3 YDSL_CR01_3 1.0
    DSL_CR01_3 DSLBAL_CR01_3 1.0
    VGO_CR01_3 YVGO_CR01_3 1.0
    VGO_CR01_3 VGOBAL_CR01_3 1.0
    RES_CR01_3 YRES_CR01_3 1.0
    RES_CR01_3 RESSPLIT_CR01_3 1.0
    LPG_CR02_3 YLPG_CR02_3 1.0
    LPG_CR02_3 LPGBAL_3 -1.0
    NAP_CR02_3 YNAP_CR02_3 1.0
    NAP_CR02_3 NAPBAL_CR02_3 1.0
    KER_CR02_3 YKER_CR02_3 1.0
    KER_CR02_3 KERBAL_CR02_3 1.0
    DSL_CR02_3 YDSL_CR02_3 1.0
    DSL_CR02_3 DSLBAL_CR02_3 1.0
    VGO_CR02_3 YVGO_CR02_3 1.0
    VGO_CR02_3 VGOBAL_CR02_3 1.0
    RES_CR02_3 YRES_CR02_3 1.0
    RES_CR02_3 RESSPLIT_CR02_3 1.0
    LPG_CR03_3 YLPG_CR03_3 1.0
    LPG_CR03_3 LPGBAL_3 -1.0
    NAP_CR03_3 YNAP_CR03_3 1.0
    NAP_CR03_3 NAPBAL_CR03_3 1.0
    KER_CR03_3 YKER_CR03_3 1.0
    KER_CR03_3 KERBAL_CR03_3 1.0
    DSL_CR03_3 YDSL_CR03_3 1.0
    DSL_CR03_3 DSLBAL_CR03_3 1.0
    VGO_CR03_3 YVGO_CR03_3 1.0
    VGO_CR03_3 VGOBAL_CR03_3 1.0
    RES_CR03_3 YRES_CR03_3 1.0
    RES_CR03_3 RESSPLIT_CR03_3 1.0
    LPG_CR04_3 YLPG_CR04_3 1.0
    LPG_CR04_3 LPGBAL_3 -1.0
    NAP_CR04_3 YNAP_CR04_3 1.0
    NAP_CR04_3 NAPBAL_CR04_3 1.0
    KER_CR04_3 YKER_CR04_3 1.0
    KER_CR04_3 KERBAL_CR04_3 1.0
    DSL_CR04_3 YDSL_CR04_3 1.0
    DSL_CR04_3 DSLBAL_CR04_3 1.0
    VGO_CR04_3 YVGO_CR04_3 1.0
    VGO_CR04_3 VGOBAL_CR04_3 1.0
    RES_CR04_3 YRES_CR04_3 1.0
    RES_CR04_3 RESSPLIT_CR04_3 1.0
    LPG_CR05_3 YLPG_CR05_3 1.0
    LPG_CR05_3 LPGBAL_3 -1.0
    NAP_CR05_3 YNAP_CR05_3 1.0
    NAP_CR05_3 NAPBAL_CR05_3 1.0
    KER_CR05_3 YKER_CR05_3 1.0
    KER_CR05_3 KERBAL_CR05_3 1.0
    DSL_CR05_3 YDSL_CR05_3 1.0
    DSL_CR05_3 DSLBAL_CR05_3 1.0
    VGO_CR05_3 YVGO_CR05_3 1.0
    VGO_CR05_3 VGOBAL_CR05_3 1.0
    RES_CR05_3 YRES_CR05_3 1.0
    RES_CR05_3 RESSPLIT_CR05_3 1.0
    LPG_CR06_3 YLPG_CR06_3 1.0
    LPG_CR06_3 LPGBAL_3 -1.0
    NAP_CR06_3 YNAP_CR06_3 1.0
    NAP_CR06_3 NAPBAL_CR06_3 1.0
    KER_CR06_3 YKER_CR06_3 1.0
    KER_CR06_3 KERBAL_CR06_3 1.0
    DSL_CR06_3 YDSL_CR06_3 1.0
    DSL_CR06_3 DSLBAL_CR06_3 1.0
    VGO_CR06_3 YVGO_CR06_3 1.0
    VGO_CR06_3 VGOBAL_CR06_3 1.0
    RES_CR06_3 YRES_CR06_3 1.0
    RES_CR06_3 RESSPLIT_CR06_3 1.0
    LPG_CR07_3 YLPG_CR07_3 1.0
    LPG_CR07_3 LPGBAL_3 -1.0
    NAP_CR07_3 YNAP_CR07_3 1.0
    NAP_CR07_3 NAPBAL_CR07_3 1.0
    KER_CR07_3 YKER_CR07_3 1.0
    KER_CR07_3 KERBAL_CR07_3 1.0
    DSL_CR07_3 YDSL_CR07_3 1.0
    DSL_CR07_3 DSLBAL_CR07_3 1.0
    VGO_CR07_3 YVGO_CR07_3 1.0
    VGO_CR07_3 VGOBAL_CR07_3 1.0
    RES_CR07_3 YRES_CR07_3 1.0
    RES_CR07_3 RESSPLIT_CR07_3 1.0
    LPG_CR08_3 YLPG_CR08_3 1.0
    LPG_CR08_3 LPGBAL_3 -1.0
    NAP_CR08_3 YNAP_CR08_3 1.0
    NAP_CR08_3 NAPBAL_CR08_3 1.0
    KER_CR08_3 YKER_CR08_3 1.0
    KER_CR08_3 KERBAL_CR08_3 1.0
    DSL_CR08_3 YDSL_CR08_3 1.0
    DSL_CR08_3 DSLBAL_CR08_3 1.0
    VGO_CR08_3 YVGO_CR08_3 1.0
    VGO_CR08_3 VGOBAL_CR08_3 1.0
    RES_CR08_3 YRES_CR08_3 1.0
    RES_CR08_3 RESSPLIT_CR08_3 1.0
    LPG_CR09_3 YLPG_CR09_3 1.0
    LPG_CR09_3 LPGBAL_3 -1.0
    NAP_CR09_3 YNAP_CR09_3 1.0
    NAP_CR09_3 NAPBAL_CR09_3 1.0
    KER_CR09_3 YKER_CR09_3 1.0
    KER_CR09_3 KERBAL_CR09_3 1.0
    DSL_CR09_3 YDSL_CR09_3 1.0
    DSL_CR09_3 DSLBAL_CR09_3 1.0
    VGO_CR09_3 YVGO_CR09_3 1.0
    VGO_CR09_3 VGOBAL_CR09_3 1.0
    RES_CR09_3 YRES_CR09_3 1.0
    RES_CR09_3 RESSPLIT_CR09_3 1.0
    LPG_CR10_3 YLPG_CR10_3 1.0
    LPG_CR10_3 LPGBAL_3 -1.0
    NAP_CR10_3 YNAP_CR10_3 1.0
    NAP_CR10_3 NAPBAL_CR10_3 1.0
    KER_CR10_3 YKER_CR10_3 1.0
    KER_CR10_3 KERBAL_CR10_3 1.0
    DSL_CR10_3 YDSL_CR10_3 1.0
    DSL_CR10_3 DSLBAL_CR10_3 1.0
    VGO_CR10_3 YVGO_CR10_3 1.0
    VGO_CR10_3 VGOBAL_CR10_3 1.0
    RES_CR10_3 YRES_CR10_3 1.0
    RES_CR10_3 RESSPLIT_CR10_3 1.0
    LPG_CR11_3 YLPG_CR11_3 1.0
    LPG_CR11_3 LPGBAL_3 -1.0
    NAP_CR11_3 YNAP_CR11_3 1.0
    NAP_CR11_3 NAPBAL_CR11_3 1.0
    KER_CR11_3 YKER_CR11_3 1.0
    KER_CR11_3 KERBAL_CR11_3 1.0
    DSL_CR11_3 YDSL_CR11_3 1.0
    DSL_CR11_3 DSLBAL_CR11_3 1.0
    VGO_CR11_3 YVGO_CR11_3 1.0
    VGO_CR11_3 VGOBAL_CR11_3 1.0
    RES_CR11_3 YRES_CR11_3 1.0
    RES_CR11_3 RESSPLIT_CR11_3 1.0
    LPG_CR12_3 YLPG_CR12_3 1.0
    LPG_CR12_3 LPGBAL_3 -1.0
    NAP_CR12_3 YNAP_CR12_3 1.0
    NAP_CR12_3 NAPBAL_CR12_3 1.0
    KER_CR12_3 YKER_CR12_3 1.0
    KER_CR12_3 KERBAL_CR12_3 1.0
    DSL_CR12_3 YDSL_CR12_3 1.0
    DSL_CR12_3 DSLBAL_CR12_3 1.0
    VGO_CR12_3 YVGO_CR12_3 1.0
    VGO_CR12_3 VGOBAL_CR12_3 1.0
    RES_CR12_3 YRES_CR12_3 1.0
    RES_CR12_3 RESSPLIT_CR12_3 1.0
    LPG_CR13_3 YLPG_CR13_3 1.0
    LPG_CR13_3 LPGBAL_3 -1.0
    NAP_CR13_3 YNAP_CR13_3 1.0
    NAP_CR13_3 NAPBAL_CR13_3 1.0
    KER_CR13_3 YKER_CR13_3 1.0
    KER_CR13_3 KERBAL_CR13_3 1.0
    DSL_CR13_3 YDSL_CR13_3 1.0
    DSL_CR13_3 DSLBAL_CR13_3 1.0
    VGO_CR13_3 YVGO_CR13_3 1.0
    VGO_CR13_3 VGOBAL_CR13_3 1.0
    RES_CR13_3 YRES_CR13_3 1.0
    RES_CR13_3 RESSPLIT_CR13_3 1.0
    LPG_CR14_3 YLPG_CR14_3 1.0
    LPG_CR14_3 LPGBAL_3 -1.0
    NAP_CR14_3 YNAP_CR14_3 1.0
    NAP_CR14_3 NAPBAL_CR14_3 1.0
    KER_CR14_3 YKER_CR14_3 1.0
    KER_CR14_3 KERBAL_CR14_3 1.0
    DSL_CR14_3 YDSL_CR14_3 1.0
    DSL_CR14_3 DSLBAL_CR14_3 1.0
    VGO_CR14_3 YVGO_CR14_3 1.0
    VGO_CR14_3 VGOBAL_CR14_3 1.0
    RES_CR14_3 YRES_CR14_3 1.0
    RES_CR14_3 RESSPLIT_CR14_3 1.0
    LPG_CR15_3 YLPG_CR15_3 1.0
    LPG_CR15_3 LPGBAL_3 -1.0
    NAP_CR15_3 YNAP_CR15_3 1.0
    NAP_CR15_3 NAPBAL_CR15_3 1.0
    KER_CR15_3 YKER_CR15_3 1.0
    KER_CR15_3 KERBAL_CR15_3 1.0
    DSL_CR15_3 YDSL_CR15_3 1.0
    DSL_CR15_3 DSLBAL_CR15_3 1.0
    VGO_CR15_3 YVGO_CR15_3 1.0
    VGO_CR15_3 VGOBAL_CR15_3 1.0
    RES_CR15_3 YRES_CR15_3 1.0
    RES_CR15_3 RESSPLIT_CR15_3 1.0
    LPG_CR16_3 YLPG_CR16_3 1.0
    LPG_CR16_3 LPGBAL_3 -1.0
    NAP_CR16_3 YNAP_CR16_3 1.0
    NAP_CR16_3 NAPBAL_CR16_3 1.0
    KER_CR16_3 YKER_CR16_3 1.0
    KER_CR16_3 KERBAL_CR16_3 1.0
    DSL_CR16_3 YDSL_CR16_3 1.0
    DSL_CR16_3 DSLBAL_CR16_3 1.0
    VGO_CR16_3 YVGO_CR16_3 1.0
    VGO_CR16_3 VGOBAL_CR16_3 1.0
    RES_CR16_3 YRES_CR16_3 1.0
    RES_CR16_3 RESSPLIT_CR16_3 1.0
    LPG_CR17_3 YLPG_CR17_3 1.0
    LPG_CR17_3 LPGBAL_3 -1.0
    NAP_CR17_3 YNAP_CR17_3 1.0
    NAP_CR17_3 NAPBAL_CR17_3 1.0
    KER_CR17_3 YKER_CR17_3 1.0
    KER_CR17_3 KERBAL_CR17_3 1.0
    DSL_CR17_3 YDSL_CR17_3 1.0
    DSL_CR17_3 DSLBAL_CR17_3 1.0
    VGO_CR17_3 YVGO_CR17_3 1.0
    VGO_CR17_3 VGOBAL_CR17_3 1.0
    RES_CR17_3 YRES_CR17_3 1.0
    RES_CR17_3 RESSPLIT_CR17_3 1.0
    LPG_CR18_3 YLPG_CR18_3 1.0
    LPG_CR18_3 LPGBAL_3 -1.0
    NAP_CR18_3 YNAP_CR18_3 1.0
    NAP_CR18_3 NAPBAL_CR18_3 1.0
    KER_CR18_3 YKER_CR18_3 1.0
    KER_CR18_3 KERBAL_CR18_3 1.0
    DSL_CR18_3 YDSL_CR18_3 1.0
    DSL_CR18_3 DSLBAL_CR18_3 1.0
    VGO_CR18_3 YVGO_CR18_3 1.0
    VGO_CR18_3 VGOBAL_CR18_3 1.0
    RES_CR18_3 YRES_CR18_3 1.0
    RES_CR18_3 RESSPLIT_CR18_3 1.0
    LPG_CR19_3 YLPG_CR19_3 1.0
    LPG_CR19_3 LPGBAL_3 -1.0
    NAP_CR19_3 YNAP_CR19_3 1.0
    NAP_CR19_3 NAPBAL_CR19_3 1.0
    KER_CR19_3 YKER_CR19_3 1.0
    KER_CR19_3 KERBAL_CR19_3 1.0
    DSL_CR19_3 YDSL_CR19_3 1.0
    DSL_CR19_3 DSLBAL_CR19_3 1.0
    VGO_CR19_3 YVGO_CR19_3 1.0
    VGO_CR19_3 VGOBAL_CR19_3 1.0
    RES_CR19_3 YRES_CR19_3 1.0
    RES_CR19_3 RESSPLIT_CR19_3 1.0
    VDUIN_CR00_3 RESSPLIT_CR00_3 -1.0
    VDUIN_CR00_3 VDUY1_CR00_3 -0.45
    VDUIN_CR00_3 VDUY2_CR00_3 -0.55
    VDUIN_CR00_3 VDUCAP_3 1.0
    RESFO_CR00_3 RESSPLIT_CR00_3 -1.0
    RESFO_CR00_3 FOBAL_3 -1.0
    RESFO_CR00_3 FOSUL_3 1.9540891690108433
    VGO2_CR00_3 VDUY1_CR00_3 1.0
    VGO2_CR00_3 VGOBAL_CR00_3 1.0
    VR_CR00_3 VDUY2_CR00_3 1.0
    VR_CR00_3 FOBAL_3 -1.0
    VR_CR00_3 FOSUL_3 3.5903159197140964
    VDUIN_CR01_3 RESSPLIT_CR01_3 -1.0
    VDUIN_CR01_3 VDUY1_CR01_3 -0.45
    VDUIN_CR01_3 VDUY2_CR01_3 -0.55
    VDUIN_CR01_3 VDUCAP_3 1.0
    RESFO_CR01_3 RESSPLIT_CR01_3 -1.0
    RESFO_CR01_3 FOBAL_3 -1.0
    RESFO_CR01_3 FOSUL_3 -0.6168441789886687
    VGO2_CR01_3 VDUY1_CR01_3 1.0
    VGO2_CR01_3 VGOBAL_CR01_3 1.0
    VR_CR01_3 VDUY2_CR01_3 1.0
    VR_CR01_3 FOBAL_3 -1.0
    VR_CR01_3 FOSUL_3 0.24810256731473057
    VDUIN_CR02_3 RESSPLIT_CR02_3 -1.0
    VDUIN_CR02_3 VDUY1_CR02_3 -0.45
    VDUIN_CR02_3 VDUY2_CR02_3 -0.55
    VDUIN_CR02_3 VDUCAP_3 1.0
    RESFO_CR02_3 RESSPLIT_CR02_3 -1.0
    RESFO_CR02_3 FOBAL_3 -1.0
    RESFO_CR02_3 FOSUL_3 0.05675733131967897
    VGO2_CR02_3 VDUY1_CR02_3 1.0
    VGO2_CR02_3 VGOBAL_CR02_3 1.0
    VR_CR02_3 VDUY2_CR02_3 1.0
    VR_CR02_3 FOBAL_3 -1.0
    VR_CR02_3 FOSUL_3 1.1237845307155832
    VDUIN_CR03_3 RESSPLIT_CR03_3 -1.0
    VDUIN_CR03_3 VDUY1_CR03_3 -0.45
    VDUIN_CR03_3 VDUY2_CR03_3 -0.55
    VDUIN_CR03_3 VDUCAP_3 1.0
    RESFO_CR03_3 RESSPLIT_CR03_3 -1.0
    RESFO_CR03_3 FOBAL_3 -1.0
    RESFO_CR03_3 FOSUL_3 -1.8686274424458973
    VGO2_CR03_3 VDUY1_CR03_3 1.0
    VGO2_CR03_3 VGOBAL_CR03_3 1.0
    VR_CR03_3 VDUY2_CR03_3 1.0
    VR_CR03_3 FOBAL_3 -1.0
    VR_CR03_3 FOSUL_3 -1.3792156751796663
    VDUIN_CR04_3 RESSPLIT_CR04_3 -1.0
    VDUIN_CR04_3 VDUY1_CR04_3 -0.45
    VDUIN_CR04_3 VDUY2_CR04_3 -0.55
    VDUIN_CR04_3 VDUCAP_3 1.0
    RESFO_CR04_3 RESSPLIT_CR04_3 -1.0
    RESFO_CR04_3 FOBAL_3 -1.0
    RESFO_CR04_3 FOSUL_3 2.031668478530798
    VGO2_CR04_3 VDUY1_CR04_3 1.0
    VGO2_CR04_3 VGOBAL_CR04_3 1.0
    VR_CR04_3 VDUY2_CR04_3 1.0
    VR_CR04_3 FOBAL_3 -1.0
    VR_CR04_3 FOSUL_3 3.6911690220900377
    VDUIN_CR05_3 RESSPLIT_CR05_3 -1.0
    VDUIN_CR05_3 VDUY1_CR05_3 -0.45
    VDUIN_CR05_3 VDUY2_CR05_3 -0.55
    VDUIN_CR05_3 VDUCAP_3 1.0
    RESFO_CR05_3 RESSPLIT_CR05_3 -1.0
    RESFO_CR05_3 FOBAL_3 -1.0
    RESFO_CR05_3 FOSUL_3 0.3429997580900688
    VGO2_CR05_3 VDUY1_CR05_3 1.0
    VGO2_CR05_3 VGOBAL_CR05_3 1.0
    VR_CR05_3 VDUY2_CR05_3 1.0
    VR_CR05_3 FOBAL_3 -1.0
    VR_CR05_3 FOSUL_3 1.4958996855170898
    VDUIN_CR06_3 RESSPLIT_CR06_3 -1.0
    VDUIN_CR06_3 VDUY1_CR06_3 -0.45
    VDUIN_CR06_3 VDUY2_CR06_3 -0.55
    VDUIN_CR06_3 VDUCAP_3 1.0
    RESFO_CR06_3 RESSPLIT_CR06_3 -1.0
    RESFO_CR06_3 FOBAL_3 -1.0
    RESFO_CR06_3 FOSUL_3 0.10255232060654862
    VGO2_CR06_3 VDUY1_CR06_3 1.0
    VGO2_CR06_3 VGOBAL_CR06_3 1.0
    VR_CR06_3 VDUY2_CR06_3 1.0
    VR_CR06_3 FOBAL_3 -1.0
    VR_CR06_3 FOSUL_3 1.1833180167885136
    VDUIN_CR07_3 RESSPLIT_CR07_3 -1.0
    VDUIN_CR07_3 VDUY1_CR07_3 -0.45
    VDUIN_CR07_3 VDUY2_CR07_3 -0.55
    VDUIN_CR07_3 VDUCAP_3 1.0
    RESFO_CR07_3 RESSPLIT_CR07_3 -1.0
    RESFO_CR07_3 FOBAL_3 -1.0
    RESFO_CR07_3 FOSUL_3 -3.116635223405176
    VGO2_CR07_3 VDUY1_CR07_3 1.0
    VGO2_CR07_3 VGOBAL_CR07_3 1.0
    VR_CR07_3 VDUY2_CR07_3 1.0
    VR_CR07_3 FOBAL_3 -1.0
    VR_CR07_3 FOSUL_3 -3.001625790426729
    VDUIN_CR08_3 RESSPLIT_CR08_3 -1.0
    VDUIN_CR08_3 VDUY1_CR08_3 -0.45
    VDUIN_CR08_3 VDUY2_CR08_3 -0.55
    VDUIN_CR08_3 VDUCAP_3 1.0
    RESFO_CR08_3 RESSPLIT_CR08_3 -1.0
    RESFO_CR08_3 FOBAL_3 -1.0
    RESFO_CR08_3 FOSUL_3 0.0456281803886287
    VGO2_CR08_3 VDUY1_CR08_3 1.0
    VGO2_CR08_3 VGOBAL_CR08_3 1.0
    VR_CR08_3 VDUY2_CR08_3 1.0
    VR_CR08_3 FOBAL_3 -1.0
    VR_CR08_3 FOSUL_3 1.109316634505218
    VDUIN_CR09_3 RESSPLIT_CR09_3 -1.0
    VDUIN_CR09_3 VDUY1_CR09_3 -0.45
    VDUIN_CR09_3 VDUY2_CR09_3 -0.55
    VDUIN_CR09_3 VDUCAP_3 1.0
    RESFO_CR09_3 RESSPLIT_CR09_3 -1.0
    RESFO_CR09_3 FOBAL_3 -1.0
    RESFO_CR09_3 FOSUL_3 -3.264603397407564
    VGO2_CR09_3 VDUY1_CR09_3 1.0
    VGO2_CR09_3 VGOBAL_CR09_3 1.0
    VR_CR09_3 VDUY2_CR09_3 1.0
    VR_CR09_3 FOBAL_3 -1.0
    VR_CR09_3 FOSUL_3 -3.1939844166298332
    VDUIN_CR10_3 RESSPLIT_CR10_3 -1.0
    VDUIN_CR10_3 VDUY1_CR10_3 -0.45
    VDUIN_CR10_3 VDUY2_CR10_3 -0.55
    VDUIN_CR10_3 VDUCAP_3 1.0
    RESFO_CR10_3 RESSPLIT_CR10_3 -1.0
    RESFO_CR10_3 FOBAL_3 -1.0
    RESFO_CR10_3 FOSUL_3 2.094062962095167
    VGO2_CR10_3 VDUY1_CR10_3 1.0
    VGO2_CR10_3 VGOBAL_CR10_3 1.0
    VR_CR10_3 VDUY2_CR10_3 1.0
    VR_CR10_3 FOBAL_3 -1.0
    VR_CR10_3 FOSUL_3 3.7722818507237177
    VDUIN_CR11_3 RESSPLIT_CR11_3 -1.0
    VDUIN_CR11_3 VDUY1_CR11_3 -0.45
    VDUIN_CR11_3 VDUY2_CR11_3 -0.55
    VDUIN_CR11_3 VDUCAP_3 1.0
    RESFO_CR11_3 RESSPLIT_CR11_3 -1.0
    RESFO_CR11_3 FOBAL_3 -1.0
    RESFO_CR11_3 FOSUL_3 -0.4594898393817082
    VGO2_CR11_3 VDUY1_CR11_3 1.0
    VGO2_CR11_3 VGOBAL_CR11_3 1.0
    VR_CR11_3 VDUY2_CR11_3 1.0
    VR_CR11_3 FOBAL_3 -1.0
    VR_CR11_3 FOSUL_3 0.4526632088037794
    VDUIN_CR12_3 RESSPLIT_CR12_3 -1.0
    VDUIN_CR12_3 VDUY1_CR12_3 -0.45
    VDUIN_CR12_3 VDUY2_CR12_3 -0.55
    VDUIN_CR12_3 VDUCAP_3 1.0
    RESFO_CR12_3 RESSPLIT_CR12_3 -1.0
    RESFO_CR12_3 FOBAL_3 -1.0
    RESFO_CR12_3 FOSUL_3 1.9188179600993953
    VGO2_CR12_3 VDUY1_CR12_3 1.0
    VGO2_CR12_3 VGOBAL_CR12_3 1.0
    VR_CR12_3 VDUY2_CR12_3 1.0
    VR_CR12_3 FOBAL_3 -1.0
    VR_CR12_3 FOSUL_3 3.544463348129214
    VDUIN_CR13_3 RESSPLIT_CR13_3 -1.0
    VDUIN_CR13_3 VDUY1_CR13_3 -0.45
    VDUIN_CR13_3 VDUY2_CR13_3 -0.55
    VDUIN_CR13_3 VDUCAP_3 1.0
    RESFO_CR13_3 RESSPLIT_CR13_3 -1.0
    RESFO_CR13_3 FOBAL_3 -1.0
    RESFO_CR13_3 FOSUL_3 -2.8690046531087465
    VGO2_CR13_3 VDUY1_CR13_3 1.0
    VGO2_CR13_3 VGOBAL_CR13_3 1.0
    VR_CR13_3 VDUY2_CR13_3 1.0
    VR_CR13_3 FOBAL_3 -1.0
    VR_CR13_3 FOSUL_3 -2.6797060490413704
    VDUIN_CR14_3 RESSPLIT_CR14_3 -1.0
    VDUIN_CR14_3 VDUY1_CR14_3 -0.45
    VDUIN_CR14_3 VDUY2_CR14_3 -0.55
    VDUIN_CR14_3 VDUCAP_3 1.0
    RESFO_CR14_3 RESSPLIT_CR14_3 -1.0
    RESFO_CR14_3 FOBAL_3 -1.0
    RESFO_CR14_3 FOSUL_3 -0.9033459504788866
    VGO2_CR14_3 VDUY1_CR14_3 1.0
    VGO2_CR14_3 VGOBAL_CR14_3 1.0
    VR_CR14_3 VDUY2_CR14_3 1.0
    VR_CR14_3 FOBAL_3 -1.0
    VR_CR14_3 FOSUL_3 -0.12434973562255225
    VDUIN_CR15_3 RESSPLIT_CR15_3 -1.0
    VDUIN_CR15_3 VDUY1_CR15_3 -0.45
    VDUIN_CR15_3 VDUY2_CR15_3 -0.55
    VDUIN_CR15_3 VDUCAP_3 1.0
    RESFO_CR15_3 RESSPLIT_CR15_3 -1.0
    RESFO_CR15_3 FOBAL_3 -1.0
    RESFO_CR15_3 FOSUL_3 -3.189239970867669
    VGO2_CR15_3 VDUY1_CR15_3 1.0
    VGO2_CR15_3 VGOBAL_CR15_3 1.0
    VR_CR15_3 VDUY2_CR15_3 1.0
    VR_CR15_3 FOBAL_3 -1.0
    VR_CR15_3 FOSUL_3 -3.0960119621279696
    VDUIN_CR16_3 RESSPLIT_CR16_3 -1.0
    VDUIN_CR16_3 VDUY1_CR16_3 -0.45
    VDUIN_CR16_3 VDUY2_CR16_3 -0.55
    VDUIN_CR16_3 VDUCAP_3 1.0
    RESFO_CR16_3 RESSPLIT_CR16_3 -1.0
    RESFO_CR16_3 FOBAL_3 -1.0
    RESFO_CR16_3 FOSUL_3 -0.09708299491376327
    VGO2_CR16_3 VDUY1_CR16_3 1.0
    VGO2_CR16_3 VGOBAL_CR16_3 1.0
    VR_CR16_3 VDUY2_CR16_3 1.0
    VR_CR16_3 FOBAL_3 -1.0
    VR_CR16_3 FOSUL_3 0.9237921066121082
    VDUIN_CR17_3 RESSPLIT_CR17_3 -1.0
    VDUIN_CR17_3 VDUY1_CR17_3 -0.45
    VDUIN_CR17_3 VDUY2_CR17_3 -0.55
    VDUIN_CR17_3 VDUCAP_3 1.0
    RESFO_CR17_3 RESSPLIT_CR17_3 -1.0
    RESFO_CR17_3 FOBAL_3 -1.0
    RESFO_CR17_3 FOSUL_3 2.128312314257988
    VGO2_CR17_3 VDUY1_CR17_3 1.0
    VGO2_CR17_3 VGOBAL_CR17_3 1.0
    VR_CR17_3 VDUY2_CR17_3 1.0
    VR_CR17_3 FOBAL_3 -1.0
    VR_CR17_3 FOSUL_3 3.8168060085353845
    VDUIN_CR18_3 RESSPLIT_CR18_3 -1.0
    VDUIN_CR18_3 VDUY1_CR18_3 -0.45
    VDUIN_CR18_3 VDUY2_CR18_3 -0.55
    VDUIN_CR18_3 VDUCAP_3 1.0
    RESFO_CR18_3 RESSPLIT_CR18_3 -1.0
    RESFO_CR18_3 FOBAL_3 -1.0
    RESFO_CR18_3 FOSUL_3 -3.0649175102888004
    VGO2_CR18_3 VDUY1_CR18_3 1.0
    VGO2_CR18_3 VGOBAL_CR18_3 1.0
    VR_CR18_3 VDUY2_CR18_3 1.0
    VR_CR18_3 FOBAL_3 -1.0
    VR_CR18_3 FOSUL_3 -2.9343927633754405
    VDUIN_CR19_3 RESSPLIT_CR19_3 -1.0
    VDUIN_CR19_3 VDUY1_CR19_3 -0.45
    VDUIN_CR19_3 VDUY2_CR19_3 -0.55
    VDUIN_CR19_3 VDUCAP_3 1.0
    RESFO_CR19_3 RESSPLIT_CR19_3 -1.0
    RESFO_CR19_3 FOBAL_3 -1.0
    RESFO_CR19_3 FOSUL_3 -1.1490285157117452
    VGO2_CR19_3 VDUY1_CR19_3 1.0
    VGO2_CR19_3 VGOBAL_CR19_3 1.0
    VR_CR19_3 VDUY2_CR19_3 1.0
    VR_CR19_3 FOBAL_3 -1.0
    VR_CR19_3 FOSUL_3 -0.4437370704252688
    FCCIN_CR00_3 OBJ -2.5
    FCCIN_CR00_3 VGOBAL_CR00_3 -1.0
    FCCIN_CR00_3 FCCCAP_3 1.0
    FCCIN_CR00_3 FCCY_FCCG_3 -0.55
    FCCIN_CR00_3 FCCY_LCO_3 -0.2
    FCCIN_CR00_3 FCCY_FLPG_3 -0.15
    FCCIN_CR00_3 FCCY_SLURRY_3 -0.07
    FCCIN_CR01_3 OBJ -2.5
    FCCIN_CR01_3 VGOBAL_CR01_3 -1.0
    FCCIN_CR01_3 FCCCAP_3 1.0
    FCCIN_CR01_3 FCCY_FCCG_3 -0.55
    FCCIN_CR01_3 FCCY_LCO_3 -0.2
    FCCIN_CR01_3 FCCY_FLPG_3 -0.15
    FCCIN_CR01_3 FCCY_SLURRY_3 -0.07
    FCCIN_CR02_3 OBJ -2.5
    FCCIN_CR02_3 VGOBAL_CR02_3 -1.0
    FCCIN_CR02_3 FCCCAP_3 1.0
    FCCIN_CR02_3 FCCY_FCCG_3 -0.55
    FCCIN_CR02_3 FCCY_LCO_3 -0.2
    FCCIN_CR02_3 FCCY_FLPG_3 -0.15
    FCCIN_CR02_3 FCCY_SLURRY_3 -0.07
    FCCIN_CR03_3 OBJ -2.5
    FCCIN_CR03_3 VGOBAL_CR03_3 -1.0
    FCCIN_CR03_3 FCCCAP_3 1.0
    FCCIN_CR03_3 FCCY_FCCG_3 -0.55
    FCCIN_CR03_3 FCCY_LCO_3 -0.2
    FCCIN_CR03_3 FCCY_FLPG_3 -0.15
    FCCIN_CR03_3 FCCY_SLURRY_3 -0.07
    FCCIN_CR04_3 OBJ -2.5
    FCCIN_CR04_3 VGOBAL_CR04_3 -1.0
    FCCIN_CR04_3 FCCCAP_3 1.0
    FCCIN_CR04_3 FCCY_FCCG_3 -0.55
    FCCIN_CR04_3 FCCY_LCO_3 -0.2
    FCCIN_CR04_3 FCCY_FLPG_3 -0.15
    FCCIN_CR04_3 FCCY_SLURRY_3 -0.07
    FCCIN_CR05_3 OBJ -2.5
    FCCIN_CR05_3 VGOBAL_CR05_3 -1.0
    FCCIN_CR05_3 FCCCAP_3 1.0
    FCCIN_CR05_3 FCCY_FCCG_3 -0.55
    FCCIN_CR05_3 FCCY_LCO_3 -0.2
    FCCIN_CR05_3 FCCY_FLPG_3 -0.15
    FCCIN_CR05_3 FCCY_SLURRY_3 -0.07
    FCCIN_CR06_3 OBJ -2.5
    FCCIN_CR06_3 VGOBAL_CR06_3 -1.0
    FCCIN_CR06_3 FCCCAP_3 1.0
    FCCIN_CR06_3 FCCY_FCCG_3 -0.55
    FCCIN_CR06_3 FCCY_LCO_3 -0.2
    FCCIN_CR06_3 FCCY_FLPG_3 -0.15
    FCCIN_CR06_3 FCCY_SLURRY_3 -0.07
    FCCIN_CR07_3 OBJ -2.5
    FCCIN_CR07_3 VGOBAL_CR07_3 -1.0
    FCCIN_CR07_3 FCCCAP_3 1.0
    FCCIN_CR07_3 FCCY_FCCG_3 -0.55
    FCCIN_CR07_3 FCCY_LCO_3 -0.2
    FCCIN_CR07_3 FCCY_FLPG_3 -0.15
    FCCIN_CR07_3 FCCY_SLURRY_3 -0.07
    FCCIN_CR08_3 OBJ -2.5
    FCCIN_CR08_3 VGOBAL_CR08_3 -1.0
    FCCIN_CR08_3 FCCCAP_3 1.0
    FCCIN_CR08_3 FCCY_FCCG_3 -0.55
    FCCIN_CR08_3 FCCY_LCO_3 -0.2
    FCCIN_CR08_3 FCCY_FLPG_3 -0.15
    FCCIN_CR08_3 FCCY_SLURRY_3 -0.07
    FCCIN_CR09_3 OBJ -2.5
    FCCIN_CR09_3 VGOBAL_CR09_3 -1.0
    FCCIN_CR09_3 FCCCAP_3 1.0
    FCCIN_CR09_3 FCCY_FCCG_3 -0.55
    FCCIN_CR09_3 FCCY_LCO_3 -0.2
    FCCIN_CR09_3 FCCY_FLPG_3 -0.15
    FCCIN_CR09_3 FCCY_SLURRY_3 -0.07
    FCCIN_CR10_3 OBJ -2.5
    FCCIN_CR10_3 VGOBAL_CR10_3 -1.0
    FCCIN_CR10_3 FCCCAP_3 1.0
    FCCIN_CR10_3 FCCY_FCCG_3 -0.55
    FCCIN_CR10_3 FCCY_LCO_3 -0.2
    FCCIN_CR10_3 FCCY_FLPG_3 -0.15
    FCCIN_CR10_3 FCCY_SLURRY_3 -0.07
    FCCIN_CR11_3 OBJ -2.5
    FCCIN_CR11_3 VGOBAL_CR11_3 -1.0
    FCCIN_CR11_3 FCCCAP_3 1.0
    FCCIN_CR11_3 FCCY_FCCG_3 -0.55
    FCCIN_CR11_3 FCCY_LCO_3 -0.2
    FCCIN_CR11_3 FCCY_FLPG_3 -0.15
    FCCIN_CR11_3 FCCY_SLURRY_3 -0.07
    FCCIN_CR12_3 OBJ -2.5
    FCCIN_CR12_3 VGOBAL_CR12_3 -1.0
    FCCIN_CR12_3 FCCCAP_3 1.0
    FCCIN_CR12_3 FCCY_FCCG_3 -0.55
    FCCIN_CR12_3 FCCY_LCO_3 -0.2
    FCCIN_CR12_3 FCCY_FLPG_3 -0.15
    FCCIN_CR12_3 FCCY_SLURRY_3 -0.07
    FCCIN_CR13_3 OBJ -2.5
    FCCIN_CR13_3 VGOBAL_CR13_3 -1.0
    FCCIN_CR13_3 FCCCAP_3 1.0
    FCCIN_CR13_3 FCCY_FCCG_3 -0.55
    FCCIN_CR13_3 FCCY_LCO_3 -0.2
    FCCIN_CR13_3 FCCY_FLPG_3 -0.15
    FCCIN_CR13_3 FCCY_SLURRY_3 -0.07
    FCCIN_CR14_3 OBJ -2.5
    FCCIN_CR14_3 VGOBAL_CR14_3 -1.0
    FCCIN_CR14_3 FCCCAP_3 1.0
    FCCIN_CR14_3 FCCY_FCCG_3 -0.55
    FCCIN_CR14_3 FCCY_LCO_3 -0.2
    FCCIN_CR14_3 FCCY_FLPG_3 -0.15
    FCCIN_CR14_3 FCCY_SLURRY_3 -0.07
    FCCIN_CR15_3 OBJ -2.5
    FCCIN_CR15_3 VGOBAL_CR15_3 -1.0
    FCCIN_CR15_3 FCCCAP_3 1.0
    FCCIN_CR15_3 FCCY_FCCG_3 -0.55
    FCCIN_CR15_3 FCCY_LCO_3 -0.2
    FCCIN_CR15_3 FCCY_FLPG_3 -0.15
    FCCIN_CR15_3 FCCY_SLURRY_3 -0.07
    FCCIN_CR16_3 OBJ -2.5
    FCCIN_CR16_3 VGOBAL_CR16_3 -1.0
    FCCIN_CR16_3 FCCCAP_3 1.0
    FCCIN_CR16_3 FCCY_FCCG_3 -0.55
    FCCIN_CR16_3 FCCY_LCO_3 -0.2
    FCCIN_CR16_3 FCCY_FLPG_3 -0.15
    FCCIN_CR16_3 FCCY_SLURRY_3 -0.07
    FCCIN_CR17_3 OBJ -2.5
    FCCIN_CR17_3 VGOBAL_CR17_3 -1.0
    FCCIN_CR17_3 FCCCAP_3 1.0
    FCCIN_CR17_3 FCCY_FCCG_3 -0.55
    FCCIN_CR17_3 FCCY_LCO_3 -0.2
    FCCIN_CR17_3 FCCY_FLPG_3 -0.15
    FCCIN_CR17_3 FCCY_SLURRY_3 -0.07
    FCCIN_CR18_3 OBJ -2.5
    FCCIN_CR18_3 VGOBAL_CR18_3 -1.0
    FCCIN_CR18_3 FCCCAP_3 1.0
    FCCIN_CR18_3 FCCY_FCCG_3 -0.55
    FCCIN_CR18_3 FCCY_LCO_3 -0.2
    FCCIN_CR18_3 FCCY_FLPG_3 -0.15
    FCCIN_CR18_3 FCCY_SLURRY_3 -0.07
    FCCIN_CR19_3 OBJ -2.5
    FCCIN_CR19_3 VGOBAL_CR19_3 -1.0
    FCCIN_CR19_3 FCCCAP_3 1.0
    FCCIN_CR19_3 FCCY_FCCG_3 -0.55
    FCCIN_CR19_3 FCCY_LCO_3 -0.2
    FCCIN_CR19_3 FCCY_FLPG_3 -0.15
    FCCIN_CR19_3 FCCY_SLURRY_3 -0.07
    FCCG_3 FCCY_FCCG_3 1.0
    FCCG_3 GASBAL_3 -1.0
    FCCG_3 GASRON_3 1.0
    LCO_3 FCCY_LCO_3 1.0
    LCO_3 LCOBAL_3 1.0
    FLPG_3 FCCY_FLPG_3 1.0
    FLPG_3 LPGBAL_3 -1.0
    SLURRY_3 FCCY_SLURRY_3 1.0
    SLURRY_3 FOBAL_3 -1.0
    SLURRY_3 FOSUL_3 -1.5
    REFIN_CR00_3 OBJ -3.0
    REFIN_CR00_3 NAPBAL_CR00_3 -1.0
    REFIN_CR00_3 REFCAP_3 1.0
    REFIN_CR00_3 REFY_3 -0.85
    NAPGAS_CR00_3 NAPBAL_CR00_3 -1.0
    NAPGAS_CR00_3 GASBAL_3 -1.0
    NAPGAS_CR00_3 GASRON_3 -41.351908455631545
    REFIN_CR01_3 OBJ -3.0
    REFIN_CR01_3 NAPBAL_CR01_3 -1.0
    REFIN_CR01_3 REFCAP_3 1.0
    REFIN_CR01_3 REFY_3 -0.85
    NAPGAS_CR01_3 NAPBAL_CR01_3 -1.0
    NAPGAS_CR01_3 GASBAL_3 -1.0
    NAPGAS_CR01_3 GASRON_3 -33.623043958680114
    REFIN_CR02_3 OBJ -3.0
    REFIN_CR02_3 NAPBAL_CR02_3 -1.0
    REFIN_CR02_3 REFCAP_3 1.0
    REFIN_CR02_3 REFY_3 -0.85
    NAPGAS_CR02_3 NAPBAL_CR02_3 -1.0
    NAPGAS_CR02_3 GASBAL_3 -1.0
    NAPGAS_CR02_3 GASRON_3 -39.74522208078083
    REFIN_CR03_3 OBJ -3.0
    REFIN_CR03_3 NAPBAL_CR03_3 -1.0
    REFIN_CR03_3 REFCAP_3 1.0
    REFIN_CR03_3 REFY_3 -0.85
    NAPGAS_CR03_3 NAPBAL_CR03_3 -1.0
    NAPGAS_CR03_3 GASBAL_3 -1.0
    NAPGAS_CR03_3 GASRON_3 -39.32063345179839
    REFIN_CR04_3 OBJ -3.0
    REFIN_CR04_3 NAPBAL_CR04_3 -1.0
    REFIN_CR04_3 REFCAP_3 1.0
    REFIN_CR04_3 REFY_3 -0.85
    NAPGAS_CR04_3 NAPBAL_CR04_3 -1.0
    NAPGAS_CR04_3 GASBAL_3 -1.0
    NAPGAS_CR04_3 GASRON_3 -28.06018906757886
    REFIN_CR05_3 OBJ -3.0
    REFIN_CR05_3 NAPBAL_CR05_3 -1.0
    REFIN_CR05_3 REFCAP_3 1.0
    REFIN_CR05_3 REFY_3 -0.85
    NAPGAS_CR05_3 NAPBAL_CR05_3 -1.0
    NAPGAS_CR05_3 GASBAL_3 -1.0
    NAPGAS_CR05_3 GASRON_3 -37.177062383933254
    REFIN_CR06_3 OBJ -3.0
    REFIN_CR06_3 NAPBAL_CR06_3 -1.0
    REFIN_CR06_3 REFCAP_3 1.0
    REFIN_CR06_3 REFY_3 -0.85
    NAPGAS_CR06_3 NAPBAL_CR06_3 -1.0
    NAPGAS_CR06_3 GASBAL_3 -1.0
    NAPGAS_CR06_3 GASRON_3 -38.73738801284508
    REFIN_CR07_3 OBJ -3.0
    REFIN_CR07_3 NAPBAL_CR07_3 -1.0
    REFIN_CR07_3 REFCAP_3 1.0
    REFIN_CR07_3 REFY_3 -0.85
    NAPGAS_CR07_3 NAPBAL_CR07_3 -1.0
    NAPGAS_CR07_3 GASBAL_3 -1.0
    NAPGAS_CR07_3 GASRON_3 -31.720911449683953
    REFIN_CR08_3 OBJ -3.0
    REFIN_CR08_3 NAPBAL_CR08_3 -1.0
    REFIN_CR08_3 REFCAP_3 1.0
    REFIN_CR08_3 REFY_3 -0.85
    NAPGAS_CR08_3 NAPBAL_CR08_3 -1.0
    NAPGAS_CR08_3 GASBAL_3 -1.0
    NAPGAS_CR08_3 GASRON_3 -31.236267605063702
    REFIN_CR09_3 OBJ -3.0
    REFIN_CR09_3 NAPBAL_CR09_3 -1.0
    REFIN_CR09_3 REFCAP_3 1.0
    REFIN_CR09_3 REFY_3 -0.85
    NAPGAS_CR09_3 NAPBAL_CR09_3 -1.0
    NAPGAS_CR09_3 GASBAL_3 -1.0
    NAPGAS_CR09_3 GASRON_3 -29.9151768258086
    REFIN_CR10_3 OBJ -3.0
    REFIN_CR10_3 NAPBAL_CR10_3 -1.0
    REFIN_CR10_3 REFCAP_3 1.0
    REFIN_CR10_3 REFY_3 -0.85
    NAPGAS_CR10_3 NAPBAL_CR10_3 -1.0
    NAPGAS_CR10_3 GASBAL_3 -1.0
    NAPGAS_CR10_3 GASRON_3 -38.641707010486826
    REFIN_CR11_3 OBJ -3.0
    REFIN_CR11_3 NAPBAL_CR11_3 -1.0
    REFIN_CR11_3 REFCAP_3 1.0
    REFIN_CR11_3 REFY_3 -0.85
    NAPGAS_CR11_3 NAPBAL_CR11_3 -1.0
    NAPGAS_CR11_3 GASBAL_3 -1.0
    NAPGAS_CR11_3 GASRON_3 -31.364398664025877
    REFIN_CR12_3 OBJ -3.0
    REFIN_CR12_3 NAPBAL_CR12_3 -1.0
    REFIN_CR12_3 REFCAP_3 1.0
    REFIN_CR12_3 REFY_3 -0.85
    NAPGAS_CR12_3 NAPBAL_CR12_3 -1.0
    NAPGAS_CR12_3 GASBAL_3 -1.0
    NAPGAS_CR12_3 GASRON_3 -36.44295305412478
    REFIN_CR13_3 OBJ -3.0
    REFIN_CR13_3 NAPBAL_CR13_3 -1.0
    REFIN_CR13_3 REFCAP_3 1.0
    REFIN_CR13_3 REFY_3 -0.85
    NAPGAS_CR13_3 NAPBAL_CR13_3 -1.0
    NAPGAS_CR13_3 GASBAL_3 -1.0
    NAPGAS_CR13_3 GASRON_3 -36.368722409916884
    REFIN_CR14_3 OBJ -3.0
    REFIN_CR14_3 NAPBAL_CR14_3 -1.0
    REFIN_CR14_3 REFCAP_3 1.0
    REFIN_CR14_3 REFY_3 -0.85
    NAPGAS_CR14_3 NAPBAL_CR14_3 -1.0
    NAPGAS_CR14_3 GASBAL_3 -1.0
    NAPGAS_CR14_3 GASRON_3 -37.837781635780814
    REFIN_CR15_3 OBJ -3.0
    REFIN_CR15_3 NAPBAL_CR15_3 -1.0
    REFIN_CR15_3 REFCAP_3 1.0
    REFIN_CR15_3 REFY_3 -0.85
    NAPGAS_CR15_3 NAPBAL_CR15_3 -1.0
    NAPGAS_CR15_3 GASBAL_3 -1.0
    NAPGAS_CR15_3 GASRON_3 -36.91743369949054
    REFIN_CR16_3 OBJ -3.0
    REFIN_CR16_3 NAPBAL_CR16_3 -1.0
    REFIN_CR16_3 REFCAP_3 1.0
    REFIN_CR16_3 REFY_3 -0.85
    NAPGAS_CR16_3 NAPBAL_CR16_3 -1.0
    NAPGAS_CR16_3 GASBAL_3 -1.0
    NAPGAS_CR16_3 GASRON_3 -32.43244486749426
    REFIN_CR17_3 OBJ -3.0
    REFIN_CR17_3 NAPBAL_CR17_3 -1.0
    REFIN_CR17_3 REFCAP_3 1.0
    REFIN_CR17_3 REFY_3 -0.85
    NAPGAS_CR17_3 NAPBAL_CR17_3 -1.0
    NAPGAS_CR17_3 GASBAL_3 -1.0
    NAPGAS_CR17_3 GASRON_3 -32.30218201355821
    REFIN_CR18_3 OBJ -3.0
    REFIN_CR18_3 NAPBAL_CR18_3 -1.0
    REFIN_CR18_3 REFCAP_3 1.0
    REFIN_CR18_3 REFY_3 -0.85
    NAPGAS_CR18_3 NAPBAL_CR18_3 -1.0
    NAPGAS_CR18_3 GASBAL_3 -1.0
    NAPGAS_CR18_3 GASRON_3 -30.280860643235343
    REFIN_CR19_3 OBJ -3.0
    REFIN_CR19_3 NAPBAL_CR19_3 -1.0
    REFIN_CR19_3 REFCAP_3 1.0
    REFIN_CR19_3 REFY_3 -0.85
    NAPGAS_CR19_3 NAPBAL_CR19_3 -1.0
    NAPGAS_CR19_3 GASBAL_3 -1.0
    NAPGAS_CR19_3 GASRON_3 -35.8435432887995
    REFORMATE_3 REFY_3 1.0
    REFORMATE_3 GASBAL_3 -1.0
    REFORMATE_3 GASRON_3 7.0
    DHTIN_CR00_3 OBJ -2.0
    DHTIN_CR00_3 DSLBAL_CR00_3 -1.0
    DHTIN_CR00_3 DHTCAP_3 1.0
    DHTIN_CR00_3 DHTY_3 -0.98
    DSLDIR_CR00_3 DSLBAL_CR00_3 -1.0
    DSLDIR_CR00_3 DSLPB_3 -1.0
    DSLDIR_CR00_3 DSLSUL_3 1.5862267507032528
    DHTIN_CR01_3 OBJ -2.0
    DHTIN_CR01_3 DSLBAL_CR01_3 -1.0
    DHTIN_CR01_3 DHTCAP_3 1.0
    DHTIN_CR01_3 DHTY_3 -0.98
    DSLDIR_CR01_3 DSLBAL_CR01_3 -1.0
    DSLDIR_CR01_3 DSLPB_3 -1.0
    DSLDIR_CR01_3 DSLSUL_3 0.8149467463033994
    DHTIN_CR02_3 OBJ -2.0
    DHTIN_CR02_3 DSLBAL_CR02_3 -1.0
    DHTIN_CR02_3 DHTCAP_3 1.0
    DHTIN_CR02_3 DHTY_3 -0.98
    DSLDIR_CR02_3 DSLBAL_CR02_3 -1.0
    DSLDIR_CR02_3 DSLPB_3 -1.0
    DSLDIR_CR02_3 DSLSUL_3 1.0170271993959037
    DHTIN_CR03_3 OBJ -2.0
    DHTIN_CR03_3 DSLBAL_CR03_3 -1.0
    DHTIN_CR03_3 DHTCAP_3 1.0
    DHTIN_CR03_3 DHTY_3 -0.98
    DSLDIR_CR03_3 DSLBAL_CR03_3 -1.0
    DSLDIR_CR03_3 DSLPB_3 -1.0
    DSLDIR_CR03_3 DSLSUL_3 0.4394117672662308
    DHTIN_CR04_3 OBJ -2.0
    DHTIN_CR04_3 DSLBAL_CR04_3 -1.0
    DHTIN_CR04_3 DHTCAP_3 1.0
    DHTIN_CR04_3 DHTY_3 -0.98
    DSLDIR_CR04_3 DSLBAL_CR04_3 -1.0
    DSLDIR_CR04_3 DSLPB_3 -1.0
    DSLDIR_CR04_3 DSLSUL_3 1.6095005435592393
    DHTIN_CR05_3 OBJ -2.0
    DHTIN_CR05_3 DSLBAL_CR05_3 -1.0
    DHTIN_CR05_3 DHTCAP_3 1.0
    DHTIN_CR05_3 DHTY_3 -0.98
    DSLDIR_CR05_3 DSLBAL_CR05_3 -1.0
    DSLDIR_CR05_3 DSLPB_3 -1.0
    DSLDIR_CR05_3 DSLSUL_3 1.1028999274270206
    DHTIN_CR06_3 OBJ -2.0
    DHTIN_CR06_3 DSLBAL_CR06_3 -1.0
    DHTIN_CR06_3 DHTCAP_3 1.0
    DHTIN_CR06_3 DHTY_3 -0.98
    DSLDIR_CR06_3 DSLBAL_CR06_3 -1.0
    DSLDIR_CR06_3 DSLPB_3 -1.0
    DSLDIR_CR06_3 DSLSUL_3 1.0307656961819645
    DHTIN_CR07_3 OBJ -2.0
    DHTIN_CR07_3 DSLBAL_CR07_3 -1.0
    DHTIN_CR07_3 DHTCAP_3 1.0
    DHTIN_CR07_3 DHTY_3 -0.98
    DSLDIR_CR07_3 DSLBAL_CR07_3 -1.0
    DSLDIR_CR07_3 DSLPB_3 -1.0
    DSLDIR_CR07_3 DSLSUL_3 0.06500943297844713
    DHTIN_CR08_3 OBJ -2.0
    DHTIN_CR08_3 DSLBAL_CR08_3 -1.0
    DHTIN_CR08_3 DHTCAP_3 1.0
    DHTIN_CR08_3 DHTY_3 -0.98
    DSLDIR_CR08_3 DSLBAL_CR08_3 -1.0
    DSLDIR_CR08_3 DSLPB_3 -1.0
    DSLDIR_CR08_3 DSLSUL_3 1.0136884541165885
    DHTIN_CR09_3 OBJ -2.0
    DHTIN_CR09_3 DSLBAL_CR09_3 -1.0
    DHTIN_CR09_3 DHTCAP_3 1.0
    DHTIN_CR09_3 DHTY_3 -0.98
    DSLDIR_CR09_3 DSLBAL_CR09_3 -1.0
    DSLDIR_CR09_3 DSLPB_3 -1.0
    DSLDIR_CR09_3 DSLSUL_3 0.020618980777730833
    DHTIN_CR10_3 OBJ -2.0
    DHTIN_CR10_3 DSLBAL_CR10_3 -1.0
    DHTIN_CR10_3 DHTCAP_3 1.0
    DHTIN_CR10_3 DHTY_3 -0.98
    DSLDIR_CR10_3 DSLBAL_CR10_3 -1.0
    DSLDIR_CR10_3 DSLPB_3 -1.0
    DSLDIR_CR10_3 DSLSUL_3 1.62821888862855
    DHTIN_CR11_3 OBJ -2.0
    DHTIN_CR11_3 DSLBAL_CR11_3 -1.0
    DHTIN_CR11_3 DHTCAP_3 1.0
    DHTIN_CR11_3 DHTY_3 -0.98
    DSLDIR_CR11_3 DSLBAL_CR11_3 -1.0
    DSLDIR_CR11_3 DSLPB_3 -1.0
    DSLDIR_CR11_3 DSLSUL_3 0.8621530481854874
    DHTIN_CR12_3 OBJ -2.0
    DHTIN_CR12_3 DSLBAL_CR12_3 -1.0
    DHTIN_CR12_3 DHTCAP_3 1.0
    DHTIN_CR12_3 DHTY_3 -0.98
    DSLDIR_CR12_3 DSLBAL_CR12_3 -1.0
    DSLDIR_CR12_3 DSLPB_3 -1.0
    DSLDIR_CR12_3 DSLSUL_3 1.5756453880298185
    DHTIN_CR13_3 OBJ -2.0
    DHTIN_CR13_3 DSLBAL_CR13_3 -1.0
    DHTIN_CR13_3 DHTCAP_3 1.0
    DHTIN_CR13_3 DHTY_3 -0.98
    DSLDIR_CR13_3 DSLBAL_CR13_3 -1.0
    DSLDIR_CR13_3 DSLPB_3 -1.0
    DSLDIR_CR13_3 DSLSUL_3 0.13929860406737604
    DHTIN_CR14_3 OBJ -2.0
    DHTIN_CR14_3 DSLBAL_CR14_3 -1.0
    DHTIN_CR14_3 DHTCAP_3 1.0
    DHTIN_CR14_3 DHTY_3 -0.98
    DSLDIR_CR14_3 DSLBAL_CR14_3 -1.0
    DSLDIR_CR14_3 DSLPB_3 -1.0
    DSLDIR_CR14_3 DSLSUL_3 0.7289962148563339
    DHTIN_CR15_3 OBJ -2.0
    DHTIN_CR15_3 DSLBAL_CR15_3 -1.0
    DHTIN_CR15_3 DHTCAP_3 1.0
    DHTIN_CR15_3 DHTY_3 -0.98
    DSLDIR_CR15_3 DSLBAL_CR15_3 -1.0
    DSLDIR_CR15_3 DSLPB_3 -1.0
    DSLDIR_CR15_3 DSLSUL_3 0.0432280087396993
    DHTIN_CR16_3 OBJ -2.0
    DHTIN_CR16_3 DSLBAL_CR16_3 -1.0
    DHTIN_CR16_3 DHTCAP_3 1.0
    DHTIN_CR16_3 DHTY_3 -0.98
    DSLDIR_CR16_3 DSLBAL_CR16_3 -1.0
    DSLDIR_CR16_3 DSLPB_3 -1.0
    DSLDIR_CR16_3 DSLSUL_3 0.970875101525871
    DHTIN_CR17_3 OBJ -2.0
    DHTIN_CR17_3 DSLBAL_CR17_3 -1.0
    DHTIN_CR17_3 DHTCAP_3 1.0
    DHTIN_CR17_3 DHTY_3 -0.98
    DSLDIR_CR17_3 DSLBAL_CR17_3 -1.0
    DSLDIR_CR17_3 DSLPB_3 -1.0
    DSLDIR_CR17_3 DSLSUL_3 1.6384936942773962
    DHTIN_CR18_3 OBJ -2.0
    DHTIN_CR18_3 DSLBAL_CR18_3 -1.0
    DHTIN_CR18_3 DHTCAP_3 1.0
    DHTIN_CR18_3 DHTY_3 -0.98
    DSLDIR_CR18_3 DSLBAL_CR18_3 -1.0
    DSLDIR_CR18_3 DSLPB_3 -1.0
    DSLDIR_CR18_3 DSLSUL_3 0.08052474691335985
    DHTIN_CR19_3 OBJ -2.0
    DHTIN_CR19_3 DSLBAL_CR19_3 -1.0
    DHTIN_CR19_3 DHTCAP_3 1.0
    DHTIN_CR19_3 DHTY_3 -0.98
    DSLDIR_CR19_3 DSLBAL_CR19_3 -1.0
    DSLDIR_CR19_3 DSLPB_3 -1.0
    DSLDIR_CR19_3 DSLSUL_3 0.6552914452864763
    LCODHT_3 LCOBAL_3 -1.0
    LCODHT_3 DHTCAP_3 1.0
    LCODHT_3 DHTY_3 -0.95
    LCOFO_3 LCOBAL_3 -1.0
    LCOFO_3 FOBAL_3 -1.0
    LCOFO_3 FOSUL_3 -2.5
    ULSD_3 DHTY_3 1.0
    ULSD_3 DSLPB_3 -1.0
    ULSD_3 DSLSUL_3 -0.049
    SELL_LPG_3 OBJ 60.50000000000001
    SELL_LPG_3 PBAL_LPG_3 -1.0
    SELL_LPG_3 DMAX_LPG_3 1.0
    SELL_LPG_3 DMIN_LPG_3 1.0
    SELL_GAS_3 OBJ 115.50000000000001
    SELL_GAS_3 PBAL_GAS_3 -1.0
    SELL_GAS_3 DMAX_GAS_3 1.0
    SELL_GAS_3 DMIN_GAS_3 1.0
    SELL_JET_3 OBJ 110.00000000000001
    SELL_JET_3 PBAL_JET_3 -1.0
    SELL_JET_3 DMAX_JET_3 1.0
    SELL_JET_3 DMIN_JET_3 1.0
    SELL_DSL_3 OBJ 107.80000000000001
    SELL_DSL_3 PBAL_DSL_3 -1.0
    SELL_DSL_3 DMAX_DSL_3 1.0
    SELL_DSL_3 DMIN_DSL_3 1.0
    SELL_FO_3 OBJ 66.0
    SELL_FO_3 PBAL_FO_3 -1.0
    SELL_FO_3 DMAX_FO_3 1.0
    SELL_FO_3 DMIN_FO_3 1.0
    PINV_LPG_3 OBJ -0.5
    PINV_LPG_3 PBAL_LPG_3 -1.0
    PINV_LPG_3 PBAL_LPG_4 1.0
    PINV_GAS_3 OBJ -0.5
    PINV_GAS_3 PBAL_GAS_3 -1.0
    PINV_GAS_3 PBAL_GAS_4 1.0
    PINV_JET_3 OBJ -0.5
    PINV_JET_3 PBAL_JET_3 -1.0
    PINV_JET_3 PBAL_JET_4 1.0
    PINV_DSL_3 OBJ -0.5
    PINV_DSL_3 PBAL_DSL_3 -1.0
    PINV_DSL_3 PBAL_DSL_4 1.0
    PINV_FO_3 OBJ -0.5
    PINV_FO_3 PBAL_FO_3 -1.0
    PINV_FO_3 PBAL_FO_4 1.0
    SHORT_LPG_3 OBJ -400.0
    SHORT_LPG_3 DMIN_LPG_3 1.0
    SHORT_GAS_3 OBJ -400.0
    SHORT_GAS_3 DMIN_GAS_3 1.0
    SHORT_JET_3 OBJ -400.0
    SHORT_JET_3 DMIN_JET_3 1.0
    SHORT_DSL_3 OBJ -400.0
    SHORT_DSL_3 DMIN_DSL_3 1.0
    SHORT_FO_3 OBJ -400.0
    SHORT_FO_3 DMIN_FO_3 1.0
    GASPOOL_3 GASBAL_3 1.0
    GASPOOL_3 PBAL_GAS_3 1.0
    JETPOOL_3 JETBAL_3 1.0
    JETPOOL_3 PBAL_JET_3 1.0
    KERJET_CR00_3 KERBAL_CR00_3 -1.0
    KERJET_CR00_3 JETBAL_3 -1.0
    KERJET_CR00_3 JETSUL_3 0.10905668767581322
    KERDSL_CR00_3 KERBAL_CR00_3 -1.0
    KERDSL_CR00_3 DSLPB_3 -1.0
    KERDSL_CR00_3 DSLSUL_3 0.3590566876758132
    KERJET_CR01_3 KERBAL_CR01_3 -1.0
    KERJET_CR01_3 JETBAL_3 -1.0
    KERJET_CR01_3 JETSUL_3 -0.08376331342415014
    KERDSL_CR01_3 KERBAL_CR01_3 -1.0
    KERDSL_CR01_3 DSLPB_3 -1.0
    KERDSL_CR01_3 DSLSUL_3 0.16623668657584983
    KERJET_CR02_3 KERBAL_CR02_3 -1.0
    KERJET_CR02_3 JETBAL_3 -1.0
    KERJET_CR02_3 JETSUL_3 -0.033243200151024055
    KERDSL_CR02_3 KERBAL_CR02_3 -1.0
    KERDSL_CR02_3 DSLPB_3 -1.0
    KERDSL_CR02_3 DSLSUL_3 0.21675679984897595
    KERJET_CR03_3 KERBAL_CR03_3 -1.0
    KERJET_CR03_3 JETBAL_3 -1.0
    KERJET_CR03_3 JETSUL_3 -0.17764705818344229
    KERDSL_CR03_3 KERBAL_CR03_3 -1.0
    KERDSL_CR03_3 DSLPB_3 -1.0
    KERDSL_CR03_3 DSLSUL_3 0.0723529418165577
    KERJET_CR04_3 KERBAL_CR04_3 -1.0
    KERJET_CR04_3 JETBAL_3 -1.0
    KERJET_CR04_3 JETSUL_3 0.11487513588980985
    KERDSL_CR04_3 KERBAL_CR04_3 -1.0
    KERDSL_CR04_3 DSLPB_3 -1.0
    KERDSL_CR04_3 DSLSUL_3 0.36487513588980985
    KERJET_CR05_3 KERBAL_CR05_3 -1.0
    KERJET_CR05_3 JETBAL_3 -1.0
    KERJET_CR05_3 JETSUL_3 -0.011775018143244831
    KERDSL_CR05_3 KERBAL_CR05_3 -1.0
    KERDSL_CR05_3 DSLPB_3 -1.0
    KERDSL_CR05_3 DSLSUL_3 0.23822498185675517
    KERJET_CR06_3 KERBAL_CR06_3 -1.0
    KERJET_CR06_3 JETBAL_3 -1.0
    KERJET_CR06_3 JETSUL_3 -0.029808575954508865
    KERDSL_CR06_3 KERBAL_CR06_3 -1.0
    KERDSL_CR06_3 DSLPB_3 -1.0
    KERDSL_CR06_3 DSLSUL_3 0.22019142404549114
    KERJET_CR07_3 KERBAL_CR07_3 -1.0
    KERJET_CR07_3 JETBAL_3 -1.0
    KERJET_CR07_3 JETSUL_3 -0.2712476417553882
    KERDSL_CR07_3 KERBAL_CR07_3 -1.0
    KERDSL_CR07_3 DSLPB_3 -1.0
    KERDSL_CR07_3 DSLSUL_3 -0.02124764175538822
    KERJET_CR08_3 KERBAL_CR08_3 -1.0
    KERJET_CR08_3 JETBAL_3 -1.0
    KERJET_CR08_3 JETSUL_3 -0.03407788647085286
    KERDSL_CR08_3 KERBAL_CR08_3 -1.0
    KERDSL_CR08_3 DSLPB_3 -1.0
    KERDSL_CR08_3 DSLSUL_3 0.21592211352914714
    KERJET_CR09_3 KERBAL_CR09_3 -1.0
    KERJET_CR09_3 JETBAL_3 -1.0
    KERJET_CR09_3 JETSUL_3 -0.28234525480556727
    KERDSL_CR09_3 KERBAL_CR09_3 -1.0
    KERDSL_CR09_3 DSLPB_3 -1.0
    KERDSL_CR09_3 DSLSUL_3 -0.0323452548055673
    KERJET_CR10_3 KERBAL_CR10_3 -1.0
    KERJET_CR10_3 JETBAL_3 -1.0
    KERJET_CR10_3 JETSUL_3 0.11955472215713753
    KERDSL_CR10_3 KERBAL_CR10_3 -1.0
    KERDSL_CR10_3 DSLPB_3 -1.0
    KERDSL_CR10_3 DSLSUL_3 0.3695547221571375
    KERJET_CR11_3 KERBAL_CR11_3 -1.0
    KERJET_CR11_3 JETBAL_3 -1.0
    KERJET_CR11_3 JETSUL_3 -0.07196173795362812
    KERDSL_CR11_3 KERBAL_CR11_3 -1.0
    KERDSL_CR11_3 DSLPB_3 -1.0
    KERDSL_CR11_3 DSLSUL_3 0.17803826204637185
    KERJET_CR12_3 KERBAL_CR12_3 -1.0
    KERJET_CR12_3 JETBAL_3 -1.0
    KERJET_CR12_3 JETSUL_3 0.10641134700745464
    KERDSL_CR12_3 KERBAL_CR12_3 -1.0
    KERDSL_CR12_3 DSLPB_3 -1.0
    KERDSL_CR12_3 DSLSUL_3 0.35641134700745464
    KERJET_CR13_3 KERBAL_CR13_3 -1.0
    KERJET_CR13_3 JETBAL_3 -1.0
    KERJET_CR13_3 JETSUL_3 -0.25267534898315597
    KERDSL_CR13_3 KERBAL_CR13_3 -1.0
    KERDSL_CR13_3 DSLPB_3 -1.0
    KERDSL_CR13_3 DSLSUL_3 -0.002675348983155995
    KERJET_CR14_3 KERBAL_CR14_3 -1.0
    KERJET_CR14_3 JETBAL_3 -1.0
    KERJET_CR14_3 JETSUL_3 -0.1052509462859165
    KERDSL_CR14_3 KERBAL_CR14_3 -1.0
    KERDSL_CR14_3 DSLPB_3 -1.0
    KERDSL_CR14_3 DSLSUL_3 0.14474905371408348
    KERJET_CR15_3 KERBAL_CR15_3 -1.0
    KERJET_CR15_3 JETBAL_3 -1.0
    KERJET_CR15_3 JETSUL_3 -0.27669299781507517
    KERDSL_CR15_3 KERBAL_CR15_3 -1.0
    KERDSL_CR15_3 DSLPB_3 -1.0
    KERDSL_CR15_3 DSLSUL_3 -0.026692997815075177
    KERJET_CR16_3 KERBAL_CR16_3 -1.0
    KERJET_CR16_3 JETBAL_3 -1.0
    KERJET_CR16_3 JETSUL_3 -0.044781224618532234
    KERDSL_CR16_3 KERBAL_CR16_3 -1.0
    KERDSL_CR16_3 DSLPB_3 -1.0
    KERDSL_CR16_3 DSLSUL_3 0.20521877538146777
    KERJET_CR17_3 KERBAL_CR17_3 -1.0
    KERJET_CR17_3 JETBAL_3 -1.0
    KERJET_CR17_3 JETSUL_3 0.12212342356934908
    KERDSL_CR17_3 KERBAL_CR17_3 -1.0
    KERDSL_CR17_3 DSLPB_3 -1.0
    KERDSL_CR17_3 DSLSUL_3 0.3721234235693491
    KERJET_CR18_3 KERBAL_CR18_3 -1.0
    KERJET_CR18_3 JETBAL_3 -1.0
    KERJET_CR18_3 JETSUL_3 -0.26736881327166
    KERDSL_CR18_3 KERBAL_CR18_3 -1.0
    KERDSL_CR18_3 DSLPB_3 -1.0
    KERDSL_CR18_3 DSLSUL_3 -0.01736881327166004
    KERJET_CR19_3 KERBAL_CR19_3 -1.0
    KERJET_CR19_3 JETBAL_3 -1.0
    KERJET_CR19_3 JETSUL_3 -0.1236771386783809
    KERDSL_CR19_3 KERBAL_CR19_3 -1.0
    KERDSL_CR19_3 DSLPB_3 -1.0
    KERDSL_CR19_3 DSLSUL_3 0.12632286132161907
    DSLPOOL_3 DSLPB_3 1.0
    DSLPOOL_3 PBAL_DSL_3 1.0
    LPGPOOL_3 LPGBAL_3 1.0
    LPGPOOL_3 PBAL_LPG_3 1.0
    FOPOOL_3 FOBAL_3 1.0
    FOPOOL_3 PBAL_FO_3 1.0
    BUY_CR00_4 OBJ -59.003978605249316
    BUY_CR00_4 CBAL_CR00_4 1.0
    CINV_CR00_4 OBJ -0.3
    CINV_CR00_4 CBAL_CR00_4 -1.0
    CINV_CR00_4 CBAL_CR00_5 1.0
    CDU_CR00_4 CBAL_CR00_4 -1.0
    CDU_CR00_4 CDUCAP_4 1.0
    CDU_CR00_4 YLPG_CR00_4 -0.013786055933968056
    CDU_CR00_4 YNAP_CR00_4 -0.1214444916358349
    CDU_CR00_4 YKER_CR00_4 -0.10646372452567733
    CDU_CR00_4 YDSL_CR00_4 -0.20292085263352289
    CDU_CR00_4 YVGO_CR00_4 -0.27390944719057636
    CDU_CR00_4 YRES_CR00_4 -0.28147542808042036
    BUY_CR01_4 OBJ -76.63250170696666
    BUY_CR01_4 CBAL_CR01_4 1.0
    CINV_CR01_4 OBJ -0.3
    CINV_CR01_4 CBAL_CR01_4 -1.0
    CINV_CR01_4 CBAL_CR01_5 1.0
    CDU_CR01_4 CBAL_CR01_4 -1.0
    CDU_CR01_4 CDUCAP_4 1.0
    CDU_CR01_4 YLPG_CR01_4 -0.025127543584387436
    CDU_CR01_4 YNAP_CR01_4 -0.2025917905849106
    CDU_CR01_4 YKER_CR01_4 -0.13410952106049506
    CDU_CR01_4 YDSL_CR01_4 -0.24728591651278542
    CDU_CR01_4 YVGO_CR01_4 -0.22897185950088417
    CDU_CR01_4 YRES_CR01_4 -0.16191336875653717
    BUY_CR02_4 OBJ -61.70375809741479
    BUY_CR02_4 CBAL_CR02_4 1.0
    CINV_CR02_4 OBJ -0.3
    CINV_CR02_4 CBAL_CR02_4 -1.0
    CINV_CR02_4 CBAL_CR02_5 1.0
    CDU_CR02_4 CBAL_CR02_4 -1.0
    CDU_CR02_4 CDUCAP_4 1.0
    CDU_CR02_4 YLPG_CR02_4 -0.013444753666275039
    CDU_CR02_4 YNAP_CR02_4 -0.11889710072836579
    CDU_CR02_4 YKER_CR02_4 -0.103840437143255
    CDU_CR02_4 YDSL_CR02_4 -0.21229612809407214
    CDU_CR02_4 YVGO_CR02_4 -0.2628713956905896
    CDU_CR02_4 YRES_CR02_4 -0.28865018467744247
    BUY_CR03_4 OBJ -68.69497925543763
    BUY_CR03_4 CBAL_CR03_4 1.0
    CINV_CR03_4 OBJ -0.3
    CINV_CR03_4 CBAL_CR03_4 -1.0
    CINV_CR03_4 CBAL_CR03_5 1.0
    CDU_CR03_4 CBAL_CR03_4 -1.0
    CDU_CR03_4 CDUCAP_4 1.0
    CDU_CR03_4 YLPG_CR03_4 -0.01400858068810675
    CDU_CR03_4 YNAP_CR03_4 -0.1424923117986131
    CDU_CR03_4 YKER_CR03_4 -0.10784088582669263
    CDU_CR03_4 YDSL_CR03_4 -0.19279120630762445
    CDU_CR03_4 YVGO_CR03_4 -0.28544626211923063
    CDU_CR03_4 YRES_CR03_4 -0.2574207532597324
    BUY_CR04_4 OBJ -73.90679296548554
    BUY_CR04_4 CBAL_CR04_4 1.0
    CINV_CR04_4 OBJ -0.3
    CINV_CR04_4 CBAL_CR04_4 -1.0
    CINV_CR04_4 CBAL_CR04_5 1.0
    CDU_CR04_4 CBAL_CR04_4 -1.0
    CDU_CR04_4 CDUCAP_4 1.0
    CDU_CR04_4 YLPG_CR04_4 -0.02335213093765316
    CDU_CR04_4 YNAP_CR04_4 -0.2292355396921612
    CDU_CR04_4 YKER_CR04_4 -0.14240695851543803
    CDU_CR04_4 YDSL_CR04_4 -0.24384363627499198
    CDU_CR04_4 YVGO_CR04_4 -0.2465326974706559
    CDU_CR04_4 YRES_CR04_4 -0.1146290371090997
    BUY_CR05_4 OBJ -67.09922543440857
    BUY_CR05_4 CBAL_CR05_4 1.0
    CINV_CR05_4 OBJ -0.3
    CINV_CR05_4 CBAL_CR05_4 -1.0
    CINV_CR05_4 CBAL_CR05_5 1.0
    CDU_CR05_4 CBAL_CR05_4 -1.0
    CDU_CR05_4 CDUCAP_4 1.0
    CDU_CR05_4 YLPG_CR05_4 -0.01735729802728813
    CDU_CR05_4 YNAP_CR05_4 -0.16608619710065003
    CDU_CR05_4 YKER_CR05_4 -0.1170544437563835
    CDU_CR05_4 YDSL_CR05_4 -0.22299235889970878
    CDU_CR05_4 YVGO_CR05_4 -0.2433490540516293
    CDU_CR05_4 YRES_CR05_4 -0.23316064816434035
    BUY_CR06_4 OBJ -64.83530575003117
    BUY_CR06_4 CBAL_CR06_4 1.0
    CINV_CR06_4 OBJ -0.3
    CINV_CR06_4 CBAL_CR06_4 -1.0
    CINV_CR06_4 CBAL_CR06_5 1.0
    CDU_CR06_4 CBAL_CR06_4 -1.0
    CDU_CR06_4 CDUCAP_4 1.0
    CDU_CR06_4 YLPG_CR06_4 -0.014219474855875663
    CDU_CR06_4 YNAP_CR06_4 -0.13746806025500902
    CDU_CR06_4 YKER_CR06_4 -0.10533897185985656
    CDU_CR06_4 YDSL_CR06_4 -0.20403840195434858
    CDU_CR06_4 YVGO_CR06_4 -0.26484358994429863
    CDU_CR06_4 YRES_CR06_4 -0.27409150113061165
    BUY_CR07_4 OBJ -73.71878199057068
    BUY_CR07_4 CBAL_CR07_4 1.0
    CINV_CR07_4 OBJ -0.3
    CINV_CR07_4 CBAL_CR07_4 -1.0
    CINV_CR07_4 CBAL_CR07_5 1.0
    CDU_CR07_4 CBAL_CR07_4 -1.0
    CDU_CR07_4 CDUCAP_4 1.0
    CDU_CR07_4 YLPG_CR07_4 -0.01678766142162217
    CDU_CR07_4 YNAP_CR07_4 -0.18341674311422207
    CDU_CR07_4 YKER_CR07_4 -0.13271469159016522
    CDU_CR07_4 YDSL_CR07_4 -0.2249127244045356
    CDU_CR07_4 YVGO_CR07_4 -0.24848613807316539
    CDU_CR07_4 YRES_CR07_4 -0.19368204139628944
    BUY_CR08_4 OBJ -72.06500109312907
    BUY_CR08_4 CBAL_CR08_4 1.0
    CINV_CR08_4 OBJ -0.3
    CINV_CR08_4 CBAL_CR08_4 -1.0
    CINV_CR08_4 CBAL_CR08_5 1.0
    CDU_CR08_4 CBAL_CR08_4 -1.0
    CDU_CR08_4 CDUCAP_4 1.0
    CDU_CR08_4 YLPG_CR08_4 -0.023930881960770135
    CDU_CR08_4 YNAP_CR08_4 -0.199474063989656
    CDU_CR08_4 YKER_CR08_4 -0.13012967624359006
    CDU_CR08_4 YDSL_CR08_4 -0.24906213509239003
    CDU_CR08_4 YVGO_CR08_4 -0.24247509330512357
    CDU_CR08_4 YRES_CR08_4 -0.15492814940847022
    BUY_CR09_4 OBJ -80.94252720738578
    BUY_CR09_4 CBAL_CR09_4 1.0
    CINV_CR09_4 OBJ -0.3
    CINV_CR09_4 CBAL_CR09_4 -1.0
    CINV_CR09_4 CBAL_CR09_5 1.0
    CDU_CR09_4 CBAL_CR09_4 -1.0
    CDU_CR09_4 CDUCAP_4 1.0
    CDU_CR09_4 YLPG_CR09_4 -0.0254414593142613
    CDU_CR09_4 YNAP_CR09_4 -0.2406668892422991
    CDU_CR09_4 YKER_CR09_4 -0.14150533274546892
    CDU_CR09_4 YDSL_CR09_4 -0.23713673044274025
    CDU_CR09_4 YVGO_CR09_4 -0.23566730460149374
    CDU_CR09_4 YRES_CR09_4 -0.11958228365373665
    BUY_CR10_4 OBJ -59.98421067338245
    BUY_CR10_4 CBAL_CR10_4 1.0
    CINV_CR10_4 OBJ -0.3
    CINV_CR10_4 CBAL_CR10_4 -1.0
    CINV_CR10_4 CBAL_CR10_5 1.0
    CDU_CR10_4 CBAL_CR10_4 -1.0
    CDU_CR10_4 CDUCAP_4 1.0
    CDU_CR10_4 YLPG_CR10_4 -0.012631058640766385
    CDU_CR10_4 YNAP_CR10_4 -0.11501159644639905
    CDU_CR10_4 YKER_CR10_4 -0.1080956731900355
    CDU_CR10_4 YDSL_CR10_4 -0.20982857494392457
    CDU_CR10_4 YVGO_CR10_4 -0.2722572086368098
    CDU_CR10_4 YRES_CR10_4 -0.28217588814206473
    BUY_CR11_4 OBJ -72.51243041725876
    BUY_CR11_4 CBAL_CR11_4 1.0
    CINV_CR11_4 OBJ -0.3
    CINV_CR11_4 CBAL_CR11_4 -1.0
    CINV_CR11_4 CBAL_CR11_5 1.0
    CDU_CR11_4 CBAL_CR11_4 -1.0
    CDU_CR11_4 CDUCAP_4 1.0
    CDU_CR11_4 YLPG_CR11_4 -0.018171926805686592
    CDU_CR11_4 YNAP_CR11_4 -0.18017303538659502
    CDU_CR11_4 YKER_CR11_4 -0.11622304467804759
    CDU_CR11_4 YDSL_CR11_4 -0.22678215323461023
    CDU_CR11_4 YVGO_CR11_4 -0.2637522217068048
    CDU_CR11_4 YRES_CR11_4 -0.19489761818825582
    BUY_CR12_4 OBJ -60.835218547961084
    BUY_CR12_4 CBAL_CR12_4 1.0
    CINV_CR12_4 OBJ -0.3
    CINV_CR12_4 CBAL_CR12_4 -1.0
    CINV_CR12_4 CBAL_CR12_5 1.0
    CDU_CR12_4 CBAL_CR12_4 -1.0
    CDU_CR12_4 CDUCAP_4 1.0
    CDU_CR12_4 YLPG_CR12_4 -0.016285402257558677
    CDU_CR12_4 YNAP_CR12_4 -0.1394251111460902
    CDU_CR12_4 YKER_CR12_4 -0.10627583407346515
    CDU_CR12_4 YDSL_CR12_4 -0.2004859030026821
    CDU_CR12_4 YVGO_CR12_4 -0.29053476615254664
    CDU_CR12_4 YRES_CR12_4 -0.2469929833676572
    BUY_CR13_4 OBJ -71.0295014795989
    BUY_CR13_4 CBAL_CR13_4 1.0
    CINV_CR13_4 OBJ -0.3
    CINV_CR13_4 CBAL_CR13_4 -1.0
    CINV_CR13_4 CBAL_CR13_5 1.0
    CDU_CR13_4 CBAL_CR13_4 -1.0
    CDU_CR13_4 CDUCAP_4 1.0
    CDU_CR13_4 YLPG_CR13_4 -0.015405562084299341
    CDU_CR13_4 YNAP_CR13_4 -0.1597372095049784
    CDU_CR13_4 YKER_CR13_4 -0.109230580221756
    CDU_CR13_4 YDSL_CR13_4 -0.20799117245133522
    CDU_CR13_4 YVGO_CR13_4 -0.2743070543343612
    CDU_CR13_4 YRES_CR13_4 -0.23332842140326976
    BUY_CR14_4 OBJ -64.23198721073504
    BUY_CR14_4 CBAL_CR14_4 1.0
    CINV_CR14_4 OBJ -0.3
    CINV_CR14_4 CBAL_CR14_4 -1.0
    CINV_CR14_4 CBAL_CR14_5 1.0
    CDU_CR14_4 CBAL_CR14_4 -1.0
    CDU_CR14_4 CDUCAP_4 1.0
    CDU_CR14_4 YLPG_CR14_4 -0.011676212845503672
    CDU_CR14_4 YNAP_CR14_4 -0.10963647957865116
    CDU_CR14_4 YKER_CR14_4 -0.09755861914812415
    CDU_CR14_4 YDSL_CR14_4 -0.22400035528460593
    CDU_CR14_4 YVGO_CR14_4 -0.27985390356413214
    CDU_CR14_4 YRES_CR14_4 -0.2772744295789829
    BUY_CR15_4 OBJ -66.221713033166
    BUY_CR15_4 CBAL_CR15_4 1.0
    CINV_CR15_4 OBJ -0.3
    CINV_CR15_4 CBAL_CR15_4 -1.0
    CINV_CR15_4 CBAL_CR15_5 1.0
    CDU_CR15_4 CBAL_CR15_4 -1.0
    CDU_CR15_4 CDUCAP_4 1.0
    CDU_CR15_4 YLPG_CR15_4 -0.010625779986084445
    CDU_CR15_4 YNAP_CR15_4 -0.11766680402271243
    CDU_CR15_4 YKER_CR15_4 -0.09531893966264804
    CDU_CR15_4 YDSL_CR15_4 -0.2087175638151306
    CDU_CR15_4 YVGO_CR15_4 -0.2798835604956035
    CDU_CR15_4 YRES_CR15_4 -0.287787352017821
    BUY_CR16_4 OBJ -70.98436254867929
    BUY_CR16_4 CBAL_CR16_4 1.0
    CINV_CR16_4 OBJ -0.3
    CINV_CR16_4 CBAL_CR16_4 -1.0
    CINV_CR16_4 CBAL_CR16_5 1.0
    CDU_CR16_4 CBAL_CR16_4 -1.0
    CDU_CR16_4 CDUCAP_4 1.0
    CDU_CR16_4 YLPG_CR16_4 -0.021730435986974463
    CDU_CR16_4 YNAP_CR16_4 -0.22346814322949868
    CDU_CR16_4 YKER_CR16_4 -0.12962692092969477
    CDU_CR16_4 YDSL_CR16_4 -0.23580083169350696
    CDU_CR16_4 YVGO_CR16_4 -0.23197545191976185
    CDU_CR16_4 YRES_CR16_4 -0.1573982162405634
    BUY_CR17_4 OBJ -70.97290342659622
    BUY_CR17_4 CBAL_CR17_4 1.0
    CINV_CR17_4 OBJ -0.3
    CINV_CR17_4 CBAL_CR17_4 -1.0
    CINV_CR17_4 CBAL_CR17_5 1.0
    CDU_CR17_4 CBAL_CR17_4 -1.0
    CDU_CR17_4 CDUCAP_4 1.0
    CDU_CR17_4 YLPG_CR17_4 -0.023568928491133005
    CDU_CR17_4 YNAP_CR17_4 -0.24678008017283823
    CDU_CR17_4 YKER_CR17_4 -0.12826932733432603
    CDU_CR17_4 YDSL_CR17_4 -0.2495178182316694
    CDU_CR17_4 YVGO_CR17_4 -0.23510202280801157
    CDU_CR17_4 YRES_CR17_4 -0.1167618229620217
    BUY_CR18_4 OBJ -80.04579687735081
    BUY_CR18_4 CBAL_CR18_4 1.0
    CINV_CR18_4 OBJ -0.3
    CINV_CR18_4 CBAL_CR18_4 -1.0
    CINV_CR18_4 CBAL_CR18_5 1.0
    CDU_CR18_4 CBAL_CR18_4 -1.0
    CDU_CR18_4 CDUCAP_4 1.0
    CDU_CR18_4 YLPG_CR18_4 -0.02478422291723085
    CDU_CR18_4 YNAP_CR18_4 -0.23955258573301338
    CDU_CR18_4 YKER_CR18_4 -0.1322077813000583
    CDU_CR18_4 YDSL_CR18_4 -0.21167154879043004
    CDU_CR18_4 YVGO_CR18_4 -0.24506150244942554
    CDU_CR18_4 YRES_CR18_4 -0.146722358809842
    BUY_CR19_4 OBJ -68.1002794461864
    BUY_CR19_4 CBAL_CR19_4 1.0
    CINV_CR19_4 OBJ -0.3
    CINV_CR19_4 CBAL_CR19_4 -1.0
    CINV_CR19_4 CBAL_CR19_5 1.0
    CDU_CR19_4 CBAL_CR19_4 -1.0
    CDU_CR19_4 CDUCAP_4 1.0
    CDU_CR19_4 YLPG_CR19_4 -0.01626067739955701
    CDU_CR19_4 YNAP_CR19_4 -0.1715066574732045
    CDU_CR19_4 YKER_CR19_4 -0.11836465284470915
    CDU_CR19_4 YDSL_CR19_4 -0.20874443204167248
    CDU_CR19_4 YVGO_CR19_4 -0.2445178967491453
    CDU_CR19_4 YRES_CR19_4 -0.24060568349171155
    LPG_CR00_4 YLPG_CR00_4 1.0
    LPG_CR00_4 LPGBAL_4 -1.0
    NAP_CR00_4 YNAP_CR00_4 1.0
    NAP_CR00_4 NAPBAL_CR00_4 1.0
    KER_CR00_4 YKER_CR00_4 1.0
    KER_CR00_4 KERBAL_CR00_4 1.0
    DSL_CR00_4 YDSL_CR00_4 1.0
    DSL_CR00_4 DSLBAL_CR00_4 1.0
    VGO_CR00_4 YVGO_CR00_4 1.0
    VGO_CR00_4 VGOBAL_CR00_4 1.0
    RES_CR00_4 YRES_CR00_4 1.0
    RES_CR00_4 RESSPLIT_CR00_4 1.0
    LPG_CR01_4 YLPG_CR01_4 1.0
    LPG_CR01_4 LPGBAL_4 -1.0
    NAP_CR01_4 YNAP_CR01_4 1.0
    NAP_CR01_4 NAPBAL_CR01_4 1.0
    KER_CR01_4 YKER_CR01_4 1.0
    KER_CR01_4 KERBAL_CR01_4 1.0
    DSL_CR01_4 YDSL_CR01_4 1.0
    DSL_CR01_4 DSLBAL_CR01_4 1.0
    VGO_CR01_4 YVGO_CR01_4 1.0
    VGO_CR01_4 VGOBAL_CR01_4 1.0
    RES_CR01_4 YRES_CR01_4 1.0
    RES_CR01_4 RESSPLIT_CR01_4 1.0
    LPG_CR02_4 YLPG_CR02_4 1.0
    LPG_CR02_4 LPGBAL_4 -1.0
    NAP_CR02_4 YNAP_CR02_4 1.0
    NAP_CR02_4 NAPBAL_CR02_4 1.0
    KER_CR02_4 YKER_CR02_4 1.0
    KER_CR02_4 KERBAL_CR02_4 1.0
    DSL_CR02_4 YDSL_CR02_4 1.0
    DSL_CR02_4 DSLBAL_CR02_4 1.0
    VGO_CR02_4 YVGO_CR02_4 1.0
    VGO_CR02_4 VGOBAL_CR02_4 1.0
    RES_CR02_4 YRES_CR02_4 1.0
    RES_CR02_4 RESSPLIT_CR02_4 1.0
    LPG_CR03_4 YLPG_CR03_4 1.0
    LPG_CR03_4 LPGBAL_4 -1.0
    NAP_CR03_4 YNAP_CR03_4 1.0
    NAP_CR03_4 NAPBAL_CR03_4 1.0
    KER_CR03_4 YKER_CR03_4 1.0
    KER_CR03_4 KERBAL_CR03_4 1.0
    DSL_CR03_4 YDSL_CR03_4 1.0
    DSL_CR03_4 DSLBAL_CR03_4 1.0
    VGO_CR03_4 YVGO_CR03_4 1.0
    VGO_CR03_4 VGOBAL_CR03_4 1.0
    RES_CR03_4 YRES_CR03_4 1.0
    RES_CR03_4 RESSPLIT_CR03_4 1.0
    LPG_CR04_4 YLPG_CR04_4 1.0
    LPG_CR04_4 LPGBAL_4 -1.0
    NAP_CR04_4 YNAP_CR04_4 1.0
    NAP_CR04_4 NAPBAL_CR04_4 1.0
    KER_CR04_4 YKER_CR04_4 1.0
    KER_CR04_4 KERBAL_CR04_4 1.0
    DSL_CR04_4 YDSL_CR04_4 1.0
    DSL_CR04_4 DSLBAL_CR04_4 1.0
    VGO_CR04_4 YVGO_CR04_4 1.0
    VGO_CR04_4 VGOBAL_CR04_4 1.0
    RES_CR04_4 YRES_CR04_4 1.0
    RES_CR04_4 RESSPLIT_CR04_4 1.0
    LPG_CR05_4 YLPG_CR05_4 1.0
    LPG_CR05_4 LPGBAL_4 -1.0
    NAP_CR05_4 YNAP_CR05_4 1.0
    NAP_CR05_4 NAPBAL_CR05_4 1.0
    KER_CR05_4 YKER_CR05_4 1.0
    KER_CR05_4 KERBAL_CR05_4 1.0
    DSL_CR05_4 YDSL_CR05_4 1.0
    DSL_CR05_4 DSLBAL_CR05_4 1.0
    VGO_CR05_4 YVGO_CR05_4 1.0
    VGO_CR05_4 VGOBAL_CR05_4 1.0
    RES_CR05_4 YRES_CR05_4 1.0
    RES_CR05_4 RESSPLIT_CR05_4 1.0
    LPG_CR06_4 YLPG_CR06_4 1.0
    LPG_CR06_4 LPGBAL_4 -1.0
    NAP_CR06_4 YNAP_CR06_4 1.0
    NAP_CR06_4 NAPBAL_CR06_4 1.0
    KER_CR06_4 YKER_CR06_4 1.0
    KER_CR06_4 KERBAL_CR06_4 1.0
    DSL_CR06_4 YDSL_CR06_4 1.0
    DSL_CR06_4 DSLBAL_CR06_4 1.0
    VGO_CR06_4 YVGO_CR06_4 1.0
    VGO_CR06_4 VGOBAL_CR06_4 1.0
    RES_CR06_4 YRES_CR06_4 1.0
    RES_CR06_4 RESSPLIT_CR06_4 1.0
    LPG_CR07_4 YLPG_CR07_4 1.0
    LPG_CR07_4 LPGBAL_4 -1.0
    NAP_CR07_4 YNAP_CR07_4 1.0
    NAP_CR07_4 NAPBAL_CR07_4 1.0
    KER_CR07_4 YKER_CR07_4 1.0
    KER_CR07_4 KERBAL_CR07_4 1.0
    DSL_CR07_4 YDSL_CR07_4 1.0
    DSL_CR07_4 DSLBAL_CR07_4 1.0
    VGO_CR07_4 YVGO_CR07_4 1.0
    VGO_CR07_4 VGOBAL_CR07_4 1.0
    RES_CR07_4 YRES_CR07_4 1.0
    RES_CR07_4 RESSPLIT_CR07_4 1.0
    LPG_CR08_4 YLPG_CR08_4 1.0
    LPG_CR08_4 LPGBAL_4 -1.0
    NAP_CR08_4 YNAP_CR08_4 1.0
    NAP_CR08_4 NAPBAL_CR08_4 1.0
    KER_CR08_4 YKER_CR08_4 1.0
    KER_CR08_4 KERBAL_CR08_4 1.0
    DSL_CR08_4 YDSL_CR08_4 1.0
    DSL_CR08_4 DSLBAL_CR08_4 1.0
    VGO_CR08_4 YVGO_CR08_4 1.0
    VGO_CR08_4 VGOBAL_CR08_4 1.0
    RES_CR08_4 YRES_CR08_4 1.0
    RES_CR08_4 RESSPLIT_CR08_4 1.0
    LPG_CR09_4 YLPG_CR09_4 1.0
    LPG_CR09_4 LPGBAL_4 -1.0
    NAP_CR09_4 YNAP_CR09_4 1.0
    NAP_CR09_4 NAPBAL_CR09_4 1.0
    KER_CR09_4 YKER_CR09_4 1.0
    KER_CR09_4 KERBAL_CR09_4 1.0
    DSL_CR09_4 YDSL_CR09_4 1.0
    DSL_CR09_4 DSLBAL_CR09_4 1.0
    VGO_CR09_4 YVGO_CR09_4 1.0
    VGO_CR09_4 VGOBAL_CR09_4 1.0
    RES_CR09_4 YRES_CR09_4 1.0
    RES_CR09_4 RESSPLIT_CR09_4 1.0
    LPG_CR10_4 YLPG_CR10_4 1.0
    LPG_CR10_4 LPGBAL_4 -1.0
    NAP_CR10_4 YNAP_CR10_4 1.0
    NAP_CR10_4 NAPBAL_CR10_4 1.0
    KER_CR10_4 YKER_CR10_4 1.0
    KER_CR10_4 KERBAL_CR10_4 1.0
    DSL_CR10_4 YDSL_CR10_4 1.0
    DSL_CR10_4 DSLBAL_CR10_4 1.0
    VGO_CR10_4 YVGO_CR10_4 1.0
    VGO_CR10_4 VGOBAL_CR10_4 1.0
    RES_CR10_4 YRES_CR10_4 1.0
    RES_CR10_4 RESSPLIT_CR10_4 1.0
    LPG_CR11_4 YLPG_CR11_4 1.0
    LPG_CR11_4 LPGBAL_4 -1.0
    NAP_CR11_4 YNAP_CR11_4 1.0
    NAP_CR11_4 NAPBAL_CR11_4 1.0
    KER_CR11_4 YKER_CR11_4 1.0
    KER_CR11_4 KERBAL_CR11_4 1.0
    DSL_CR11_4 YDSL_CR11_4 1.0
    DSL_CR11_4 DSLBAL_CR11_4 1.0
    VGO_CR11_4 YVGO_CR11_4 1.0
    VGO_CR11_4 VGOBAL_CR11_4 1.0
    RES_CR11_4 YRES_CR11_4 1.0
    RES_CR11_4 RESSPLIT_CR11_4 1.0
    LPG_CR12_4 YLPG_CR12_4 1.0
    LPG_CR12_4 LPGBAL_4 -1.0
    NAP_CR12_4 YNAP_CR12_4 1.0
    NAP_CR12_4 NAPBAL_CR12_4 1.0
    KER_CR12_4 YKER_CR12_4 1.0
    KER_CR12_4 KERBAL_CR12_4 1.0
    DSL_CR12_4 YDSL_CR12_4 1.0
    DSL_CR12_4 DSLBAL_CR12_4 1.0
    VGO_CR12_4 YVGO_CR12_4 1.0
    VGO_CR12_4 VGOBAL_CR12_4 1.0
    RES_CR12_4 YRES_CR12_4 1.0
    RES_CR12_4 RESSPLIT_CR12_4 1.0
    LPG_CR13_4 YLPG_CR13_4 1.0
    LPG_CR13_4 LPGBAL_4 -1.0
    NAP_CR13_4 YNAP_CR13_4 1.0
    NAP_CR13_4 NAPBAL_CR13_4 1.0
    KER_CR13_4 YKER_CR13_4 1.0
    KER_CR13_4 KERBAL_CR13_4 1.0
    DSL_CR13_4 YDSL_CR13_4 1.0
    DSL_CR13_4 DSLBAL_CR13_4 1.0
    VGO_CR13_4 YVGO_CR13_4 1.0
    VGO_CR13_4 VGOBAL_CR13_4 1.0
    RES_CR13_4 YRES_CR13_4 1.0
    RES_CR13_4 RESSPLIT_CR13_4 1.0
    LPG_CR14_4 YLPG_CR14_4 1.0
    LPG_CR14_4 LPGBAL_4 -1.0
    NAP_CR14_4 YNAP_CR14_4 1.0
    NAP_CR14_4 NAPBAL_CR14_4 1.0
    KER_CR14_4 YKER_CR14_4 1.0
    KER_CR14_4 KERBAL_CR14_4 1.0
    DSL_CR14_4 YDSL_CR14_4 1.0
    DSL_CR14_4 DSLBAL_CR14_4 1.0
    VGO_CR14_4 YVGO_CR14_4 1.0
    VGO_CR14_4 VGOBAL_CR14_4 1.0
    RES_CR14_4 YRES_CR14_4 1.0
    RES_CR14_4 RESSPLIT_CR14_4 1.0
    LPG_CR15_4 YLPG_CR15_4 1.0
    LPG_CR15_4 LPGBAL_4 -1.0
    NAP_CR15_4 YNAP_CR15_4 1.0
    NAP_CR15_4 NAPBAL_CR15_4 1.0
    KER_CR15_4 YKER_CR15_4 1.0
    KER_CR15_4 KERBAL_CR15_4 1.0
    DSL_CR15_4 YDSL_CR15_4 1.0
    DSL_CR15_4 DSLBAL_CR15_4 1.0
    VGO_CR15_4 YVGO_CR15_4 1.0
    VGO_CR15_4 VGOBAL_CR15_4 1.0
    RES_CR15_4 YRES_CR15_4 1.0
    RES_CR15_4 RESSPLIT_CR15_4 1.0
    LPG_CR16_4 YLPG_CR16_4 1.0
    LPG_CR16_4 LPGBAL_4 -1.0
    NAP_CR16_4 YNAP_CR16_4 1.0
    NAP_CR16_4 NAPBAL_CR16_4 1.0
    KER_CR16_4 YKER_CR16_4 1.0
    KER_CR16_4 KERBAL_CR16_4 1.0
    DSL_CR16_4 YDSL_CR16_4 1.0
    DSL_CR16_4 DSLBAL_CR16_4 1.0
    VGO_CR16_4 YVGO_CR16_4 1.0
    VGO_CR16_4 VGOBAL_CR16_4 1.0
    RES_CR16_4 YRES_CR16_4 1.0
    RES_CR16_4 RESSPLIT_CR16_4 1.0
    LPG_CR17_4 YLPG_CR17_4 1.0
    LPG_CR17_4 LPGBAL_4 -1.0
    NAP_CR17_4 YNAP_CR17_4 1.0
    NAP_CR17_4 NAPBAL_CR17_4 1.0
    KER_CR17_4 YKER_CR17_4 1.0
    KER_CR17_4 KERBAL_CR17_4 1.0
    DSL_CR17_4 YDSL_CR17_4 1.0
    DSL_CR17_4 DSLBAL_CR17_4 1.0
    VGO_CR17_4 YVGO_CR17_4 1.0
    VGO_CR17_4 VGOBAL_CR17_4 1.0
    RES_CR17_4 YRES_CR17_4 1.0
    RES_CR17_4 RESSPLIT_CR17_4 1.0
    LPG_CR18_4 YLPG_CR18_4 1.0
    LPG_CR18_4 LPGBAL_4 -1.0
    NAP_CR18_4 YNAP_CR18_4 1.0
    NAP_CR18_4 NAPBAL_CR18_4 1.0
    KER_CR18_4 YKER_CR18_4 1.0
    KER_CR18_4 KERBAL_CR18_4 1.0
    DSL_CR18_4 YDSL_CR18_4 1.0
    DSL_CR18_4 DSLBAL_CR18_4 1.0
    VGO_CR18_4 YVGO_CR18_4 1.0
    VGO_CR18_4 VGOBAL_CR18_4 1.0
    RES_CR18_4 YRES_CR18_4 1.0
    RES_CR18_4 RESSPLIT_CR18_4 1.0
    LPG_CR19_4 YLPG_CR19_4 1.0
    LPG_CR19_4 LPGBAL_4 -1.0
    NAP_CR19_4 YNAP_CR19_4 1.0
    NAP_CR19_4 NAPBAL_CR19_4 1.0
    KER_CR19_4 YKER_CR19_4 1.0
    KER_CR19_4 KERBAL_CR19_4 1.0
    DSL_CR19_4 YDSL_CR19_4 1.0
    DSL_CR19_4 DSLBAL_CR19_4 1.0
    VGO_CR19_4 YVGO_CR19_4 1.0
    VGO_CR19_4 VGOBAL_CR19_4 1.0
    RES_CR19_4 YRES_CR19_4 1.0
    RES_CR19_4 RESSPLIT_CR19_4 1.0
    VDUIN_CR00_4 RESSPLIT_CR00_4 -1.0
    VDUIN_CR00_4 VDUY1_CR00_4 -0.45
    VDUIN_CR00_4 VDUY2_CR00_4 -0.55
    VDUIN_CR00_4 VDUCAP_4 1.0
    RESFO_CR00_4 RESSPLIT_CR00_4 -1.0
    RESFO_CR00_4 FOBAL_4 -1.0
    RESFO_CR00_4 FOSUL_4 1.9540891690108433
    VGO2_CR00_4 VDUY1_CR00_4 1.0
    VGO2_CR00_4 VGOBAL_CR00_4 1.0
    VR_CR00_4 VDUY2_CR00_4 1.0
    VR_CR00_4 FOBAL_4 -1.0
    VR_CR00_4 FOSUL_4 3.5903159197140964
    VDUIN_CR01_4 RESSPLIT_CR01_4 -1.0
    VDUIN_CR01_4 VDUY1_CR01_4 -0.45
    VDUIN_CR01_4 VDUY2_CR01_4 -0.55
    VDUIN_CR01_4 VDUCAP_4 1.0
    RESFO_CR01_4 RESSPLIT_CR01_4 -1.0
    RESFO_CR01_4 FOBAL_4 -1.0
    RESFO_CR01_4 FOSUL_4 -0.6168441789886687
    VGO2_CR01_4 VDUY1_CR01_4 1.0
    VGO2_CR01_4 VGOBAL_CR01_4 1.0
    VR_CR01_4 VDUY2_CR01_4 1.0
    VR_CR01_4 FOBAL_4 -1.0
    VR_CR01_4 FOSUL_4 0.24810256731473057
    VDUIN_CR02_4 RESSPLIT_CR02_4 -1.0
    VDUIN_CR02_4 VDUY1_CR02_4 -0.45
    VDUIN_CR02_4 VDUY2_CR02_4 -0.55
    VDUIN_CR02_4 VDUCAP_4 1.0
    RESFO_CR02_4 RESSPLIT_CR02_4 -1.0
    RESFO_CR02_4 FOBAL_4 -1.0
    RESFO_CR02_4 FOSUL_4 0.05675733131967897
    VGO2_CR02_4 VDUY1_CR02_4 1.0
    VGO2_CR02_4 VGOBAL_CR02_4 1.0
    VR_CR02_4 VDUY2_CR02_4 1.0
    VR_CR02_4 FOBAL_4 -1.0
    VR_CR02_4 FOSUL_4 1.1237845307155832
    VDUIN_CR03_4 RESSPLIT_CR03_4 -1.0
    VDUIN_CR03_4 VDUY1_CR03_4 -0.45
    VDUIN_CR03_4 VDUY2_CR03_4 -0.55
    VDUIN_CR03_4 VDUCAP_4 1.0
    RESFO_CR03_4 RESSPLIT_CR03_4 -1.0
    RESFO_CR03_4 FOBAL_4 -1.0
    RESFO_CR03_4 FOSUL_4 -1.8686274424458973
    VGO2_CR03_4 VDUY1_CR03_4 1.0
    VGO2_CR03_4 VGOBAL_CR03_4 1.0
    VR_CR03_4 VDUY2_CR03_4 1.0
    VR_CR03_4 FOBAL_4 -1.0
    VR_CR03_4 FOSUL_4 -1.3792156751796663
    VDUIN_CR04_4 RESSPLIT_CR04_4 -1.0
    VDUIN_CR04_4 VDUY1_CR04_4 -0.45
    VDUIN_CR04_4 VDUY2_CR04_4 -0.55
    VDUIN_CR04_4 VDUCAP_4 1.0
    RESFO_CR04_4 RESSPLIT_CR04_4 -1.0
    RESFO_CR04_4 FOBAL_4 -1.0
    RESFO_CR04_4 FOSUL_4 2.031668478530798
    VGO2_CR04_4 VDUY1_CR04_4 1.0
    VGO2_CR04_4 VGOBAL_CR04_4 1.0
    VR_CR04_4 VDUY2_CR04_4 1.0
    VR_CR04_4 FOBAL_4 -1.0
    VR_CR04_4 FOSUL_4 3.6911690220900377
    VDUIN_CR05_4 RESSPLIT_CR05_4 -1.0
    VDUIN_CR05_4 VDUY1_CR05_4 -0.45
    VDUIN_CR05_4 VDUY2_CR05_4 -0.55
    VDUIN_CR05_4 VDUCAP_4 1.0
    RESFO_CR05_4 RESSPLIT_CR05_4 -1.0
    RESFO_CR05_4 FOBAL_4 -1.0
    RESFO_CR05_4 FOSUL_4 0.3429997580900688
    VGO2_CR05_4 VDUY1_CR05_4 1.0
    VGO2_CR05_4 VGOBAL_CR05_4 1.0
    VR_CR05_4 VDUY2_CR05_4 1.0
    VR_CR05_4 FOBAL_4 -1.0
    VR_CR05_4 FOSUL_4 1.4958996855170898
    VDUIN_CR06_4 RESSPLIT_CR06_4 -1.0
    VDUIN_CR06_4 VDUY1_CR06_4 -0.45
    VDUIN_CR06_4 VDUY2_CR06_4 -0.55
    VDUIN_CR06_4 VDUCAP_4 1.0
    RESFO_CR06_4 RESSPLIT_CR06_4 -1.0
    RESFO_CR06_4 FOBAL_4 -1.0
    RESFO_CR06_4 FOSUL_4 0.10255232060654862
    VGO2_CR06_4 VDUY1_CR06_4 1.0
    VGO2_CR06_4 VGOBAL_CR06_4 1.0
    VR_CR06_4 VDUY2_CR06_4 1.0
    VR_CR06_4 FOBAL_4 -1.0
    VR_CR06_4 FOSUL_4 1.1833180167885136
    VDUIN_CR07_4 RESSPLIT_CR07_4 -1.0
    VDUIN_CR07_4 VDUY1_CR07_4 -0.45
    VDUIN_CR07_4 VDUY2_CR07_4 -0.55
    VDUIN_CR07_4 VDUCAP_4 1.0
    RESFO_CR07_4 RESSPLIT_CR07_4 -1.0
    RESFO_CR07_4 FOBAL_4 -1.0
    RESFO_CR07_4 FOSUL_4 -3.116635223405176
    VGO2_CR07_4 VDUY1_CR07_4 1.0
    VGO2_CR07_4 VGOBAL_CR07_4 1.0
    VR_CR07_4 VDUY2_CR07_4 1.0
    VR_CR07_4 FOBAL_4 -1.0
    VR_CR07_4 FOSUL_4 -3.001625790426729
    VDUIN_CR08_4 RESSPLIT_CR08_4 -1.0
    VDUIN_CR08_4 VDUY1_CR08_4 -0.45
    VDUIN_CR08_4 VDUY2_CR08_4 -0.55
    VDUIN_CR08_4 VDUCAP_4 1.0
    RESFO_CR08_4 RESSPLIT_CR08_4 -1.0
    RESFO_CR08_4 FOBAL_4 -1.0
    RESFO_CR08_4 FOSUL_4 0.0456281803886287
    VGO2_CR08_4 VDUY1_CR08_4 1.0
    VGO2_CR08_4 VGOBAL_CR08_4 1.0
    VR_CR08_4 VDUY2_CR08_4 1.0
    VR_CR08_4 FOBAL_4 -1.0
    VR_CR08_4 FOSUL_4 1.109316634505218
    VDUIN_CR09_4 RESSPLIT_CR09_4 -1.0
    VDUIN_CR09_4 VDUY1_CR09_4 -0.45
    VDUIN_CR09_4 VDUY2_CR09_4 -0.55
    VDUIN_CR09_4 VDUCAP_4 1.0
    RESFO_CR09_4 RESSPLIT_CR09_4 -1.0
    RESFO_CR09_4 FOBAL_4 -1.0
    RESFO_CR09_4 FOSUL_4 -3.264603397407564
    VGO2_CR09_4 VDUY1_CR09_4 1.0
    VGO2_CR09_4 VGOBAL_CR09_4 1.0
    VR_CR09_4 VDUY2_CR09_4 1.0
    VR_CR09_4 FOBAL_4 -1.0
    VR_CR09_4 FOSUL_4 -3.1939844166298332
    VDUIN_CR10_4 RESSPLIT_CR10_4 -1.0
    VDUIN_CR10_4 VDUY1_CR10_4 -0.45
    VDUIN_CR10_4 VDUY2_CR10_4 -0.55
    VDUIN_CR10_4 VDUCAP_4 1.0
    RESFO_CR10_4 RESSPLIT_CR10_4 -1.0
    RESFO_CR10_4 FOBAL_4 -1.0
    RESFO_CR10_4 FOSUL_4 2.094062962095167
    VGO2_CR10_4 VDUY1_CR10_4 1.0
    VGO2_CR10_4 VGOBAL_CR10_4 1.0
    VR_CR10_4 VDUY2_CR10_4 1.0
    VR_CR10_4 FOBAL_4 -1.0
    VR_CR10_4 FOSUL_4 3.7722818507237177
    VDUIN_CR11_4 RESSPLIT_CR11_4 -1.0
    VDUIN_CR11_4 VDUY1_CR11_4 -0.45
    VDUIN_CR11_4 VDUY2_CR11_4 -0.55
    VDUIN_CR11_4 VDUCAP_4 1.0
    RESFO_CR11_4 RESSPLIT_CR11_4 -1.0
    RESFO_CR11_4 FOBAL_4 -1.0
    RESFO_CR11_4 FOSUL_4 -0.4594898393817082
    VGO2_CR11_4 VDUY1_CR11_4 1.0
    VGO2_CR11_4 VGOBAL_CR11_4 1.0
    VR_CR11_4 VDUY2_CR11_4 1.0
    VR_CR11_4 FOBAL_4 -1.0
    VR_CR11_4 FOSUL_4 0.4526632088037794
    VDUIN_CR12_4 RESSPLIT_CR12_4 -1.0
    VDUIN_CR12_4 VDUY1_CR12_4 -0.45
    VDUIN_CR12_4 VDUY2_CR12_4 -0.55
    VDUIN_CR12_4 VDUCAP_4 1.0
    RESFO_CR12_4 RESSPLIT_CR12_4 -1.0
    RESFO_CR12_4 FOBAL_4 -1.0
    RESFO_CR12_4 FOSUL_4 1.9188179600993953
    VGO2_CR12_4 VDUY1_CR12_4 1.0
    VGO2_CR12_4 VGOBAL_CR12_4 1.0
    VR_CR12_4 VDUY2_CR12_4 1.0
    VR_CR12_4 FOBAL_4 -1.0
    VR_CR12_4 FOSUL_4 3.544463348129214
    VDUIN_CR13_4 RESSPLIT_CR13_4 -1.0
    VDUIN_CR13_4 VDUY1_CR13_4 -0.45
    VDUIN_CR13_4 VDUY2_CR13_4 -0.55
    VDUIN_CR13_4 VDUCAP_4 1.0
    RESFO_CR13_4 RESSPLIT_CR13_4 -1.0
    RESFO_CR13_4 FOBAL_4 -1.0
    RESFO_CR13_4 FOSUL_4 -2.8690046531087465
    VGO2_CR13_4 VDUY1_CR13_4 1.0
    VGO2_CR13_4 VGOBAL_CR13_4 1.0
    VR_CR13_4 VDUY2_CR13_4 1.0
    VR_CR13_4 FOBAL_4 -1.0
    VR_CR13_4 FOSUL_4 -2.6797060490413704
    VDUIN_CR14_4 RESSPLIT_CR14_4 -1.0
    VDUIN_CR14_4 VDUY1_CR14_4 -0.45
    VDUIN_CR14_4 VDUY2_CR14_4 -0.55
    VDUIN_CR14_4 VDUCAP_4 1.0
    RESFO_CR14_4 RESSPLIT_CR14_4 -1.0
    RESFO_CR14_4 FOBAL_4 -1.0
    RESFO_CR14_4 FOSUL_4 -0.9033459504788866
    VGO2_CR14_4 VDUY1_CR14_4 1.0
    VGO2_CR14_4 VGOBAL_CR14_4 1.0
    VR_CR14_4 VDUY2_CR14_4 1.0
    VR_CR14_4 FOBAL_4 -1.0
    VR_CR14_4 FOSUL_4 -0.12434973562255225
    VDUIN_CR15_4 RESSPLIT_CR15_4 -1.0
    VDUIN_CR15_4 VDUY1_CR15_4 -0.45
    VDUIN_CR15_4 VDUY2_CR15_4 -0.55
    VDUIN_CR15_4 VDUCAP_4 1.0
    RESFO_CR15_4 RESSPLIT_CR15_4 -1.0
    RESFO_CR15_4 FOBAL_4 -1.0
    RESFO_CR15_4 FOSUL_4 -3.189239970867669
    VGO2_CR15_4 VDUY1_CR15_4 1.0
    VGO2_CR15_4 VGOBAL_CR15_4 1.0
    VR_CR15_4 VDUY2_CR15_4 1.0
    VR_CR15_4 FOBAL_4 -1.0
    VR_CR15_4 FOSUL_4 -3.0960119621279696
    VDUIN_CR16_4 RESSPLIT_CR16_4 -1.0
    VDUIN_CR16_4 VDUY1_CR16_4 -0.45
    VDUIN_CR16_4 VDUY2_CR16_4 -0.55
    VDUIN_CR16_4 VDUCAP_4 1.0
    RESFO_CR16_4 RESSPLIT_CR16_4 -1.0
    RESFO_CR16_4 FOBAL_4 -1.0
    RESFO_CR16_4 FOSUL_4 -0.09708299491376327
    VGO2_CR16_4 VDUY1_CR16_4 1.0
    VGO2_CR16_4 VGOBAL_CR16_4 1.0
    VR_CR16_4 VDUY2_CR16_4 1.0
    VR_CR16_4 FOBAL_4 -1.0
    VR_CR16_4 FOSUL_4 0.9237921066121082
    VDUIN_CR17_4 RESSPLIT_CR17_4 -1.0
    VDUIN_CR17_4 VDUY1_CR17_4 -0.45
    VDUIN_CR17_4 VDUY2_CR17_4 -0.55
    VDUIN_CR17_4 VDUCAP_4 1.0
    RESFO_CR17_4 RESSPLIT_CR17_4 -1.0
    RESFO_CR17_4 FOBAL_4 -1.0
    RESFO_CR17_4 FOSUL_4 2.128312314257988
    VGO2_CR17_4 VDUY1_CR17_4 1.0
    VGO2_CR17_4 VGOBAL_CR17_4 1.0
    VR_CR17_4 VDUY2_CR17_4 1.0
    VR_CR17_4 FOBAL_4 -1.0
    VR_CR17_4 FOSUL_4 3.8168060085353845
    VDUIN_CR18_4 RESSPLIT_CR18_4 -1.0
    VDUIN_CR18_4 VDUY1_CR18_4 -0.45
    VDUIN_CR18_4 VDUY2_CR18_4 -0.55
    VDUIN_CR18_4 VDUCAP_4 1.0
    RESFO_CR18_4 RESSPLIT_CR18_4 -1.0
    RESFO_CR18_4 FOBAL_4 -1.0
    RESFO_CR18_4 FOSUL_4 -3.0649175102888004
    VGO2_CR18_4 VDUY1_CR18_4 1.0
    VGO2_CR18_4 VGOBAL_CR18_4 1.0
    VR_CR18_4 VDUY2_CR18_4 1.0
    VR_CR18_4 FOBAL_4 -1.0
    VR_CR18_4 FOSUL_4 -2.9343927633754405
    VDUIN_CR19_4 RESSPLIT_CR19_4 -1.0
    VDUIN_CR19_4 VDUY1_CR19_4 -0.45
    VDUIN_CR19_4 VDUY2_CR19_4 -0.55
    VDUIN_CR19_4 VDUCAP_4 1.0
    RESFO_CR19_4 RESSPLIT_CR19_4 -1.0
    RESFO_CR19_4 FOBAL_4 -1.0
    RESFO_CR19_4 FOSUL_4 -1.1490285157117452
    VGO2_CR19_4 VDUY1_CR19_4 1.0
    VGO2_CR19_4 VGOBAL_CR19_4 1.0
    VR_CR19_4 VDUY2_CR19_4 1.0
    VR_CR19_4 FOBAL_4 -1.0
    VR_CR19_4 FOSUL_4 -0.4437370704252688
    FCCIN_CR00_4 OBJ -2.5
    FCCIN_CR00_4 VGOBAL_CR00_4 -1.0
    FCCIN_CR00_4 FCCCAP_4 1.0
    FCCIN_CR00_4 FCCY_FCCG_4 -0.55
    FCCIN_CR00_4 FCCY_LCO_4 -0.2
    FCCIN_CR00_4 FCCY_FLPG_4 -0.15
    FCCIN_CR00_4 FCCY_SLURRY_4 -0.07
    FCCIN_CR01_4 OBJ -2.5
    FCCIN_CR01_4 VGOBAL_CR01_4 -1.0
    FCCIN_CR01_4 FCCCAP_4 1.0
    FCCIN_CR01_4 FCCY_FCCG_4 -0.55
    FCCIN_CR01_4 FCCY_LCO_4 -0.2
    FCCIN_CR01_4 FCCY_FLPG_4 -0.15
    FCCIN_CR01_4 FCCY_SLURRY_4 -0.07
    FCCIN_CR02_4 OBJ -2.5
    FCCIN_CR02_4 VGOBAL_CR02_4 -1.0
    FCCIN_CR02_4 FCCCAP_4 1.0
    FCCIN_CR02_4 FCCY_FCCG_4 -0.55
    FCCIN_CR02_4 FCCY_LCO_4 -0.2
    FCCIN_CR02_4 FCCY_FLPG_4 -0.15
    FCCIN_CR02_4 FCCY_SLURRY_4 -0.07
    FCCIN_CR03_4 OBJ -2.5
    FCCIN_CR03_4 VGOBAL_CR03_4 -1.0
    FCCIN_CR03_4 FCCCAP_4 1.0
    FCCIN_CR03_4 FCCY_FCCG_4 -0.55
    FCCIN_CR03_4 FCCY_LCO_4 -0.2
    FCCIN_CR03_4 FCCY_FLPG_4 -0.15
    FCCIN_CR03_4 FCCY_SLURRY_4 -0.07
    FCCIN_CR04_4 OBJ -2.5
    FCCIN_CR04_4 VGOBAL_CR04_4 -1.0
    FCCIN_CR04_4 FCCCAP_4 1.0
    FCCIN_CR04_4 FCCY_FCCG_4 -0.55
    FCCIN_CR04_4 FCCY_LCO_4 -0.2
    FCCIN_CR04_4 FCCY_FLPG_4 -0.15
    FCCIN_CR04_4 FCCY_SLURRY_4 -0.07
    FCCIN_CR05_4 OBJ -2.5
    FCCIN_CR05_4 VGOBAL_CR05_4 -1.0
    FCCIN_CR05_4 FCCCAP_4 1.0
    FCCIN_CR05_4 FCCY_FCCG_4 -0.55
    FCCIN_CR05_4 FCCY_LCO_4 -0.2
    FCCIN_CR05_4 FCCY_FLPG_4 -0.15
    FCCIN_CR05_4 FCCY_SLURRY_4 -0.07
    FCCIN_CR06_4 OBJ -2.5
    FCCIN_CR06_4 VGOBAL_CR06_4 -1.0
    FCCIN_CR06_4 FCCCAP_4 1.0
    FCCIN_CR06_4 FCCY_FCCG_4 -0.55
    FCCIN_CR06_4 FCCY_LCO_4 -0.2
    FCCIN_CR06_4 FCCY_FLPG_4 -0.15
    FCCIN_CR06_4 FCCY_SLURRY_4 -0.07
    FCCIN_CR07_4 OBJ -2.5
    FCCIN_CR07_4 VGOBAL_CR07_4 -1.0
    FCCIN_CR07_4 FCCCAP_4 1.0
    FCCIN_CR07_4 FCCY_FCCG_4 -0.55
    FCCIN_CR07_4 FCCY_LCO_4 -0.2
    FCCIN_CR07_4 FCCY_FLPG_4 -0.15
    FCCIN_CR07_4 FCCY_SLURRY_4 -0.07
    FCCIN_CR08_4 OBJ -2.5
    FCCIN_CR08_4 VGOBAL_CR08_4 -1.0
    FCCIN_CR08_4 FCCCAP_4 1.0
    FCCIN_CR08_4 FCCY_FCCG_4 -0.55
    FCCIN_CR08_4 FCCY_LCO_4 -0.2
    FCCIN_CR08_4 FCCY_FLPG_4 -0.15
    FCCIN_CR08_4 FCCY_SLURRY_4 -0.07
    FCCIN_CR09_4 OBJ -2.5
    FCCIN_CR09_4 VGOBAL_CR09_4 -1.0
    FCCIN_CR09_4 FCCCAP_4 1.0
    FCCIN_CR09_4 FCCY_FCCG_4 -0.55
    FCCIN_CR09_4 FCCY_LCO_4 -0.2
    FCCIN_CR09_4 FCCY_FLPG_4 -0.15
    FCCIN_CR09_4 FCCY_SLURRY_4 -0.07
    FCCIN_CR10_4 OBJ -2.5
    FCCIN_CR10_4 VGOBAL_CR10_4 -1.0
    FCCIN_CR10_4 FCCCAP_4 1.0
    FCCIN_CR10_4 FCCY_FCCG_4 -0.55
    FCCIN_CR10_4 FCCY_LCO_4 -0.2
    FCCIN_CR10_4 FCCY_FLPG_4 -0.15
    FCCIN_CR10_4 FCCY_SLURRY_4 -0.07
    FCCIN_CR11_4 OBJ -2.5
    FCCIN_CR11_4 VGOBAL_CR11_4 -1.0
    FCCIN_CR11_4 FCCCAP_4 1.0
    FCCIN_CR11_4 FCCY_FCCG_4 -0.55
    FCCIN_CR11_4 FCCY_LCO_4 -0.2
    FCCIN_CR11_4 FCCY_FLPG_4 -0.15
    FCCIN_CR11_4 FCCY_SLURRY_4 -0.07
    FCCIN_CR12_4 OBJ -2.5
    FCCIN_CR12_4 VGOBAL_CR12_4 -1.0
    FCCIN_CR12_4 FCCCAP_4 1.0
    FCCIN_CR12_4 FCCY_FCCG_4 -0.55
    FCCIN_CR12_4 FCCY_LCO_4 -0.2
    FCCIN_CR12_4 FCCY_FLPG_4 -0.15
    FCCIN_CR12_4 FCCY_SLURRY_4 -0.07
    FCCIN_CR13_4 OBJ -2.5
    FCCIN_CR13_4 VGOBAL_CR13_4 -1.0
    FCCIN_CR13_4 FCCCAP_4 1.0
    FCCIN_CR13_4 FCCY_FCCG_4 -0.55
    FCCIN_CR13_4 FCCY_LCO_4 -0.2
    FCCIN_CR13_4 FCCY_FLPG_4 -0.15
    FCCIN_CR13_4 FCCY_SLURRY_4 -0.07
    FCCIN_CR14_4 OBJ -2.5
    FCCIN_CR14_4 VGOBAL_CR14_4 -1.0
    FCCIN_CR14_4 FCCCAP_4 1.0
    FCCIN_CR14_4 FCCY_FCCG_4 -0.55
    FCCIN_CR14_4 FCCY_LCO_4 -0.2
    FCCIN_CR14_4 FCCY_FLPG_4 -0.15
    FCCIN_CR14_4 FCCY_SLURRY_4 -0.07
    FCCIN_CR15_4 OBJ -2.5
    FCCIN_CR15_4 VGOBAL_CR15_4 -1.0
    FCCIN_CR15_4 FCCCAP_4 1.0
    FCCIN_CR15_4 FCCY_FCCG_4 -0.55
    FCCIN_CR15_4 FCCY_LCO_4 -0.2
    FCCIN_CR15_4 FCCY_FLPG_4 -0.15
    FCCIN_CR15_4 FCCY_SLURRY_4 -0.07
    FCCIN_CR16_4 OBJ -2.5
    FCCIN_CR16_4 VGOBAL_CR16_4 -1.0
    FCCIN_CR16_4 FCCCAP_4 1.0
    FCCIN_CR16_4 FCCY_FCCG_4 -0.55
    FCCIN_CR16_4 FCCY_LCO_4 -0.2
    FCCIN_CR16_4 FCCY_FLPG_4 -0.15
    FCCIN_CR16_4 FCCY_SLURRY_4 -0.07
    FCCIN_CR17_4 OBJ -2.5
    FCCIN_CR17_4 VGOBAL_CR17_4 -1.0
    FCCIN_CR17_4 FCCCAP_4 1.0
    FCCIN_CR17_4 FCCY_FCCG_4 -0.55
    FCCIN_CR17_4 FCCY_LCO_4 -0.2
    FCCIN_CR17_4 FCCY_FLPG_4 -0.15
    FCCIN_CR17_4 FCCY_SLURRY_4 -0.07
    FCCIN_CR18_4 OBJ -2.5
    FCCIN_CR18_4 VGOBAL_CR18_4 -1.0
    FCCIN_CR18_4 FCCCAP_4 1.0
    FCCIN_CR18_4 FCCY_FCCG_4 -0.55
    FCCIN_CR18_4 FCCY_LCO_4 -0.2
    FCCIN_CR18_4 FCCY_FLPG_4 -0.15
    FCCIN_CR18_4 FCCY_SLURRY_4 -0.07
    FCCIN_CR19_4 OBJ -2.5
    FCCIN_CR19_4 VGOBAL_CR19_4 -1.0
    FCCIN_CR19_4 FCCCAP_4 1.0
    FCCIN_CR19_4 FCCY_FCCG_4 -0.55
    FCCIN_CR19_4 FCCY_LCO_4 -0.2
    FCCIN_CR19_4 FCCY_FLPG_4 -0.15
    FCCIN_CR19_4 FCCY_SLURRY_4 -0.07
    FCCG_4 FCCY_FCCG_4 1.0
    FCCG_4 GASBAL_4 -1.0
    FCCG_4 GASRON_4 1.0
    LCO_4 FCCY_LCO_4 1.0
    LCO_4 LCOBAL_4 1.0
    FLPG_4 FCCY_FLPG_4 1.0
    FLPG_4 LPGBAL_4 -1.0
    SLURRY_4 FCCY_SLURRY_4 1.0
    SLURRY_4 FOBAL_4 -1.0
    SLURRY_4 FOSUL_4 -1.5
    REFIN_CR00_4 OBJ -3.0
    REFIN_CR00_4 NAPBAL_CR00_4 -1.0
    REFIN_CR00_4 REFCAP_4 1.0
    REFIN_CR00_4 REFY_4 -0.85
    NAPGAS_CR00_4 NAPBAL_CR00_4 -1.0
    NAPGAS_CR00_4 GASBAL_4 -1.0
    NAPGAS_CR00_4 GASRON_4 -41.351908455631545
    REFIN_CR01_4 OBJ -3.0
    REFIN_CR01_4 NAPBAL_CR01_4 -1.0
    REFIN_CR01_4 REFCAP_4 1.0
    REFIN_CR01_4 REFY_4 -0.85
    NAPGAS_CR01_4 NAPBAL_CR01_4 -1.0
    NAPGAS_CR01_4 GASBAL_4 -1.0
    NAPGAS_CR01_4 GASRON_4 -33.623043958680114
    REFIN_CR02_4 OBJ -3.0
    REFIN_CR02_4 NAPBAL_CR02_4 -1.0
    REFIN_CR02_4 REFCAP_4 1.0
    REFIN_CR02_4 REFY_4 -0.85
    NAPGAS_CR02_4 NAPBAL_CR02_4 -1.0
    NAPGAS_CR02_4 GASBAL_4 -1.0
    NAPGAS_CR02_4 GASRON_4 -39.74522208078083
    REFIN_CR03_4 OBJ -3.0
    REFIN_CR03_4 NAPBAL_CR03_4 -1.0
    REFIN_CR03_4 REFCAP_4 1.0
    REFIN_CR03_4 REFY_4 -0.85
    NAPGAS_CR03_4 NAPBAL_CR03_4 -1.0
    NAPGAS_CR03_4 GASBAL_4 -1.0
    NAPGAS_CR03_4 GASRON_4 -39.32063345179839
    REFIN_CR04_4 OBJ -3.0
    REFIN_CR04_4 NAPBAL_CR04_4 -1.0
    REFIN_CR04_4 REFCAP_4 1.0
    REFIN_CR04_4 REFY_4 -0.85
    NAPGAS_CR04_4 NAPBAL_CR04_4 -1.0
    NAPGAS_CR04_4 GASBAL_4 -1.0
    NAPGAS_CR04_4 GASRON_4 -28.06018906757886
    REFIN_CR05_4 OBJ -3.0
    REFIN_CR05_4 NAPBAL_CR05_4 -1.0
    REFIN_CR05_4 REFCAP_4 1.0
    REFIN_CR05_4 REFY_4 -0.85
    NAPGAS_CR05_4 NAPBAL_CR05_4 -1.0
    NAPGAS_CR05_4 GASBAL_4 -1.0
    NAPGAS_CR05_4 GASRON_4 -37.177062383933254
    REFIN_CR06_4 OBJ -3.0
    REFIN_CR06_4 NAPBAL_CR06_4 -1.0
    REFIN_CR06_4 REFCAP_4 1.0
    REFIN_CR06_4 REFY_4 -0.85
    NAPGAS_CR06_4 NAPBAL_CR06_4 -1.0
    NAPGAS_CR06_4 GASBAL_4 -1.0
    NAPGAS_CR06_4 GASRON_4 -38.73738801284508
    REFIN_CR07_4 OBJ -3.0
    REFIN_CR07_4 NAPBAL_CR07_4 -1.0
    REFIN_CR07_4 REFCAP_4 1.0
    REFIN_CR07_4 REFY_4 -0.85
    NAPGAS_CR07_4 NAPBAL_CR07_4 -1.0
    NAPGAS_CR07_4 GASBAL_4 -1.0
    NAPGAS_CR07_4 GASRON_4 -31.720911449683953
    REFIN_CR08_4 OBJ -3.0
    REFIN_CR08_4 NAPBAL_CR08_4 -1.0
    REFIN_CR08_4 REFCAP_4 1.0
    REFIN_CR08_4 REFY_4 -0.85
    NAPGAS_CR08_4 NAPBAL_CR08_4 -1.0
    NAPGAS_CR08_4 GASBAL_4 -1.0
    NAPGAS_CR08_4 GASRON_4 -31.236267605063702
    REFIN_CR09_4 OBJ -3.0
    REFIN_CR09_4 NAPBAL_CR09_4 -1.0
    REFIN_CR09_4 REFCAP_4 1.0
    REFIN_CR09_4 REFY_4 -0.85
    NAPGAS_CR09_4 NAPBAL_CR09_4 -1.0
    NAPGAS_CR09_4 GASBAL_4 -1.0
    NAPGAS_CR09_4 GASRON_4 -29.9151768258086
    REFIN_CR10_4 OBJ -3.0
    REFIN_CR10_4 NAPBAL_CR10_4 -1.0
    REFIN_CR10_4 REFCAP_4 1.0
    REFIN_CR10_4 REFY_4 -0.85
    NAPGAS_CR10_4 NAPBAL_CR10_4 -1.0
    NAPGAS_CR10_4 GASBAL_4 -1.0
    NAPGAS_CR10_4 GASRON_4 -38.641707010486826
    REFIN_CR11_4 OBJ -3.0
    REFIN_CR11_4 NAPBAL_CR11_4 -1.0
    REFIN_CR11_4 REFCAP_4 1.0
    REFIN_CR11_4 REFY_4 -0.85
    NAPGAS_CR11_4 NAPBAL_CR11_4 -1.0
    NAPGAS_CR11_4 GASBAL_4 -1.0
    NAPGAS_CR11_4 GASRON_4 -31.364398664025877
    REFIN_CR12_4 OBJ -3.0
    REFIN_CR12_4 NAPBAL_CR12_4 -1.0
    REFIN_CR12_4 REFCAP_4 1.0
    REFIN_CR12_4 REFY_4 -0.85
    NAPGAS_CR12_4 NAPBAL_CR12_4 -1.0
    NAPGAS_CR12_4 GASBAL_4 -1.0
    NAPGAS_CR12_4 GASRON_4 -36.44295305412478
    REFIN_CR13_4 OBJ -3.0
    REFIN_CR13_4 NAPBAL_CR13_4 -1.0
    REFIN_CR13_4 REFCAP_4 1.0
    REFIN_CR13_4 REFY_4 -0.85
    NAPGAS_CR13_4 NAPBAL_CR13_4 -1.0
    NAPGAS_CR13_4 GASBAL_4 -1.0
    NAPGAS_CR13_4 GASRON_4 -36.368722409916884
    REFIN_CR14_4 OBJ -3.0
    REFIN_CR14_4 NAPBAL_CR14_4 -1.0
    REFIN_CR14_4 REFCAP_4 1.0
    REFIN_CR14_4 REFY_4 -0.85
    NAPGAS_CR14_4 NAPBAL_CR14_4 -1.0
    NAPGAS_CR14_4 GASBAL_4 -1.0
    NAPGAS_CR14_4 GASRON_4 -37.837781635780814
    REFIN_CR15_4 OBJ -3.0
    REFIN_CR15_4 NAPBAL_CR15_4 -1.0
    REFIN_CR15_4 REFCAP_4 1.0
    REFIN_CR15_4 REFY_4 -0.85
    NAPGAS_CR15_4 NAPBAL_CR15_4 -1.0
    NAPGAS_CR15_4 GASBAL_4 -1.0
    NAPGAS_CR15_4 GASRON_4 -36.91743369949054
    REFIN_CR16_4 OBJ -3.0
    REFIN_CR16_4 NAPBAL_CR16_4 -1.0
    REFIN_CR16_4 REFCAP_4 1.0
    REFIN_CR16_4 REFY_4 -0.85
    NAPGAS_CR16_4 NAPBAL_CR16_4 -1.0
    NAPGAS_CR16_4 GASBAL_4 -1.0
    NAPGAS_CR16_4 GASRON_4 -32.43244486749426
    REFIN_CR17_4 OBJ -3.0
    REFIN_CR17_4 NAPBAL_CR17_4 -1.0
    REFIN_CR17_4 REFCAP_4 1.0
    REFIN_CR17_4 REFY_4 -0.85
    NAPGAS_CR17_4 NAPBAL_CR17_4 -1.0
    NAPGAS_CR17_4 GASBAL_4 -1.0
    NAPGAS_CR17_4 GASRON_4 -32.30218201355821
    REFIN_CR18_4 OBJ -3.0
    REFIN_CR18_4 NAPBAL_CR18_4 -1.0
    REFIN_CR18_4 REFCAP_4 1.0
    REFIN_CR18_4 REFY_4 -0.85
    NAPGAS_CR18_4 NAPBAL_CR18_4 -1.0
    NAPGAS_CR18_4 GASBAL_4 -1.0
    NAPGAS_CR18_4 GASRON_4 -30.280860643235343
    REFIN_CR19_4 OBJ -3.0
    REFIN_CR19_4 NAPBAL_CR19_4 -1.0
    REFIN_CR19_4 REFCAP_4 1.0
    REFIN_CR19_4 REFY_4 -0.85
    NAPGAS_CR19_4 NAPBAL_CR19_4 -1.0
    NAPGAS_CR19_4 GASBAL_4 -1.0
    NAPGAS_CR19_4 GASRON_4 -35.8435432887995
    REFORMATE_4 REFY_4 1.0
    REFORMATE_4 GASBAL_4 -1.0
    REFORMATE_4 GASRON_4 7.0
    DHTIN_CR00_4 OBJ -2.0
    DHTIN_CR00_4 DSLBAL_CR00_4 -1.0
    DHTIN_CR00_4 DHTCAP_4 1.0
    DHTIN_CR00_4 DHTY_4 -0.98
    DSLDIR_CR00_4 DSLBAL_CR00_4 -1.0
    DSLDIR_CR00_4 DSLPB_4 -1.0
    DSLDIR_CR00_4 DSLSUL_4 1.5862267507032528
    DHTIN_CR01_4 OBJ -2.0
    DHTIN_CR01_4 DSLBAL_CR01_4 -1.0
    DHTIN_CR01_4 DHTCAP_4 1.0
    DHTIN_CR01_4 DHTY_4 -0.98
    DSLDIR_CR01_4 DSLBAL_CR01_4 -1.0
    DSLDIR_CR01_4 DSLPB_4 -1.0
    DSLDIR_CR01_4 DSLSUL_4 0.8149467463033994
    DHTIN_CR02_4 OBJ -2.0
    DHTIN_CR02_4 DSLBAL_CR02_4 -1.0
    DHTIN_CR02_4 DHTCAP_4 1.0
    DHTIN_CR02_4 DHTY_4 -0.98
    DSLDIR_CR02_4 DSLBAL_CR02_4 -1.0
    DSLDIR_CR02_4 DSLPB_4 -1.0
    DSLDIR_CR02_4 DSLSUL_4 1.0170271993959037
    DHTIN_CR03_4 OBJ -2.0
    DHTIN_CR03_4 DSLBAL_CR03_4 -1.0
    DHTIN_CR03_4 DHTCAP_4 1.0
    DHTIN_CR03_4 DHTY_4 -0.98
    DSLDIR_CR03_4 DSLBAL_CR03_4 -1.0
    DSLDIR_CR03_4 DSLPB_4 -1.0
    DSLDIR_CR03_4 DSLSUL_4 0.4394117672662308
    DHTIN_CR04_4 OBJ -2.0
    DHTIN_CR04_4 DSLBAL_CR04_4 -1.0
    DHTIN_CR04_4 DHTCAP_4 1.0
    DHTIN_CR04_4 DHTY_4 -0.98
    DSLDIR_CR04_4 DSLBAL_CR04_4 -1.0
    DSLDIR_CR04_4 DSLPB_4 -1.0
    DSLDIR_CR04_4 DSLSUL_4 1.6095005435592393
    DHTIN_CR05_4 OBJ -2.0
    DHTIN_CR05_4 DSLBAL_CR05_4 -1.0
    DHTIN_CR05_4 DHTCAP_4 1.0
    DHTIN_CR05_4 DHTY_4 -0.98
    DSLDIR_CR05_4 DSLBAL_CR05_4 -1.0
    DSLDIR_CR05_4 DSLPB_4 -1.0
    DSLDIR_CR05_4 DSLSUL_4 1.1028999274270206
    DHTIN_CR06_4 OBJ -2.0
    DHTIN_CR06_4 DSLBAL_CR06_4 -1.0
    DHTIN_CR06_4 DHTCAP_4 1.0
    DHTIN_CR06_4 DHTY_4 -0.98
    DSLDIR_CR06_4 DSLBAL_CR06_4 -1.0
    DSLDIR_CR06_4 DSLPB_4 -1.0
    DSLDIR_CR06_4 DSLSUL_4 1.0307656961819645
    DHTIN_CR07_4 OBJ -2.0
    DHTIN_CR07_4 DSLBAL_CR07_4 -1.0
    DHTIN_CR07_4 DHTCAP_4 1.0
    DHTIN_CR07_4 DHTY_4 -0.98
    DSLDIR_CR07_4 DSLBAL_CR07_4 -1.0
    DSLDIR_CR07_4 DSLPB_4 -1.0
    DSLDIR_CR07_4 DSLSUL_4 0.06500943297844713
    DHTIN_CR08_4 OBJ -2.0
    DHTIN_CR08_4 DSLBAL_CR08_4 -1.0
    DHTIN_CR08_4 DHTCAP_4 1.0
    DHTIN_CR08_4 DHTY_4 -0.98
    DSLDIR_CR08_4 DSLBAL_CR08_4 -1.0
    DSLDIR_CR08_4 DSLPB_4 -1.0
    DSLDIR_CR08_4 DSLSUL_4 1.0136884541165885
    DHTIN_CR09_4 OBJ -2.0
    DHTIN_CR09_4 DSLBAL_CR09_4 -1.0
    DHTIN_CR09_4 DHTCAP_4 1.0
    DHTIN_CR09_4 DHTY_4 -0.98
    DSLDIR_CR09_4 DSLBAL_CR09_4 -1.0
    DSLDIR_CR09_4 DSLPB_4 -1.0
    DSLDIR_CR09_4 DSLSUL_4 0.020618980777730833
    DHTIN_CR10_4 OBJ -2.0
    DHTIN_CR10_4 DSLBAL_CR10_4 -1.0
    DHTIN_CR10_4 DHTCAP_4 1.0
    DHTIN_CR10_4 DHTY_4 -0.98
    DSLDIR_CR10_4 DSLBAL_CR10_4 -1.0
    DSLDIR_CR10_4 DSLPB_4 -1.0
    DSLDIR_CR10_4 DSLSUL_4 1.62821888862855
    DHTIN_CR11_4 OBJ -2.0
    DHTIN_CR11_4 DSLBAL_CR11_4 -1.0
    DHTIN_CR11_4 DHTCAP_4 1.0
    DHTIN_CR11_4 DHTY_4 -0.98
    DSLDIR_CR11_4 DSLBAL_CR11_4 -1.0
    DSLDIR_CR11_4 DSLPB_4 -1.0
    DSLDIR_CR11_4 DSLSUL_4 0.8621530481854874
    DHTIN_CR12_4 OBJ -2.0
    DHTIN_CR12_4 DSLBAL_CR12_4 -1.0
    DHTIN_CR12_4 DHTCAP_4 1.0
    DHTIN_CR12_4 DHTY_4 -0.98
    DSLDIR_CR12_4 DSLBAL_CR12_4 -1.0
    DSLDIR_CR12_4 DSLPB_4 -1.0
    DSLDIR_CR12_4 DSLSUL_4 1.5756453880298185
    DHTIN_CR13_4 OBJ -2.0
    DHTIN_CR13_4 DSLBAL_CR13_4 -1.0
    DHTIN_CR13_4 DHTCAP_4 1.0
    DHTIN_CR13_4 DHTY_4 -0.98
    DSLDIR_CR13_4 DSLBAL_CR13_4 -1.0
    DSLDIR_CR13_4 DSLPB_4 -1.0
    DSLDIR_CR13_4 DSLSUL_4 0.13929860406737604
    DHTIN_CR14_4 OBJ -2.0
    DHTIN_CR14_4 DSLBAL_CR14_4 -1.0
    DHTIN_CR14_4 DHTCAP_4 1.0
    DHTIN_CR14_4 DHTY_4 -0.98
    DSLDIR_CR14_4 DSLBAL_CR14_4 -1.0
    DSLDIR_CR14_4 DSLPB_4 -1.0
    DSLDIR_CR14_4 DSLSUL_4 0.7289962148563339
    DHTIN_CR15_4 OBJ -2.0
    DHTIN_CR15_4 DSLBAL_CR15_4 -1.0
    DHTIN_CR15_4 DHTCAP_4 1.0
    DHTIN_CR15_4 DHTY_4 -0.98
    DSLDIR_CR15_4 DSLBAL_CR15_4 -1.0
    DSLDIR_CR15_4 DSLPB_4 -1.0
    DSLDIR_CR15_4 DSLSUL_4 0.0432280087396993
    DHTIN_CR16_4 OBJ -2.0
    DHTIN_CR16_4 DSLBAL_CR16_4 -1.0
    DHTIN_CR16_4 DHTCAP_4 1.0
    DHTIN_CR16_4 DHTY_4 -0.98
    DSLDIR_CR16_4 DSLBAL_CR16_4 -1.0
    DSLDIR_CR16_4 DSLPB_4 -1.0
    DSLDIR_CR16_4 DSLSUL_4 0.970875101525871
    DHTIN_CR17_4 OBJ -2.0
    DHTIN_CR17_4 DSLBAL_CR17_4 -1.0
    DHTIN_CR17_4 DHTCAP_4 1.0
    DHTIN_CR17_4 DHTY_4 -0.98
    DSLDIR_CR17_4 DSLBAL_CR17_4 -1.0
    DSLDIR_CR17_4 DSLPB_4 -1.0
    DSLDIR_CR17_4 DSLSUL_4 1.6384936942773962
    DHTIN_CR18_4 OBJ -2.0
    DHTIN_CR18_4 DSLBAL_CR18_4 -1.0
    DHTIN_CR18_4 DHTCAP_4 1.0
    DHTIN_CR18_4 DHTY_4 -0.98
    DSLDIR_CR18_4 DSLBAL_CR18_4 -1.0
    DSLDIR_CR18_4 DSLPB_4 -1.0
    DSLDIR_CR18_4 DSLSUL_4 0.08052474691335985
    DHTIN_CR19_4 OBJ -2.0
    DHTIN_CR19_4 DSLBAL_CR19_4 -1.0
    DHTIN_CR19_4 DHTCAP_4 1.0
    DHTIN_CR19_4 DHTY_4 -0.98
    DSLDIR_CR19_4 DSLBAL_CR19_4 -1.0
    DSLDIR_CR19_4 DSLPB_4 -1.0
    DSLDIR_CR19_4 DSLSUL_4 0.6552914452864763
    LCODHT_4 LCOBAL_4 -1.0
    LCODHT_4 DHTCAP_4 1.0
    LCODHT_4 DHTY_4 -0.95
    LCOFO_4 LCOBAL_4 -1.0
    LCOFO_4 FOBAL_4 -1.0
    LCOFO_4 FOSUL_4 -2.5
    ULSD_4 DHTY_4 1.0
    ULSD_4 DSLPB_4 -1.0
    ULSD_4 DSLSUL_4 -0.049
    SELL_LPG_4 OBJ 59.76313972081441
    SELL_LPG_4 PBAL_LPG_4 -1.0
    SELL_LPG_4 DMAX_LPG_4 1.0
    SELL_LPG_4 DMIN_LPG_4 1.0
    SELL_GAS_4 OBJ 114.0932667397366
    SELL_GAS_4 PBAL_GAS_4 -1.0
    SELL_GAS_4 DMAX_GAS_4 1.0
    SELL_GAS_4 DMIN_GAS_4 1.0
    SELL_JET_4 OBJ 108.66025403784438
    SELL_JET_4 PBAL_JET_4 -1.0
    SELL_JET_4 DMAX_JET_4 1.0
    SELL_JET_4 DMIN_JET_4 1.0
    SELL_DSL_4 OBJ 106.4870489570875
    SELL_DSL_4 PBAL_DSL_4 -1.0
    SELL_DSL_4 DMAX_DSL_4 1.0
    SELL_DSL_4 DMIN_DSL_4 1.0
    SELL_FO_4 OBJ 65.19615242270663
    SELL_FO_4 PBAL_FO_4 -1.0
    SELL_FO_4 DMAX_FO_4 1.0
    SELL_FO_4 DMIN_FO_4 1.0
    PINV_LPG_4 OBJ -0.5
    PINV_LPG_4 PBAL_LPG_4 -1.0
    PINV_LPG_4 PBAL_LPG_5 1.0
    PINV_GAS_4 OBJ -0.5
    PINV_GAS_4 PBAL_GAS_4 -1.0
    PINV_GAS_4 PBAL_GAS_5 1.0
    PINV_JET_4 OBJ -0.5
    PINV_JET_4 PBAL_JET_4 -1.0
    PINV_JET_4 PBAL_JET_5 1.0
    PINV_DSL_4 OBJ -0.5
    PINV_DSL_4 PBAL_DSL_4 -1.0
    PINV_DSL_4 PBAL_DSL_5 1.0
    PINV_FO_4 OBJ -0.5
    PINV_FO_4 PBAL_FO_4 -1.0
    PINV_FO_4 PBAL_FO_5 1.0
    SHORT_LPG_4 OBJ -400.0
    SHORT_LPG_4 DMIN_LPG_4 1.0
    SHORT_GAS_4 OBJ -400.0
    SHORT_GAS_4 DMIN_GAS_4 1.0
    SHORT_JET_4 OBJ -400.0
    SHORT_JET_4 DMIN_JET_4 1.0
    SHORT_DSL_4 OBJ -400.0
    SHORT_DSL_4 DMIN_DSL_4 1.0
    SHORT_FO_4 OBJ -400.0
    SHORT_FO_4 DMIN_FO_4 1.0
    GASPOOL_4 GASBAL_4 1.0
    GASPOOL_4 PBAL_GAS_4 1.0
    JETPOOL_4 JETBAL_4 1.0
    JETPOOL_4 PBAL_JET_4 1.0
    KERJET_CR00_4 KERBAL_CR00_4 -1.0
    KERJET_CR00_4 JETBAL_4 -1.0
    KERJET_CR00_4 JETSUL_4 0.10905668767581322
    KERDSL_CR00_4 KERBAL_CR00_4 -1.0
    KERDSL_CR00_4 DSLPB_4 -1.0
    KERDSL_CR00_4 DSLSUL_4 0.3590566876758132
    KERJET_CR01_4 KERBAL_CR01_4 -1.0
    KERJET_CR01_4 JETBAL_4 -1.0
    KERJET_CR01_4 JETSUL_4 -0.08376331342415014
    KERDSL_CR01_4 KERBAL_CR01_4 -1.0
    KERDSL_CR01_4 DSLPB_4 -1.0
    KERDSL_CR01_4 DSLSUL_4 0.16623668657584983
    KERJET_CR02_4 KERBAL_CR02_4 -1.0
    KERJET_CR02_4 JETBAL_4 -1.0
    KERJET_CR02_4 JETSUL_4 -0.033243200151024055
    KERDSL_CR02_4 KERBAL_CR02_4 -1.0
    KERDSL_CR02_4 DSLPB_4 -1.0
    KERDSL_CR02_4 DSLSUL_4 0.21675679984897595
    KERJET_CR03_4 KERBAL_CR03_4 -1.0
    KERJET_CR03_4 JETBAL_4 -1.0
    KERJET_CR03_4 JETSUL_4 -0.17764705818344229
    KERDSL_CR03_4 KERBAL_CR03_4 -1.0
    KERDSL_CR03_4 DSLPB_4 -1.0
    KERDSL_CR03_4 DSLSUL_4 0.0723529418165577
    KERJET_CR04_4 KERBAL_CR04_4 -1.0
    KERJET_CR04_4 JETBAL_4 -1.0
    KERJET_CR04_4 JETSUL_4 0.11487513588980985
    KERDSL_CR04_4 KERBAL_CR04_4 -1.0
    KERDSL_CR04_4 DSLPB_4 -1.0
    KERDSL_CR04_4 DSLSUL_4 0.36487513588980985
    KERJET_CR05_4 KERBAL_CR05_4 -1.0
    KERJET_CR05_4 JETBAL_4 -1.0
    KERJET_CR05_4 JETSUL_4 -0.011775018143244831
    KERDSL_CR05_4 KERBAL_CR05_4 -1.0
    KERDSL_CR05_4 DSLPB_4 -1.0
    KERDSL_CR05_4 DSLSUL_4 0.23822498185675517
    KERJET_CR06_4 KERBAL_CR06_4 -1.0
    KERJET_CR06_4 JETBAL_4 -1.0
    KERJET_CR06_4 JETSUL_4 -0.029808575954508865
    KERDSL_CR06_4 KERBAL_CR06_4 -1.0
    KERDSL_CR06_4 DSLPB_4 -1.0
    KERDSL_CR06_4 DSLSUL_4 0.22019142404549114
    KERJET_CR07_4 KERBAL_CR07_4 -1.0
    KERJET_CR07_4 JETBAL_4 -1.0
    KERJET_CR07_4 JETSUL_4 -0.2712476417553882
    KERDSL_CR07_4 KERBAL_CR07_4 -1.0
    KERDSL_CR07_4 DSLPB_4 -1.0
    KERDSL_CR07_4 DSLSUL_4 -0.02124764175538822
    KERJET_CR08_4 KERBAL_CR08_4 -1.0
    KERJET_CR08_4 JETBAL_4 -1.0
    KERJET_CR08_4 JETSUL_4 -0.03407788647085286
    KERDSL_CR08_4 KERBAL_CR08_4 -1.0
    KERDSL_CR08_4 DSLPB_4 -1.0
    KERDSL_CR08_4 DSLSUL_4 0.21592211352914714
    KERJET_CR09_4 KERBAL_CR09_4 -1.0
    KERJET_CR09_4 JETBAL_4 -1.0
    KERJET_CR09_4 JETSUL_4 -0.28234525480556727
    KERDSL_CR09_4 KERBAL_CR09_4 -1.0
    KERDSL_CR09_4 DSLPB_4 -1.0
    KERDSL_CR09_4 DSLSUL_4 -0.0323452548055673
    KERJET_CR10_4 KERBAL_CR10_4 -1.0
    KERJET_CR10_4 JETBAL_4 -1.0
    KERJET_CR10_4 JETSUL_4 0.11955472215713753
    KERDSL_CR10_4 KERBAL_CR10_4 -1.0
    KERDSL_CR10_4 DSLPB_4 -1.0
    KERDSL_CR10_4 DSLSUL_4 0.3695547221571375
    KERJET_CR11_4 KERBAL_CR11_4 -1.0
    KERJET_CR11_4 JETBAL_4 -1.0
    KERJET_CR11_4 JETSUL_4 -0.07196173795362812
    KERDSL_CR11_4 KERBAL_CR11_4 -1.0
    KERDSL_CR11_4 DSLPB_4 -1.0
    KERDSL_CR11_4 DSLSUL_4 0.17803826204637185
    KERJET_CR12_4 KERBAL_CR12_4 -1.0
    KERJET_CR12_4 JETBAL_4 -1.0
    KERJET_CR12_4 JETSUL_4 0.10641134700745464
    KERDSL_CR12_4 KERBAL_CR12_4 -1.0
    KERDSL_CR12_4 DSLPB_4 -1.0
    KERDSL_CR12_4 DSLSUL_4 0.35641134700745464
    KERJET_CR13_4 KERBAL_CR13_4 -1.0
    KERJET_CR13_4 JETBAL_4 -1.0
    KERJET_CR13_4 JETSUL_4 -0.25267534898315597
    KERDSL_CR13_4 KERBAL_CR13_4 -1.0
    KERDSL_CR13_4 DSLPB_4 -1.0
    KERDSL_CR13_4 DSLSUL_4 -0.002675348983155995
    KERJET_CR14_4 KERBAL_CR14_4 -1.0
    KERJET_CR14_4 JETBAL_4 -1.0
    KERJET_CR14_4 JETSUL_4 -0.1052509462859165
    KERDSL_CR14_4 KERBAL_CR14_4 -1.0
    KERDSL_CR14_4 DSLPB_4 -1.0
    KERDSL_CR14_4 DSLSUL_4 0.14474905371408348
    KERJET_CR15_4 KERBAL_CR15_4 -1.0
    KERJET_CR15_4 JETBAL_4 -1.0
    KERJET_CR15_4 JETSUL_4 -0.27669299781507517
    KERDSL_CR15_4 KERBAL_CR15_4 -1.0
    KERDSL_CR15_4 DSLPB_4 -1.0
    KERDSL_CR15_4 DSLSUL_4 -0.026692997815075177
    KERJET_CR16_4 KERBAL_CR16_4 -1.0
    KERJET_CR16_4 JETBAL_4 -1.0
    KERJET_CR16_4 JETSUL_4 -0.044781224618532234
    KERDSL_CR16_4 KERBAL_CR16_4 -1.0
    KERDSL_CR16_4 DSLPB_4 -1.0
    KERDSL_CR16_4 DSLSUL_4 0.20521877538146777
    KERJET_CR17_4 KERBAL_CR17_4 -1.0
    KERJET_CR17_4 JETBAL_4 -1.0
    KERJET_CR17_4 JETSUL_4 0.12212342356934908
    KERDSL_CR17_4 KERBAL_CR17_4 -1.0
    KERDSL_CR17_4 DSLPB_4 -1.0
    KERDSL_CR17_4 DSLSUL_4 0.3721234235693491
    KERJET_CR18_4 KERBAL_CR18_4 -1.0
    KERJET_CR18_4 JETBAL_4 -1.0
    KERJET_CR18_4 JETSUL_4 -0.26736881327166
    KERDSL_CR18_4 KERBAL_CR18_4 -1.0
    KERDSL_CR18_4 DSLPB_4 -1.0
    KERDSL_CR18_4 DSLSUL_4 -0.01736881327166004
    KERJET_CR19_4 KERBAL_CR19_4 -1.0
    KERJET_CR19_4 JETBAL_4 -1.0
    KERJET_CR19_4 JETSUL_4 -0.1236771386783809
    KERDSL_CR19_4 KERBAL_CR19_4 -1.0
    KERDSL_CR19_4 DSLPB_4 -1.0
    KERDSL_CR19_4 DSLSUL_4 0.12632286132161907
    DSLPOOL_4 DSLPB_4 1.0
    DSLPOOL_4 PBAL_DSL_4 1.0
    LPGPOOL_4 LPGBAL_4 1.0
    LPGPOOL_4 PBAL_LPG_4 1.0
    FOPOOL_4 FOBAL_4 1.0
    FOPOOL_4 PBAL_FO_4 1.0
    BUY_CR00_5 OBJ -57.29103915047903
    BUY_CR00_5 CBAL_CR00_5 1.0
    CINV_CR00_5 OBJ -0.3
    CINV_CR00_5 CBAL_CR00_5 -1.0
    CINV_CR00_5 CBAL_CR00_6 1.0
    CDU_CR00_5 CBAL_CR00_5 -1.0
    CDU_CR00_5 CDUCAP_5 1.0
    CDU_CR00_5 YLPG_CR00_5 -0.013786055933968056
    CDU_CR00_5 YNAP_CR00_5 -0.1214444916358349
    CDU_CR00_5 YKER_CR00_5 -0.10646372452567733
    CDU_CR00_5 YDSL_CR00_5 -0.20292085263352289
    CDU_CR00_5 YVGO_CR00_5 -0.27390944719057636
    CDU_CR00_5 YRES_CR00_5 -0.28147542808042036
    BUY_CR01_5 OBJ -74.18969269287703
    BUY_CR01_5 CBAL_CR01_5 1.0
    CINV_CR01_5 OBJ -0.3
    CINV_CR01_5 CBAL_CR01_5 -1.0
    CINV_CR01_5 CBAL_CR01_6 1.0
    CDU_CR01_5 CBAL_CR01_5 -1.0
    CDU_CR01_5 CDUCAP_5 1.0
    CDU_CR01_5 YLPG_CR01_5 -0.025127543584387436
    CDU_CR01_5 YNAP_CR01_5 -0.2025917905849106
    CDU_CR01_5 YKER_CR01_5 -0.13410952106049506
    CDU_CR01_5 YDSL_CR01_5 -0.24728591651278542
    CDU_CR01_5 YVGO_CR01_5 -0.22897185950088417
    CDU_CR01_5 YRES_CR01_5 -0.16191336875653717
    BUY_CR02_5 OBJ -61.35282075487105
    BUY_CR02_5 CBAL_CR02_5 1.0
    CINV_CR02_5 OBJ -0.3
    CINV_CR02_5 CBAL_CR02_5 -1.0
    CINV_CR02_5 CBAL_CR02_6 1.0
    CDU_CR02_5 CBAL_CR02_5 -1.0
    CDU_CR02_5 CDUCAP_5 1.0
    CDU_CR02_5 YLPG_CR02_5 -0.013444753666275039
    CDU_CR02_5 YNAP_CR02_5 -0.11889710072836579
    CDU_CR02_5 YKER_CR02_5 -0.103840437143255
    CDU_CR02_5 YDSL_CR02_5 -0.21229612809407214
    CDU_CR02_5 YVGO_CR02_5 -0.2628713956905896
    CDU_CR02_5 YRES_CR02_5 -0.28865018467744247
    BUY_CR03_5 OBJ -66.61176296248829
    BUY_CR03_5 CBAL_CR03_5 1.0
    CINV_CR03_5 OBJ -0.3
    CINV_CR03_5 CBAL_CR03_5 -1.0
    CINV_CR03_5 CBAL_CR03_6 1.0
    CDU_CR03_5 CBAL_CR03_5 -1.0
    CDU_CR03_5 CDUCAP_5 1.0
    CDU_CR03_5 YLPG_CR03_5 -0.01400858068810675
    CDU_CR03_5 YNAP_CR03_5 -0.1424923117986131
    CDU_CR03_5 YKER_CR03_5 -0.10784088582669263
    CDU_CR03_5 YDSL_CR03_5 -0.19279120630762445
    CDU_CR03_5 YVGO_CR03_5 -0.28544626211923063
    CDU_CR03_5 YRES_CR03_5 -0.2574207532597324
    BUY_CR04_5 OBJ -71.76000875415637
    BUY_CR04_5 CBAL_CR04_5 1.0
    CINV_CR04_5 OBJ -0.3
    CINV_CR04_5 CBAL_CR04_5 -1.0
    CINV_CR04_5 CBAL_CR04_6 1.0
    CDU_CR04_5 CBAL_CR04_5 -1.0
    CDU_CR04_5 CDUCAP_5 1.0
    CDU_CR04_5 YLPG_CR04_5 -0.02335213093765316
    CDU_CR04_5 YNAP_CR04_5 -0.2292355396921612
    CDU_CR04_5 YKER_CR04_5 -0.14240695851543803
    CDU_CR04_5 YDSL_CR04_5 -0.24384363627499198
    CDU_CR04_5 YVGO_CR04_5 -0.2465326974706559
    CDU_CR04_5 YRES_CR04_5 -0.1146290371090997
    BUY_CR05_5 OBJ -65.76897555233654
    BUY_CR05_5 CBAL_CR05_5 1.0
    CINV_CR05_5 OBJ -0.3
    CINV_CR05_5 CBAL_CR05_5 -1.0
    CINV_CR05_5 CBAL_CR05_6 1.0
    CDU_CR05_5 CBAL_CR05_5 -1.0
    CDU_CR05_5 CDUCAP_5 1.0
    CDU_CR05_5 YLPG_CR05_5 -0.01735729802728813
    CDU_CR05_5 YNAP_CR05_5 -0.16608619710065003
    CDU_CR05_5 YKER_CR05_5 -0.1170544437563835
    CDU_CR05_5 YDSL_CR05_5 -0.22299235889970878
    CDU_CR05_5 YVGO_CR05_5 -0.2433490540516293
    CDU_CR05_5 YRES_CR05_5 -0.23316064816434035
    BUY_CR06_5 OBJ -62.40912476431232
    BUY_CR06_5 CBAL_CR06_5 1.0
    CINV_CR06_5 OBJ -0.3
    CINV_CR06_5 CBAL_CR06_5 -1.0
    CINV_CR06_5 CBAL_CR06_6 1.0
    CDU_CR06_5 CBAL_CR06_5 -1.0
    CDU_CR06_5 CDUCAP_5 1.0
    CDU_CR06_5 YLPG_CR06_5 -0.014219474855875663
    CDU_CR06_5 YNAP_CR06_5 -0.13746806025500902
    CDU_CR06_5 YKER_CR06_5 -0.10533897185985656
    CDU_CR06_5 YDSL_CR06_5 -0.20403840195434858
    CDU_CR06_5 YVGO_CR06_5 -0.26484358994429863
    CDU_CR06_5 YRES_CR06_5 -0.27409150113061165
    BUY_CR07_5 OBJ -71.65161113539658
    BUY_CR07_5 CBAL_CR07_5 1.0
    CINV_CR07_5 OBJ -0.3
    CINV_CR07_5 CBAL_CR07_5 -1.0
    CINV_CR07_5 CBAL_CR07_6 1.0
    CDU_CR07_5 CBAL_CR07_5 -1.0
    CDU_CR07_5 CDUCAP_5 1.0
    CDU_CR07_5 YLPG_CR07_5 -0.01678766142162217
    CDU_CR07_5 YNAP_CR07_5 -0.18341674311422207
    CDU_CR07_5 YKER_CR07_5 -0.13271469159016522
    CDU_CR07_5 YDSL_CR07_5 -0.2249127244045356
    CDU_CR07_5 YVGO_CR07_5 -0.24848613807316539
    CDU_CR07_5 YRES_CR07_5 -0.19368204139628944
    BUY_CR08_5 OBJ -69.85781927304771
    BUY_CR08_5 CBAL_CR08_5 1.0
    CINV_CR08_5 OBJ -0.3
    CINV_CR08_5 CBAL_CR08_5 -1.0
    CINV_CR08_5 CBAL_CR08_6 1.0
    CDU_CR08_5 CBAL_CR08_5 -1.0
    CDU_CR08_5 CDUCAP_5 1.0
    CDU_CR08_5 YLPG_CR08_5 -0.023930881960770135
    CDU_CR08_5 YNAP_CR08_5 -0.199474063989656
    CDU_CR08_5 YKER_CR08_5 -0.13012967624359006
    CDU_CR08_5 YDSL_CR08_5 -0.24906213509239003
    CDU_CR08_5 YVGO_CR08_5 -0.24247509330512357
    CDU_CR08_5 YRES_CR08_5 -0.15492814940847022
    BUY_CR09_5 OBJ -77.93656527312037
    BUY_CR09_5 CBAL_CR09_5 1.0
    CINV_CR09_5 OBJ -0.3
    CINV_CR09_5 CBAL_CR09_5 -1.0
    CINV_CR09_5 CBAL_CR09_6 1.0
    CDU_CR09_5 CBAL_CR09_5 -1.0
    CDU_CR09_5 CDUCAP_5 1.0
    CDU_CR09_5 YLPG_CR09_5 -0.0254414593142613
    CDU_CR09_5 YNAP_CR09_5 -0.2406668892422991
    CDU_CR09_5 YKER_CR09_5 -0.14150533274546892
    CDU_CR09_5 YDSL_CR09_5 -0.23713673044274025
    CDU_CR09_5 YVGO_CR09_5 -0.23566730460149374
    CDU_CR09_5 YRES_CR09_5 -0.11958228365373665
    BUY_CR10_5 OBJ -58.34595023733242
    BUY_CR10_5 CBAL_CR10_5 1.0
    CINV_CR10_5 OBJ -0.3
    CINV_CR10_5 CBAL_CR10_5 -1.0
    CINV_CR10_5 CBAL_CR10_6 1.0
    CDU_CR10_5 CBAL_CR10_5 -1.0
    CDU_CR10_5 CDUCAP_5 1.0
    CDU_CR10_5 YLPG_CR10_5 -0.012631058640766385
    CDU_CR10_5 YNAP_CR10_5 -0.11501159644639905
    CDU_CR10_5 YKER_CR10_5 -0.1080956731900355
    CDU_CR10_5 YDSL_CR10_5 -0.20982857494392457
    CDU_CR10_5 YVGO_CR10_5 -0.2722572086368098
    CDU_CR10_5 YRES_CR10_5 -0.28217588814206473
    BUY_CR11_5 OBJ -71.2486988209106
    BUY_CR11_5 CBAL_CR11_5 1.0
    CINV_CR11_5 OBJ -0.3
    CINV_CR11_5 CBAL_CR11_5 -1.0
    CINV_CR11_5 CBAL_CR11_6 1.0
    CDU_CR11_5 CBAL_CR11_5 -1.0
    CDU_CR11_5 CDUCAP_5 1.0
    CDU_CR11_5 YLPG_CR11_5 -0.018171926805686592
    CDU_CR11_5 YNAP_CR11_5 -0.18017303538659502
    CDU_CR11_5 YKER_CR11_5 -0.11622304467804759
    CDU_CR11_5 YDSL_CR11_5 -0.22678215323461023
    CDU_CR11_5 YVGO_CR11_5 -0.2637522217068048
    CDU_CR11_5 YRES_CR11_5 -0.19489761818825582
    BUY_CR12_5 OBJ -59.53757806415268
    BUY_CR12_5 CBAL_CR12_5 1.0
    CINV_CR12_5 OBJ -0.3
    CINV_CR12_5 CBAL_CR12_5 -1.0
    CINV_CR12_5 CBAL_CR12_6 1.0
    CDU_CR12_5 CBAL_CR12_5 -1.0
    CDU_CR12_5 CDUCAP_5 1.0
    CDU_CR12_5 YLPG_CR12_5 -0.016285402257558677
    CDU_CR12_5 YNAP_CR12_5 -0.1394251111460902
    CDU_CR12_5 YKER_CR12_5 -0.10627583407346515
    CDU_CR12_5 YDSL_CR12_5 -0.2004859030026821
    CDU_CR12_5 YVGO_CR12_5 -0.29053476615254664
    CDU_CR12_5 YRES_CR12_5 -0.2469929833676572
    BUY_CR13_5 OBJ -69.70898989527132
    BUY_CR13_5 CBAL_CR13_5 1.0
    CINV_CR13_5 OBJ -0.3
    CINV_CR13_5 CBAL_CR13_5 -1.0
    CINV_CR13_5 CBAL_CR13_6 1.0
    CDU_CR13_5 CBAL_CR13_5 -1.0
    CDU_CR13_5 CDUCAP_5 1.0
    CDU_CR13_5 YLPG_CR13_5 -0.015405562084299341
    CDU_CR13_5 YNAP_CR13_5 -0.1597372095049784
    CDU_CR13_5 YKER_CR13_5 -0.109230580221756
    CDU_CR13_5 YDSL_CR13_5 -0.20799117245133522
    CDU_CR13_5 YVGO_CR13_5 -0.2743070543343612
    CDU_CR13_5 YRES_CR13_5 -0.23332842140326976
    BUY_CR14_5 OBJ -62.49731001255874
    BUY_CR14_5 CBAL_CR14_5 1.0
    CINV_CR14_5 OBJ -0.3
    CINV_CR14_5 CBAL_CR14_5 -1.0
    CINV_CR14_5 CBAL_CR14_6 1.0
    CDU_CR14_5 CBAL_CR14_5 -1.0
    CDU_CR14_5 CDUCAP_5 1.0
    CDU_CR14_5 YLPG_CR14_5 -0.011676212845503672
    CDU_CR14_5 YNAP_CR14_5 -0.10963647957865116
    CDU_CR14_5 YKER_CR14_5 -0.09755861914812415
    CDU_CR14_5 YDSL_CR14_5 -0.22400035528460593
    CDU_CR14_5 YVGO_CR14_5 -0.27985390356413214
    CDU_CR14_5 YRES_CR14_5 -0.2772744295789829
    BUY_CR15_5 OBJ -64.69351847118928
    BUY_CR15_5 CBAL_CR15_5 1.0
    CINV_CR15_5 OBJ -0.3
    CINV_CR15_5 CBAL_CR15_5 -1.0
    CINV_CR15_5 CBAL_CR15_6 1.0
    CDU_CR15_5 CBAL_CR15_5 -1.0
    CDU_CR15_5 CDUCAP_5 1.0
    CDU_CR15_5 YLPG_CR15_5 -0.010625779986084445
    CDU_CR15_5 YNAP_CR15_5 -0.11766680402271243
    CDU_CR15_5 YKER_CR15_5 -0.09531893966264804
    CDU_CR15_5 YDSL_CR15_5 -0.2087175638151306
    CDU_CR15_5 YVGO_CR15_5 -0.2798835604956035
    CDU_CR15_5 YRES_CR15_5 -0.287787352017821
    BUY_CR16_5 OBJ -69.34718973398203
    BUY_CR16_5 CBAL_CR16_5 1.0
    CINV_CR16_5 OBJ -0.3
    CINV_CR16_5 CBAL_CR16_5 -1.0
    CINV_CR16_5 CBAL_CR16_6 1.0
    CDU_CR16_5 CBAL_CR16_5 -1.0
    CDU_CR16_5 CDUCAP_5 1.0
    CDU_CR16_5 YLPG_CR16_5 -0.021730435986974463
    CDU_CR16_5 YNAP_CR16_5 -0.22346814322949868
    CDU_CR16_5 YKER_CR16_5 -0.12962692092969477
    CDU_CR16_5 YDSL_CR16_5 -0.23580083169350696
    CDU_CR16_5 YVGO_CR16_5 -0.23197545191976185
    CDU_CR16_5 YRES_CR16_5 -0.1573982162405634
    BUY_CR17_5 OBJ -68.57698513134102
    BUY_CR17_5 CBAL_CR17_5 1.0
    CINV_CR17_5 OBJ -0.3
    CINV_CR17_5 CBAL_CR17_5 -1.0
    CINV_CR17_5 CBAL_CR17_6 1.0
    CDU_CR17_5 CBAL_CR17_5 -1.0
    CDU_CR17_5 CDUCAP_5 1.0
    CDU_CR17_5 YLPG_CR17_5 -0.023568928491133005
    CDU_CR17_5 YNAP_CR17_5 -0.24678008017283823
    CDU_CR17_5 YKER_CR17_5 -0.12826932733432603
    CDU_CR17_5 YDSL_CR17_5 -0.2495178182316694
    CDU_CR17_5 YVGO_CR17_5 -0.23510202280801157
    CDU_CR17_5 YRES_CR17_5 -0.1167618229620217
    BUY_CR18_5 OBJ -77.70646146641988
    BUY_CR18_5 CBAL_CR18_5 1.0
    CINV_CR18_5 OBJ -0.3
    CINV_CR18_5 CBAL_CR18_5 -1.0
    CINV_CR18_5 CBAL_CR18_6 1.0
    CDU_CR18_5 CBAL_CR18_5 -1.0
    CDU_CR18_5 CDUCAP_5 1.0
    CDU_CR18_5 YLPG_CR18_5 -0.02478422291723085
    CDU_CR18_5 YNAP_CR18_5 -0.23955258573301338
    CDU_CR18_5 YKER_CR18_5 -0.1322077813000583
    CDU_CR18_5 YDSL_CR18_5 -0.21167154879043004
    CDU_CR18_5 YVGO_CR18_5 -0.24506150244942554
    CDU_CR18_5 YRES_CR18_5 -0.146722358809842
    BUY_CR19_5 OBJ -65.99718310735555
    BUY_CR19_5 CBAL_CR19_5 1.0
    CINV_CR19_5 OBJ -0.3
    CINV_CR19_5 CBAL_CR19_5 -1.0
    CINV_CR19_5 CBAL_CR19_6 1.0
    CDU_CR19_5 CBAL_CR19_5 -1.0
    CDU_CR19_5 CDUCAP_5 1.0
    CDU_CR19_5 YLPG_CR19_5 -0.01626067739955701
    CDU_CR19_5 YNAP_CR19_5 -0.1715066574732045
    CDU_CR19_5 YKER_CR19_5 -0.11836465284470915
    CDU_CR19_5 YDSL_CR19_5 -0.20874443204167248
    CDU_CR19_5 YVGO_CR19_5 -0.2445178967491453
    CDU_CR19_5 YRES_CR19_5 -0.24060568349171155
    LPG_CR00_5 YLPG_CR00_5 1.0
    LPG_CR00_5 LPGBAL_5 -1.0
    NAP_CR00_5 YNAP_CR00_5 1.0
    NAP_CR00_5 NAPBAL_CR00_5 1.0
    KER_CR00_5 YKER_CR00_5 1.0
    KER_CR00_5 KERBAL_CR00_5 1.0
    DSL_CR00_5 YDSL_CR00_5 1.0
    DSL_CR00_5 DSLBAL_CR00_5 1.0
    VGO_CR00_5 YVGO_CR00_5 1.0
    VGO_CR00_5 VGOBAL_CR00_5 1.0
    RES_CR00_5 YRES_CR00_5 1.0
    RES_CR00_5 RESSPLIT_CR00_5 1.0
    LPG_CR01_5 YLPG_CR01_5 1.0
    LPG_CR01_5 LPGBAL_5 -1.0
    NAP_CR01_5 YNAP_CR01_5 1.0
    NAP_CR01_5 NAPBAL_CR01_5 1.0
    KER_CR01_5 YKER_CR01_5 1.0
    KER_CR01_5 KERBAL_CR01_5 1.0
    DSL_CR01_5 YDSL_CR01_5 1.0
    DSL_CR01_5 DSLBAL_CR01_5 1.0
    VGO_CR01_5 YVGO_CR01_5 1.0
    VGO_CR01_5 VGOBAL_CR01_5 1.0
    RES_CR01_5 YRES_CR01_5 1.0
    RES_CR01_5 RESSPLIT_CR01_5 1.0
    LPG_CR02_5 YLPG_CR02_5 1.0
    LPG_CR02_5 LPGBAL_5 -1.0
    NAP_CR02_5 YNAP_CR02_5 1.0
    NAP_CR02_5 NAPBAL_CR02_5 1.0
    KER_CR02_5 YKER_CR02_5 1.0
    KER_CR02_5 KERBAL_CR02_5 1.0
    DSL_CR02_5 YDSL_CR02_5 1.0
    DSL_CR02_5 DSLBAL_CR02_5 1.0
    VGO_CR02_5 YVGO_CR02_5 1.0
    VGO_CR02_5 VGOBAL_CR02_5 1.0
    RES_CR02_5 YRES_CR02_5 1.0
    RES_CR02_5 RESSPLIT_CR02_5 1.0
    LPG_CR03_5 YLPG_CR03_5 1.0
    LPG_CR03_5 LPGBAL_5 -1.0
    NAP_CR03_5 YNAP_CR03_5 1.0
    NAP_CR03_5 NAPBAL_CR03_5 1.0
    KER_CR03_5 YKER_CR03_5 1.0
    KER_CR03_5 KERBAL_CR03_5 1.0
    DSL_CR03_5 YDSL_CR03_5 1.0
    DSL_CR03_5 DSLBAL_CR03_5 1.0
    VGO_CR03_5 YVGO_CR03_5 1.0
    VGO_CR03_5 VGOBAL_CR03_5 1.0
    RES_CR03_5 YRES_CR03_5 1.0
    RES_CR03_5 RESSPLIT_CR03_5 1.0
    LPG_CR04_5 YLPG_CR04_5 1.0
    LPG_CR04_5 LPGBAL_5 -1.0
    NAP_CR04_5 YNAP_CR04_5 1.0
    NAP_CR04_5 NAPBAL_CR04_5 1.0
    KER_CR04_5 YKER_CR04_5 1.0
    KER_CR04_5 KERBAL_CR04_5 1.0
    DSL_CR04_5 YDSL_CR04_5 1.0
    DSL_CR04_5 DSLBAL_CR04_5 1.0
    VGO_CR04_5 YVGO_CR04_5 1.0
    VGO_CR04_5 VGOBAL_CR04_5 1.0
    RES_CR04_5 YRES_CR04_5 1.0
    RES_CR04_5 RESSPLIT_CR04_5 1.0
    LPG_CR05_5 YLPG_CR05_5 1.0
    LPG_CR05_5 LPGBAL_5 -1.0
    NAP_CR05_5 YNAP_CR05_5 1.0
    NAP_CR05_5 NAPBAL_CR05_5 1.0
    KER_CR05_5 YKER_CR05_5 1.0
    KER_CR05_5 KERBAL_CR05_5 1.0
    DSL_CR05_5 YDSL_CR05_5 1.0
    DSL_CR05_5 DSLBAL_CR05_5 1.0
    VGO_CR05_5 YVGO_CR05_5 1.0
    VGO_CR05_5 VGOBAL_CR05_5 1.0
    RES_CR05_5 YRES_CR05_5 1.0
    RES_CR05_5 RESSPLIT_CR05_5 1.0
    LPG_CR06_5 YLPG_CR06_5 1.0
    LPG_CR06_5 LPGBAL_5 -1.0
    NAP_CR06_5 YNAP_CR06_5 1.0
    NAP_CR06_5 NAPBAL_CR06_5 1.0
    KER_CR06_5 YKER_CR06_5 1.0
    KER_CR06_5 KERBAL_CR06_5 1.0
    DSL_CR06_5 YDSL_CR06_5 1.0
    DSL_CR06_5 DSLBAL_CR06_5 1.0
    VGO_CR06_5 YVGO_CR06_5 1.0
    VGO_CR06_5 VGOBAL_CR06_5 1.0
    RES_CR06_5 YRES_CR06_5 1.0
    RES_CR06_5 RESSPLIT_CR06_5 1.0
    LPG_CR07_5 YLPG_CR07_5 1.0
    LPG_CR07_5 LPGBAL_5 -1.0
    NAP_CR07_5 YNAP_CR07_5 1.0
    NAP_CR07_5 NAPBAL_CR07_5 1.0
    KER_CR07_5 YKER_CR07_5 1.0
    KER_CR07_5 KERBAL_CR07_5 1.0
    DSL_CR07_5 YDSL_CR07_5 1.0
    DSL_CR07_5 DSLBAL_CR07_5 1.0
    VGO_CR07_5 YVGO_CR07_5 1.0
    VGO_CR07_5 VGOBAL_CR07_5 1.0
    RES_CR07_5 YRES_CR07_5 1.0
    RES_CR07_5 RESSPLIT_CR07_5 1.0
    LPG_CR08_5 YLPG_CR08_5 1.0
    LPG_CR08_5 LPGBAL_5 -1.0
    NAP_CR08_5 YNAP_CR08_5 1.0
    NAP_CR08_5 NAPBAL_CR08_5 1.0
    KER_CR08_5 YKER_CR08_5 1.0
    KER_CR08_5 KERBAL_CR08_5 1.0
    DSL_CR08_5 YDSL_CR08_5 1.0
    DSL_CR08_5 DSLBAL_CR08_5 1.0
    VGO_CR08_5 YVGO_CR08_5 1.0
    VGO_CR08_5 VGOBAL_CR08_5 1.0
    RES_CR08_5 YRES_CR08_5 1.0
    RES_CR08_5 RESSPLIT_CR08_5 1.0
    LPG_CR09_5 YLPG_CR09_5 1.0
    LPG_CR09_5 LPGBAL_5 -1.0
    NAP_CR09_5 YNAP_CR09_5 1.0
    NAP_CR09_5 NAPBAL_CR09_5 1.0
    KER_CR09_5 YKER_CR09_5 1.0
    KER_CR09_5 KERBAL_CR09_5 1.0
    DSL_CR09_5 YDSL_CR09_5 1.0
    DSL_CR09_5 DSLBAL_CR09_5 1.0
    VGO_CR09_5 YVGO_CR09_5 1.0
    VGO_CR09_5 VGOBAL_CR09_5 1.0
    RES_CR09_5 YRES_CR09_5 1.0
    RES_CR09_5 RESSPLIT_CR09_5 1.0
    LPG_CR10_5 YLPG_CR10_5 1.0
    LPG_CR10_5 LPGBAL_5 -1.0
    NAP_CR10_5 YNAP_CR10_5 1.0
    NAP_CR10_5 NAPBAL_CR10_5 1.0
    KER_CR10_5 YKER_CR10_5 1.0
    KER_CR10_5 KERBAL_CR10_5 1.0
    DSL_CR10_5 YDSL_CR10_5 1.0
    DSL_CR10_5 DSLBAL_CR10_5 1.0
    VGO_CR10_5 YVGO_CR10_5 1.0
    VGO_CR10_5 VGOBAL_CR10_5 1.0
    RES_CR10_5 YRES_CR10_5 1.0
    RES_CR10_5 RESSPLIT_CR10_5 1.0
    LPG_CR11_5 YLPG_CR11_5 1.0
    LPG_CR11_5 LPGBAL_5 -1.0
    NAP_CR11_5 YNAP_CR11_5 1.0
    NAP_CR11_5 NAPBAL_CR11_5 1.0
    KER_CR11_5 YKER_CR11_5 1.0
    KER_CR11_5 KERBAL_CR11_5 1.0
    DSL_CR11_5 YDSL_CR11_5 1.0
    DSL_CR11_5 DSLBAL_CR11_5 1.0
    VGO_CR11_5 YVGO_CR11_5 1.0
    VGO_CR11_5 VGOBAL_CR11_5 1.0
    RES_CR11_5 YRES_CR11_5 1.0
    RES_CR11_5 RESSPLIT_CR11_5 1.0
    LPG_CR12_5 YLPG_CR12_5 1.0
    LPG_CR12_5 LPGBAL_5 -1.0
    NAP_CR12_5 YNAP_CR12_5 1.0
    NAP_CR12_5 NAPBAL_CR12_5 1.0
    KER_CR12_5 YKER_CR12_5 1.0
    KER_CR12_5 KERBAL_CR12_5 1.0
    DSL_CR12_5 YDSL_CR12_5 1.0
    DSL_CR12_5 DSLBAL_CR12_5 1.0
    VGO_CR12_5 YVGO_CR12_5 1.0
    VGO_CR12_5 VGOBAL_CR12_5 1.0
    RES_CR12_5 YRES_CR12_5 1.0
    RES_CR12_5 RESSPLIT_CR12_5 1.0
    LPG_CR13_5 YLPG_CR13_5 1.0
    LPG_CR13_5 LPGBAL_5 -1.0
    NAP_CR13_5 YNAP_CR13_5 1.0
    NAP_CR13_5 NAPBAL_CR13_5 1.0
    KER_CR13_5 YKER_CR13_5 1.0
    KER_CR13_5 KERBAL_CR13_5 1.0
    DSL_CR13_5 YDSL_CR13_5 1.0
    DSL_CR13_5 DSLBAL_CR13_5 1.0
    VGO_CR13_5 YVGO_CR13_5 1.0
    VGO_CR13_5 VGOBAL_CR13_5 1.0
    RES_CR13_5 YRES_CR13_5 1.0
    RES_CR13_5 RESSPLIT_CR13_5 1.0
    LPG_CR14_5 YLPG_CR14_5 1.0
    LPG_CR14_5 LPGBAL_5 -1.0
    NAP_CR14_5 YNAP_CR14_5 1.0
    NAP_CR14_5 NAPBAL_CR14_5 1.0
    KER_CR14_5 YKER_CR14_5 1.0
    KER_CR14_5 KERBAL_CR14_5 1.0
    DSL_CR14_5 YDSL_CR14_5 1.0
    DSL_CR14_5 DSLBAL_CR14_5 1.0
    VGO_CR14_5 YVGO_CR14_5 1.0
    VGO_CR14_5 VGOBAL_CR14_5 1.0
    RES_CR14_5 YRES_CR14_5 1.0
    RES_CR14_5 RESSPLIT_CR14_5 1.0
    LPG_CR15_5 YLPG_CR15_5 1.0
    LPG_CR15_5 LPGBAL_5 -1.0
    NAP_CR15_5 YNAP_CR15_5 1.0
    NAP_CR15_5 NAPBAL_CR15_5 1.0
    KER_CR15_5 YKER_CR15_5 1.0
    KER_CR15_5 KERBAL_CR15_5 1.0
    DSL_CR15_5 YDSL_CR15_5 1.0
    DSL_CR15_5 DSLBAL_CR15_5 1.0
    VGO_CR15_5 YVGO_CR15_5 1.0
    VGO_CR15_5 VGOBAL_CR15_5 1.0
    RES_CR15_5 YRES_CR15_5 1.0
    RES_CR15_5 RESSPLIT_CR15_5 1.0
    LPG_CR16_5 YLPG_CR16_5 1.0
    LPG_CR16_5 LPGBAL_5 -1.0
    NAP_CR16_5 YNAP_CR16_5 1.0
    NAP_CR16_5 NAPBAL_CR16_5 1.0
    KER_CR16_5 YKER_CR16_5 1.0
    KER_CR16_5 KERBAL_CR16_5 1.0
    DSL_CR16_5 YDSL_CR16_5 1.0
    DSL_CR16_5 DSLBAL_CR16_5 1.0
    VGO_CR16_5 YVGO_CR16_5 1.0
    VGO_CR16_5 VGOBAL_CR16_5 1.0
    RES_CR16_5 YRES_CR16_5 1.0
    RES_CR16_5 RESSPLIT_CR16_5 1.0
    LPG_CR17_5 YLPG_CR17_5 1.0
    LPG_CR17_5 LPGBAL_5 -1.0
    NAP_CR17_5 YNAP_CR17_5 1.0
    NAP_CR17_5 NAPBAL_CR17_5 1.0
    KER_CR17_5 YKER_CR17_5 1.0
    KER_CR17_5 KERBAL_CR17_5 1.0
    DSL_CR17_5 YDSL_CR17_5 1.0
    DSL_CR17_5 DSLBAL_CR17_5 1.0
    VGO_CR17_5 YVGO_CR17_5 1.0
    VGO_CR17_5 VGOBAL_CR17_5 1.0
    RES_CR17_5 YRES_CR17_5 1.0
    RES_CR17_5 RESSPLIT_CR17_5 1.0
    LPG_CR18_5 YLPG_CR18_5 1.0
    LPG_CR18_5 LPGBAL_5 -1.0
    NAP_CR18_5 YNAP_CR18_5 1.0
    NAP_CR18_5 NAPBAL_CR18_5 1.0
    KER_CR18_5 YKER_CR18_5 1.0
    KER_CR18_5 KERBAL_CR18_5 1.0
    DSL_CR18_5 YDSL_CR18_5 1.0
    DSL_CR18_5 DSLBAL_CR18_5 1.0
    VGO_CR18_5 YVGO_CR18_5 1.0
    VGO_CR18_5 VGOBAL_CR18_5 1.0
    RES_CR18_5 YRES_CR18_5 1.0
    RES_CR18_5 RESSPLIT_CR18_5 1.0
    LPG_CR19_5 YLPG_CR19_5 1.0
    LPG_CR19_5 LPGBAL_5 -1.0
    NAP_CR19_5 YNAP_CR19_5 1.0
    NAP_CR19_5 NAPBAL_CR19_5 1.0
    KER_CR19_5 YKER_CR19_5 1.0
    KER_CR19_5 KERBAL_CR19_5 1.0
    DSL_CR19_5 YDSL_CR19_5 1.0
    DSL_CR19_5 DSLBAL_CR19_5 1.0
    VGO_CR19_5 YVGO_CR19_5 1.0
    VGO_CR19_5 VGOBAL_CR19_5 1.0
    RES_CR19_5 YRES_CR19_5 1.0
    RES_CR19_5 RESSPLIT_CR19_5 1.0
    VDUIN_CR00_5 RESSPLIT_CR00_5 -1.0
    VDUIN_CR00_5 VDUY1_CR00_5 -0.45
    VDUIN_CR00_5 VDUY2_CR00_5 -0.55
    VDUIN_CR00_5 VDUCAP_5 1.0
    RESFO_CR00_5 RESSPLIT_CR00_5 -1.0
    RESFO_CR00_5 FOBAL_5 -1.0
    RESFO_CR00_5 FOSUL_5 1.9540891690108433
    VGO2_CR00_5 VDUY1_CR00_5 1.0
    VGO2_CR00_5 VGOBAL_CR00_5 1.0
    VR_CR00_5 VDUY2_CR00_5 1.0
    VR_CR00_5 FOBAL_5 -1.0
    VR_CR00_5 FOSUL_5 3.5903159197140964
    VDUIN_CR01_5 RESSPLIT_CR01_5 -1.0
    VDUIN_CR01_5 VDUY1_CR01_5 -0.45
    VDUIN_CR01_5 VDUY2_CR01_5 -0.55
    VDUIN_CR01_5 VDUCAP_5 1.0
    RESFO_CR01_5 RESSPLIT_CR01_5 -1.0
    RESFO_CR01_5 FOBAL_5 -1.0
    RESFO_CR01_5 FOSUL_5 -0.6168441789886687
    VGO2_CR01_5 VDUY1_CR01_5 1.0
    VGO2_CR01_5 VGOBAL_CR01_5 1.0
    VR_CR01_5 VDUY2_CR01_5 1.0
    VR_CR01_5 FOBAL_5 -1.0
    VR_CR01_5 FOSUL_5 0.24810256731473057
    VDUIN_CR02_5 RESSPLIT_CR02_5 -1.0
    VDUIN_CR02_5 VDUY1_CR02_5 -0.45
    VDUIN_CR02_5 VDUY2_CR02_5 -0.55
    VDUIN_CR02_5 VDUCAP_5 1.0
    RESFO_CR02_5 RESSPLIT_CR02_5 -1.0
    RESFO_CR02_5 FOBAL_5 -1.0
    RESFO_CR02_5 FOSUL_5 0.05675733131967897
    VGO2_CR02_5 VDUY1_CR02_5 1.0
    VGO2_CR02_5 VGOBAL_CR02_5 1.0
    VR_CR02_5 VDUY2_CR02_5 1.0
    VR_CR02_5 FOBAL_5 -1.0
    VR_CR02_5 FOSUL_5 1.1237845307155832
    VDUIN_CR03_5 RESSPLIT_CR03_5 -1.0
    VDUIN_CR03_5 VDUY1_CR03_5 -0.45
    VDUIN_CR03_5 VDUY2_CR03_5 -0.55
    VDUIN_CR03_5 VDUCAP_5 1.0
    RESFO_CR03_5 RESSPLIT_CR03_5 -1.0
    RESFO_CR03_5 FOBAL_5 -1.0
    RESFO_CR03_5 FOSUL_5 -1.8686274424458973
    VGO2_CR03_5 VDUY1_CR03_5 1.0
    VGO2_CR03_5 VGOBAL_CR03_5 1.0
    VR_CR03_5 VDUY2_CR03_5 1.0
    VR_CR03_5 FOBAL_5 -1.0
    VR_CR03_5 FOSUL_5 -1.3792156751796663
    VDUIN_CR04_5 RESSPLIT_CR04_5 -1.0
    VDUIN_CR04_5 VDUY1_CR04_5 -0.45
    VDUIN_CR04_5 VDUY2_CR04_5 -0.55
    VDUIN_CR04_5 VDUCAP_5 1.0
    RESFO_CR04_5 RESSPLIT_CR04_5 -1.0
    RESFO_CR04_5 FOBAL_5 -1.0
    RESFO_CR04_5 FOSUL_5 2.031668478530798
    VGO2_CR04_5 VDUY1_CR04_5 1.0
    VGO2_CR04_5 VGOBAL_CR04_5 1.0
    VR_CR04_5 VDUY2_CR04_5 1.0
    VR_CR04_5 FOBAL_5 -1.0
    VR_CR04_5 FOSUL_5 3.6911690220900377
    VDUIN_CR05_5 RESSPLIT_CR05_5 -1.0
    VDUIN_CR05_5 VDUY1_CR05_5 -0.45
    VDUIN_CR05_5 VDUY2_CR05_5 -0.55
    VDUIN_CR05_5 VDUCAP_5 1.0
    RESFO_CR05_5 RESSPLIT_CR05_5 -1.0
    RESFO_CR05_5 FOBAL_5 -1.0
    RESFO_CR05_5 FOSUL_5 0.3429997580900688
    VGO2_CR05_5 VDUY1_CR05_5 1.0
    VGO2_CR05_5 VGOBAL_CR05_5 1.0
    VR_CR05_5 VDUY2_CR05_5 1.0
    VR_CR05_5 FOBAL_5 -1.0
    VR_CR05_5 FOSUL_5 1.4958996855170898
    VDUIN_CR06_5 RESSPLIT_CR06_5 -1.0
    VDUIN_CR06_5 VDUY1_CR06_5 -0.45
    VDUIN_CR06_5 VDUY2_CR06_5 -0.55
    VDUIN_CR06_5 VDUCAP_5 1.0
    RESFO_CR06_5 RESSPLIT_CR06_5 -1.0
    RESFO_CR06_5 FOBAL_5 -1.0
    RESFO_CR06_5 FOSUL_5 0.10255232060654862
    VGO2_CR06_5 VDUY1_CR06_5 1.0
    VGO2_CR06_5 VGOBAL_CR06_5 1.0
    VR_CR06_5 VDUY2_CR06_5 1.0
    VR_CR06_5 FOBAL_5 -1.0
    VR_CR06_5 FOSUL_5 1.1833180167885136
    VDUIN_CR07_5 RESSPLIT_CR07_5 -1.0
    VDUIN_CR07_5 VDUY1_CR07_5 -0.45
    VDUIN_CR07_5 VDUY2_CR07_5 -0.55
    VDUIN_CR07_5 VDUCAP_5 1.0
    RESFO_CR07_5 RESSPLIT_CR07_5 -1.0
    RESFO_CR07_5 FOBAL_5 -1.0
    RESFO_CR07_5 FOSUL_5 -3.116635223405176
    VGO2_CR07_5 VDUY1_CR07_5 1.0
    VGO2_CR07_5 VGOBAL_CR07_5 1.0
    VR_CR07_5 VDUY2_CR07_5 1.0
    VR_CR07_5 FOBAL_5 -1.0
    VR_CR07_5 FOSUL_5 -3.001625790426729
    VDUIN_CR08_5 RESSPLIT_CR08_5 -1.0
    VDUIN_CR08_5 VDUY1_CR08_5 -0.45
    VDUIN_CR08_5 VDUY2_CR08_5 -0.55
    VDUIN_CR08_5 VDUCAP_5 1.0
    RESFO_CR08_5 RESSPLIT_CR08_5 -1.0
    RESFO_CR08_5 FOBAL_5 -1.0
    RESFO_CR08_5 FOSUL_5 0.0456281803886287
    VGO2_CR08_5 VDUY1_CR08_5 1.0
    VGO2_CR08_5 VGOBAL_CR08_5 1.0
    VR_CR08_5 VDUY2_CR08_5 1.0
    VR_CR08_5 FOBAL_5 -1.0
    VR_CR08_5 FOSUL_5 1.109316634505218
    VDUIN_CR09_5 RESSPLIT_CR09_5 -1.0
    VDUIN_CR09_5 VDUY1_CR09_5 -0.45
    VDUIN_CR09_5 VDUY2_CR09_5 -0.55
    VDUIN_CR09_5 VDUCAP_5 1.0
    RESFO_CR09_5 RESSPLIT_CR09_5 -1.0
    RESFO_CR09_5 FOBAL_5 -1.0
    RESFO_CR09_5 FOSUL_5 -3.264603397407564
    VGO2_CR09_5 VDUY1_CR09_5 1.0
    VGO2_CR09_5 VGOBAL_CR09_5 1.0
    VR_CR09_5 VDUY2_CR09_5 1.0
    VR_CR09_5 FOBAL_5 -1.0
    VR_CR09_5 FOSUL_5 -3.1939844166298332
    VDUIN_CR10_5 RESSPLIT_CR10_5 -1.0
    VDUIN_CR10_5 VDUY1_CR10_5 -0.45
    VDUIN_CR10_5 VDUY2_CR10_5 -0.55
    VDUIN_CR10_5 VDUCAP_5 1.0
    RESFO_CR10_5 RESSPLIT_CR10_5 -1.0
    RESFO_CR10_5 FOBAL_5 -1.0
    RESFO_CR10_5 FOSUL_5 2.094062962095167
    VGO2_CR10_5 VDUY1_CR10_5 1.0
    VGO2_CR10_5 VGOBAL_CR10_5 1.0
    VR_CR10_5 VDUY2_CR10_5 1.0
    VR_CR10_5 FOBAL_5 -1.0
    VR_CR10_5 FOSUL_5 3.7722818507237177
    VDUIN_CR11_5 RESSPLIT_CR11_5 -1.0
    VDUIN_CR11_5 VDUY1_CR11_5 -0.45
    VDUIN_CR11_5 VDUY2_CR11_5 -0.55
    VDUIN_CR11_5 VDUCAP_5 1.0
    RESFO_CR11_5 RESSPLIT_CR11_5 -1.0
    RESFO_CR11_5 FOBAL_5 -1.0
    RESFO_CR11_5 FOSUL_5 -0.4594898393817082
    VGO2_CR11_5 VDUY1_CR11_5 1.0
    VGO2_CR11_5 VGOBAL_CR11_5 1.0
    VR_CR11_5 VDUY2_CR11_5 1.0
    VR_CR11_5 FOBAL_5 -1.0
    VR_CR11_5 FOSUL_5 0.4526632088037794
    VDUIN_CR12_5 RESSPLIT_CR12_5 -1.0
    VDUIN_CR12_5 VDUY1_CR12_5 -0.45
    VDUIN_CR12_5 VDUY2_CR12_5 -0.55
    VDUIN_CR12_5 VDUCAP_5 1.0
    RESFO_CR12_5 RESSPLIT_CR12_5 -1.0
    RESFO_CR12_5 FOBAL_5 -1.0
    RESFO_CR12_5 FOSUL_5 1.9188179600993953
    VGO2_CR12_5 VDUY1_CR12_5 1.0
    VGO2_CR12_5 VGOBAL_CR12_5 1.0
    VR_CR12_5 VDUY2_CR12_5 1.0
    VR_CR12_5 FOBAL_5 -1.0
    VR_CR12_5 FOSUL_5 3.544463348129214
    VDUIN_CR13_5 RESSPLIT_CR13_5 -1.0
    VDUIN_CR13_5 VDUY1_CR13_5 -0.45
    VDUIN_CR13_5 VDUY2_CR13_5 -0.55
    VDUIN_CR13_5 VDUCAP_5 1.0
    RESFO_CR13_5 RESSPLIT_CR13_5 -1.0
    RESFO_CR13_5 FOBAL_5 -1.0
    RESFO_CR13_5 FOSUL_5 -2.8690046531087465
    VGO2_CR13_5 VDUY1_CR13_5 1.0
    VGO2_CR13_5 VGOBAL_CR13_5 1.0
    VR_CR13_5 VDUY2_CR13_5 1.0
    VR_CR13_5 FOBAL_5 -1.0
    VR_CR13_5 FOSUL_5 -2.6797060490413704
    VDUIN_CR14_5 RESSPLIT_CR14_5 -1.0
    VDUIN_CR14_5 VDUY1_CR14_5 -0.45
    VDUIN_CR14_5 VDUY2_CR14_5 -0.55
    VDUIN_CR14_5 VDUCAP_5 1.0
    RESFO_CR14_5 RESSPLIT_CR14_5 -1.0
    RESFO_CR14_5 FOBAL_5 -1.0
    RESFO_CR14_5 FOSUL_5 -0.9033459504788866
    VGO2_CR14_5 VDUY1_CR14_5 1.0
    VGO2_CR14_5 VGOBAL_CR14_5 1.0
    VR_CR14_5 VDUY2_CR14_5 1.0
    VR_CR14_5 FOBAL_5 -1.0
    VR_CR14_5 FOSUL_5 -0.12434973562255225
    VDUIN_CR15_5 RESSPLIT_CR15_5 -1.0
    VDUIN_CR15_5 VDUY1_CR15_5 -0.45
    VDUIN_CR15_5 VDUY2_CR15_5 -0.55
    VDUIN_CR15_5 VDUCAP_5 1.0
    RESFO_CR15_5 RESSPLIT_CR15_5 -1.0
    RESFO_CR15_5 FOBAL_5 -1.0
    RESFO_CR15_5 FOSUL_5 -3.189239970867669
    VGO2_CR15_5 VDUY1_CR15_5 1.0
    VGO2_CR15_5 VGOBAL_CR15_5 1.0
    VR_CR15_5 VDUY2_CR15_5 1.0
    VR_CR15_5 FOBAL_5 -1.0
    VR_CR15_5 FOSUL_5 -3.0960119621279696
    VDUIN_CR16_5 RESSPLIT_CR16_5 -1.0
    VDUIN_CR16_5 VDUY1_CR16_5 -0.45
    VDUIN_CR16_5 VDUY2_CR16_5 -0.55
    VDUIN_CR16_5 VDUCAP_5 1.0
    RESFO_CR16_5 RESSPLIT_CR16_5 -1.0
    RESFO_CR16_5 FOBAL_5 -1.0
    RESFO_CR16_5 FOSUL_5 -0.09708299491376327
    VGO2_CR16_5 VDUY1_CR16_5 1.0
    VGO2_CR16_5 VGOBAL_CR16_5 1.0
    VR_CR16_5 VDUY2_CR16_5 1.0
    VR_CR16_5 FOBAL_5 -1.0
    VR_CR16_5 FOSUL_5 0.9237921066121082
    VDUIN_CR17_5 RESSPLIT_CR17_5 -1.0
    VDUIN_CR17_5 VDUY1_CR17_5 -0.45
    VDUIN_CR17_5 VDUY2_CR17_5 -0.55
    VDUIN_CR17_5 VDUCAP_5 1.0
    RESFO_CR17_5 RESSPLIT_CR17_5 -1.0
    RESFO_CR17_5 FOBAL_5 -1.0
    RESFO_CR17_5 FOSUL_5 2.128312314257988
    VGO2_CR17_5 VDUY1_CR17_5 1.0
    VGO2_CR17_5 VGOBAL_CR17_5 1.0
    VR_CR17_5 VDUY2_CR17_5 1.0
    VR_CR17_5 FOBAL_5 -1.0
    VR_CR17_5 FOSUL_5 3.8168060085353845
    VDUIN_CR18_5 RESSPLIT_CR18_5 -1.0
    VDUIN_CR18_5 VDUY1_CR18_5 -0.45
    VDUIN_CR18_5 VDUY2_CR18_5 -0.55
    VDUIN_CR18_5 VDUCAP_5 1.0
    RESFO_CR18_5 RESSPLIT_CR18_5 -1.0
    RESFO_CR18_5 FOBAL_5 -1.0
    RESFO_CR18_5 FOSUL_5 -3.0649175102888004
    VGO2_CR18_5 VDUY1_CR18_5 1.0
    VGO2_CR18_5 VGOBAL_CR18_5 1.0
    VR_CR18_5 VDUY2_CR18_5 1.0
    VR_CR18_5 FOBAL_5 -1.0
    VR_CR18_5 FOSUL_5 -2.9343927633754405
    VDUIN_CR19_5 RESSPLIT_CR19_5 -1.0
    VDUIN_CR19_5 VDUY1_CR19_5 -0.45
    VDUIN_CR19_5 VDUY2_CR19_5 -0.55
    VDUIN_CR19_5 VDUCAP_5 1.0
    RESFO_CR19_5 RESSPLIT_CR19_5 -1.0
    RESFO_CR19_5 FOBAL_5 -1.0
    RESFO_CR19_5 FOSUL_5 -1.1490285157117452
    VGO2_CR19_5 VDUY1_CR19_5 1.0
    VGO2_CR19_5 VGOBAL_CR19_5 1.0
    VR_CR19_5 VDUY2_CR19_5 1.0
    VR_CR19_5 FOBAL_5 -1.0
    VR_CR19_5 FOSUL_5 -0.4437370704252688
    FCCIN_CR00_5 OBJ -2.5
    FCCIN_CR00_5 VGOBAL_CR00_5 -1.0
    FCCIN_CR00_5 FCCCAP_5 1.0
    FCCIN_CR00_5 FCCY_FCCG_5 -0.55
    FCCIN_CR00_5 FCCY_LCO_5 -0.2
    FCCIN_CR00_5 FCCY_FLPG_5 -0.15
    FCCIN_CR00_5 FCCY_SLURRY_5 -0.07
    FCCIN_CR01_5 OBJ -2.5
    FCCIN_CR01_5 VGOBAL_CR01_5 -1.0
    FCCIN_CR01_5 FCCCAP_5 1.0
    FCCIN_CR01_5 FCCY_FCCG_5 -0.55
    FCCIN_CR01_5 FCCY_LCO_5 -0.2
    FCCIN_CR01_5 FCCY_FLPG_5 -0.15
    FCCIN_CR01_5 FCCY_SLURRY_5 -0.07
    FCCIN_CR02_5 OBJ -2.5
    FCCIN_CR02_5 VGOBAL_CR02_5 -1.0
    FCCIN_CR02_5 FCCCAP_5 1.0
    FCCIN_CR02_5 FCCY_FCCG_5 -0.55
    FCCIN_CR02_5 FCCY_LCO_5 -0.2
    FCCIN_CR02_5 FCCY_FLPG_5 -0.15
    FCCIN_CR02_5 FCCY_SLURRY_5 -0.07
    FCCIN_CR03_5 OBJ -2.5
    FCCIN_CR03_5 VGOBAL_CR03_5 -1.0
    FCCIN_CR03_5 FCCCAP_5 1.0
    FCCIN_CR03_5 FCCY_FCCG_5 -0.55
    FCCIN_CR03_5 FCCY_LCO_5 -0.2
    FCCIN_CR03_5 FCCY_FLPG_5 -0.15
    FCCIN_CR03_5 FCCY_SLURRY_5 -0.07
    FCCIN_CR04_5 OBJ -2.5
    FCCIN_CR04_5 VGOBAL_CR04_5 -1.0
    FCCIN_CR04_5 FCCCAP_5 1.0
    FCCIN_CR04_5 FCCY_FCCG_5 -0.55
    FCCIN_CR04_5 FCCY_LCO_5 -0.2
    FCCIN_CR04_5 FCCY_FLPG_5 -0.15
    FCCIN_CR04_5 FCCY_SLURRY_5 -0.07
    FCCIN_CR05_5 OBJ -2.5
    FCCIN_CR05_5 VGOBAL_CR05_5 -1.0
    FCCIN_CR05_5 FCCCAP_5 1.0
    FCCIN_CR05_5 FCCY_FCCG_5 -0.55
    FCCIN_CR05_5 FCCY_LCO_5 -0.2
    FCCIN_CR05_5 FCCY_FLPG_5 -0.15
    FCCIN_CR05_5 FCCY_SLURRY_5 -0.07
    FCCIN_CR06_5 OBJ -2.5
    FCCIN_CR06_5 VGOBAL_CR06_5 -1.0
    FCCIN_CR06_5 FCCCAP_5 1.0
    FCCIN_CR06_5 FCCY_FCCG_5 -0.55
    FCCIN_CR06_5 FCCY_LCO_5 -0.2
    FCCIN_CR06_5 FCCY_FLPG_5 -0.15
    FCCIN_CR06_5 FCCY_SLURRY_5 -0.07
    FCCIN_CR07_5 OBJ -2.5
    FCCIN_CR07_5 VGOBAL_CR07_5 -1.0
    FCCIN_CR07_5 FCCCAP_5 1.0
    FCCIN_CR07_5 FCCY_FCCG_5 -0.55
    FCCIN_CR07_5 FCCY_LCO_5 -0.2
    FCCIN_CR07_5 FCCY_FLPG_5 -0.15
    FCCIN_CR07_5 FCCY_SLURRY_5 -0.07
    FCCIN_CR08_5 OBJ -2.5
    FCCIN_CR08_5 VGOBAL_CR08_5 -1.0
    FCCIN_CR08_5 FCCCAP_5 1.0
    FCCIN_CR08_5 FCCY_FCCG_5 -0.55
    FCCIN_CR08_5 FCCY_LCO_5 -0.2
    FCCIN_CR08_5 FCCY_FLPG_5 -0.15
    FCCIN_CR08_5 FCCY_SLURRY_5 -0.07
    FCCIN_CR09_5 OBJ -2.5
    FCCIN_CR09_5 VGOBAL_CR09_5 -1.0
    FCCIN_CR09_5 FCCCAP_5 1.0
    FCCIN_CR09_5 FCCY_FCCG_5 -0.55
    FCCIN_CR09_5 FCCY_LCO_5 -0.2
    FCCIN_CR09_5 FCCY_FLPG_5 -0.15
    FCCIN_CR09_5 FCCY_SLURRY_5 -0.07
    FCCIN_CR10_5 OBJ -2.5
    FCCIN_CR10_5 VGOBAL_CR10_5 -1.0
    FCCIN_CR10_5 FCCCAP_5 1.0
    FCCIN_CR10_5 FCCY_FCCG_5 -0.55
    FCCIN_CR10_5 FCCY_LCO_5 -0.2
    FCCIN_CR10_5 FCCY_FLPG_5 -0.15
    FCCIN_CR10_5 FCCY_SLURRY_5 -0.07
    FCCIN_CR11_5 OBJ -2.5
    FCCIN_CR11_5 VGOBAL_CR11_5 -1.0
    FCCIN_CR11_5 FCCCAP_5 1.0
    FCCIN_CR11_5 FCCY_FCCG_5 -0.55
    FCCIN_CR11_5 FCCY_LCO_5 -0.2
    FCCIN_CR11_5 FCCY_FLPG_5 -0.15
    FCCIN_CR11_5 FCCY_SLURRY_5 -0.07
    FCCIN_CR12_5 OBJ -2.5
    FCCIN_CR12_5 VGOBAL_CR12_5 -1.0
    FCCIN_CR12_5 FCCCAP_5 1.0
    FCCIN_CR12_5 FCCY_FCCG_5 -0.55
    FCCIN_CR12_5 FCCY_LCO_5 -0.2
    FCCIN_CR12_5 FCCY_FLPG_5 -0.15
    FCCIN_CR12_5 FCCY_SLURRY_5 -0.07
    FCCIN_CR13_5 OBJ -2.5
    FCCIN_CR13_5 VGOBAL_CR13_5 -1.0
    FCCIN_CR13_5 FCCCAP_5 1.0
    FCCIN_CR13_5 FCCY_FCCG_5 -0.55
    FCCIN_CR13_5 FCCY_LCO_5 -0.2
    FCCIN_CR13_5 FCCY_FLPG_5 -0.15
    FCCIN_CR13_5 FCCY_SLURRY_5 -0.07
    FCCIN_CR14_5 OBJ -2.5
    FCCIN_CR14_5 VGOBAL_CR14_5 -1.0
    FCCIN_CR14_5 FCCCAP_5 1.0
    FCCIN_CR14_5 FCCY_FCCG_5 -0.55
    FCCIN_CR14_5 FCCY_LCO_5 -0.2
    FCCIN_CR14_5 FCCY_FLPG_5 -0.15
    FCCIN_CR14_5 FCCY_SLURRY_5 -0.07
    FCCIN_CR15_5 OBJ -2.5
    FCCIN_CR15_5 VGOBAL_CR15_5 -1.0
    FCCIN_CR15_5 FCCCAP_5 1.0
    FCCIN_CR15_5 FCCY_FCCG_5 -0.55
    FCCIN_CR15_5 FCCY_LCO_5 -0.2
    FCCIN_CR15_5 FCCY_FLPG_5 -0.15
    FCCIN_CR15_5 FCCY_SLURRY_5 -0.07
    FCCIN_CR16_5 OBJ -2.5
    FCCIN_CR16_5 VGOBAL_CR16_5 -1.0
    FCCIN_CR16_5 FCCCAP_5 1.0
    FCCIN_CR16_5 FCCY_FCCG_5 -0.55
    FCCIN_CR16_5 FCCY_LCO_5 -0.2
    FCCIN_CR16_5 FCCY_FLPG_5 -0.15
    FCCIN_CR16_5 FCCY_SLURRY_5 -0.07
    FCCIN_CR17_5 OBJ -2.5
    FCCIN_CR17_5 VGOBAL_CR17_5 -1.0
    FCCIN_CR17_5 FCCCAP_5 1.0
    FCCIN_CR17_5 FCCY_FCCG_5 -0.55
    FCCIN_CR17_5 FCCY_LCO_5 -0.2
    FCCIN_CR17_5 FCCY_FLPG_5 -0.15
    FCCIN_CR17_5 FCCY_SLURRY_5 -0.07
    FCCIN_CR18_5 OBJ -2.5
    FCCIN_CR18_5 VGOBAL_CR18_5 -1.0
    FCCIN_CR18_5 FCCCAP_5 1.0
    FCCIN_CR18_5 FCCY_FCCG_5 -0.55
    FCCIN_CR18_5 FCCY_LCO_5 -0.2
    FCCIN_CR18_5 FCCY_FLPG_5 -0.15
    FCCIN_CR18_5 FCCY_SLURRY_5 -0.07
    FCCIN_CR19_5 OBJ -2.5
    FCCIN_CR19_5 VGOBAL_CR19_5 -1.0
    FCCIN_CR19_5 FCCCAP_5 1.0
    FCCIN_CR19_5 FCCY_FCCG_5 -0.55
    FCCIN_CR19_5 FCCY_LCO_5 -0.2
    FCCIN_CR19_5 FCCY_FLPG_5 -0.15
    FCCIN_CR19_5 FCCY_SLURRY_5 -0.07
    FCCG_5 FCCY_FCCG_5 1.0
    FCCG_5 GASBAL_5 -1.0
    FCCG_5 GASRON_5 1.0
    LCO_5 FCCY_LCO_5 1.0
    LCO_5 LCOBAL_5 1.0
    FLPG_5 FCCY_FLPG_5 1.0
    FLPG_5 LPGBAL_5 -1.0
    SLURRY_5 FCCY_SLURRY_5 1.0
    SLURRY_5 FOBAL_5 -1.0
    SLURRY_5 FOSUL_5 -1.5
    REFIN_CR00_5 OBJ -3.0
    REFIN_CR00_5 NAPBAL_CR00_5 -1.0
    REFIN_CR00_5 REFCAP_5 1.0
    REFIN_CR00_5 REFY_5 -0.85
    NAPGAS_CR00_5 NAPBAL_CR00_5 -1.0
    NAPGAS_CR00_5 GASBAL_5 -1.0
    NAPGAS_CR00_5 GASRON_5 -41.351908455631545
    REFIN_CR01_5 OBJ -3.0
    REFIN_CR01_5 NAPBAL_CR01_5 -1.0
    REFIN_CR01_5 REFCAP_5 1.0
    REFIN_CR01_5 REFY_5 -0.85
    NAPGAS_CR01_5 NAPBAL_CR01_5 -1.0
    NAPGAS_CR01_5 GASBAL_5 -1.0
    NAPGAS_CR01_5 GASRON_5 -33.623043958680114
    REFIN_CR02_5 OBJ -3.0
    REFIN_CR02_5 NAPBAL_CR02_5 -1.0
    REFIN_CR02_5 REFCAP_5 1.0
    REFIN_CR02_5 REFY_5 -0.85
    NAPGAS_CR02_5 NAPBAL_CR02_5 -1.0
    NAPGAS_CR02_5 GASBAL_5 -1.0
    NAPGAS_CR02_5 GASRON_5 -39.74522208078083
    REFIN_CR03_5 OBJ -3.0
    REFIN_CR03_5 NAPBAL_CR03_5 -1.0
    REFIN_CR03_5 REFCAP_5 1.0
    REFIN_CR03_5 REFY_5 -0.85
    NAPGAS_CR03_5 NAPBAL_CR03_5 -1.0
    NAPGAS_CR03_5 GASBAL_5 -1.0
    NAPGAS_CR03_5 GASRON_5 -39.32063345179839
    REFIN_CR04_5 OBJ -3.0
    REFIN_CR04_5 NAPBAL_CR04_5 -1.0
    REFIN_CR04_5 REFCAP_5 1.0
    REFIN_CR04_5 REFY_5 -0.85
    NAPGAS_CR04_5 NAPBAL_CR04_5 -1.0
    NAPGAS_CR04_5 GASBAL_5 -1.0
    NAPGAS_CR04_5 GASRON_5 -28.06018906757886
    REFIN_CR05_5 OBJ -3.0
    REFIN_CR05_5 NAPBAL_CR05_5 -1.0
    REFIN_CR05_5 REFCAP_5 1.0
    REFIN_CR05_5 REFY_5 -0.85
    NAPGAS_CR05_5 NAPBAL_CR05_5 -1.0
    NAPGAS_CR05_5 GASBAL_5 -1.0
    NAPGAS_CR05_5 GASRON_5 -37.177062383933254
    REFIN_CR06_5 OBJ -3.0
    REFIN_CR06_5 NAPBAL_CR06_5 -1.0
    REFIN_CR06_5 REFCAP_5 1.0
    REFIN_CR06_5 REFY_5 -0.85
    NAPGAS_CR06_5 NAPBAL_CR06_5 -1.0
    NAPGAS_CR06_5 GASBAL_5 -1.0
    NAPGAS_CR06_5 GASRON_5 -38.73738801284508
    REFIN_CR07_5 OBJ -3.0
    REFIN_CR07_5 NAPBAL_CR07_5 -1.0
    REFIN_CR07_5 REFCAP_5 1.0
    REFIN_CR07_5 REFY_5 -0.85
    NAPGAS_CR07_5 NAPBAL_CR07_5 -1.0
    NAPGAS_CR07_5 GASBAL_5 -1.0
    NAPGAS_CR07_5 GASRON_5 -31.720911449683953
    REFIN_CR08_5 OBJ -3.0
    REFIN_CR08_5 NAPBAL_CR08_5 -1.0
    REFIN_CR08_5 REFCAP_5 1.0
    REFIN_CR08_5 REFY_5 -0.85
    NAPGAS_CR08_5 NAPBAL_CR08_5 -1.0
    NAPGAS_CR08_5 GASBAL_5 -1.0
    NAPGAS_CR08_5 GASRON_5 -31.236267605063702
    REFIN_CR09_5 OBJ -3.0
    REFIN_CR09_5 NAPBAL_CR09_5 -1.0
    REFIN_CR09_5 REFCAP_5 1.0
    REFIN_CR09_5 REFY_5 -0.85
    NAPGAS_CR09_5 NAPBAL_CR09_5 -1.0
    NAPGAS_CR09_5 GASBAL_5 -1.0
    NAPGAS_CR09_5 GASRON_5 -29.9151768258086
    REFIN_CR10_5 OBJ -3.0
    REFIN_CR10_5 NAPBAL_CR10_5 -1.0
    REFIN_CR10_5 REFCAP_5 1.0
    REFIN_CR10_5 REFY_5 -0.85
    NAPGAS_CR10_5 NAPBAL_CR10_5 -1.0
    NAPGAS_CR10_5 GASBAL_5 -1.0
    NAPGAS_CR10_5 GASRON_5 -38.641707010486826
    REFIN_CR11_5 OBJ -3.0
    REFIN_CR11_5 NAPBAL_CR11_5 -1.0
    REFIN_CR11_5 REFCAP_5 1.0
    REFIN_CR11_5 REFY_5 -0.85
    NAPGAS_CR11_5 NAPBAL_CR11_5 -1.0
    NAPGAS_CR11_5 GASBAL_5 -1.0
    NAPGAS_CR11_5 GASRON_5 -31.364398664025877
    REFIN_CR12_5 OBJ -3.0
    REFIN_CR12_5 NAPBAL_CR12_5 -1.0
    REFIN_CR12_5 REFCAP_5 1.0
    REFIN_CR12_5 REFY_5 -0.85
    NAPGAS_CR12_5 NAPBAL_CR12_5 -1.0
    NAPGAS_CR12_5 GASBAL_5 -1.0
    NAPGAS_CR12_5 GASRON_5 -36.44295305412478
    REFIN_CR13_5 OBJ -3.0
    REFIN_CR13_5 NAPBAL_CR13_5 -1.0
    REFIN_CR13_5 REFCAP_5 1.0
    REFIN_CR13_5 REFY_5 -0.85
    NAPGAS_CR13_5 NAPBAL_CR13_5 -1.0
    NAPGAS_CR13_5 GASBAL_5 -1.0
    NAPGAS_CR13_5 GASRON_5 -36.368722409916884
    REFIN_CR14_5 OBJ -3.0
    REFIN_CR14_5 NAPBAL_CR14_5 -1.0
    REFIN_CR14_5 REFCAP_5 1.0
    REFIN_CR14_5 REFY_5 -0.85
    NAPGAS_CR14_5 NAPBAL_CR14_5 -1.0
    NAPGAS_CR14_5 GASBAL_5 -1.0
    NAPGAS_CR14_5 GASRON_5 -37.837781635780814
    REFIN_CR15_5 OBJ -3.0
    REFIN_CR15_5 NAPBAL_CR15_5 -1.0
    REFIN_CR15_5 REFCAP_5 1.0
    REFIN_CR15_5 REFY_5 -0.85
    NAPGAS_CR15_5 NAPBAL_CR15_5 -1.0
    NAPGAS_CR15_5 GASBAL_5 -1.0
    NAPGAS_CR15_5 GASRON_5 -36.91743369949054
    REFIN_CR16_5 OBJ -3.0
    REFIN_CR16_5 NAPBAL_CR16_5 -1.0
    REFIN_CR16_5 REFCAP_5 1.0
    REFIN_CR16_5 REFY_5 -0.85
    NAPGAS_CR16_5 NAPBAL_CR16_5 -1.0
    NAPGAS_CR16_5 GASBAL_5 -1.0
    NAPGAS_CR16_5 GASRON_5 -32.43244486749426
    REFIN_CR17_5 OBJ -3.0
    REFIN_CR17_5 NAPBAL_CR17_5 -1.0
    REFIN_CR17_5 REFCAP_5 1.0
    REFIN_CR17_5 REFY_5 -0.85
    NAPGAS_CR17_5 NAPBAL_CR17_5 -1.0
    NAPGAS_CR17_5 GASBAL_5 -1.0
    NAPGAS_CR17_5 GASRON_5 -32.30218201355821
    REFIN_CR18_5 OBJ -3.0
    REFIN_CR18_5 NAPBAL_CR18_5 -1.0
    REFIN_CR18_5 REFCAP_5 1.0
    REFIN_CR18_5 REFY_5 -0.85
    NAPGAS_CR18_5 NAPBAL_CR18_5 -1.0
    NAPGAS_CR18_5 GASBAL_5 -1.0
    NAPGAS_CR18_5 GASRON_5 -30.280860643235343
    REFIN_CR19_5 OBJ -3.0
    REFIN_CR19_5 NAPBAL_CR19_5 -1.0
    REFIN_CR19_5 REFCAP_5 1.0
    REFIN_CR19_5 REFY_5 -0.85
    NAPGAS_CR19_5 NAPBAL_CR19_5 -1.0
    NAPGAS_CR19_5 GASBAL_5 -1.0
    NAPGAS_CR19_5 GASRON_5 -35.8435432887995
    REFORMATE_5 REFY_5 1.0
    REFORMATE_5 GASBAL_5 -1.0
    REFORMATE_5 GASRON_5 7.0
    DHTIN_CR00_5 OBJ -2.0
    DHTIN_CR00_5 DSLBAL_CR00_5 -1.0
    DHTIN_CR00_5 DHTCAP_5 1.0
    DHTIN_CR00_5 DHTY_5 -0.98
    DSLDIR_CR00_5 DSLBAL_CR00_5 -1.0
    DSLDIR_CR00_5 DSLPB_5 -1.0
    DSLDIR_CR00_5 DSLSUL_5 1.5862267507032528
    DHTIN_CR01_5 OBJ -2.0
    DHTIN_CR01_5 DSLBAL_CR01_5 -1.0
    DHTIN_CR01_5 DHTCAP_5 1.0
    DHTIN_CR01_5 DHTY_5 -0.98
    DSLDIR_CR01_5 DSLBAL_CR01_5 -1.0
    DSLDIR_CR01_5 DSLPB_5 -1.0
    DSLDIR_CR01_5 DSLSUL_5 0.8149467463033994
    DHTIN_CR02_5 OBJ -2.0
    DHTIN_CR02_5 DSLBAL_CR02_5 -1.0
    DHTIN_CR02_5 DHTCAP_5 1.0
    DHTIN_CR02_5 DHTY_5 -0.98
    DSLDIR_CR02_5 DSLBAL_CR02_5 -1.0
    DSLDIR_CR02_5 DSLPB_5 -1.0
    DSLDIR_CR02_5 DSLSUL_5 1.0170271993959037
    DHTIN_CR03_5 OBJ -2.0
    DHTIN_CR03_5 DSLBAL_CR03_5 -1.0
    DHTIN_CR03_5 DHTCAP_5 1.0
    DHTIN_CR03_5 DHTY_5 -0.98
    DSLDIR_CR03_5 DSLBAL_CR03_5 -1.0
    DSLDIR_CR03_5 DSLPB_5 -1.0
    DSLDIR_CR03_5 DSLSUL_5 0.4394117672662308
    DHTIN_CR04_5 OBJ -2.0
    DHTIN_CR04_5 DSLBAL_CR04_5 -1.0
    DHTIN_CR04_5 DHTCAP_5 1.0
    DHTIN_CR04_5 DHTY_5 -0.98
    DSLDIR_CR04_5 DSLBAL_CR04_5 -1.0
    DSLDIR_CR04_5 DSLPB_5 -1.0
    DSLDIR_CR04_5 DSLSUL_5 1.6095005435592393
    DHTIN_CR05_5 OBJ -2.0
    DHTIN_CR05_5 DSLBAL_CR05_5 -1.0
    DHTIN_CR05_5 DHTCAP_5 1.0
    DHTIN_CR05_5 DHTY_5 -0.98
    DSLDIR_CR05_5 DSLBAL_CR05_5 -1.0
    DSLDIR_CR05_5 DSLPB_5 -1.0
    DSLDIR_CR05_5 DSLSUL_5 1.1028999274270206
    DHTIN_CR06_5 OBJ -2.0
    DHTIN_CR06_5 DSLBAL_CR06_5 -1.0
    DHTIN_CR06_5 DHTCAP_5 1.0
    DHTIN_CR06_5 DHTY_5 -0.98
    DSLDIR_CR06_5 DSLBAL_CR06_5 -1.0
    DSLDIR_CR06_5 DSLPB_5 -1.0
    DSLDIR_CR06_5 DSLSUL_5 1.0307656961819645
    DHTIN_CR07_5 OBJ -2.0
    DHTIN_CR07_5 DSLBAL_CR07_5 -1.0
    DHTIN_CR07_5 DHTCAP_5 1.0
    DHTIN_CR07_5 DHTY_5 -0.98
    DSLDIR_CR07_5 DSLBAL_CR07_5 -1.0
    DSLDIR_CR07_5 DSLPB_5 -1.0
    DSLDIR_CR07_5 DSLSUL_5 0.06500943297844713
    DHTIN_CR08_5 OBJ -2.0
    DHTIN_CR08_5 DSLBAL_CR08_5 -1.0
    DHTIN_CR08_5 DHTCAP_5 1.0
    DHTIN_CR08_5 DHTY_5 -0.98
    DSLDIR_CR08_5 DSLBAL_CR08_5 -1.0
    DSLDIR_CR08_5 DSLPB_5 -1.0
    DSLDIR_CR08_5 DSLSUL_5 1.0136884541165885
    DHTIN_CR09_5 OBJ -2.0
    DHTIN_CR09_5 DSLBAL_CR09_5 -1.0
    DHTIN_CR09_5 DHTCAP_5 1.0
    DHTIN_CR09_5 DHTY_5 -0.98
    DSLDIR_CR09_5 DSLBAL_CR09_5 -1.0
    DSLDIR_CR09_5 DSLPB_5 -1.0
    DSLDIR_CR09_5 DSLSUL_5 0.020618980777730833
    DHTIN_CR10_5 OBJ -2.0
    DHTIN_CR10_5 DSLBAL_CR10_5 -1.0
    DHTIN_CR10_5 DHTCAP_5 1.0
    DHTIN_CR10_5 DHTY_5 -0.98
    DSLDIR_CR10_5 DSLBAL_CR10_5 -1.0
    DSLDIR_CR10_5 DSLPB_5 -1.0
    DSLDIR_CR10_5 DSLSUL_5 1.62821888862855
    DHTIN_CR11_5 OBJ -2.0
    DHTIN_CR11_5 DSLBAL_CR11_5 -1.0
    DHTIN_CR11_5 DHTCAP_5 1.0
    DHTIN_CR11_5 DHTY_5 -0.98
    DSLDIR_CR11_5 DSLBAL_CR11_5 -1.0
    DSLDIR_CR11_5 DSLPB_5 -1.0
    DSLDIR_CR11_5 DSLSUL_5 0.8621530481854874
    DHTIN_CR12_5 OBJ -2.0
    DHTIN_CR12_5 DSLBAL_CR12_5 -1.0
    DHTIN_CR12_5 DHTCAP_5 1.0
    DHTIN_CR12_5 DHTY_5 -0.98
    DSLDIR_CR12_5 DSLBAL_CR12_5 -1.0
    DSLDIR_CR12_5 DSLPB_5 -1.0
    DSLDIR_CR12_5 DSLSUL_5 1.5756453880298185
    DHTIN_CR13_5 OBJ -2.0
    DHTIN_CR13_5 DSLBAL_CR13_5 -1.0
    DHTIN_CR13_5 DHTCAP_5 1.0
    DHTIN_CR13_5 DHTY_5 -0.98
    DSLDIR_CR13_5 DSLBAL_CR13_5 -1.0
    DSLDIR_CR13_5 DSLPB_5 -1.0
    DSLDIR_CR13_5 DSLSUL_5 0.13929860406737604
    DHTIN_CR14_5 OBJ -2.0
    DHTIN_CR14_5 DSLBAL_CR14_5 -1.0
    DHTIN_CR14_5 DHTCAP_5 1.0
    DHTIN_CR14_5 DHTY_5 -0.98
    DSLDIR_CR14_5 DSLBAL_CR14_5 -1.0
    DSLDIR_CR14_5 DSLPB_5 -1.0
    DSLDIR_CR14_5 DSLSUL_5 0.7289962148563339
    DHTIN_CR15_5 OBJ -2.0
    DHTIN_CR15_5 DSLBAL_CR15_5 -1.0
    DHTIN_CR15_5 DHTCAP_5 1.0
    DHTIN_CR15_5 DHTY_5 -0.98
    DSLDIR_CR15_5 DSLBAL_CR15_5 -1.0
    DSLDIR_CR15_5 DSLPB_5 -1.0
    DSLDIR_CR15_5 DSLSUL_5 0.0432280087396993
    DHTIN_CR16_5 OBJ -2.0
    DHTIN_CR16_5 DSLBAL_CR16_5 -1.0
    DHTIN_CR16_5 DHTCAP_5 1.0
    DHTIN_CR16_5 DHTY_5 -0.98
    DSLDIR_CR16_5 DSLBAL_CR16_5 -1.0
    DSLDIR_CR16_5 DSLPB_5 -1.0
    DSLDIR_CR16_5 DSLSUL_5 0.970875101525871
    DHTIN_CR17_5 OBJ -2.0
    DHTIN_CR17_5 DSLBAL_CR17_5 -1.0
    DHTIN_CR17_5 DHTCAP_5 1.0
    DHTIN_CR17_5 DHTY_5 -0.98
    DSLDIR_CR17_5 DSLBAL_CR17_5 -1.0
    DSLDIR_CR17_5 DSLPB_5 -1.0
    DSLDIR_CR17_5 DSLSUL_5 1.6384936942773962
    DHTIN_CR18_5 OBJ -2.0
    DHTIN_CR18_5 DSLBAL_CR18_5 -1.0
    DHTIN_CR18_5 DHTCAP_5 1.0
    DHTIN_CR18_5 DHTY_5 -0.98
    DSLDIR_CR18_5 DSLBAL_CR18_5 -1.0
    DSLDIR_CR18_5 DSLPB_5 -1.0
    DSLDIR_CR18_5 DSLSUL_5 0.08052474691335985
    DHTIN_CR19_5 OBJ -2.0
    DHTIN_CR19_5 DSLBAL_CR19_5 -1.0
    DHTIN_CR19_5 DHTCAP_5 1.0
    DHTIN_CR19_5 DHTY_5 -0.98
    DSLDIR_CR19_5 DSLBAL_CR19_5 -1.0
    DSLDIR_CR19_5 DSLPB_5 -1.0
    DSLDIR_CR19_5 DSLSUL_5 0.6552914452864763
    LCODHT_5 LCOBAL_5 -1.0
    LCODHT_5 DHTCAP_5 1.0
    LCODHT_5 DHTY_5 -0.95
    LCOFO_5 LCOBAL_5 -1.0
    LCOFO_5 FOBAL_5 -1.0
    LCOFO_5 FOSUL_5 -2.5
    ULSD_5 DHTY_5 1.0
    ULSD_5 DSLPB_5 -1.0
    ULSD_5 DSLSUL_5 -0.049
    SELL_LPG_5 OBJ 57.75
    SELL_LPG_5 PBAL_LPG_5 -1.0
    SELL_LPG_5 DMAX_LPG_5 1.0
    SELL_LPG_5 DMIN_LPG_5 1.0
    SELL_GAS_5 OBJ 110.25
    SELL_GAS_5 PBAL_GAS_5 -1.0
    SELL_GAS_5 DMAX_GAS_5 1.0
    SELL_GAS_5 DMIN_GAS_5 1.0
    SELL_JET_5 OBJ 105.0
    SELL_JET_5 PBAL_JET_5 -1.0
    SELL_JET_5 DMAX_JET_5 1.0
    SELL_JET_5 DMIN_JET_5 1.0
    SELL_DSL_5 OBJ 102.9
    SELL_DSL_5 PBAL_DSL_5 -1.0
    SELL_DSL_5 DMAX_DSL_5 1.0
    SELL_DSL_5 DMIN_DSL_5 1.0
    SELL_FO_5 OBJ 63.0
    SELL_FO_5 PBAL_FO_5 -1.0
    SELL_FO_5 DMAX_FO_5 1.0
    SELL_FO_5 DMIN_FO_5 1.0
    PINV_LPG_5 OBJ -0.5
    PINV_LPG_5 PBAL_LPG_5 -1.0
    PINV_LPG_5 PBAL_LPG_6 1.0
    PINV_GAS_5 OBJ -0.5
    PINV_GAS_5 PBAL_GAS_5 -1.0
    PINV_GAS_5 PBAL_GAS_6 1.0
    PINV_JET_5 OBJ -0.5
    PINV_JET_5 PBAL_JET_5 -1.0
    PINV_JET_5 PBAL_JET_6 1.0
    PINV_DSL_5 OBJ -0.5
    PINV_DSL_5 PBAL_DSL_5 -1.0
    PINV_DSL_5 PBAL_DSL_6 1.0
    PINV_FO_5 OBJ -0.5
    PINV_FO_5 PBAL_FO_5 -1.0
    PINV_FO_5 PBAL_FO_6 1.0
    SHORT_LPG_5 OBJ -400.0
    SHORT_LPG_5 DMIN_LPG_5 1.0
    SHORT_GAS_5 OBJ -400.0
    SHORT_GAS_5 DMIN_GAS_5 1.0
    SHORT_JET_5 OBJ -400.0
    SHORT_JET_5 DMIN_JET_5 1.0
    SHORT_DSL_5 OBJ -400.0
    SHORT_DSL_5 DMIN_DSL_5 1.0
    SHORT_FO_5 OBJ -400.0
    SHORT_FO_5 DMIN_FO_5 1.0
    GASPOOL_5 GASBAL_5 1.0
    GASPOOL_5 PBAL_GAS_5 1.0
    JETPOOL_5 JETBAL_5 1.0
    JETPOOL_5 PBAL_JET_5 1.0
    KERJET_CR00_5 KERBAL_CR00_5 -1.0
    KERJET_CR00_5 JETBAL_5 -1.0
    KERJET_CR00_5 JETSUL_5 0.10905668767581322
    KERDSL_CR00_5 KERBAL_CR00_5 -1.0
    KERDSL_CR00_5 DSLPB_5 -1.0
    KERDSL_CR00_5 DSLSUL_5 0.3590566876758132
    KERJET_CR01_5 KERBAL_CR01_5 -1.0
    KERJET_CR01_5 JETBAL_5 -1.0
    KERJET_CR01_5 JETSUL_5 -0.08376331342415014
    KERDSL_CR01_5 KERBAL_CR01_5 -1.0
    KERDSL_CR01_5 DSLPB_5 -1.0
    KERDSL_CR01_5 DSLSUL_5 0.16623668657584983
    KERJET_CR02_5 KERBAL_CR02_5 -1.0
    KERJET_CR02_5 JETBAL_5 -1.0
    KERJET_CR02_5 JETSUL_5 -0.033243200151024055
    KERDSL_CR02_5 KERBAL_CR02_5 -1.0
    KERDSL_CR02_5 DSLPB_5 -1.0
    KERDSL_CR02_5 DSLSUL_5 0.21675679984897595
    KERJET_CR03_5 KERBAL_CR03_5 -1.0
    KERJET_CR03_5 JETBAL_5 -1.0
    KERJET_CR03_5 JETSUL_5 -0.17764705818344229
    KERDSL_CR03_5 KERBAL_CR03_5 -1.0
    KERDSL_CR03_5 DSLPB_5 -1.0
    KERDSL_CR03_5 DSLSUL_5 0.0723529418165577
    KERJET_CR04_5 KERBAL_CR04_5 -1.0
    KERJET_CR04_5 JETBAL_5 -1.0
    KERJET_CR04_5 JETSUL_5 0.11487513588980985
    KERDSL_CR04_5 KERBAL_CR04_5 -1.0
    KERDSL_CR04_5 DSLPB_5 -1.0
    KERDSL_CR04_5 DSLSUL_5 0.36487513588980985
    KERJET_CR05_5 KERBAL_CR05_5 -1.0
    KERJET_CR05_5 JETBAL_5 -1.0
    KERJET_CR05_5 JETSUL_5 -0.011775018143244831
    KERDSL_CR05_5 KERBAL_CR05_5 -1.0
    KERDSL_CR05_5 DSLPB_5 -1.0
    KERDSL_CR05_5 DSLSUL_5 0.23822498185675517
    KERJET_CR06_5 KERBAL_CR06_5 -1.0
    KERJET_CR06_5 JETBAL_5 -1.0
    KERJET_CR06_5 JETSUL_5 -0.029808575954508865
    KERDSL_CR06_5 KERBAL_CR06_5 -1.0
    KERDSL_CR06_5 DSLPB_5 -1.0
    KERDSL_CR06_5 DSLSUL_5 0.22019142404549114
    KERJET_CR07_5 KERBAL_CR07_5 -1.0
    KERJET_CR07_5 JETBAL_5 -1.0
    KERJET_CR07_5 JETSUL_5 -0.2712476417553882
    KERDSL_CR07_5 KERBAL_CR07_5 -1.0
    KERDSL_CR07_5 DSLPB_5 -1.0
    KERDSL_CR07_5 DSLSUL_5 -0.02124764175538822
    KERJET_CR08_5 KERBAL_CR08_5 -1.0
    KERJET_CR08_5 JETBAL_5 -1.0
    KERJET_CR08_5 JETSUL_5 -0.03407788647085286
    KERDSL_CR08_5 KERBAL_CR08_5 -1.0
    KERDSL_CR08_5 DSLPB_5 -1.0
    KERDSL_CR08_5 DSLSUL_5 0.21592211352914714
    KERJET_CR09_5 KERBAL_CR09_5 -1.0
    KERJET_CR09_5 JETBAL_5 -1.0
    KERJET_CR09_5 JETSUL_5 -0.28234525480556727
    KERDSL_CR09_5 KERBAL_CR09_5 -1.0
    KERDSL_CR09_5 DSLPB_5 -1.0
    KERDSL_CR09_5 DSLSUL_5 -0.0323452548055673
    KERJET_CR10_5 KERBAL_CR10_5 -1.0
    KERJET_CR10_5 JETBAL_5 -1.0
    KERJET_CR10_5 JETSUL_5 0.11955472215713753
    KERDSL_CR10_5 KERBAL_CR10_5 -1.0
    KERDSL_CR10_5 DSLPB_5 -1.0
    KERDSL_CR10_5 DSLSUL_5 0.3695547221571375
    KERJET_CR11_5 KERBAL_CR11_5 -1.0
    KERJET_CR11_5 JETBAL_5 -1.0
    KERJET_CR11_5 JETSUL_5 -0.07196173795362812
    KERDSL_CR11_5 KERBAL_CR11_5 -1.0
    KERDSL_CR11_5 DSLPB_5 -1.0
    KERDSL_CR11_5 DSLSUL_5 0.17803826204637185
    KERJET_CR12_5 KERBAL_CR12_5 -1.0
    KERJET_CR12_5 JETBAL_5 -1.0
    KERJET_CR12_5 JETSUL_5 0.10641134700745464
    KERDSL_CR12_5 KERBAL_CR12_5 -1.0
    KERDSL_CR12_5 DSLPB_5 -1.0
    KERDSL_CR12_5 DSLSUL_5 0.35641134700745464
    KERJET_CR13_5 KERBAL_CR13_5 -1.0
    KERJET_CR13_5 JETBAL_5 -1.0
    KERJET_CR13_5 JETSUL_5 -0.25267534898315597
    KERDSL_CR13_5 KERBAL_CR13_5 -1.0
    KERDSL_CR13_5 DSLPB_5 -1.0
    KERDSL_CR13_5 DSLSUL_5 -0.002675348983155995
    KERJET_CR14_5 KERBAL_CR14_5 -1.0
    KERJET_CR14_5 JETBAL_5 -1.0
    KERJET_CR14_5 JETSUL_5 -0.1052509462859165
    KERDSL_CR14_5 KERBAL_CR14_5 -1.0
    KERDSL_CR14_5 DSLPB_5 -1.0
    KERDSL_CR14_5 DSLSUL_5 0.14474905371408348
    KERJET_CR15_5 KERBAL_CR15_5 -1.0
    KERJET_CR15_5 JETBAL_5 -1.0
    KERJET_CR15_5 JETSUL_5 -0.27669299781507517
    KERDSL_CR15_5 KERBAL_CR15_5 -1.0
    KERDSL_CR15_5 DSLPB_5 -1.0
    KERDSL_CR15_5 DSLSUL_5 -0.026692997815075177
    KERJET_CR16_5 KERBAL_CR16_5 -1.0
    KERJET_CR16_5 JETBAL_5 -1.0
    KERJET_CR16_5 JETSUL_5 -0.044781224618532234
    KERDSL_CR16_5 KERBAL_CR16_5 -1.0
    KERDSL_CR16_5 DSLPB_5 -1.0
    KERDSL_CR16_5 DSLSUL_5 0.20521877538146777
    KERJET_CR17_5 KERBAL_CR17_5 -1.0
    KERJET_CR17_5 JETBAL_5 -1.0
    KERJET_CR17_5 JETSUL_5 0.12212342356934908
    KERDSL_CR17_5 KERBAL_CR17_5 -1.0
    KERDSL_CR17_5 DSLPB_5 -1.0
    KERDSL_CR17_5 DSLSUL_5 0.3721234235693491
    KERJET_CR18_5 KERBAL_CR18_5 -1.0
    KERJET_CR18_5 JETBAL_5 -1.0
    KERJET_CR18_5 JETSUL_5 -0.26736881327166
    KERDSL_CR18_5 KERBAL_CR18_5 -1.0
    KERDSL_CR18_5 DSLPB_5 -1.0
    KERDSL_CR18_5 DSLSUL_5 -0.01736881327166004
    KERJET_CR19_5 KERBAL_CR19_5 -1.0
    KERJET_CR19_5 JETBAL_5 -1.0
    KERJET_CR19_5 JETSUL_5 -0.1236771386783809
    KERDSL_CR19_5 KERBAL_CR19_5 -1.0
    KERDSL_CR19_5 DSLPB_5 -1.0
    KERDSL_CR19_5 DSLSUL_5 0.12632286132161907
    DSLPOOL_5 DSLPB_5 1.0
    DSLPOOL_5 PBAL_DSL_5 1.0
    LPGPOOL_5 LPGBAL_5 1.0
    LPGPOOL_5 PBAL_LPG_5 1.0
    FOPOOL_5 FOBAL_5 1.0
    FOPOOL_5 PBAL_FO_5 1.0
    BUY_CR00_6 OBJ -56.95987321907413
    BUY_CR00_6 CBAL_CR00_6 1.0
    CINV_CR00_6 OBJ -0.3
    CINV_CR00_6 CBAL_CR00_6 -1.0
    CINV_CR00_6 CBAL_CR00_7 1.0
    CDU_CR00_6 CBAL_CR00_6 -1.0
    CDU_CR00_6 CDUCAP_6 1.0
    CDU_CR00_6 YLPG_CR00_6 -0.013786055933968056
    CDU_CR00_6 YNAP_CR00_6 -0.1214444916358349
    CDU_CR00_6 YKER_CR00_6 -0.10646372452567733
    CDU_CR00_6 YDSL_CR00_6 -0.20292085263352289
    CDU_CR00_6 YVGO_CR00_6 -0.27390944719057636
    CDU_CR00_6 YRES_CR00_6 -0.28147542808042036
    BUY_CR01_6 OBJ -71.94469661227701
    BUY_CR01_6 CBAL_CR01_6 1.0
    CINV_CR01_6 OBJ -0.3
    CINV_CR01_6 CBAL_CR01_6 -1.0
    CINV_CR01_6 CBAL_CR01_7 1.0
    CDU_CR01_6 CBAL_CR01_6 -1.0
    CDU_CR01_6 CDUCAP_6 1.0
    CDU_CR01_6 YLPG_CR01_6 -0.025127543584387436
    CDU_CR01_6 YNAP_CR01_6 -0.2025917905849106
    CDU_CR01_6 YKER_CR01_6 -0.13410952106049506
    CDU_CR01_6 YDSL_CR01_6 -0.24728591651278542
    CDU_CR01_6 YVGO_CR01_6 -0.22897185950088417
    CDU_CR01_6 YRES_CR01_6 -0.16191336875653717
    BUY_CR02_6 OBJ -58.87745313109407
    BUY_CR02_6 CBAL_CR02_6 1.0
    CINV_CR02_6 OBJ -0.3
    CINV_CR02_6 CBAL_CR02_6 -1.0
    CINV_CR02_6 CBAL_CR02_7 1.0
    CDU_CR02_6 CBAL_CR02_6 -1.0
    CDU_CR02_6 CDUCAP_6 1.0
    CDU_CR02_6 YLPG_CR02_6 -0.013444753666275039
    CDU_CR02_6 YNAP_CR02_6 -0.11889710072836579
    CDU_CR02_6 YKER_CR02_6 -0.103840437143255
    CDU_CR02_6 YDSL_CR02_6 -0.21229612809407214
    CDU_CR02_6 YVGO_CR02_6 -0.2628713956905896
    CDU_CR02_6 YRES_CR02_6 -0.28865018467744247
    BUY_CR03_6 OBJ -64.85408528218376
    BUY_CR03_6 CBAL_CR03_6 1.0
    CINV_CR03_6 OBJ -0.3
    CINV_CR03_6 CBAL_CR03_6 -1.0
    CINV_CR03_6 CBAL_CR03_7 1.0
    CDU_CR03_6 CBAL_CR03_6 -1.0
    CDU_CR03_6 CDUCAP_6 1.0
    CDU_CR03_6 YLPG_CR03_6 -0.01400858068810675
    CDU_CR03_6 YNAP_CR03_6 -0.1424923117986131
    CDU_CR03_6 YKER_CR03_6 -0.10784088582669263
    CDU_CR03_6 YDSL_CR03_6 -0.19279120630762445
    CDU_CR03_6 YVGO_CR03_6 -0.28544626211923063
    CDU_CR03_6 YRES_CR03_6 -0.2574207532597324
    BUY_CR04_6 OBJ -70.61501835725394
    BUY_CR04_6 CBAL_CR04_6 1.0
    CINV_CR04_6 OBJ -0.3
    CINV_CR04_6 CBAL_CR04_6 -1.0
    CINV_CR04_6 CBAL_CR04_7 1.0
    CDU_CR04_6 CBAL_CR04_6 -1.0
    CDU_CR04_6 CDUCAP_6 1.0
    CDU_CR04_6 YLPG_CR04_6 -0.02335213093765316
    CDU_CR04_6 YNAP_CR04_6 -0.2292355396921612
    CDU_CR04_6 YKER_CR04_6 -0.14240695851543803
    CDU_CR04_6 YDSL_CR04_6 -0.24384363627499198
    CDU_CR04_6 YVGO_CR04_6 -0.2465326974706559
    CDU_CR04_6 YRES_CR04_6 -0.1146290371090997
    BUY_CR05_6 OBJ -63.90333589829206
    BUY_CR05_6 CBAL_CR05_6 1.0
    CINV_CR05_6 OBJ -0.3
    CINV_CR05_6 CBAL_CR05_6 -1.0
    CINV_CR05_6 CBAL_CR05_7 1.0
    CDU_CR05_6 CBAL_CR05_6 -1.0
    CDU_CR05_6 CDUCAP_6 1.0
    CDU_CR05_6 YLPG_CR05_6 -0.01735729802728813
    CDU_CR05_6 YNAP_CR05_6 -0.16608619710065003
    CDU_CR05_6 YKER_CR05_6 -0.1170544437563835
    CDU_CR05_6 YDSL_CR05_6 -0.22299235889970878
    CDU_CR05_6 YVGO_CR05_6 -0.2433490540516293
    CDU_CR05_6 YRES_CR05_6 -0.23316064816434035
    BUY_CR06_6 OBJ -61.63650449058762
    BUY_CR06_6 CBAL_CR06_6 1.0
    CINV_CR06_6 OBJ -0.3
    CINV_CR06_6 CBAL_CR06_6 -1.0
    CINV_CR06_6 CBAL_CR06_7 1.0
    CDU_CR06_6 CBAL_CR06_6 -1.0
    CDU_CR06_6 CDUCAP_6 1.0
    CDU_CR06_6 YLPG_CR06_6 -0.014219474855875663
    CDU_CR06_6 YNAP_CR06_6 -0.13746806025500902
    CDU_CR06_6 YKER_CR06_6 -0.10533897185985656
    CDU_CR06_6 YDSL_CR06_6 -0.20403840195434858
    CDU_CR06_6 YVGO_CR06_6 -0.26484358994429863
    CDU_CR06_6 YRES_CR06_6 -0.27409150113061165
    BUY_CR07_6 OBJ -69.46925631660687
    BUY_CR07_6 CBAL_CR07_6 1.0
    CINV_CR07_6 OBJ -0.3
    CINV_CR07_6 CBAL_CR07_6 -1.0
    CINV_CR07_6 CBAL_CR07_7 1.0
    CDU_CR07_6 CBAL_CR07_6 -1.0
    CDU_CR07_6 CDUCAP_6 1.0
    CDU_CR07_6 YLPG_CR07_6 -0.01678766142162217
    CDU_CR07_6 YNAP_CR07_6 -0.18341674311422207
    CDU_CR07_6 YKER_CR07_6 -0.13271469159016522
    CDU_CR07_6 YDSL_CR07_6 -0.2249127244045356
    CDU_CR07_6 YVGO_CR07_6 -0.24848613807316539
    CDU_CR07_6 YRES_CR07_6 -0.19368204139628944
    BUY_CR08_6 OBJ -68.91401594300862
    BUY_CR08_6 CBAL_CR08_6 1.0
    CINV_CR08_6 OBJ -0.3
    CINV_CR08_6 CBAL_CR08_6 -1.0
    CINV_CR08_6 CBAL_CR08_7 1.0
    CDU_CR08_6 CBAL_CR08_6 -1.0
    CDU_CR08_6 CDUCAP_6 1.0
    CDU_CR08_6 YLPG_CR08_6 -0.023930881960770135
    CDU_CR08_6 YNAP_CR08_6 -0.199474063989656
    CDU_CR08_6 YKER_CR08_6 -0.13012967624359006
    CDU_CR08_6 YDSL_CR08_6 -0.24906213509239003
    CDU_CR08_6 YVGO_CR08_6 -0.24247509330512357
    CDU_CR08_6 YRES_CR08_6 -0.15492814940847022
    BUY_CR09_6 OBJ -76.90189972366362
    BUY_CR09_6 CBAL_CR09_6 1.0
    CINV_CR09_6 OBJ -0.3
    CINV_CR09_6 CBAL_CR09_6 -1.0
    CINV_CR09_6 CBAL_CR09_7 1.0
    CDU_CR09_6 CBAL_CR09_6 -1.0
    CDU_CR09_6 CDUCAP_6 1.0
    CDU_CR09_6 YLPG_CR09_6 -0.0254414593142613
    CDU_CR09_6 YNAP_CR09_6 -0.2406668892422991
    CDU_CR09_6 YKER_CR09_6 -0.14150533274546892
    CDU_CR09_6 YDSL_CR09_6 -0.23713673044274025
    CDU_CR09_6 YVGO_CR09_6 -0.23566730460149374
    CDU_CR09_6 YRES_CR09_6 -0.11958228365373665
    BUY_CR10_6 OBJ -57.259058449362435
    BUY_CR10_6 CBAL_CR10_6 1.0
    CINV_CR10_6 OBJ -0.3
    CINV_CR10_6 CBAL_CR10_6 -1.0
    CINV_CR10_6 CBAL_CR10_7 1.0
    CDU_CR10_6 CBAL_CR10_6 -1.0
    CDU_CR10_6 CDUCAP_6 1.0
    CDU_CR10_6 YLPG_CR10_6 -0.012631058640766385
    CDU_CR10_6 YNAP_CR10_6 -0.11501159644639905
    CDU_CR10_6 YKER_CR10_6 -0.1080956731900355
    CDU_CR10_6 YDSL_CR10_6 -0.20982857494392457
    CDU_CR10_6 YVGO_CR10_6 -0.2722572086368098
    CDU_CR10_6 YRES_CR10_6 -0.28217588814206473
    BUY_CR11_6 OBJ -68.57500501760553
    BUY_CR11_6 CBAL_CR11_6 1.0
    CINV_CR11_6 OBJ -0.3
    CINV_CR11_6 CBAL_CR11_6 -1.0
    CINV_CR11_6 CBAL_CR11_7 1.0
    CDU_CR11_6 CBAL_CR11_6 -1.0
    CDU_CR11_6 CDUCAP_6 1.0
    CDU_CR11_6 YLPG_CR11_6 -0.018171926805686592
    CDU_CR11_6 YNAP_CR11_6 -0.18017303538659502
    CDU_CR11_6 YKER_CR11_6 -0.11622304467804759
    CDU_CR11_6 YDSL_CR11_6 -0.22678215323461023
    CDU_CR11_6 YVGO_CR11_6 -0.2637522217068048
    CDU_CR11_6 YRES_CR11_6 -0.19489761818825582
    BUY_CR12_6 OBJ -58.58746090101058
    BUY_CR12_6 CBAL_CR12_6 1.0
    CINV_CR12_6 OBJ -0.3
    CINV_CR12_6 CBAL_CR12_6 -1.0
    CINV_CR12_6 CBAL_CR12_7 1.0
    CDU_CR12_6 CBAL_CR12_6 -1.0
    CDU_CR12_6 CDUCAP_6 1.0
    CDU_CR12_6 YLPG_CR12_6 -0.016285402257558677
    CDU_CR12_6 YNAP_CR12_6 -0.1394251111460902
    CDU_CR12_6 YKER_CR12_6 -0.10627583407346515
    CDU_CR12_6 YDSL_CR12_6 -0.2004859030026821
    CDU_CR12_6 YVGO_CR12_6 -0.29053476615254664
    CDU_CR12_6 YRES_CR12_6 -0.2469929833676572
    BUY_CR13_6 OBJ -68.05040152741866
    BUY_CR13_6 CBAL_CR13_6 1.0
    CINV_CR13_6 OBJ -0.3
    CINV_CR13_6 CBAL_CR13_6 -1.0
    CINV_CR13_6 CBAL_CR13_7 1.0
    CDU_CR13_6 CBAL_CR13_6 -1.0
    CDU_CR13_6 CDUCAP_6 1.0
    CDU_CR13_6 YLPG_CR13_6 -0.015405562084299341
    CDU_CR13_6 YNAP_CR13_6 -0.1597372095049784
    CDU_CR13_6 YKER_CR13_6 -0.109230580221756
    CDU_CR13_6 YDSL_CR13_6 -0.20799117245133522
    CDU_CR13_6 YVGO_CR13_6 -0.2743070543343612
    CDU_CR13_6 YRES_CR13_6 -0.23332842140326976
    BUY_CR14_6 OBJ -61.072336850798536
    BUY_CR14_6 CBAL_CR14_6 1.0
    CINV_CR14_6 OBJ -0.3
    CINV_CR14_6 CBAL_CR14_6 -1.0
    CINV_CR14_6 CBAL_CR14_7 1.0
    CDU_CR14_6 CBAL_CR14_6 -1.0
    CDU_CR14_6 CDUCAP_6 1.0
    CDU_CR14_6 YLPG_CR14_6 -0.011676212845503672
    CDU_CR14_6 YNAP_CR14_6 -0.10963647957865116
    CDU_CR14_6 YKER_CR14_6 -0.09755861914812415
    CDU_CR14_6 YDSL_CR14_6 -0.22400035528460593
    CDU_CR14_6 YVGO_CR14_6 -0.27985390356413214
    CDU_CR14_6 YRES_CR14_6 -0.2772744295789829
    BUY_CR15_6 OBJ -63.54614951393663
    BUY_CR15_6 CBAL_CR15_6 1.0
    CINV_CR15_6 OBJ -0.3
    CINV_CR15_6 CBAL_CR15_6 -1.0
    CINV_CR15_6 CBAL_CR15_7 1.0
    CDU_CR15_6 CBAL_CR15_6 -1.0
    CDU_CR15_6 CDUCAP_6 1.0
    CDU_CR15_6 YLPG_CR15_6 -0.010625779986084445
    CDU_CR15_6 YNAP_CR15_6 -0.11766680402271243
    CDU_CR15_6 YKER_CR15_6 -0.09531893966264804
    CDU_CR15_6 YDSL_CR15_6 -0.2087175638151306
    CDU_CR15_6 YVGO_CR15_6 -0.2798835604956035
    CDU_CR15_6 YRES_CR15_6 -0.287787352017821
    BUY_CR16_6 OBJ -67.89722649860653
    BUY_CR16_6 CBAL_CR16_6 1.0
    CINV_CR16_6 OBJ -0.3
    CINV_CR16_6 CBAL_CR16_6 -1.0
    CINV_CR16_6 CBAL_CR16_7 1.0
    CDU_CR16_6 CBAL_CR16_6 -1.0
    CDU_CR16_6 CDUCAP_6 1.0
    CDU_CR16_6 YLPG_CR16_6 -0.021730435986974463
    CDU_CR16_6 YNAP_CR16_6 -0.22346814322949868
    CDU_CR16_6 YKER_CR16_6 -0.12962692092969477
    CDU_CR16_6 YDSL_CR16_6 -0.23580083169350696
    CDU_CR16_6 YVGO_CR16_6 -0.23197545191976185
    CDU_CR16_6 YRES_CR16_6 -0.1573982162405634
    BUY_CR17_6 OBJ -67.50860474055729
    BUY_CR17_6 CBAL_CR17_6 1.0
    CINV_CR17_6 OBJ -0.3
    CINV_CR17_6 CBAL_CR17_6 -1.0
    CINV_CR17_6 CBAL_CR17_7 1.0
    CDU_CR17_6 CBAL_CR17_6 -1.0
    CDU_CR17_6 CDUCAP_6 1.0
    CDU_CR17_6 YLPG_CR17_6 -0.023568928491133005
    CDU_CR17_6 YNAP_CR17_6 -0.24678008017283823
    CDU_CR17_6 YKER_CR17_6 -0.12826932733432603
    CDU_CR17_6 YDSL_CR17_6 -0.2495178182316694
    CDU_CR17_6 YVGO_CR17_6 -0.23510202280801157
    CDU_CR17_6 YRES_CR17_6 -0.1167618229620217
    BUY_CR18_6 OBJ -75.61453673883972
    BUY_CR18_6 CBAL_CR18_6 1.0
    CINV_CR18_6 OBJ -0.3
    CINV_CR18_6 CBAL_CR18_6 -1.0
    CINV_CR18_6 CBAL_CR18_7 1.0
    CDU_CR18_6 CBAL_CR18_6 -1.0
    CDU_CR18_6 CDUCAP_6 1.0
    CDU_CR18_6 YLPG_CR18_6 -0.02478422291723085
    CDU_CR18_6 YNAP_CR18_6 -0.23955258573301338
    CDU_CR18_6 YKER_CR18_6 -0.1322077813000583
    CDU_CR18_6 YDSL_CR18_6 -0.21167154879043004
    CDU_CR18_6 YVGO_CR18_6 -0.24506150244942554
    CDU_CR18_6 YRES_CR18_6 -0.146722358809842
    BUY_CR19_6 OBJ -64.49428644471472
    BUY_CR19_6 CBAL_CR19_6 1.0
    CINV_CR19_6 OBJ -0.3
    CINV_CR19_6 CBAL_CR19_6 -1.0
    CINV_CR19_6 CBAL_CR19_7 1.0
    CDU_CR19_6 CBAL_CR19_6 -1.0
    CDU_CR19_6 CDUCAP_6 1.0
    CDU_CR19_6 YLPG_CR19_6 -0.01626067739955701
    CDU_CR19_6 YNAP_CR19_6 -0.1715066574732045
    CDU_CR19_6 YKER_CR19_6 -0.11836465284470915
    CDU_CR19_6 YDSL_CR19_6 -0.20874443204167248
    CDU_CR19_6 YVGO_CR19_6 -0.2445178967491453
    CDU_CR19_6 YRES_CR19_6 -0.24060568349171155
    LPG_CR00_6 YLPG_CR00_6 1.0
    LPG_CR00_6 LPGBAL_6 -1.0
    NAP_CR00_6 YNAP_CR00_6 1.0
    NAP_CR00_6 NAPBAL_CR00_6 1.0
    KER_CR00_6 YKER_CR00_6 1.0
    KER_CR00_6 KERBAL_CR00_6 1.0
    DSL_CR00_6 YDSL_CR00_6 1.0
    DSL_CR00_6 DSLBAL_CR00_6 1.0
    VGO_CR00_6 YVGO_CR00_6 1.0
    VGO_CR00_6 VGOBAL_CR00_6 1.0
    RES_CR00_6 YRES_CR00_6 1.0
    RES_CR00_6 RESSPLIT_CR00_6 1.0
    LPG_CR01_6 YLPG_CR01_6 1.0
    LPG_CR01_6 LPGBAL_6 -1.0
    NAP_CR01_6 YNAP_CR01_6 1.0
    NAP_CR01_6 NAPBAL_CR01_6 1.0
    KER_CR01_6 YKER_CR01_6 1.0
    KER_CR01_6 KERBAL_CR01_6 1.0
    DSL_CR01_6 YDSL_CR01_6 1.0
    DSL_CR01_6 DSLBAL_CR01_6 1.0
    VGO_CR01_6 YVGO_CR01_6 1.0
    VGO_CR01_6 VGOBAL_CR01_6 1.0
    RES_CR01_6 YRES_CR01_6 1.0
    RES_CR01_6 RESSPLIT_CR01_6 1.0
    LPG_CR02_6 YLPG_CR02_6 1.0
    LPG_CR02_6 LPGBAL_6 -1.0
    NAP_CR02_6 YNAP_CR02_6 1.0
    NAP_CR02_6 NAPBAL_CR02_6 1.0
    KER_CR02_6 YKER_CR02_6 1.0
    KER_CR02_6 KERBAL_CR02_6 1.0
    DSL_CR02_6 YDSL_CR02_6 1.0
    DSL_CR02_6 DSLBAL_CR02_6 1.0
    VGO_CR02_6 YVGO_CR02_6 1.0
    VGO_CR02_6 VGOBAL_CR02_6 1.0
    RES_CR02_6 YRES_CR02_6 1.0
    RES_CR02_6 RESSPLIT_CR02_6 1.0
    LPG_CR03_6 YLPG_CR03_6 1.0
    LPG_CR03_6 LPGBAL_6 -1.0
    NAP_CR03_6 YNAP_CR03_6 1.0
    NAP_CR03_6 NAPBAL_CR03_6 1.0
    KER_CR03_6 YKER_CR03_6 1.0
    KER_CR03_6 KERBAL_CR03_6 1.0
    DSL_CR03_6 YDSL_CR03_6 1.0
    DSL_CR03_6 DSLBAL_CR03_6 1.0
    VGO_CR03_6 YVGO_CR03_6 1.0
    VGO_CR03_6 VGOBAL_CR03_6 1.0
    RES_CR03_6 YRES_CR03_6 1.0
    RES_CR03_6 RESSPLIT_CR03_6 1.0
    LPG_CR04_6 YLPG_CR04_6 1.0
    LPG_CR04_6 LPGBAL_6 -1.0
    NAP_CR04_6 YNAP_CR04_6 1.0
    NAP_CR04_6 NAPBAL_CR04_6 1.0
    KER_CR04_6 YKER_CR04_6 1.0
    KER_CR04_6 KERBAL_CR04_6 1.0
    DSL_CR04_6 YDSL_CR04_6 1.0
    DSL_CR04_6 DSLBAL_CR04_6 1.0
    VGO_CR04_6 YVGO_CR04_6 1.0
    VGO_CR04_6 VGOBAL_CR04_6 1.0
    RES_CR04_6 YRES_CR04_6 1.0
    RES_CR04_6 RESSPLIT_CR04_6 1.0
    LPG_CR05_6 YLPG_CR05_6 1.0
    LPG_CR05_6 LPGBAL_6 -1.0
    NAP_CR05_6 YNAP_CR05_6 1.0
    NAP_CR05_6 NAPBAL_CR05_6 1.0
    KER_CR05_6 YKER_CR05_6 1.0
    KER_CR05_6 KERBAL_CR05_6 1.0
    DSL_CR05_6 YDSL_CR05_6 1.0
    DSL_CR05_6 DSLBAL_CR05_6 1.0
    VGO_CR05_6 YVGO_CR05_6 1.0
    VGO_CR05_6 VGOBAL_CR05_6 1.0
    RES_CR05_6 YRES_CR05_6 1.0
    RES_CR05_6 RESSPLIT_CR05_6 1.0
    LPG_CR06_6 YLPG_CR06_6 1.0
    LPG_CR06_6 LPGBAL_6 -1.0
    NAP_CR06_6 YNAP_CR06_6 1.0
    NAP_CR06_6 NAPBAL_CR06_6 1.0
    KER_CR06_6 YKER_CR06_6 1.0
    KER_CR06_6 KERBAL_CR06_6 1.0
    DSL_CR06_6 YDSL_CR06_6 1.0
    DSL_CR06_6 DSLBAL_CR06_6 1.0
    VGO_CR06_6 YVGO_CR06_6 1.0
    VGO_CR06_6 VGOBAL_CR06_6 1.0
    RES_CR06_6 YRES_CR06_6 1.0
    RES_CR06_6 RESSPLIT_CR06_6 1.0
    LPG_CR07_6 YLPG_CR07_6 1.0
    LPG_CR07_6 LPGBAL_6 -1.0
    NAP_CR07_6 YNAP_CR07_6 1.0
    NAP_CR07_6 NAPBAL_CR07_6 1.0
    KER_CR07_6 YKER_CR07_6 1.0
    KER_CR07_6 KERBAL_CR07_6 1.0
    DSL_CR07_6 YDSL_CR07_6 1.0
    DSL_CR07_6 DSLBAL_CR07_6 1.0
    VGO_CR07_6 YVGO_CR07_6 1.0
    VGO_CR07_6 VGOBAL_CR07_6 1.0
    RES_CR07_6 YRES_CR07_6 1.0
    RES_CR07_6 RESSPLIT_CR07_6 1.0
    LPG_CR08_6 YLPG_CR08_6 1.0
    LPG_CR08_6 LPGBAL_6 -1.0
    NAP_CR08_6 YNAP_CR08_6 1.0
    NAP_CR08_6 NAPBAL_CR08_6 1.0
    KER_CR08_6 YKER_CR08_6 1.0
    KER_CR08_6 KERBAL_CR08_6 1.0
    DSL_CR08_6 YDSL_CR08_6 1.0
    DSL_CR08_6 DSLBAL_CR08_6 1.0
    VGO_CR08_6 YVGO_CR08_6 1.0
    VGO_CR08_6 VGOBAL_CR08_6 1.0
    RES_CR08_6 YRES_CR08_6 1.0
    RES_CR08_6 RESSPLIT_CR08_6 1.0
    LPG_CR09_6 YLPG_CR09_6 1.0
    LPG_CR09_6 LPGBAL_6 -1.0
    NAP_CR09_6 YNAP_CR09_6 1.0
    NAP_CR09_6 NAPBAL_CR09_6 1.0
    KER_CR09_6 YKER_CR09_6 1.0
    KER_CR09_6 KERBAL_CR09_6 1.0
    DSL_CR09_6 YDSL_CR09_6 1.0
    DSL_CR09_6 DSLBAL_CR09_6 1.0
    VGO_CR09_6 YVGO_CR09_6 1.0
    VGO_CR09_6 VGOBAL_CR09_6 1.0
    RES_CR09_6 YRES_CR09_6 1.0
    RES_CR09_6 RESSPLIT_CR09_6 1.0
    LPG_CR10_6 YLPG_CR10_6 1.0
    LPG_CR10_6 LPGBAL_6 -1.0
    NAP_CR10_6 YNAP_CR10_6 1.0
    NAP_CR10_6 NAPBAL_CR10_6 1.0
    KER_CR10_6 YKER_CR10_6 1.0
    KER_CR10_6 KERBAL_CR10_6 1.0
    DSL_CR10_6 YDSL_CR10_6 1.0
    DSL_CR10_6 DSLBAL_CR10_6 1.0
    VGO_CR10_6 YVGO_CR10_6 1.0
    VGO_CR10_6 VGOBAL_CR10_6 1.0
    RES_CR10_6 YRES_CR10_6 1.0
    RES_CR10_6 RESSPLIT_CR10_6 1.0
    LPG_CR11_6 YLPG_CR11_6 1.0
    LPG_CR11_6 LPGBAL_6 -1.0
    NAP_CR11_6 YNAP_CR11_6 1.0
    NAP_CR11_6 NAPBAL_CR11_6 1.0
    KER_CR11_6 YKER_CR11_6 1.0
    KER_CR11_6 KERBAL_CR11_6 1.0
    DSL_CR11_6 YDSL_CR11_6 1.0
    DSL_CR11_6 DSLBAL_CR11_6 1.0
    VGO_CR11_6 YVGO_CR11_6 1.0
    VGO_CR11_6 VGOBAL_CR11_6 1.0
    RES_CR11_6 YRES_CR11_6 1.0
    RES_CR11_6 RESSPLIT_CR11_6 1.0
    LPG_CR12_6 YLPG_CR12_6 1.0
    LPG_CR12_6 LPGBAL_6 -1.0
    NAP_CR12_6 YNAP_CR12_6 1.0
    NAP_CR12_6 NAPBAL_CR12_6 1.0
    KER_CR12_6 YKER_CR12_6 1.0
    KER_CR12_6 KERBAL_CR12_6 1.0
    DSL_CR12_6 YDSL_CR12_6 1.0
    DSL_CR12_6 DSLBAL_CR12_6 1.0
    VGO_CR12_6 YVGO_CR12_6 1.0
    VGO_CR12_6 VGOBAL_CR12_6 1.0
    RES_CR12_6 YRES_CR12_6 1.0
    RES_CR12_6 RESSPLIT_CR12_6 1.0
    LPG_CR13_6 YLPG_CR13_6 1.0
    LPG_CR13_6 LPGBAL_6 -1.0
    NAP_CR13_6 YNAP_CR13_6 1.0
    NAP_CR13_6 NAPBAL_CR13_6 1.0
    KER_CR13_6 YKER_CR13_6 1.0
    KER_CR13_6 KERBAL_CR13_6 1.0
    DSL_CR13_6 YDSL_CR13_6 1.0
    DSL_CR13_6 DSLBAL_CR13_6 1.0
    VGO_CR13_6 YVGO_CR13_6 1.0
    VGO_CR13_6 VGOBAL_CR13_6 1.0
    RES_CR13_6 YRES_CR13_6 1.0
    RES_CR13_6 RESSPLIT_CR13_6 1.0
    LPG_CR14_6 YLPG_CR14_6 1.0
    LPG_CR14_6 LPGBAL_6 -1.0
    NAP_CR14_6 YNAP_CR14_6 1.0
    NAP_CR14_6 NAPBAL_CR14_6 1.0
    KER_CR14_6 YKER_CR14_6 1.0
    KER_CR14_6 KERBAL_CR14_6 1.0
    DSL_CR14_6 YDSL_CR14_6 1.0
    DSL_CR14_6 DSLBAL_CR14_6 1.0
    VGO_CR14_6 YVGO_CR14_6 1.0
    VGO_CR14_6 VGOBAL_CR14_6 1.0
    RES_CR14_6 YRES_CR14_6 1.0
    RES_CR14_6 RESSPLIT_CR14_6 1.0
    LPG_CR15_6 YLPG_CR15_6 1.0
    LPG_CR15_6 LPGBAL_6 -1.0
    NAP_CR15_6 YNAP_CR15_6 1.0
    NAP_CR15_6 NAPBAL_CR15_6 1.0
    KER_CR15_6 YKER_CR15_6 1.0
    KER_CR15_6 KERBAL_CR15_6 1.0
    DSL_CR15_6 YDSL_CR15_6 1.0
    DSL_CR15_6 DSLBAL_CR15_6 1.0
    VGO_CR15_6 YVGO_CR15_6 1.0
    VGO_CR15_6 VGOBAL_CR15_6 1.0
    RES_CR15_6 YRES_CR15_6 1.0
    RES_CR15_6 RESSPLIT_CR15_6 1.0
    LPG_CR16_6 YLPG_CR16_6 1.0
    LPG_CR16_6 LPGBAL_6 -1.0
    NAP_CR16_6 YNAP_CR16_6 1.0
    NAP_CR16_6 NAPBAL_CR16_6 1.0
    KER_CR16_6 YKER_CR16_6 1.0
    KER_CR16_6 KERBAL_CR16_6 1.0
    DSL_CR16_6 YDSL_CR16_6 1.0
    DSL_CR16_6 DSLBAL_CR16_6 1.0
    VGO_CR16_6 YVGO_CR16_6 1.0
    VGO_CR16_6 VGOBAL_CR16_6 1.0
    RES_CR16_6 YRES_CR16_6 1.0
    RES_CR16_6 RESSPLIT_CR16_6 1.0
    LPG_CR17_6 YLPG_CR17_6 1.0
    LPG_CR17_6 LPGBAL_6 -1.0
    NAP_CR17_6 YNAP_CR17_6 1.0
    NAP_CR17_6 NAPBAL_CR17_6 1.0
    KER_CR17_6 YKER_CR17_6 1.0
    KER_CR17_6 KERBAL_CR17_6 1.0
    DSL_CR17_6 YDSL_CR17_6 1.0
    DSL_CR17_6 DSLBAL_CR17_6 1.0
    VGO_CR17_6 YVGO_CR17_6 1.0
    VGO_CR17_6 VGOBAL_CR17_6 1.0
    RES_CR17_6 YRES_CR17_6 1.0
    RES_CR17_6 RESSPLIT_CR17_6 1.0
    LPG_CR18_6 YLPG_CR18_6 1.0
    LPG_CR18_6 LPGBAL_6 -1.0
    NAP_CR18_6 YNAP_CR18_6 1.0
    NAP_CR18_6 NAPBAL_CR18_6 1.0
    KER_CR18_6 YKER_CR18_6 1.0
    KER_CR18_6 KERBAL_CR18_6 1.0
    DSL_CR18_6 YDSL_CR18_6 1.0
    DSL_CR18_6 DSLBAL_CR18_6 1.0
    VGO_CR18_6 YVGO_CR18_6 1.0
    VGO_CR18_6 VGOBAL_CR18_6 1.0
    RES_CR18_6 YRES_CR18_6 1.0
    RES_CR18_6 RESSPLIT_CR18_6 1.0
    LPG_CR19_6 YLPG_CR19_6 1.0
    LPG_CR19_6 LPGBAL_6 -1.0
    NAP_CR19_6 YNAP_CR19_6 1.0
    NAP_CR19_6 NAPBAL_CR19_6 1.0
    KER_CR19_6 YKER_CR19_6 1.0
    KER_CR19_6 KERBAL_CR19_6 1.0
    DSL_CR19_6 YDSL_CR19_6 1.0
    DSL_CR19_6 DSLBAL_CR19_6 1.0
    VGO_CR19_6 YVGO_CR19_6 1.0
    VGO_CR19_6 VGOBAL_CR19_6 1.0
    RES_CR19_6 YRES_CR19_6 1.0
    RES_CR19_6 RESSPLIT_CR19_6 1.0
    VDUIN_CR00_6 RESSPLIT_CR00_6 -1.0
    VDUIN_CR00_6 VDUY1_CR00_6 -0.45
    VDUIN_CR00_6 VDUY2_CR00_6 -0.55
    VDUIN_CR00_6 VDUCAP_6 1.0
    RESFO_CR00_6 RESSPLIT_CR00_6 -1.0
    RESFO_CR00_6 FOBAL_6 -1.0
    RESFO_CR00_6 FOSUL_6 1.9540891690108433
    VGO2_CR00_6 VDUY1_CR00_6 1.0
    VGO2_CR00_6 VGOBAL_CR00_6 1.0
    VR_CR00_6 VDUY2_CR00_6 1.0
    VR_CR00_6 FOBAL_6 -1.0
    VR_CR00_6 FOSUL_6 3.5903159197140964
    VDUIN_CR01_6 RESSPLIT_CR01_6 -1.0
    VDUIN_CR01_6 VDUY1_CR01_6 -0.45
    VDUIN_CR01_6 VDUY2_CR01_6 -0.55
    VDUIN_CR01_6 VDUCAP_6 1.0
    RESFO_CR01_6 RESSPLIT_CR01_6 -1.0
    RESFO_CR01_6 FOBAL_6 -1.0
    RESFO_CR01_6 FOSUL_6 -0.6168441789886687
    VGO2_CR01_6 VDUY1_CR01_6 1.0
    VGO2_CR01_6 VGOBAL_CR01_6 1.0
    VR_CR01_6 VDUY2_CR01_6 1.0
    VR_CR01_6 FOBAL_6 -1.0
    VR_CR01_6 FOSUL_6 0.24810256731473057
    VDUIN_CR02_6 RESSPLIT_CR02_6 -1.0
    VDUIN_CR02_6 VDUY1_CR02_6 -0.45
    VDUIN_CR02_6 VDUY2_CR02_6 -0.55
    VDUIN_CR02_6 VDUCAP_6 1.0
    RESFO_CR02_6 RESSPLIT_CR02_6 -1.0
    RESFO_CR02_6 FOBAL_6 -1.0
    RESFO_CR02_6 FOSUL_6 0.05675733131967897
    VGO2_CR02_6 VDUY1_CR02_6 1.0
    VGO2_CR02_6 VGOBAL_CR02_6 1.0
    VR_CR02_6 VDUY2_CR02_6 1.0
    VR_CR02_6 FOBAL_6 -1.0
    VR_CR02_6 FOSUL_6 1.1237845307155832
    VDUIN_CR03_6 RESSPLIT_CR03_6 -1.0
    VDUIN_CR03_6 VDUY1_CR03_6 -0.45
    VDUIN_CR03_6 VDUY2_CR03_6 -0.55
    VDUIN_CR03_6 VDUCAP_6 1.0
    RESFO_CR03_6 RESSPLIT_CR03_6 -1.0
    RESFO_CR03_6 FOBAL_6 -1.0
    RESFO_CR03_6 FOSUL_6 -1.8686274424458973
    VGO2_CR03_6 VDUY1_CR03_6 1.0
    VGO2_CR03_6 VGOBAL_CR03_6 1.0
    VR_CR03_6 VDUY2_CR03_6 1.0
    VR_CR03_6 FOBAL_6 -1.0
    VR_CR03_6 FOSUL_6 -1.3792156751796663
    VDUIN_CR04_6 RESSPLIT_CR04_6 -1.0
    VDUIN_CR04_6 VDUY1_CR04_6 -0.45
    VDUIN_CR04_6 VDUY2_CR04_6 -0.55
    VDUIN_CR04_6 VDUCAP_6 1.0
    RESFO_CR04_6 RESSPLIT_CR04_6 -1.0
    RESFO_CR04_6 FOBAL_6 -1.0
    RESFO_CR04_6 FOSUL_6 2.031668478530798
    VGO2_CR04_6 VDUY1_CR04_6 1.0
    VGO2_CR04_6 VGOBAL_CR04_6 1.0
    VR_CR04_6 VDUY2_CR04_6 1.0
    VR_CR04_6 FOBAL_6 -1.0
    VR_CR04_6 FOSUL_6 3.6911690220900377
    VDUIN_CR05_6 RESSPLIT_CR05_6 -1.0
    VDUIN_CR05_6 VDUY1_CR05_6 -0.45
    VDUIN_CR05_6 VDUY2_CR05_6 -0.55
    VDUIN_CR05_6 VDUCAP_6 1.0
    RESFO_CR05_6 RESSPLIT_CR05_6 -1.0
    RESFO_CR05_6 FOBAL_6 -1.0
    RESFO_CR05_6 FOSUL_6 0.3429997580900688
    VGO2_CR05_6 VDUY1_CR05_6 1.0
    VGO2_CR05_6 VGOBAL_CR05_6 1.0
    VR_CR05_6 VDUY2_CR05_6 1.0
    VR_CR05_6 FOBAL_6 -1.0
    VR_CR05_6 FOSUL_6 1.4958996855170898
    VDUIN_CR06_6 RESSPLIT_CR06_6 -1.0
    VDUIN_CR06_6 VDUY1_CR06_6 -0.45
    VDUIN_CR06_6 VDUY2_CR06_6 -0.55
    VDUIN_CR06_6 VDUCAP_6 1.0
    RESFO_CR06_6 RESSPLIT_CR06_6 -1.0
    RESFO_CR06_6 FOBAL_6 -1.0
    RESFO_CR06_6 FOSUL_6 0.10255232060654862
    VGO2_CR06_6 VDUY1_CR06_6 1.0
    VGO2_CR06_6 VGOBAL_CR06_6 1.0
    VR_CR06_6 VDUY2_CR06_6 1.0
    VR_CR06_6 FOBAL_6 -1.0
    VR_CR06_6 FOSUL_6 1.1833180167885136
    VDUIN_CR07_6 RESSPLIT_CR07_6 -1.0
    VDUIN_CR07_6 VDUY1_CR07_6 -0.45
    VDUIN_CR07_6 VDUY2_CR07_6 -0.55
    VDUIN_CR07_6 VDUCAP_6 1.0
    RESFO_CR07_6 RESSPLIT_CR07_6 -1.0
    RESFO_CR07_6 FOBAL_6 -1.0
    RESFO_CR07_6 FOSUL_6 -3.116635223405176
    VGO2_CR07_6 VDUY1_CR07_6 1.0
    VGO2_CR07_6 VGOBAL_CR07_6 1.0
    VR_CR07_6 VDUY2_CR07_6 1.0
    VR_CR07_6 FOBAL_6 -1.0
    VR_CR07_6 FOSUL_6 -3.001625790426729
    VDUIN_CR08_6 RESSPLIT_CR08_6 -1.0
    VDUIN_CR08_6 VDUY1_CR08_6 -0.45
    VDUIN_CR08_6 VDUY2_CR08_6 -0.55
    VDUIN_CR08_6 VDUCAP_6 1.0
    RESFO_CR08_6 RESSPLIT_CR08_6 -1.0
    RESFO_CR08_6 FOBAL_6 -1.0
    RESFO_CR08_6 FOSUL_6 0.0456281803886287
    VGO2_CR08_6 VDUY1_CR08_6 1.0
    VGO2_CR08_6 VGOBAL_CR08_6 1.0
    VR_CR08_6 VDUY2_CR08_6 1.0
    VR_CR08_6 FOBAL_6 -1.0
    VR_CR08_6 FOSUL_6 1.109316634505218
    VDUIN_CR09_6 RESSPLIT_CR09_6 -1.0
    VDUIN_CR09_6 VDUY1_CR09_6 -0.45
    VDUIN_CR09_6 VDUY2_CR09_6 -0.55
    VDUIN_CR09_6 VDUCAP_6 1.0
    RESFO_CR09_6 RESSPLIT_CR09_6 -1.0
    RESFO_CR09_6 FOBAL_6 -1.0
    RESFO_CR09_6 FOSUL_6 -3.264603397407564
    VGO2_CR09_6 VDUY1_CR09_6 1.0
    VGO2_CR09_6 VGOBAL_CR09_6 1.0
    VR_CR09_6 VDUY2_CR09_6 1.0
    VR_CR09_6 FOBAL_6 -1.0
    VR_CR09_6 FOSUL_6 -3.1939844166298332
    VDUIN_CR10_6 RESSPLIT_CR10_6 -1.0
    VDUIN_CR10_6 VDUY1_CR10_6 -0.45
    VDUIN_CR10_6 VDUY2_CR10_6 -0.55
    VDUIN_CR10_6 VDUCAP_6 1.0
    RESFO_CR10_6 RESSPLIT_CR10_6 -1.0
    RESFO_CR10_6 FOBAL_6 -1.0
    RESFO_CR10_6 FOSUL_6 2.094062962095167
    VGO2_CR10_6 VDUY1_CR10_6 1.0
    VGO2_CR10_6 VGOBAL_CR10_6 1.0
    VR_CR10_6 VDUY2_CR10_6 1.0
    VR_CR10_6 FOBAL_6 -1.0
    VR_CR10_6 FOSUL_6 3.7722818507237177
    VDUIN_CR11_6 RESSPLIT_CR11_6 -1.0
    VDUIN_CR11_6 VDUY1_CR11_6 -0.45
    VDUIN_CR11_6 VDUY2_CR11_6 -0.55
    VDUIN_CR11_6 VDUCAP_6 1.0
    RESFO_CR11_6 RESSPLIT_CR11_6 -1.0
    RESFO_CR11_6 FOBAL_6 -1.0
    RESFO_CR11_6 FOSUL_6 -0.4594898393817082
    VGO2_CR11_6 VDUY1_CR11_6 1.0
    VGO2_CR11_6 VGOBAL_CR11_6 1.0
    VR_CR11_6 VDUY2_CR11_6 1.0
    VR_CR11_6 FOBAL_6 -1.0
    VR_CR11_6 FOSUL_6 0.4526632088037794
    VDUIN_CR12_6 RESSPLIT_CR12_6 -1.0
    VDUIN_CR12_6 VDUY1_CR12_6 -0.45
    VDUIN_CR12_6 VDUY2_CR12_6 -0.55
    VDUIN_CR12_6 VDUCAP_6 1.0
    RESFO_CR12_6 RESSPLIT_CR12_6 -1.0
    RESFO_CR12_6 FOBAL_6 -1.0
    RESFO_CR12_6 FOSUL_6 1.9188179600993953
    VGO2_CR12_6 VDUY1_CR12_6 1.0
    VGO2_CR12_6 VGOBAL_CR12_6 1.0
    VR_CR12_6 VDUY2_CR12_6 1.0
    VR_CR12_6 FOBAL_6 -1.0
    VR_CR12_6 FOSUL_6 3.544463348129214
    VDUIN_CR13_6 RESSPLIT_CR13_6 -1.0
    VDUIN_CR13_6 VDUY1_CR13_6 -0.45
    VDUIN_CR13_6 VDUY2_CR13_6 -0.55
    VDUIN_CR13_6 VDUCAP_6 1.0
    RESFO_CR13_6 RESSPLIT_CR13_6 -1.0
    RESFO_CR13_6 FOBAL_6 -1.0
    RESFO_CR13_6 FOSUL_6 -2.8690046531087465
    VGO2_CR13_6 VDUY1_CR13_6 1.0
    VGO2_CR13_6 VGOBAL_CR13_6 1.0
    VR_CR13_6 VDUY2_CR13_6 1.0
    VR_CR13_6 FOBAL_6 -1.0
    VR_CR13_6 FOSUL_6 -2.6797060490413704
    VDUIN_CR14_6 RESSPLIT_CR14_6 -1.0
    VDUIN_CR14_6 VDUY1_CR14_6 -0.45
    VDUIN_CR14_6 VDUY2_CR14_6 -0.55
    VDUIN_CR14_6 VDUCAP_6 1.0
    RESFO_CR14_6 RESSPLIT_CR14_6 -1.0
    RESFO_CR14_6 FOBAL_6 -1.0
    RESFO_CR14_6 FOSUL_6 -0.9033459504788866
    VGO2_CR14_6 VDUY1_CR14_6 1.0
    VGO2_CR14_6 VGOBAL_CR14_6 1.0
    VR_CR14_6 VDUY2_CR14_6 1.0
    VR_CR14_6 FOBAL_6 -1.0
    VR_CR14_6 FOSUL_6 -0.12434973562255225
    VDUIN_CR15_6 RESSPLIT_CR15_6 -1.0
    VDUIN_CR15_6 VDUY1_CR15_6 -0.45
    VDUIN_CR15_6 VDUY2_CR15_6 -0.55
    VDUIN_CR15_6 VDUCAP_6 1.0
    RESFO_CR15_6 RESSPLIT_CR15_6 -1.0
    RESFO_CR15_6 FOBAL_6 -1.0
    RESFO_CR15_6 FOSUL_6 -3.189239970867669
    VGO2_CR15_6 VDUY1_CR15_6 1.0
    VGO2_CR15_6 VGOBAL_CR15_6 1.0
    VR_CR15_6 VDUY2_CR15_6 1.0
    VR_CR15_6 FOBAL_6 -1.0
    VR_CR15_6 FOSUL_6 -3.0960119621279696
    VDUIN_CR16_6 RESSPLIT_CR16_6 -1.0
    VDUIN_CR16_6 VDUY1_CR16_6 -0.45
    VDUIN_CR16_6 VDUY2_CR16_6 -0.55
    VDUIN_CR16_6 VDUCAP_6 1.0
    RESFO_CR16_6 RESSPLIT_CR16_6 -1.0
    RESFO_CR16_6 FOBAL_6 -1.0
    RESFO_CR16_6 FOSUL_6 -0.09708299491376327
    VGO2_CR16_6 VDUY1_CR16_6 1.0
    VGO2_CR16_6 VGOBAL_CR16_6 1.0
    VR_CR16_6 VDUY2_CR16_6 1.0
    VR_CR16_6 FOBAL_6 -1.0
    VR_CR16_6 FOSUL_6 0.9237921066121082
    VDUIN_CR17_6 RESSPLIT_CR17_6 -1.0
    VDUIN_CR17_6 VDUY1_CR17_6 -0.45
    VDUIN_CR17_6 VDUY2_CR17_6 -0.55
    VDUIN_CR17_6 VDUCAP_6 1.0
    RESFO_CR17_6 RESSPLIT_CR17_6 -1.0
    RESFO_CR17_6 FOBAL_6 -1.0
    RESFO_CR17_6 FOSUL_6 2.128312314257988
    VGO2_CR17_6 VDUY1_CR17_6 1.0
    VGO2_CR17_6 VGOBAL_CR17_6 1.0
    VR_CR17_6 VDUY2_CR17_6 1.0
    VR_CR17_6 FOBAL_6 -1.0
    VR_CR17_6 FOSUL_6 3.8168060085353845
    VDUIN_CR18_6 RESSPLIT_CR18_6 -1.0
    VDUIN_CR18_6 VDUY1_CR18_6 -0.45
    VDUIN_CR18_6 VDUY2_CR18_6 -0.55
    VDUIN_CR18_6 VDUCAP_6 1.0
    RESFO_CR18_6 RESSPLIT_CR18_6 -1.0
    RESFO_CR18_6 FOBAL_6 -1.0
    RESFO_CR18_6 FOSUL_6 -3.0649175102888004
    VGO2_CR18_6 VDUY1_CR18_6 1.0
    VGO2_CR18_6 VGOBAL_CR18_6 1.0
    VR_CR18_6 VDUY2_CR18_6 1.0
    VR_CR18_6 FOBAL_6 -1.0
    VR_CR18_6 FOSUL_6 -2.9343927633754405
    VDUIN_CR19_6 RESSPLIT_CR19_6 -1.0
    VDUIN_CR19_6 VDUY1_CR19_6 -0.45
    VDUIN_CR19_6 VDUY2_CR19_6 -0.55
    VDUIN_CR19_6 VDUCAP_6 1.0
    RESFO_CR19_6 RESSPLIT_CR19_6 -1.0
    RESFO_CR19_6 FOBAL_6 -1.0
    RESFO_CR19_6 FOSUL_6 -1.1490285157117452
    VGO2_CR19_6 VDUY1_CR19_6 1.0
    VGO2_CR19_6 VGOBAL_CR19_6 1.0
    VR_CR19_6 VDUY2_CR19_6 1.0
    VR_CR19_6 FOBAL_6 -1.0
    VR_CR19_6 FOSUL_6 -0.4437370704252688
    FCCIN_CR00_6 OBJ -2.5
    FCCIN_CR00_6 VGOBAL_CR00_6 -1.0
    FCCIN_CR00_6 FCCCAP_6 1.0
    FCCIN_CR00_6 FCCY_FCCG_6 -0.55
    FCCIN_CR00_6 FCCY_LCO_6 -0.2
    FCCIN_CR00_6 FCCY_FLPG_6 -0.15
    FCCIN_CR00_6 FCCY_SLURRY_6 -0.07
    FCCIN_CR01_6 OBJ -2.5
    FCCIN_CR01_6 VGOBAL_CR01_6 -1.0
    FCCIN_CR01_6 FCCCAP_6 1.0
    FCCIN_CR01_6 FCCY_FCCG_6 -0.55
    FCCIN_CR01_6 FCCY_LCO_6 -0.2
    FCCIN_CR01_6 FCCY_FLPG_6 -0.15
    FCCIN_CR01_6 FCCY_SLURRY_6 -0.07
    FCCIN_CR02_6 OBJ -2.5
    FCCIN_CR02_6 VGOBAL_CR02_6 -1.0
    FCCIN_CR02_6 FCCCAP_6 1.0
    FCCIN_CR02_6 FCCY_FCCG_6 -0.55
    FCCIN_CR02_6 FCCY_LCO_6 -0.2
    FCCIN_CR02_6 FCCY_FLPG_6 -0.15
    FCCIN_CR02_6 FCCY_SLURRY_6 -0.07
    FCCIN_CR03_6 OBJ -2.5
    FCCIN_CR03_6 VGOBAL_CR03_6 -1.0
    FCCIN_CR03_6 FCCCAP_6 1.0
    FCCIN_CR03_6 FCCY_FCCG_6 -0.55
    FCCIN_CR03_6 FCCY_LCO_6 -0.2
    FCCIN_CR03_6 FCCY_FLPG_6 -0.15
    FCCIN_CR03_6 FCCY_SLURRY_6 -0.07
    FCCIN_CR04_6 OBJ -2.5
    FCCIN_CR04_6 VGOBAL_CR04_6 -1.0
    FCCIN_CR04_6 FCCCAP_6 1.0
    FCCIN_CR04_6 FCCY_FCCG_6 -0.55
    FCCIN_CR04_6 FCCY_LCO_6 -0.2
    FCCIN_CR04_6 FCCY_FLPG_6 -0.15
    FCCIN_CR04_6 FCCY_SLURRY_6 -0.07
    FCCIN_CR05_6 OBJ -2.5
    FCCIN_CR05_6 VGOBAL_CR05_6 -1.0
    FCCIN_CR05_6 FCCCAP_6 1.0
    FCCIN_CR05_6 FCCY_FCCG_6 -0.55
    FCCIN_CR05_6 FCCY_LCO_6 -0.2
    FCCIN_CR05_6 FCCY_FLPG_6 -0.15
    FCCIN_CR05_6 FCCY_SLURRY_6 -0.07
    FCCIN_CR06_6 OBJ -2.5
    FCCIN_CR06_6 VGOBAL_CR06_6 -1.0
    FCCIN_CR06_6 FCCCAP_6 1.0
    FCCIN_CR06_6 FCCY_FCCG_6 -0.55
    FCCIN_CR06_6 FCCY_LCO_6 -0.2
    FCCIN_CR06_6 FCCY_FLPG_6 -0.15
    FCCIN_CR06_6 FCCY_SLURRY_6 -0.07
    FCCIN_CR07_6 OBJ -2.5
    FCCIN_CR07_6 VGOBAL_CR07_6 -1.0
    FCCIN_CR07_6 FCCCAP_6 1.0
    FCCIN_CR07_6 FCCY_FCCG_6 -0.55
    FCCIN_CR07_6 FCCY_LCO_6 -0.2
    FCCIN_CR07_6 FCCY_FLPG_6 -0.15
    FCCIN_CR07_6 FCCY_SLURRY_6 -0.07
    FCCIN_CR08_6 OBJ -2.5
    FCCIN_CR08_6 VGOBAL_CR08_6 -1.0
    FCCIN_CR08_6 FCCCAP_6 1.0
    FCCIN_CR08_6 FCCY_FCCG_6 -0.55
    FCCIN_CR08_6 FCCY_LCO_6 -0.2
    FCCIN_CR08_6 FCCY_FLPG_6 -0.15
    FCCIN_CR08_6 FCCY_SLURRY_6 -0.07
    FCCIN_CR09_6 OBJ -2.5
    FCCIN_CR09_6 VGOBAL_CR09_6 -1.0
    FCCIN_CR09_6 FCCCAP_6 1.0
    FCCIN_CR09_6 FCCY_FCCG_6 -0.55
    FCCIN_CR09_6 FCCY_LCO_6 -0.2
    FCCIN_CR09_6 FCCY_FLPG_6 -0.15
    FCCIN_CR09_6 FCCY_SLURRY_6 -0.07
    FCCIN_CR10_6 OBJ -2.5
    FCCIN_CR10_6 VGOBAL_CR10_6 -1.0
    FCCIN_CR10_6 FCCCAP_6 1.0
    FCCIN_CR10_6 FCCY_FCCG_6 -0.55
    FCCIN_CR10_6 FCCY_LCO_6 -0.2
    FCCIN_CR10_6 FCCY_FLPG_6 -0.15
    FCCIN_CR10_6 FCCY_SLURRY_6 -0.07
    FCCIN_CR11_6 OBJ -2.5
    FCCIN_CR11_6 VGOBAL_CR11_6 -1.0
    FCCIN_CR11_6 FCCCAP_6 1.0
    FCCIN_CR11_6 FCCY_FCCG_6 -0.55
    FCCIN_CR11_6 FCCY_LCO_6 -0.2
    FCCIN_CR11_6 FCCY_FLPG_6 -0.15
    FCCIN_CR11_6 FCCY_SLURRY_6 -0.07
    FCCIN_CR12_6 OBJ -2.5
    FCCIN_CR12_6 VGOBAL_CR12_6 -1.0
    FCCIN_CR12_6 FCCCAP_6 1.0
    FCCIN_CR12_6 FCCY_FCCG_6 -0.55
    FCCIN_CR12_6 FCCY_LCO_6 -0.2
    FCCIN_CR12_6 FCCY_FLPG_6 -0.15
    FCCIN_CR12_6 FCCY_SLURRY_6 -0.07
    FCCIN_CR13_6 OBJ -2.5
    FCCIN_CR13_6 VGOBAL_CR13_6 -1.0
    FCCIN_CR13_6 FCCCAP_6 1.0
    FCCIN_CR13_6 FCCY_FCCG_6 -0.55
    FCCIN_CR13_6 FCCY_LCO_6 -0.2
    FCCIN_CR13_6 FCCY_FLPG_6 -0.15
    FCCIN_CR13_6 FCCY_SLURRY_6 -0.07
    FCCIN_CR14_6 OBJ -2.5
    FCCIN_CR14_6 VGOBAL_CR14_6 -1.0
    FCCIN_CR14_6 FCCCAP_6 1.0
    FCCIN_CR14_6 FCCY_FCCG_6 -0.55
    FCCIN_CR14_6 FCCY_LCO_6 -0.2
    FCCIN_CR14_6 FCCY_FLPG_6 -0.15
    FCCIN_CR14_6 FCCY_SLURRY_6 -0.07
    FCCIN_CR15_6 OBJ -2.5
    FCCIN_CR15_6 VGOBAL_CR15_6 -1.0
    FCCIN_CR15_6 FCCCAP_6 1.0
    FCCIN_CR15_6 FCCY_FCCG_6 -0.55
    FCCIN_CR15_6 FCCY_LCO_6 -0.2
    FCCIN_CR15_6 FCCY_FLPG_6 -0.15
    FCCIN_CR15_6 FCCY_SLURRY_6 -0.07
    FCCIN_CR16_6 OBJ -2.5
    FCCIN_CR16_6 VGOBAL_CR16_6 -1.0
    FCCIN_CR16_6 FCCCAP_6 1.0
    FCCIN_CR16_6 FCCY_FCCG_6 -0.55
    FCCIN_CR16_6 FCCY_LCO_6 -0.2
    FCCIN_CR16_6 FCCY_FLPG_6 -0.15
    FCCIN_CR16_6 FCCY_SLURRY_6 -0.07
    FCCIN_CR17_6 OBJ -2.5
    FCCIN_CR17_6 VGOBAL_CR17_6 -1.0
    FCCIN_CR17_6 FCCCAP_6 1.0
    FCCIN_CR17_6 FCCY_FCCG_6 -0.55
    FCCIN_CR17_6 FCCY_LCO_6 -0.2
    FCCIN_CR17_6 FCCY_FLPG_6 -0.15
    FCCIN_CR17_6 FCCY_SLURRY_6 -0.07
    FCCIN_CR18_6 OBJ -2.5
    FCCIN_CR18_6 VGOBAL_CR18_6 -1.0
    FCCIN_CR18_6 FCCCAP_6 1.0
    FCCIN_CR18_6 FCCY_FCCG_6 -0.55
    FCCIN_CR18_6 FCCY_LCO_6 -0.2
    FCCIN_CR18_6 FCCY_FLPG_6 -0.15
    FCCIN_CR18_6 FCCY_SLURRY_6 -0.07
    FCCIN_CR19_6 OBJ -2.5
    FCCIN_CR19_6 VGOBAL_CR19_6 -1.0
    FCCIN_CR19_6 FCCCAP_6 1.0
    FCCIN_CR19_6 FCCY_FCCG_6 -0.55
    FCCIN_CR19_6 FCCY_LCO_6 -0.2
    FCCIN_CR19_6 FCCY_FLPG_6 -0.15
    FCCIN_CR19_6 FCCY_SLURRY_6 -0.07
    FCCG_6 FCCY_FCCG_6 1.0
    FCCG_6 GASBAL_6 -1.0
    FCCG_6 GASRON_6 1.0
    LCO_6 FCCY_LCO_6 1.0
    LCO_6 LCOBAL_6 1.0
    FLPG_6 FCCY_FLPG_6 1.0
    FLPG_6 LPGBAL_6 -1.0
    SLURRY_6 FCCY_SLURRY_6 1.0
    SLURRY_6 FOBAL_6 -1.0
    SLURRY_6 FOSUL_6 -1.5
    REFIN_CR00_6 OBJ -3.0
    REFIN_CR00_6 NAPBAL_CR00_6 -1.0
    REFIN_CR00_6 REFCAP_6 1.0
    REFIN_CR00_6 REFY_6 -0.85
    NAPGAS_CR00_6 NAPBAL_CR00_6 -1.0
    NAPGAS_CR00_6 GASBAL_6 -1.0
    NAPGAS_CR00_6 GASRON_6 -41.351908455631545
    REFIN_CR01_6 OBJ -3.0
    REFIN_CR01_6 NAPBAL_CR01_6 -1.0
    REFIN_CR01_6 REFCAP_6 1.0
    REFIN_CR01_6 REFY_6 -0.85
    NAPGAS_CR01_6 NAPBAL_CR01_6 -1.0
    NAPGAS_CR01_6 GASBAL_6 -1.0
    NAPGAS_CR01_6 GASRON_6 -33.623043958680114
    REFIN_CR02_6 OBJ -3.0
    REFIN_CR02_6 NAPBAL_CR02_6 -1.0
    REFIN_CR02_6 REFCAP_6 1.0
    REFIN_CR02_6 REFY_6 -0.85
    NAPGAS_CR02_6 NAPBAL_CR02_6 -1.0
    NAPGAS_CR02_6 GASBAL_6 -1.0
    NAPGAS_CR02_6 GASRON_6 -39.74522208078083
    REFIN_CR03_6 OBJ -3.0
    REFIN_CR03_6 NAPBAL_CR03_6 -1.0
    REFIN_CR03_6 REFCAP_6 1.0
    REFIN_CR03_6 REFY_6 -0.85
    NAPGAS_CR03_6 NAPBAL_CR03_6 -1.0
    NAPGAS_CR03_6 GASBAL_6 -1.0
    NAPGAS_CR03_6 GASRON_6 -39.32063345179839
    REFIN_CR04_6 OBJ -3.0
    REFIN_CR04_6 NAPBAL_CR04_6 -1.0
    REFIN_CR04_6 REFCAP_6 1.0
    REFIN_CR04_6 REFY_6 -0.85
    NAPGAS_CR04_6 NAPBAL_CR04_6 -1.0
    NAPGAS_CR04_6 GASBAL_6 -1.0
    NAPGAS_CR04_6 GASRON_6 -28.06018906757886
    REFIN_CR05_6 OBJ -3.0
    REFIN_CR05_6 NAPBAL_CR05_6 -1.0
    REFIN_CR05_6 REFCAP_6 1.0
    REFIN_CR05_6 REFY_6 -0.85
    NAPGAS_CR05_6 NAPBAL_CR05_6 -1.0
    NAPGAS_CR05_6 GASBAL_6 -1.0
    NAPGAS_CR05_6 GASRON_6 -37.177062383933254
    REFIN_CR06_6 OBJ -3.0
    REFIN_CR06_6 NAPBAL_CR06_6 -1.0
    REFIN_CR06_6 REFCAP_6 1.0
    REFIN_CR06_6 REFY_6 -0.85
    NAPGAS_CR06_6 NAPBAL_CR06_6 -1.0
    NAPGAS_CR06_6 GASBAL_6 -1.0
    NAPGAS_CR06_6 GASRON_6 -38.73738801284508
    REFIN_CR07_6 OBJ -3.0
    REFIN_CR07_6 NAPBAL_CR07_6 -1.0
    REFIN_CR07_6 REFCAP_6 1.0
    REFIN_CR07_6 REFY_6 -0.85
    NAPGAS_CR07_6 NAPBAL_CR07_6 -1.0
    NAPGAS_CR07_6 GASBAL_6 -1.0
    NAPGAS_CR07_6 GASRON_6 -31.720911449683953
    REFIN_CR08_6 OBJ -3.0
    REFIN_CR08_6 NAPBAL_CR08_6 -1.0
    REFIN_CR08_6 REFCAP_6 1.0
    REFIN_CR08_6 REFY_6 -0.85
    NAPGAS_CR08_6 NAPBAL_CR08_6 -1.0
    NAPGAS_CR08_6 GASBAL_6 -1.0
    NAPGAS_CR08_6 GASRON_6 -31.236267605063702
    REFIN_CR09_6 OBJ -3.0
    REFIN_CR09_6 NAPBAL_CR09_6 -1.0
    REFIN_CR09_6 REFCAP_6 1.0
    REFIN_CR09_6 REFY_6 -0.85
    NAPGAS_CR09_6 NAPBAL_CR09_6 -1.0
    NAPGAS_CR09_6 GASBAL_6 -1.0
    NAPGAS_CR09_6 GASRON_6 -29.9151768258086
    REFIN_CR10_6 OBJ -3.0
    REFIN_CR10_6 NAPBAL_CR10_6 -1.0
    REFIN_CR10_6 REFCAP_6 1.0
    REFIN_CR10_6 REFY_6 -0.85
    NAPGAS_CR10_6 NAPBAL_CR10_6 -1.0
    NAPGAS_CR10_6 GASBAL_6 -1.0
    NAPGAS_CR10_6 GASRON_6 -38.641707010486826
    REFIN_CR11_6 OBJ -3.0
    REFIN_CR11_6 NAPBAL_CR11_6 -1.0
    REFIN_CR11_6 REFCAP_6 1.0
    REFIN_CR11_6 REFY_6 -0.85
    NAPGAS_CR11_6 NAPBAL_CR11_6 -1.0
    NAPGAS_CR11_6 GASBAL_6 -1.0
    NAPGAS_CR11_6 GASRON_6 -31.364398664025877
    REFIN_CR12_6 OBJ -3.0
    REFIN_CR12_6 NAPBAL_CR12_6 -1.0
    REFIN_CR12_6 REFCAP_6 1.0
    REFIN_CR12_6 REFY_6 -0.85
    NAPGAS_CR12_6 NAPBAL_CR12_6 -1.0
    NAPGAS_CR12_6 GASBAL_6 -1.0
    NAPGAS_CR12_6 GASRON_6 -36.44295305412478
    REFIN_CR13_6 OBJ -3.0
    REFIN_CR13_6 NAPBAL_CR13_6 -1.0
    REFIN_CR13_6 REFCAP_6 1.0
    REFIN_CR13_6 REFY_6 -0.85
    NAPGAS_CR13_6 NAPBAL_CR13_6 -1.0
    NAPGAS_CR13_6 GASBAL_6 -1.0
    NAPGAS_CR13_6 GASRON_6 -36.368722409916884
    REFIN_CR14_6 OBJ -3.0
    REFIN_CR14_6 NAPBAL_CR14_6 -1.0
    REFIN_CR14_6 REFCAP_6 1.0
    REFIN_CR14_6 REFY_6 -0.85
    NAPGAS_CR14_6 NAPBAL_CR14_6 -1.0
    NAPGAS_CR14_6 GASBAL_6 -1.0
    NAPGAS_CR14_6 GASRON_6 -37.837781635780814
    REFIN_CR15_6 OBJ -3.0
    REFIN_CR15_6 NAPBAL_CR15_6 -1.0
    REFIN_CR15_6 REFCAP_6 1.0
    REFIN_CR15_6 REFY_6 -0.85
    NAPGAS_CR15_6 NAPBAL_CR15_6 -1.0
    NAPGAS_CR15_6 GASBAL_6 -1.0
    NAPGAS_CR15_6 GASRON_6 -36.91743369949054
    REFIN_CR16_6 OBJ -3.0
    REFIN_CR16_6 NAPBAL_CR16_6 -1.0
    REFIN_CR16_6 REFCAP_6 1.0
    REFIN_CR16_6 REFY_6 -0.85
    NAPGAS_CR16_6 NAPBAL_CR16_6 -1.0
    NAPGAS_CR16_6 GASBAL_6 -1.0
    NAPGAS_CR16_6 GASRON_6 -32.43244486749426
    REFIN_CR17_6 OBJ -3.0
    REFIN_CR17_6 NAPBAL_CR17_6 -1.0
    REFIN_CR17_6 REFCAP_6 1.0
    REFIN_CR17_6 REFY_6 -0.85
    NAPGAS_CR17_6 NAPBAL_CR17_6 -1.0
    NAPGAS_CR17_6 GASBAL_6 -1.0
    NAPGAS_CR17_6 GASRON_6 -32.30218201355821
    REFIN_CR18_6 OBJ -3.0
    REFIN_CR18_6 NAPBAL_CR18_6 -1.0
    REFIN_CR18_6 REFCAP_6 1.0
    REFIN_CR18_6 REFY_6 -0.85
    NAPGAS_CR18_6 NAPBAL_CR18_6 -1.0
    NAPGAS_CR18_6 GASBAL_6 -1.0
    NAPGAS_CR18_6 GASRON_6 -30.280860643235343
    REFIN_CR19_6 OBJ -3.0
    REFIN_CR19_6 NAPBAL_CR19_6 -1.0
    REFIN_CR19_6 REFCAP_6 1.0
    REFIN_CR19_6 REFY_6 -0.85
    NAPGAS_CR19_6 NAPBAL_CR19_6 -1.0
    NAPGAS_CR19_6 GASBAL_6 -1.0
    NAPGAS_CR19_6 GASRON_6 -35.8435432887995
    REFORMATE_6 REFY_6 1.0
    REFORMATE_6 GASBAL_6 -1.0
    REFORMATE_6 GASRON_6 7.0
    DHTIN_CR00_6 OBJ -2.0
    DHTIN_CR00_6 DSLBAL_CR00_6 -1.0
    DHTIN_CR00_6 DHTCAP_6 1.0
    DHTIN_CR00_6 DHTY_6 -0.98
    DSLDIR_CR00_6 DSLBAL_CR00_6 -1.0
    DSLDIR_CR00_6 DSLPB_6 -1.0
    DSLDIR_CR00_6 DSLSUL_6 1.5862267507032528
    DHTIN_CR01_6 OBJ -2.0
    DHTIN_CR01_6 DSLBAL_CR01_6 -1.0
    DHTIN_CR01_6 DHTCAP_6 1.0
    DHTIN_CR01_6 DHTY_6 -0.98
    DSLDIR_CR01_6 DSLBAL_CR01_6 -1.0
    DSLDIR_CR01_6 DSLPB_6 -1.0
    DSLDIR_CR01_6 DSLSUL_6 0.8149467463033994
    DHTIN_CR02_6 OBJ -2.0
    DHTIN_CR02_6 DSLBAL_CR02_6 -1.0
    DHTIN_CR02_6 DHTCAP_6 1.0
    DHTIN_CR02_6 DHTY_6 -0.98
    DSLDIR_CR02_6 DSLBAL_CR02_6 -1.0
    DSLDIR_CR02_6 DSLPB_6 -1.0
    DSLDIR_CR02_6 DSLSUL_6 1.0170271993959037
    DHTIN_CR03_6 OBJ -2.0
    DHTIN_CR03_6 DSLBAL_CR03_6 -1.0
    DHTIN_CR03_6 DHTCAP_6 1.0
    DHTIN_CR03_6 DHTY_6 -0.98
    DSLDIR_CR03_6 DSLBAL_CR03_6 -1.0
    DSLDIR_CR03_6 DSLPB_6 -1.0
    DSLDIR_CR03_6 DSLSUL_6 0.4394117672662308
    DHTIN_CR04_6 OBJ -2.0
    DHTIN_CR04_6 DSLBAL_CR04_6 -1.0
    DHTIN_CR04_6 DHTCAP_6 1.0
    DHTIN_CR04_6 DHTY_6 -0.98
    DSLDIR_CR04_6 DSLBAL_CR04_6 -1.0
    DSLDIR_CR04_6 DSLPB_6 -1.0
    DSLDIR_CR04_6 DSLSUL_6 1.6095005435592393
    DHTIN_CR05_6 OBJ -2.0
    DHTIN_CR05_6 DSLBAL_CR05_6 -1.0
    DHTIN_CR05_6 DHTCAP_6 1.0
    DHTIN_CR05_6 DHTY_6 -0.98
    DSLDIR_CR05_6 DSLBAL_CR05_6 -1.0
    DSLDIR_CR05_6 DSLPB_6 -1.0
    DSLDIR_CR05_6 DSLSUL_6 1.1028999274270206
    DHTIN_CR06_6 OBJ -2.0
    DHTIN_CR06_6 DSLBAL_CR06_6 -1.0
    DHTIN_CR06_6 DHTCAP_6 1.0
    DHTIN_CR06_6 DHTY_6 -0.98
    DSLDIR_CR06_6 DSLBAL_CR06_6 -1.0
    DSLDIR_CR06_6 DSLPB_6 -1.0
    DSLDIR_CR06_6 DSLSUL_6 1.0307656961819645
    DHTIN_CR07_6 OBJ -2.0
    DHTIN_CR07_6 DSLBAL_CR07_6 -1.0
    DHTIN_CR07_6 DHTCAP_6 1.0
    DHTIN_CR07_6 DHTY_6 -0.98
    DSLDIR_CR07_6 DSLBAL_CR07_6 -1.0
    DSLDIR_CR07_6 DSLPB_6 -1.0
    DSLDIR_CR07_6 DSLSUL_6 0.06500943297844713
    DHTIN_CR08_6 OBJ -2.0
    DHTIN_CR08_6 DSLBAL_CR08_6 -1.0
    DHTIN_CR08_6 DHTCAP_6 1.0
    DHTIN_CR08_6 DHTY_6 -0.98
    DSLDIR_CR08_6 DSLBAL_CR08_6 -1.0
    DSLDIR_CR08_6 DSLPB_6 -1.0
    DSLDIR_CR08_6 DSLSUL_6 1.0136884541165885
    DHTIN_CR09_6 OBJ -2.0
    DHTIN_CR09_6 DSLBAL_CR09_6 -1.0
    DHTIN_CR09_6 DHTCAP_6 1.0
    DHTIN_CR09_6 DHTY_6 -0.98
    DSLDIR_CR09_6 DSLBAL_CR09_6 -1.0
    DSLDIR_CR09_6 DSLPB_6 -1.0
    DSLDIR_CR09_6 DSLSUL_6 0.020618980777730833
    DHTIN_CR10_6 OBJ -2.0
    DHTIN_CR10_6 DSLBAL_CR10_6 -1.0
    DHTIN_CR10_6 DHTCAP_6 1.0
    DHTIN_CR10_6 DHTY_6 -0.98
    DSLDIR_CR10_6 DSLBAL_CR10_6 -1.0
    DSLDIR_CR10_6 DSLPB_6 -1.0
    DSLDIR_CR10_6 DSLSUL_6 1.62821888862855
    DHTIN_CR11_6 OBJ -2.0
    DHTIN_CR11_6 DSLBAL_CR11_6 -1.0
    DHTIN_CR11_6 DHTCAP_6 1.0
    DHTIN_CR11_6 DHTY_6 -0.98
    DSLDIR_CR11_6 DSLBAL_CR11_6 -1.0
    DSLDIR_CR11_6 DSLPB_6 -1.0
    DSLDIR_CR11_6 DSLSUL_6 0.8621530481854874
    DHTIN_CR12_6 OBJ -2.0
    DHTIN_CR12_6 DSLBAL_CR12_6 -1.0
    DHTIN_CR12_6 DHTCAP_6 1.0
    DHTIN_CR12_6 DHTY_6 -0.98
    DSLDIR_CR12_6 DSLBAL_CR12_6 -1.0
    DSLDIR_CR12_6 DSLPB_6 -1.0
    DSLDIR_CR12_6 DSLSUL_6 1.5756453880298185
    DHTIN_CR13_6 OBJ -2.0
    DHTIN_CR13_6 DSLBAL_CR13_6 -1.0
    DHTIN_CR13_6 DHTCAP_6 1.0
    DHTIN_CR13_6 DHTY_6 -0.98
    DSLDIR_CR13_6 DSLBAL_CR13_6 -1.0
    DSLDIR_CR13_6 DSLPB_6 -1.0
    DSLDIR_CR13_6 DSLSUL_6 0.13929860406737604
    DHTIN_CR14_6 OBJ -2.0
    DHTIN_CR14_6 DSLBAL_CR14_6 -1.0
    DHTIN_CR14_6 DHTCAP_6 1.0
    DHTIN_CR14_6 DHTY_6 -0.98
    DSLDIR_CR14_6 DSLBAL_CR14_6 -1.0
    DSLDIR_CR14_6 DSLPB_6 -1.0
    DSLDIR_CR14_6 DSLSUL_6 0.7289962148563339
    DHTIN_CR15_6 OBJ -2.0
    DHTIN_CR15_6 DSLBAL_CR15_6 -1.0
    DHTIN_CR15_6 DHTCAP_6 1.0
    DHTIN_CR15_6 DHTY_6 -0.98
    DSLDIR_CR15_6 DSLBAL_CR15_6 -1.0
    DSLDIR_CR15_6 DSLPB_6 -1.0
    DSLDIR_CR15_6 DSLSUL_6 0.0432280087396993
    DHTIN_CR16_6 OBJ -2.0
    DHTIN_CR16_6 DSLBAL_CR16_6 -1.0
    DHTIN_CR16_6 DHTCAP_6 1.0
    DHTIN_CR16_6 DHTY_6 -0.98
    DSLDIR_CR16_6 DSLBAL_CR16_6 -1.0
    DSLDIR_CR16_6 DSLPB_6 -1.0
    DSLDIR_CR16_6 DSLSUL_6 0.970875101525871
    DHTIN_CR17_6 OBJ -2.0
    DHTIN_CR17_6 DSLBAL_CR17_6 -1.0
    DHTIN_CR17_6 DHTCAP_6 1.0
    DHTIN_CR17_6 DHTY_6 -0.98
    DSLDIR_CR17_6 DSLBAL_CR17_6 -1.0
    DSLDIR_CR17_6 DSLPB_6 -1.0
    DSLDIR_CR17_6 DSLSUL_6 1.6384936942773962
    DHTIN_CR18_6 OBJ -2.0
    DHTIN_CR18_6 DSLBAL_CR18_6 -1.0
    DHTIN_CR18_6 DHTCAP_6 1.0
    DHTIN_CR18_6 DHTY_6 -0.98
    DSLDIR_CR18_6 DSLBAL_CR18_6 -1.0
    DSLDIR_CR18_6 DSLPB_6 -1.0
    DSLDIR_CR18_6 DSLSUL_6 0.08052474691335985
    DHTIN_CR19_6 OBJ -2.0
    DHTIN_CR19_6 DSLBAL_CR19_6 -1.0
    DHTIN_CR19_6 DHTCAP_6 1.0
    DHTIN_CR19_6 DHTY_6 -0.98
    DSLDIR_CR19_6 DSLBAL_CR19_6 -1.0
    DSLDIR_CR19_6 DSLPB_6 -1.0
    DSLDIR_CR19_6 DSLSUL_6 0.6552914452864763
    LCODHT_6 LCOBAL_6 -1.0
    LCODHT_6 DHTCAP_6 1.0
    LCODHT_6 DHTY_6 -0.95
    LCOFO_6 LCOBAL_6 -1.0
    LCOFO_6 FOBAL_6 -1.0
    LCOFO_6 FOSUL_6 -2.5
    ULSD_6 DHTY_6 1.0
    ULSD_6 DSLPB_6 -1.0
    ULSD_6 DSLSUL_6 -0.049
    SELL_LPG_6 OBJ 55.0
    SELL_LPG_6 PBAL_LPG_6 -1.0
    SELL_LPG_6 DMAX_LPG_6 1.0
    SELL_LPG_6 DMIN_LPG_6 1.0
    SELL_GAS_6 OBJ 105.0
    SELL_GAS_6 PBAL_GAS_6 -1.0
    SELL_GAS_6 DMAX_GAS_6 1.0
    SELL_GAS_6 DMIN_GAS_6 1.0
    SELL_JET_6 OBJ 100.0
    SELL_JET_6 PBAL_JET_6 -1.0
    SELL_JET_6 DMAX_JET_6 1.0
    SELL_JET_6 DMIN_JET_6 1.0
    SELL_DSL_6 OBJ 98.0
    SELL_DSL_6 PBAL_DSL_6 -1.0
    SELL_DSL_6 DMAX_DSL_6 1.0
    SELL_DSL_6 DMIN_DSL_6 1.0
    SELL_FO_6 OBJ 60.0
    SELL_FO_6 PBAL_FO_6 -1.0
    SELL_FO_6 DMAX_FO_6 1.0
    SELL_FO_6 DMIN_FO_6 1.0
    PINV_LPG_6 OBJ -0.5
    PINV_LPG_6 PBAL_LPG_6 -1.0
    PINV_LPG_6 PBAL_LPG_7 1.0
    PINV_GAS_6 OBJ -0.5
    PINV_GAS_6 PBAL_GAS_6 -1.0
    PINV_GAS_6 PBAL_GAS_7 1.0
    PINV_JET_6 OBJ -0.5
    PINV_JET_6 PBAL_JET_6 -1.0
    PINV_JET_6 PBAL_JET_7 1.0
    PINV_DSL_6 OBJ -0.5
    PINV_DSL_6 PBAL_DSL_6 -1.0
    PINV_DSL_6 PBAL_DSL_7 1.0
    PINV_FO_6 OBJ -0.5
    PINV_FO_6 PBAL_FO_6 -1.0
    PINV_FO_6 PBAL_FO_7 1.0
    SHORT_LPG_6 OBJ -400.0
    SHORT_LPG_6 DMIN_LPG_6 1.0
    SHORT_GAS_6 OBJ -400.0
    SHORT_GAS_6 DMIN_GAS_6 1.0
    SHORT_JET_6 OBJ -400.0
    SHORT_JET_6 DMIN_JET_6 1.0
    SHORT_DSL_6 OBJ -400.0
    SHORT_DSL_6 DMIN_DSL_6 1.0
    SHORT_FO_6 OBJ -400.0
    SHORT_FO_6 DMIN_FO_6 1.0
    GASPOOL_6 GASBAL_6 1.0
    GASPOOL_6 PBAL_GAS_6 1.0
    JETPOOL_6 JETBAL_6 1.0
    JETPOOL_6 PBAL_JET_6 1.0
    KERJET_CR00_6 KERBAL_CR00_6 -1.0
    KERJET_CR00_6 JETBAL_6 -1.0
    KERJET_CR00_6 JETSUL_6 0.10905668767581322
    KERDSL_CR00_6 KERBAL_CR00_6 -1.0
    KERDSL_CR00_6 DSLPB_6 -1.0
    KERDSL_CR00_6 DSLSUL_6 0.3590566876758132
    KERJET_CR01_6 KERBAL_CR01_6 -1.0
    KERJET_CR01_6 JETBAL_6 -1.0
    KERJET_CR01_6 JETSUL_6 -0.08376331342415014
    KERDSL_CR01_6 KERBAL_CR01_6 -1.0
    KERDSL_CR01_6 DSLPB_6 -1.0
    KERDSL_CR01_6 DSLSUL_6 0.16623668657584983
    KERJET_CR02_6 KERBAL_CR02_6 -1.0
    KERJET_CR02_6 JETBAL_6 -1.0
    KERJET_CR02_6 JETSUL_6 -0.033243200151024055
    KERDSL_CR02_6 KERBAL_CR02_6 -1.0
    KERDSL_CR02_6 DSLPB_6 -1.0
    KERDSL_CR02_6 DSLSUL_6 0.21675679984897595
    KERJET_CR03_6 KERBAL_CR03_6 -1.0
    KERJET_CR03_6 JETBAL_6 -1.0
    KERJET_CR03_6 JETSUL_6 -0.17764705818344229
    KERDSL_CR03_6 KERBAL_CR03_6 -1.0
    KERDSL_CR03_6 DSLPB_6 -1.0
    KERDSL_CR03_6 DSLSUL_6 0.0723529418165577
    KERJET_CR04_6 KERBAL_CR04_6 -1.0
    KERJET_CR04_6 JETBAL_6 -1.0
    KERJET_CR04_6 JETSUL_6 0.11487513588980985
    KERDSL_CR04_6 KERBAL_CR04_6 -1.0
    KERDSL_CR04_6 DSLPB_6 -1.0
    KERDSL_CR04_6 DSLSUL_6 0.36487513588980985
    KERJET_CR05_6 KERBAL_CR05_6 -1.0
    KERJET_CR05_6 JETBAL_6 -1.0
    KERJET_CR05_6 JETSUL_6 -0.011775018143244831
    KERDSL_CR05_6 KERBAL_CR05_6 -1.0
    KERDSL_CR05_6 DSLPB_6 -1.0
    KERDSL_CR05_6 DSLSUL_6 0.23822498185675517
    KERJET_CR06_6 KERBAL_CR06_6 -1.0
    KERJET_CR06_6 JETBAL_6 -1.0
    KERJET_CR06_6 JETSUL_6 -0.029808575954508865
    KERDSL_CR06_6 KERBAL_CR06_6 -1.0
    KERDSL_CR06_6 DSLPB_6 -1.0
    KERDSL_CR06_6 DSLSUL_6 0.22019142404549114
    KERJET_CR07_6 KERBAL_CR07_6 -1.0
    KERJET_CR07_6 JETBAL_6 -1.0
    KERJET_CR07_6 JETSUL_6 -0.2712476417553882
    KERDSL_CR07_6 KERBAL_CR07_6 -1.0
    KERDSL_CR07_6 DSLPB_6 -1.0
    KERDSL_CR07_6 DSLSUL_6 -0.02124764175538822
    KERJET_CR08_6 KERBAL_CR08_6 -1.0
    KERJET_CR08_6 JETBAL_6 -1.0
    KERJET_CR08_6 JETSUL_6 -0.03407788647085286
    KERDSL_CR08_6 KERBAL_CR08_6 -1.0
    KERDSL_CR08_6 DSLPB_6 -1.0
    KERDSL_CR08_6 DSLSUL_6 0.21592211352914714
    KERJET_CR09_6 KERBAL_CR09_6 -1.0
    KERJET_CR09_6 JETBAL_6 -1.0
    KERJET_CR09_6 JETSUL_6 -0.28234525480556727
    KERDSL_CR09_6 KERBAL_CR09_6 -1.0
    KERDSL_CR09_6 DSLPB_6 -1.0
    KERDSL_CR09_6 DSLSUL_6 -0.0323452548055673
    KERJET_CR10_6 KERBAL_CR10_6 -1.0
    KERJET_CR10_6 JETBAL_6 -1.0
    KERJET_CR10_6 JETSUL_6 0.11955472215713753
    KERDSL_CR10_6 KERBAL_CR10_6 -1.0
    KERDSL_CR10_6 DSLPB_6 -1.0
    KERDSL_CR10_6 DSLSUL_6 0.3695547221571375
    KERJET_CR11_6 KERBAL_CR11_6 -1.0
    KERJET_CR11_6 JETBAL_6 -1.0
    KERJET_CR11_6 JETSUL_6 -0.07196173795362812
    KERDSL_CR11_6 KERBAL_CR11_6 -1.0
    KERDSL_CR11_6 DSLPB_6 -1.0
    KERDSL_CR11_6 DSLSUL_6 0.17803826204637185
    KERJET_CR12_6 KERBAL_CR12_6 -1.0
    KERJET_CR12_6 JETBAL_6 -1.0
    KERJET_CR12_6 JETSUL_6 0.10641134700745464
    KERDSL_CR12_6 KERBAL_CR12_6 -1.0
    KERDSL_CR12_6 DSLPB_6 -1.0
    KERDSL_CR12_6 DSLSUL_6 0.35641134700745464
    KERJET_CR13_6 KERBAL_CR13_6 -1.0
    KERJET_CR13_6 JETBAL_6 -1.0
    KERJET_CR13_6 JETSUL_6 -0.25267534898315597
    KERDSL_CR13_6 KERBAL_CR13_6 -1.0
    KERDSL_CR13_6 DSLPB_6 -1.0
    KERDSL_CR13_6 DSLSUL_6 -0.002675348983155995
    KERJET_CR14_6 KERBAL_CR14_6 -1.0
    KERJET_CR14_6 JETBAL_6 -1.0
    KERJET_CR14_6 JETSUL_6 -0.1052509462859165
    KERDSL_CR14_6 KERBAL_CR14_6 -1.0
    KERDSL_CR14_6 DSLPB_6 -1.0
    KERDSL_CR14_6 DSLSUL_6 0.14474905371408348
    KERJET_CR15_6 KERBAL_CR15_6 -1.0
    KERJET_CR15_6 JETBAL_6 -1.0
    KERJET_CR15_6 JETSUL_6 -0.27669299781507517
    KERDSL_CR15_6 KERBAL_CR15_6 -1.0
    KERDSL_CR15_6 DSLPB_6 -1.0
    KERDSL_CR15_6 DSLSUL_6 -0.026692997815075177
    KERJET_CR16_6 KERBAL_CR16_6 -1.0
    KERJET_CR16_6 JETBAL_6 -1.0
    KERJET_CR16_6 JETSUL_6 -0.044781224618532234
    KERDSL_CR16_6 KERBAL_CR16_6 -1.0
    KERDSL_CR16_6 DSLPB_6 -1.0
    KERDSL_CR16_6 DSLSUL_6 0.20521877538146777
    KERJET_CR17_6 KERBAL_CR17_6 -1.0
    KERJET_CR17_6 JETBAL_6 -1.0
    KERJET_CR17_6 JETSUL_6 0.12212342356934908
    KERDSL_CR17_6 KERBAL_CR17_6 -1.0
    KERDSL_CR17_6 DSLPB_6 -1.0
    KERDSL_CR17_6 DSLSUL_6 0.3721234235693491
    KERJET_CR18_6 KERBAL_CR18_6 -1.0
    KERJET_CR18_6 JETBAL_6 -1.0
    KERJET_CR18_6 JETSUL_6 -0.26736881327166
    KERDSL_CR18_6 KERBAL_CR18_6 -1.0
    KERDSL_CR18_6 DSLPB_6 -1.0
    KERDSL_CR18_6 DSLSUL_6 -0.01736881327166004
    KERJET_CR19_6 KERBAL_CR19_6 -1.0
    KERJET_CR19_6 JETBAL_6 -1.0
    KERJET_CR19_6 JETSUL_6 -0.1236771386783809
    KERDSL_CR19_6 KERBAL_CR19_6 -1.0
    KERDSL_CR19_6 DSLPB_6 -1.0
    KERDSL_CR19_6 DSLSUL_6 0.12632286132161907
    DSLPOOL_6 DSLPB_6 1.0
    DSLPOOL_6 PBAL_DSL_6 1.0
    LPGPOOL_6 LPGBAL_6 1.0
    LPGPOOL_6 PBAL_LPG_6 1.0
    FOPOOL_6 FOBAL_6 1.0
    FOPOOL_6 PBAL_FO_6 1.0
    BUY_CR00_7 OBJ -55.099274490842475
    BUY_CR00_7 CBAL_CR00_7 1.0
    CINV_CR00_7 OBJ -0.3
    CINV_CR00_7 CBAL_CR00_7 -1.0
    CINV_CR00_7 CBAL_CR00_8 1.0
    CDU_CR00_7 CBAL_CR00_7 -1.0
    CDU_CR00_7 CDUCAP_7 1.0
    CDU_CR00_7 YLPG_CR00_7 -0.013786055933968056
    CDU_CR00_7 YNAP_CR00_7 -0.1214444916358349
    CDU_CR00_7 YKER_CR00_7 -0.10646372452567733
    CDU_CR00_7 YDSL_CR00_7 -0.20292085263352289
    CDU_CR00_7 YVGO_CR00_7 -0.27390944719057636
    CDU_CR00_7 YRES_CR00_7 -0.28147542808042036
    BUY_CR01_7 OBJ -70.47767543524711
    BUY_CR01_7 CBAL_CR01_7 1.0
    CINV_CR01_7 OBJ -0.3
    CINV_CR01_7 CBAL_CR01_7 -1.0
    CINV_CR01_7 CBAL_CR01_8 1.0
    CDU_CR01_7 CBAL_CR01_7 -1.0
    CDU_CR01_7 CDUCAP_7 1.0
    CDU_CR01_7 YLPG_CR01_7 -0.025127543584387436
    CDU_CR01_7 YNAP_CR01_7 -0.2025917905849106
    CDU_CR01_7 YKER_CR01_7 -0.13410952106049506
    CDU_CR01_7 YDSL_CR01_7 -0.24728591651278542
    CDU_CR01_7 YVGO_CR01_7 -0.22897185950088417
    CDU_CR01_7 YRES_CR01_7 -0.16191336875653717
    BUY_CR02_7 OBJ -57.755836364924335
    BUY_CR02_7 CBAL_CR02_7 1.0
    CINV_CR02_7 OBJ -0.3
    CINV_CR02_7 CBAL_CR02_7 -1.0
    CINV_CR02_7 CBAL_CR02_8 1.0
    CDU_CR02_7 CBAL_CR02_7 -1.0
    CDU_CR02_7 CDUCAP_7 1.0
    CDU_CR02_7 YLPG_CR02_7 -0.013444753666275039
    CDU_CR02_7 YNAP_CR02_7 -0.11889710072836579
    CDU_CR02_7 YKER_CR02_7 -0.103840437143255
    CDU_CR02_7 YDSL_CR02_7 -0.21229612809407214
    CDU_CR02_7 YVGO_CR02_7 -0.2628713956905896
    CDU_CR02_7 YRES_CR02_7 -0.28865018467744247
    BUY_CR03_7 OBJ -64.33114972844623
    BUY_CR03_7 CBAL_CR03_7 1.0
    CINV_CR03_7 OBJ -0.3
    CINV_CR03_7 CBAL_CR03_7 -1.0
    CINV_CR03_7 CBAL_CR03_8 1.0
    CDU_CR03_7 CBAL_CR03_7 -1.0
    CDU_CR03_7 CDUCAP_7 1.0
    CDU_CR03_7 YLPG_CR03_7 -0.01400858068810675
    CDU_CR03_7 YNAP_CR03_7 -0.1424923117986131
    CDU_CR03_7 YKER_CR03_7 -0.10784088582669263
    CDU_CR03_7 YDSL_CR03_7 -0.19279120630762445
    CDU_CR03_7 YVGO_CR03_7 -0.28544626211923063
    CDU_CR03_7 YRES_CR03_7 -0.2574207532597324
    BUY_CR04_7 OBJ -68.43082512782017
    BUY_CR04_7 CBAL_CR04_7 1.0
    CINV_CR04_7 OBJ -0.3
    CINV_CR04_7 CBAL_CR04_7 -1.0
    CINV_CR04_7 CBAL_CR04_8 1.0
    CDU_CR04_7 CBAL_CR04_7 -1.0
    CDU_CR04_7 CDUCAP_7 1.0
    CDU_CR04_7 YLPG_CR04_7 -0.02335213093765316
    CDU_CR04_7 YNAP_CR04_7 -0.2292355396921612
    CDU_CR04_7 YKER_CR04_7 -0.14240695851543803
    CDU_CR04_7 YDSL_CR04_7 -0.24384363627499198
    CDU_CR04_7 YVGO_CR04_7 -0.2465326974706559
    CDU_CR04_7 YRES_CR04_7 -0.1146290371090997
    BUY_CR05_7 OBJ -62.06869647099301
    BUY_CR05_7 CBAL_CR05_7 1.0
    CINV_CR05_7 OBJ -0.3
    CINV_CR05_7 CBAL_CR05_7 -1.0
    CINV_CR05_7 CBAL_CR05_8 1.0
    CDU_CR05_7 CBAL_CR05_7 -1.0
    CDU_CR05_7 CDUCAP_7 1.0
    CDU_CR05_7 YLPG_CR05_7 -0.01735729802728813
    CDU_CR05_7 YNAP_CR05_7 -0.16608619710065003
    CDU_CR05_7 YKER_CR05_7 -0.1170544437563835
    CDU_CR05_7 YDSL_CR05_7 -0.22299235889970878
    CDU_CR05_7 YVGO_CR05_7 -0.2433490540516293
    CDU_CR05_7 YRES_CR05_7 -0.23316064816434035
    BUY_CR06_7 OBJ -59.50083554475344
    BUY_CR06_7 CBAL_CR06_7 1.0
    CINV_CR06_7 OBJ -0.3
    CINV_CR06_7 CBAL_CR06_7 -1.0
    CINV_CR06_7 CBAL_CR06_8 1.0
    CDU_CR06_7 CBAL_CR06_7 -1.0
    CDU_CR06_7 CDUCAP_7 1.0
    CDU_CR06_7 YLPG_CR06_7 -0.014219474855875663
    CDU_CR06_7 YNAP_CR06_7 -0.13746806025500902
    CDU_CR06_7 YKER_CR06_7 -0.10533897185985656
    CDU_CR06_7 YDSL_CR06_7 -0.20403840195434858
    CDU_CR06_7 YVGO_CR06_7 -0.26484358994429863
    CDU_CR06_7 YRES_CR06_7 -0.27409150113061165
    BUY_CR07_7 OBJ -68.04417325869606
    BUY_CR07_7 CBAL_CR07_7 1.0
    CINV_CR07_7 OBJ -0.3
    CINV_CR07_7 CBAL_CR07_7 -1.0
    CINV_CR07_7 CBAL_CR07_8 1.0
    CDU_CR07_7 CBAL_CR07_7 -1.0
    CDU_CR07_7 CDUCAP_7 1.0
    CDU_CR07_7 YLPG_CR07_7 -0.01678766142162217
    CDU_CR07_7 YNAP_CR07_7 -0.18341674311422207
    CDU_CR07_7 YKER_CR07_7 -0.13271469159016522
    CDU_CR07_7 YDSL_CR07_7 -0.2249127244045356
    CDU_CR07_7 YVGO_CR07_7 -0.24848613807316539
    CDU_CR07_7 YRES_CR07_7 -0.19368204139628944
    BUY_CR08_7 OBJ -66.68500596756223
    BUY_CR08_7 CBAL_CR08_7 1.0
    CINV_CR08_7 OBJ -0.3
    CINV_CR08_7 CBAL_CR08_7 -1.0
    CINV_CR08_7 CBAL_CR08_8 1.0
    CDU_CR08_7 CBAL_CR08_7 -1.0
    CDU_CR08_7 CDUCAP_7 1.0
    CDU_CR08_7 YLPG_CR08_7 -0.023930881960770135
    CDU_CR08_7 YNAP_CR08_7 -0.199474063989656
    CDU_CR08_7 YKER_CR08_7 -0.13012967624359006
    CDU_CR08_7 YDSL_CR08_7 -0.24906213509239003
    CDU_CR08_7 YVGO_CR08_7 -0.24247509330512357
    CDU_CR08_7 YRES_CR08_7 -0.15492814940847022
    BUY_CR09_7 OBJ -75.2627846924635
    BUY_CR09_7 CBAL_CR09_7 1.0
    CINV_CR09_7 OBJ -0.3
    CINV_CR09_7 CBAL_CR09_7 -1.0
    CINV_CR09_7 CBAL_CR09_8 1.0
    CDU_CR09_7 CBAL_CR09_7 -1.0
    CDU_CR09_7 CDUCAP_7 1.0
    CDU_CR09_7 YLPG_CR09_7 -0.0254414593142613
    CDU_CR09_7 YNAP_CR09_7 -0.2406668892422991
    CDU_CR09_7 YKER_CR09_7 -0.14150533274546892
    CDU_CR09_7 YDSL_CR09_7 -0.23713673044274025
    CDU_CR09_7 YVGO_CR09_7 -0.23566730460149374
    CDU_CR09_7 YRES_CR09_7 -0.11958228365373665
    BUY_CR10_7 OBJ -55.82205123039901
    BUY_CR10_7 CBAL_CR10_7 1.0
    CINV_CR10_7 OBJ -0.3
    CINV_CR10_7 CBAL_CR10_7 -1.0
    CINV_CR10_7 CBAL_CR10_8 1.0
    CDU_CR10_7 CBAL_CR10_7 -1.0
    CDU_CR10_7 CDUCAP_7 1.0
    CDU_CR10_7 YLPG_CR10_7 -0.012631058640766385
    CDU_CR10_7 YNAP_CR10_7 -0.11501159644639905
    CDU_CR10_7 YKER_CR10_7 -0.1080956731900355
    CDU_CR10_7 YDSL_CR10_7 -0.20982857494392457
    CDU_CR10_7 YVGO_CR10_7 -0.2722572086368098
    CDU_CR10_7 YRES_CR10_7 -0.28217588814206473
    BUY_CR11_7 OBJ -68.16285883226872
    BUY_CR11_7 CBAL_CR11_7 1.0
    CINV_CR11_7 OBJ -0.3
    CINV_CR11_7 CBAL_CR11_7 -1.0
    CINV_CR11_7 CBAL_CR11_8 1.0
    CDU_CR11_7 CBAL_CR11_7 -1.0
    CDU_CR11_7 CDUCAP_7 1.0
    CDU_CR11_7 YLPG_CR11_7 -0.018171926805686592
    CDU_CR11_7 YNAP_CR11_7 -0.18017303538659502
    CDU_CR11_7 YKER_CR11_7 -0.11622304467804759
    CDU_CR11_7 YDSL_CR11_7 -0.22678215323461023
    CDU_CR11_7 YVGO_CR11_7 -0.2637522217068048
    CDU_CR11_7 YRES_CR11_7 -0.19489761818825582
    BUY_CR12_7 OBJ -56.85360730938676
    BUY_CR12_7 CBAL_CR12_7 1.0
    CINV_CR12_7 OBJ -0.3
    CINV_CR12_7 CBAL_CR12_7 -1.0
    CINV_CR12_7 CBAL_CR12_8 1.0
    CDU_CR12_7 CBAL_CR12_7 -1.0
    CDU_CR12_7 CDUCAP_7 1.0
    CDU_CR12_7 YLPG_CR12_7 -0.016285402257558677
    CDU_CR12_7 YNAP_CR12_7 -0.1394251111460902
    CDU_CR12_7 YKER_CR12_7 -0.10627583407346515
    CDU_CR12_7 YDSL_CR12_7 -0.2004859030026821
    CDU_CR12_7 YVGO_CR12_7 -0.29053476615254664
    CDU_CR12_7 YRES_CR12_7 -0.2469929833676572
    BUY_CR13_7 OBJ -65.81070238099605
    BUY_CR13_7 CBAL_CR13_7 1.0
    CINV_CR13_7 OBJ -0.3
    CINV_CR13_7 CBAL_CR13_7 -1.0
    CINV_CR13_7 CBAL_CR13_8 1.0
    CDU_CR13_7 CBAL_CR13_7 -1.0
    CDU_CR13_7 CDUCAP_7 1.0
    CDU_CR13_7 YLPG_CR13_7 -0.015405562084299341
    CDU_CR13_7 YNAP_CR13_7 -0.1597372095049784
    CDU_CR13_7 YKER_CR13_7 -0.109230580221756
    CDU_CR13_7 YDSL_CR13_7 -0.20799117245133522
    CDU_CR13_7 YVGO_CR13_7 -0.2743070543343612
    CDU_CR13_7 YRES_CR13_7 -0.23332842140326976
    BUY_CR14_7 OBJ -59.64594409192191
    BUY_CR14_7 CBAL_CR14_7 1.0
    CINV_CR14_7 OBJ -0.3
    CINV_CR14_7 CBAL_CR14_7 -1.0
    CINV_CR14_7 CBAL_CR14_8 1.0
    CDU_CR14_7 CBAL_CR14_7 -1.0
    CDU_CR14_7 CDUCAP_7 1.0
    CDU_CR14_7 YLPG_CR14_7 -0.011676212845503672
    CDU_CR14_7 YNAP_CR14_7 -0.10963647957865116
    CDU_CR14_7 YKER_CR14_7 -0.09755861914812415
    CDU_CR14_7 YDSL_CR14_7 -0.22400035528460593
    CDU_CR14_7 YVGO_CR14_7 -0.27985390356413214
    CDU_CR14_7 YRES_CR14_7 -0.2772744295789829
    BUY_CR15_7 OBJ -61.46443571708145
    BUY_CR15_7 CBAL_CR15_7 1.0
    CINV_CR15_7 OBJ -0.3
    CINV_CR15_7 CBAL_CR15_7 -1.0
    CINV_CR15_7 CBAL_CR15_8 1.0
    CDU_CR15_7 CBAL_CR15_7 -1.0
    CDU_CR15_7 CDUCAP_7 1.0
    CDU_CR15_7 YLPG_CR15_7 -0.010625779986084445
    CDU_CR15_7 YNAP_CR15_7 -0.11766680402271243
    CDU_CR15_7 YKER_CR15_7 -0.09531893966264804
    CDU_CR15_7 YDSL_CR15_7 -0.2087175638151306
    CDU_CR15_7 YVGO_CR15_7 -0.2798835604956035
    CDU_CR15_7 YRES_CR15_7 -0.287787352017821
    BUY_CR16_7 OBJ -66.83236437724338
    BUY_CR16_7 CBAL_CR16_7 1.0
    CINV_CR16_7 OBJ -0.3
    CINV_CR16_7 CBAL_CR16_7 -1.0
    CINV_CR16_7 CBAL_CR16_8 1.0
    CDU_CR16_7 CBAL_CR16_7 -1.0
    CDU_CR16_7 CDUCAP_7 1.0
    CDU_CR16_7 YLPG_CR16_7 -0.021730435986974463
    CDU_CR16_7 YNAP_CR16_7 -0.22346814322949868
    CDU_CR16_7 YKER_CR16_7 -0.12962692092969477
    CDU_CR16_7 YDSL_CR16_7 -0.23580083169350696
    CDU_CR16_7 YVGO_CR16_7 -0.23197545191976185
    CDU_CR16_7 YRES_CR16_7 -0.1573982162405634
    BUY_CR17_7 OBJ -66.4178589815101
    BUY_CR17_7 CBAL_CR17_7 1.0
    CINV_CR17_7 OBJ -0.3
    CINV_CR17_7 CBAL_CR17_7 -1.0
    CINV_CR17_7 CBAL_CR17_8 1.0
    CDU_CR17_7 CBAL_CR17_7 -1.0
    CDU_CR17_7 CDUCAP_7 1.0
    CDU_CR17_7 YLPG_CR17_7 -0.023568928491133005
    CDU_CR17_7 YNAP_CR17_7 -0.24678008017283823
    CDU_CR17_7 YKER_CR17_7 -0.12826932733432603
    CDU_CR17_7 YDSL_CR17_7 -0.2495178182316694
    CDU_CR17_7 YVGO_CR17_7 -0.23510202280801157
    CDU_CR17_7 YRES_CR17_7 -0.1167618229620217
    BUY_CR18_7 OBJ -73.7555051843298
    BUY_CR18_7 CBAL_CR18_7 1.0
    CINV_CR18_7 OBJ -0.3
    CINV_CR18_7 CBAL_CR18_7 -1.0
    CINV_CR18_7 CBAL_CR18_8 1.0
    CDU_CR18_7 CBAL_CR18_7 -1.0
    CDU_CR18_7 CDUCAP_7 1.0
    CDU_CR18_7 YLPG_CR18_7 -0.02478422291723085
    CDU_CR18_7 YNAP_CR18_7 -0.23955258573301338
    CDU_CR18_7 YKER_CR18_7 -0.1322077813000583
    CDU_CR18_7 YDSL_CR18_7 -0.21167154879043004
    CDU_CR18_7 YVGO_CR18_7 -0.24506150244942554
    CDU_CR18_7 YRES_CR18_7 -0.146722358809842
    BUY_CR19_7 OBJ -63.50565663122974
    BUY_CR19_7 CBAL_CR19_7 1.0
    CINV_CR19_7 OBJ -0.3
    CINV_CR19_7 CBAL_CR19_7 -1.0
    CINV_CR19_7 CBAL_CR19_8 1.0
    CDU_CR19_7 CBAL_CR19_7 -1.0
    CDU_CR19_7 CDUCAP_7 1.0
    CDU_CR19_7 YLPG_CR19_7 -0.01626067739955701
    CDU_CR19_7 YNAP_CR19_7 -0.1715066574732045
    CDU_CR19_7 YKER_CR19_7 -0.11836465284470915
    CDU_CR19_7 YDSL_CR19_7 -0.20874443204167248
    CDU_CR19_7 YVGO_CR19_7 -0.2445178967491453
    CDU_CR19_7 YRES_CR19_7 -0.24060568349171155
    LPG_CR00_7 YLPG_CR00_7 1.0
    LPG_CR00_7 LPGBAL_7 -1.0
    NAP_CR00_7 YNAP_CR00_7 1.0
    NAP_CR00_7 NAPBAL_CR00_7 1.0
    KER_CR00_7 YKER_CR00_7 1.0
    KER_CR00_7 KERBAL_CR00_7 1.0
    DSL_CR00_7 YDSL_CR00_7 1.0
    DSL_CR00_7 DSLBAL_CR00_7 1.0
    VGO_CR00_7 YVGO_CR00_7 1.0
    VGO_CR00_7 VGOBAL_CR00_7 1.0
    RES_CR00_7 YRES_CR00_7 1.0
    RES_CR00_7 RESSPLIT_CR00_7 1.0
    LPG_CR01_7 YLPG_CR01_7 1.0
    LPG_CR01_7 LPGBAL_7 -1.0
    NAP_CR01_7 YNAP_CR01_7 1.0
    NAP_CR01_7 NAPBAL_CR01_7 1.0
    KER_CR01_7 YKER_CR01_7 1.0
    KER_CR01_7 KERBAL_CR01_7 1.0
    DSL_CR01_7 YDSL_CR01_7 1.0
    DSL_CR01_7 DSLBAL_CR01_7 1.0
    VGO_CR01_7 YVGO_CR01_7 1.0
    VGO_CR01_7 VGOBAL_CR01_7 1.0
    RES_CR01_7 YRES_CR01_7 1.0
    RES_CR01_7 RESSPLIT_CR01_7 1.0
    LPG_CR02_7 YLPG_CR02_7 1.0
    LPG_CR02_7 LPGBAL_7 -1.0
    NAP_CR02_7 YNAP_CR02_7 1.0
    NAP_CR02_7 NAPBAL_CR02_7 1.0
    KER_CR02_7 YKER_CR02_7 1.0
    KER_CR02_7 KERBAL_CR02_7 1.0
    DSL_CR02_7 YDSL_CR02_7 1.0
    DSL_CR02_7 DSLBAL_CR02_7 1.0
    VGO_CR02_7 YVGO_CR02_7 1.0
    VGO_CR02_7 VGOBAL_CR02_7 1.0
    RES_CR02_7 YRES_CR02_7 1.0
    RES_CR02_7 RESSPLIT_CR02_7 1.0
    LPG_CR03_7 YLPG_CR03_7 1.0
    LPG_CR03_7 LPGBAL_7 -1.0
    NAP_CR03_7 YNAP_CR03_7 1.0
    NAP_CR03_7 NAPBAL_CR03_7 1.0
    KER_CR03_7 YKER_CR03_7 1.0
    KER_CR03_7 KERBAL_CR03_7 1.0
    DSL_CR03_7 YDSL_CR03_7 1.0
    DSL_CR03_7 DSLBAL_CR03_7 1.0
    VGO_CR03_7 YVGO_CR03_7 1.0
    VGO_CR03_7 VGOBAL_CR03_7 1.0
    RES_CR03_7 YRES_CR03_7 1.0
    RES_CR03_7 RESSPLIT_CR03_7 1.0
    LPG_CR04_7 YLPG_CR04_7 1.0
    LPG_CR04_7 LPGBAL_7 -1.0
    NAP_CR04_7 YNAP_CR04_7 1.0
    NAP_CR04_7 NAPBAL_CR04_7 1.0
    KER_CR04_7 YKER_CR04_7 1.0
    KER_CR04_7 KERBAL_CR04_7 1.0
    DSL_CR04_7 YDSL_CR04_7 1.0
    DSL_CR04_7 DSLBAL_CR04_7 1.0
    VGO_CR04_7 YVGO_CR04_7 1.0
    VGO_CR04_7 VGOBAL_CR04_7 1.0
    RES_CR04_7 YRES_CR04_7 1.0
    RES_CR04_7 RESSPLIT_CR04_7 1.0
    LPG_CR05_7 YLPG_CR05_7 1.0
    LPG_CR05_7 LPGBAL_7 -1.0
    NAP_CR05_7 YNAP_CR05_7 1.0
    NAP_CR05_7 NAPBAL_CR05_7 1.0
    KER_CR05_7 YKER_CR05_7 1.0
    KER_CR05_7 KERBAL_CR05_7 1.0
    DSL_CR05_7 YDSL_CR05_7 1.0
    DSL_CR05_7 DSLBAL_CR05_7 1.0
    VGO_CR05_7 YVGO_CR05_7 1.0
    VGO_CR05_7 VGOBAL_CR05_7 1.0
    RES_CR05_7 YRES_CR05_7 1.0
    RES_CR05_7 RESSPLIT_CR05_7 1.0
    LPG_CR06_7 YLPG_CR06_7 1.0
    LPG_CR06_7 LPGBAL_7 -1.0
    NAP_CR06_7 YNAP_CR06_7 1.0
    NAP_CR06_7 NAPBAL_CR06_7 1.0
    KER_CR06_7 YKER_CR06_7 1.0
    KER_CR06_7 KERBAL_CR06_7 1.0
    DSL_CR06_7 YDSL_CR06_7 1.0
    DSL_CR06_7 DSLBAL_CR06_7 1.0
    VGO_CR06_7 YVGO_CR06_7 1.0
    VGO_CR06_7 VGOBAL_CR06_7 1.0
    RES_CR06_7 YRES_CR06_7 1.0
    RES_CR06_7 RESSPLIT_CR06_7 1.0
    LPG_CR07_7 YLPG_CR07_7 1.0
    LPG_CR07_7 LPGBAL_7 -1.0
    NAP_CR07_7 YNAP_CR07_7 1.0
    NAP_CR07_7 NAPBAL_CR07_7 1.0
    KER_CR07_7 YKER_CR07_7 1.0
    KER_CR07_7 KERBAL_CR07_7 1.0
    DSL_CR07_7 YDSL_CR07_7 1.0
    DSL_CR07_7 DSLBAL_CR07_7 1.0
    VGO_CR07_7 YVGO_CR07_7 1.0
    VGO_CR07_7 VGOBAL_CR07_7 1.0
    RES_CR07_7 YRES_CR07_7 1.0
    RES_CR07_7 RESSPLIT_CR07_7 1.0
    LPG_CR08_7 YLPG_CR08_7 1.0
    LPG_CR08_7 LPGBAL_7 -1.0
    NAP_CR08_7 YNAP_CR08_7 1.0
    NAP_CR08_7 NAPBAL_CR08_7 1.0
    KER_CR08_7 YKER_CR08_7 1.0
    KER_CR08_7 KERBAL_CR08_7 1.0
    DSL_CR08_7 YDSL_CR08_7 1.0
    DSL_CR08_7 DSLBAL_CR08_7 1.0
    VGO_CR08_7 YVGO_CR08_7 1.0
    VGO_CR08_7 VGOBAL_CR08_7 1.0
    RES_CR08_7 YRES_CR08_7 1.0
    RES_CR08_7 RESSPLIT_CR08_7 1.0
    LPG_CR09_7 YLPG_CR09_7 1.0
    LPG_CR09_7 LPGBAL_7 -1.0
    NAP_CR09_7 YNAP_CR09_7 1.0
    NAP_CR09_7 NAPBAL_CR09_7 1.0
    KER_CR09_7 YKER_CR09_7 1.0
    KER_CR09_7 KERBAL_CR09_7 1.0
    DSL_CR09_7 YDSL_CR09_7 1.0
    DSL_CR09_7 DSLBAL_CR09_7 1.0
    VGO_CR09_7 YVGO_CR09_7 1.0
    VGO_CR09_7 VGOBAL_CR09_7 1.0
    RES_CR09_7 YRES_CR09_7 1.0
    RES_CR09_7 RESSPLIT_CR09_7 1.0
    LPG_CR10_7 YLPG_CR10_7 1.0
    LPG_CR10_7 LPGBAL_7 -1.0
    NAP_CR10_7 YNAP_CR10_7 1.0
    NAP_CR10_7 NAPBAL_CR10_7 1.0
    KER_CR10_7 YKER_CR10_7 1.0
    KER_CR10_7 KERBAL_CR10_7 1.0
    DSL_CR10_7 YDSL_CR10_7 1.0
    DSL_CR10_7 DSLBAL_CR10_7 1.0
    VGO_CR10_7 YVGO_CR10_7 1.0
    VGO_CR10_7 VGOBAL_CR10_7 1.0
    RES_CR10_7 YRES_CR10_7 1.0
    RES_CR10_7 RESSPLIT_CR10_7 1.0
    LPG_CR11_7 YLPG_CR11_7 1.0
    LPG_CR11_7 LPGBAL_7 -1.0
    NAP_CR11_7 YNAP_CR11_7 1.0
    NAP_CR11_7 NAPBAL_CR11_7 1.0
    KER_CR11_7 YKER_CR11_7 1.0
    KER_CR11_7 KERBAL_CR11_7 1.0
    DSL_CR11_7 YDSL_CR11_7 1.0
    DSL_CR11_7 DSLBAL_CR11_7 1.0
    VGO_CR11_7 YVGO_CR11_7 1.0
    VGO_CR11_7 VGOBAL_CR11_7 1.0
    RES_CR11_7 YRES_CR11_7 1.0
    RES_CR11_7 RESSPLIT_CR11_7 1.0
    LPG_CR12_7 YLPG_CR12_7 1.0
    LPG_CR12_7 LPGBAL_7 -1.0
    NAP_CR12_7 YNAP_CR12_7 1.0
    NAP_CR12_7 NAPBAL_CR12_7 1.0
    KER_CR12_7 YKER_CR12_7 1.0
    KER_CR12_7 KERBAL_CR12_7 1.0
    DSL_CR12_7 YDSL_CR12_7 1.0
    DSL_CR12_7 DSLBAL_CR12_7 1.0
    VGO_CR12_7 YVGO_CR12_7 1.0
    VGO_CR12_7 VGOBAL_CR12_7 1.0
    RES_CR12_7 YRES_CR12_7 1.0
    RES_CR12_7 RESSPLIT_CR12_7 1.0
    LPG_CR13_7 YLPG_CR13_7 1.0
    LPG_CR13_7 LPGBAL_7 -1.0
    NAP_CR13_7 YNAP_CR13_7 1.0
    NAP_CR13_7 NAPBAL_CR13_7 1.0
    KER_CR13_7 YKER_CR13_7 1.0
    KER_CR13_7 KERBAL_CR13_7 1.0
    DSL_CR13_7 YDSL_CR13_7 1.0
    DSL_CR13_7 DSLBAL_CR13_7 1.0
    VGO_CR13_7 YVGO_CR13_7 1.0
    VGO_CR13_7 VGOBAL_CR13_7 1.0
    RES_CR13_7 YRES_CR13_7 1.0
    RES_CR13_7 RESSPLIT_CR13_7 1.0
    LPG_CR14_7 YLPG_CR14_7 1.0
    LPG_CR14_7 LPGBAL_7 -1.0
    NAP_CR14_7 YNAP_CR14_7 1.0
    NAP_CR14_7 NAPBAL_CR14_7 1.0
    KER_CR14_7 YKER_CR14_7 1.0
    KER_CR14_7 KERBAL_CR14_7 1.0
    DSL_CR14_7 YDSL_CR14_7 1.0
    DSL_CR14_7 DSLBAL_CR14_7 1.0
    VGO_CR14_7 YVGO_CR14_7 1.0
    VGO_CR14_7 VGOBAL_CR14_7 1.0
    RES_CR14_7 YRES_CR14_7 1.0
    RES_CR14_7 RESSPLIT_CR14_7 1.0
    LPG_CR15_7 YLPG_CR15_7 1.0
    LPG_CR15_7 LPGBAL_7 -1.0
    NAP_CR15_7 YNAP_CR15_7 1.0
    NAP_CR15_7 NAPBAL_CR15_7 1.0
    KER_CR15_7 YKER_CR15_7 1.0
    KER_CR15_7 KERBAL_CR15_7 1.0
    DSL_CR15_7 YDSL_CR15_7 1.0
    DSL_CR15_7 DSLBAL_CR15_7 1.0
    VGO_CR15_7 YVGO_CR15_7 1.0
    VGO_CR15_7 VGOBAL_CR15_7 1.0
    RES_CR15_7 YRES_CR15_7 1.0
    RES_CR15_7 RESSPLIT_CR15_7 1.0
    LPG_CR16_7 YLPG_CR16_7 1.0
    LPG_CR16_7 LPGBAL_7 -1.0
    NAP_CR16_7 YNAP_CR16_7 1.0
    NAP_CR16_7 NAPBAL_CR16_7 1.0
    KER_CR16_7 YKER_CR16_7 1.0
    KER_CR16_7 KERBAL_CR16_7 1.0
    DSL_CR16_7 YDSL_CR16_7 1.0
    DSL_CR16_7 DSLBAL_CR16_7 1.0
    VGO_CR16_7 YVGO_CR16_7 1.0
    VGO_CR16_7 VGOBAL_CR16_7 1.0
    RES_CR16_7 YRES_CR16_7 1.0
    RES_CR16_7 RESSPLIT_CR16_7 1.0
    LPG_CR17_7 YLPG_CR17_7 1.0
    LPG_CR17_7 LPGBAL_7 -1.0
    NAP_CR17_7 YNAP_CR17_7 1.0
    NAP_CR17_7 NAPBAL_CR17_7 1.0
    KER_CR17_7 YKER_CR17_7 1.0
    KER_CR17_7 KERBAL_CR17_7 1.0
    DSL_CR17_7 YDSL_CR17_7 1.0
    DSL_CR17_7 DSLBAL_CR17_7 1.0
    VGO_CR17_7 YVGO_CR17_7 1.0
    VGO_CR17_7 VGOBAL_CR17_7 1.0
    RES_CR17_7 YRES_CR17_7 1.0
    RES_CR17_7 RESSPLIT_CR17_7 1.0
    LPG_CR18_7 YLPG_CR18_7 1.0
    LPG_CR18_7 LPGBAL_7 -1.0
    NAP_CR18_7 YNAP_CR18_7 1.0
    NAP_CR18_7 NAPBAL_CR18_7 1.0
    KER_CR18_7 YKER_CR18_7 1.0
    KER_CR18_7 KERBAL_CR18_7 1.0
    DSL_CR18_7 YDSL_CR18_7 1.0
    DSL_CR18_7 DSLBAL_CR18_7 1.0
    VGO_CR18_7 YVGO_CR18_7 1.0
    VGO_CR18_7 VGOBAL_CR18_7 1.0
    RES_CR18_7 YRES_CR18_7 1.0
    RES_CR18_7 RESSPLIT_CR18_7 1.0
    LPG_CR19_7 YLPG_CR19_7 1.0
    LPG_CR19_7 LPGBAL_7 -1.0
    NAP_CR19_7 YNAP_CR19_7 1.0
    NAP_CR19_7 NAPBAL_CR19_7 1.0
    KER_CR19_7 YKER_CR19_7 1.0
    KER_CR19_7 KERBAL_CR19_7 1.0
    DSL_CR19_7 YDSL_CR19_7 1.0
    DSL_CR19_7 DSLBAL_CR19_7 1.0
    VGO_CR19_7 YVGO_CR19_7 1.0
    VGO_CR19_7 VGOBAL_CR19_7 1.0
    RES_CR19_7 YRES_CR19_7 1.0
    RES_CR19_7 RESSPLIT_CR19_7 1.0
    VDUIN_CR00_7 RESSPLIT_CR00_7 -1.0
    VDUIN_CR00_7 VDUY1_CR00_7 -0.45
    VDUIN_CR00_7 VDUY2_CR00_7 -0.55
    VDUIN_CR00_7 VDUCAP_7 1.0
    RESFO_CR00_7 RESSPLIT_CR00_7 -1.0
    RESFO_CR00_7 FOBAL_7 -1.0
    RESFO_CR00_7 FOSUL_7 1.9540891690108433
    VGO2_CR00_7 VDUY1_CR00_7 1.0
    VGO2_CR00_7 VGOBAL_CR00_7 1.0
    VR_CR00_7 VDUY2_CR00_7 1.0
    VR_CR00_7 FOBAL_7 -1.0
    VR_CR00_7 FOSUL_7 3.5903159197140964
    VDUIN_CR01_7 RESSPLIT_CR01_7 -1.0
    VDUIN_CR01_7 VDUY1_CR01_7 -0.45
    VDUIN_CR01_7 VDUY2_CR01_7 -0.55
    VDUIN_CR01_7 VDUCAP_7 1.0
    RESFO_CR01_7 RESSPLIT_CR01_7 -1.0
    RESFO_CR01_7 FOBAL_7 -1.0
    RESFO_CR01_7 FOSUL_7 -0.6168441789886687
    VGO2_CR01_7 VDUY1_CR01_7 1.0
    VGO2_CR01_7 VGOBAL_CR01_7 1.0
    VR_CR01_7 VDUY2_CR01_7 1.0
    VR_CR01_7 FOBAL_7 -1.0
    VR_CR01_7 FOSUL_7 0.24810256731473057
    VDUIN_CR02_7 RESSPLIT_CR02_7 -1.0
    VDUIN_CR02_7 VDUY1_CR02_7 -0.45
    VDUIN_CR02_7 VDUY2_CR02_7 -0.55
    VDUIN_CR02_7 VDUCAP_7 1.0
    RESFO_CR02_7 RESSPLIT_CR02_7 -1.0
    RESFO_CR02_7 FOBAL_7 -1.0
    RESFO_CR02_7 FOSUL_7 0.05675733131967897
    VGO2_CR02_7 VDUY1_CR02_7 1.0
    VGO2_CR02_7 VGOBAL_CR02_7 1.0
    VR_CR02_7 VDUY2_CR02_7 1.0
    VR_CR02_7 FOBAL_7 -1.0
    VR_CR02_7 FOSUL_7 1.1237845307155832
    VDUIN_CR03_7 RESSPLIT_CR03_7 -1.0
    VDUIN_CR03_7 VDUY1_CR03_7 -0.45
    VDUIN_CR03_7 VDUY2_CR03_7 -0.55
    VDUIN_CR03_7 VDUCAP_7 1.0
    RESFO_CR03_7 RESSPLIT_CR03_7 -1.0
    RESFO_CR03_7 FOBAL_7 -1.0
    RESFO_CR03_7 FOSUL_7 -1.8686274424458973
    VGO2_CR03_7 VDUY1_CR03_7 1.0
    VGO2_CR03_7 VGOBAL_CR03_7 1.0
    VR_CR03_7 VDUY2_CR03_7 1.0
    VR_CR03_7 FOBAL_7 -1.0
    VR_CR03_7 FOSUL_7 -1.3792156751796663
    VDUIN_CR04_7 RESSPLIT_CR04_7 -1.0
    VDUIN_CR04_7 VDUY1_CR04_7 -0.45
    VDUIN_CR04_7 VDUY2_CR04_7 -0.55
    VDUIN_CR04_7 VDUCAP_7 1.0
    RESFO_CR04_7 RESSPLIT_CR04_7 -1.0
    RESFO_CR04_7 FOBAL_7 -1.0
    RESFO_CR04_7 FOSUL_7 2.031668478530798
    VGO2_CR04_7 VDUY1_CR04_7 1.0
    VGO2_CR04_7 VGOBAL_CR04_7 1.0
    VR_CR04_7 VDUY2_CR04_7 1.0
    VR_CR04_7 FOBAL_7 -1.0
    VR_CR04_7 FOSUL_7 3.6911690220900377
    VDUIN_CR05_7 RESSPLIT_CR05_7 -1.0
    VDUIN_CR05_7 VDUY1_CR05_7 -0.45
    VDUIN_CR05_7 VDUY2_CR05_7 -0.55
    VDUIN_CR05_7 VDUCAP_7 1.0
    RESFO_CR05_7 RESSPLIT_CR05_7 -1.0
    RESFO_CR05_7 FOBAL_7 -1.0
    RESFO_CR05_7 FOSUL_7 0.3429997580900688
    VGO2_CR05_7 VDUY1_CR05_7 1.0
    VGO2_CR05_7 VGOBAL_CR05_7 1.0
    VR_CR05_7 VDUY2_CR05_7 1.0
    VR_CR05_7 FOBAL_7 -1.0
    VR_CR05_7 FOSUL_7 1.4958996855170898
    VDUIN_CR06_7 RESSPLIT_CR06_7 -1.0
    VDUIN_CR06_7 VDUY1_CR06_7 -0.45
    VDUIN_CR06_7 VDUY2_CR06_7 -0.55
    VDUIN_CR06_7 VDUCAP_7 1.0
    RESFO_CR06_7 RESSPLIT_CR06_7 -1.0
    RESFO_CR06_7 FOBAL_7 -1.0
    RESFO_CR06_7 FOSUL_7 0.10255232060654862
    VGO2_CR06_7 VDUY1_CR06_7 1.0
    VGO2_CR06_7 VGOBAL_CR06_7 1.0
    VR_CR06_7 VDUY2_CR06_7 1.0
    VR_CR06_7 FOBAL_7 -1.0
    VR_CR06_7 FOSUL_7 1.1833180167885136
    VDUIN_CR07_7 RESSPLIT_CR07_7 -1.0
    VDUIN_CR07_7 VDUY1_CR07_7 -0.45
    VDUIN_CR07_7 VDUY2_CR07_7 -0.55
    VDUIN_CR07_7 VDUCAP_7 1.0
    RESFO_CR07_7 RESSPLIT_CR07_7 -1.0
    RESFO_CR07_7 FOBAL_7 -1.0
    RESFO_CR07_7 FOSUL_7 -3.116635223405176
    VGO2_CR07_7 VDUY1_CR07_7 1.0
    VGO2_CR07_7 VGOBAL_CR07_7 1.0
    VR_CR07_7 VDUY2_CR07_7 1.0
    VR_CR07_7 FOBAL_7 -1.0
    VR_CR07_7 FOSUL_7 -3.001625790426729
    VDUIN_CR08_7 RESSPLIT_CR08_7 -1.0
    VDUIN_CR08_7 VDUY1_CR08_7 -0.45
    VDUIN_CR08_7 VDUY2_CR08_7 -0.55
    VDUIN_CR08_7 VDUCAP_7 1.0
    RESFO_CR08_7 RESSPLIT_CR08_7 -1.0
    RESFO_CR08_7 FOBAL_7 -1.0
    RESFO_CR08_7 FOSUL_7 0.0456281803886287
    VGO2_CR08_7 VDUY1_CR08_7 1.0
    VGO2_CR08_7 VGOBAL_CR08_7 1.0
    VR_CR08_7 VDUY2_CR08_7 1.0
    VR_CR08_7 FOBAL_7 -1.0
    VR_CR08_7 FOSUL_7 1.109316634505218
    VDUIN_CR09_7 RESSPLIT_CR09_7 -1.0
    VDUIN_CR09_7 VDUY1_CR09_7 -0.45
    VDUIN_CR09_7 VDUY2_CR09_7 -0.55
    VDUIN_CR09_7 VDUCAP_7 1.0
    RESFO_CR09_7 RESSPLIT_CR09_7 -1.0
    RESFO_CR09_7 FOBAL_7 -1.0
    RESFO_CR09_7 FOSUL_7 -3.264603397407564
    VGO2_CR09_7 VDUY1_CR09_7 1.0
    VGO2_CR09_7 VGOBAL_CR09_7 1.0
    VR_CR09_7 VDUY2_CR09_7 1.0
    VR_CR09_7 FOBAL_7 -1.0
    VR_CR09_7 FOSUL_7 -3.1939844166298332
    VDUIN_CR10_7 RESSPLIT_CR10_7 -1.0
    VDUIN_CR10_7 VDUY1_CR10_7 -0.45
    VDUIN_CR10_7 VDUY2_CR10_7 -0.55
    VDUIN_CR10_7 VDUCAP_7 1.0
    RESFO_CR10_7 RESSPLIT_CR10_7 -1.0
    RESFO_CR10_7 FOBAL_7 -1.0
    RESFO_CR10_7 FOSUL_7 2.094062962095167
    VGO2_CR10_7 VDUY1_CR10_7 1.0
    VGO2_CR10_7 VGOBAL_CR10_7 1.0
    VR_CR10_7 VDUY2_CR10_7 1.0
    VR_CR10_7 FOBAL_7 -1.0
    VR_CR10_7 FOSUL_7 3.7722818507237177
    VDUIN_CR11_7 RESSPLIT_CR11_7 -1.0
    VDUIN_CR11_7 VDUY1_CR11_7 -0.45
    VDUIN_CR11_7 VDUY2_CR11_7 -0.55
    VDUIN_CR11_7 VDUCAP_7 1.0
    RESFO_CR11_7 RESSPLIT_CR11_7 -1.0
    RESFO_CR11_7 FOBAL_7 -1.0
    RESFO_CR11_7 FOSUL_7 -0.4594898393817082
    VGO2_CR11_7 VDUY1_CR11_7 1.0
    VGO2_CR11_7 VGOBAL_CR11_7 1.0
    VR_CR11_7 VDUY2_CR11_7 1.0
    VR_CR11_7 FOBAL_7 -1.0
    VR_CR11_7 FOSUL_7 0.4526632088037794
    VDUIN_CR12_7 RESSPLIT_CR12_7 -1.0
    VDUIN_CR12_7 VDUY1_CR12_7 -0.45
    VDUIN_CR12_7 VDUY2_CR12_7 -0.55
    VDUIN_CR12_7 VDUCAP_7 1.0
    RESFO_CR12_7 RESSPLIT_CR12_7 -1.0
    RESFO_CR12_7 FOBAL_7 -1.0
    RESFO_CR12_7 FOSUL_7 1.9188179600993953
    VGO2_CR12_7 VDUY1_CR12_7 1.0
    VGO2_CR12_7 VGOBAL_CR12_7 1.0
    VR_CR12_7 VDUY2_CR12_7 1.0
    VR_CR12_7 FOBAL_7 -1.0
    VR_CR12_7 FOSUL_7 3.544463348129214
    VDUIN_CR13_7 RESSPLIT_CR13_7 -1.0
    VDUIN_CR13_7 VDUY1_CR13_7 -0.45
    VDUIN_CR13_7 VDUY2_CR13_7 -0.55
    VDUIN_CR13_7 VDUCAP_7 1.0
    RESFO_CR13_7 RESSPLIT_CR13_7 -1.0
    RESFO_CR13_7 FOBAL_7 -1.0
    RESFO_CR13_7 FOSUL_7 -2.8690046531087465
    VGO2_CR13_7 VDUY1_CR13_7 1.0
    VGO2_CR13_7 VGOBAL_CR13_7 1.0
    VR_CR13_7 VDUY2_CR13_7 1.0
    VR_CR13_7 FOBAL_7 -1.0
    VR_CR13_7 FOSUL_7 -2.6797060490413704
    VDUIN_CR14_7 RESSPLIT_CR14_7 -1.0
    VDUIN_CR14_7 VDUY1_CR14_7 -0.45
    VDUIN_CR14_7 VDUY2_CR14_7 -0.55
    VDUIN_CR14_7 VDUCAP_7 1.0
    RESFO_CR14_7 RESSPLIT_CR14_7 -1.0
    RESFO_CR14_7 FOBAL_7 -1.0
    RESFO_CR14_7 FOSUL_7 -0.9033459504788866
    VGO2_CR14_7 VDUY1_CR14_7 1.0
    VGO2_CR14_7 VGOBAL_CR14_7 1.0
    VR_CR14_7 VDUY2_CR14_7 1.0
    VR_CR14_7 FOBAL_7 -1.0
    VR_CR14_7 FOSUL_7 -0.12434973562255225
    VDUIN_CR15_7 RESSPLIT_CR15_7 -1.0
    VDUIN_CR15_7 VDUY1_CR15_7 -0.45
    VDUIN_CR15_7 VDUY2_CR15_7 -0.55
    VDUIN_CR15_7 VDUCAP_7 1.0
    RESFO_CR15_7 RESSPLIT_CR15_7 -1.0
    RESFO_CR15_7 FOBAL_7 -1.0
    RESFO_CR15_7 FOSUL_7 -3.189239970867669
    VGO2_CR15_7 VDUY1_CR15_7 1.0
    VGO2_CR15_7 VGOBAL_CR15_7 1.0
    VR_CR15_7 VDUY2_CR15_7 1.0
    VR_CR15_7 FOBAL_7 -1.0
    VR_CR15_7 FOSUL_7 -3.0960119621279696
    VDUIN_CR16_7 RESSPLIT_CR16_7 -1.0
    VDUIN_CR16_7 VDUY1_CR16_7 -0.45
    VDUIN_CR16_7 VDUY2_CR16_7 -0.55
    VDUIN_CR16_7 VDUCAP_7 1.0
    RESFO_CR16_7 RESSPLIT_CR16_7 -1.0
    RESFO_CR16_7 FOBAL_7 -1.0
    RESFO_CR16_7 FOSUL_7 -0.09708299491376327
    VGO2_CR16_7 VDUY1_CR16_7 1.0
    VGO2_CR16_7 VGOBAL_CR16_7 1.0
    VR_CR16_7 VDUY2_CR16_7 1.0
    VR_CR16_7 FOBAL_7 -1.0
    VR_CR16_7 FOSUL_7 0.9237921066121082
    VDUIN_CR17_7 RESSPLIT_CR17_7 -1.0
    VDUIN_CR17_7 VDUY1_CR17_7 -0.45
    VDUIN_CR17_7 VDUY2_CR17_7 -0.55
    VDUIN_CR17_7 VDUCAP_7 1.0
    RESFO_CR17_7 RESSPLIT_CR17_7 -1.0
    RESFO_CR17_7 FOBAL_7 -1.0
    RESFO_CR17_7 FOSUL_7 2.128312314257988
    VGO2_CR17_7 VDUY1_CR17_7 1.0
    VGO2_CR17_7 VGOBAL_CR17_7 1.0
    VR_CR17_7 VDUY2_CR17_7 1.0
    VR_CR17_7 FOBAL_7 -1.0
    VR_CR17_7 FOSUL_7 3.8168060085353845
    VDUIN_CR18_7 RESSPLIT_CR18_7 -1.0
    VDUIN_CR18_7 VDUY1_CR18_7 -0.45
    VDUIN_CR18_7 VDUY2_CR18_7 -0.55
    VDUIN_CR18_7 VDUCAP_7 1.0
    RESFO_CR18_7 RESSPLIT_CR18_7 -1.0
    RESFO_CR18_7 FOBAL_7 -1.0
    RESFO_CR18_7 FOSUL_7 -3.0649175102888004
    VGO2_CR18_7 VDUY1_CR18_7 1.0
    VGO2_CR18_7 VGOBAL_CR18_7 1.0
    VR_CR18_7 VDUY2_CR18_7 1.0
    VR_CR18_7 FOBAL_7 -1.0
    VR_CR18_7 FOSUL_7 -2.9343927633754405
    VDUIN_CR19_7 RESSPLIT_CR19_7 -1.0
    VDUIN_CR19_7 VDUY1_CR19_7 -0.45
    VDUIN_CR19_7 VDUY2_CR19_7 -0.55
    VDUIN_CR19_7 VDUCAP_7 1.0
    RESFO_CR19_7 RESSPLIT_CR19_7 -1.0
    RESFO_CR19_7 FOBAL_7 -1.0
    RESFO_CR19_7 FOSUL_7 -1.1490285157117452
    VGO2_CR19_7 VDUY1_CR19_7 1.0
    VGO2_CR19_7 VGOBAL_CR19_7 1.0
    VR_CR19_7 VDUY2_CR19_7 1.0
    VR_CR19_7 FOBAL_7 -1.0
    VR_CR19_7 FOSUL_7 -0.4437370704252688
    FCCIN_CR00_7 OBJ -2.5
    FCCIN_CR00_7 VGOBAL_CR00_7 -1.0
    FCCIN_CR00_7 FCCCAP_7 1.0
    FCCIN_CR00_7 FCCY_FCCG_7 -0.55
    FCCIN_CR00_7 FCCY_LCO_7 -0.2
    FCCIN_CR00_7 FCCY_FLPG_7 -0.15
    FCCIN_CR00_7 FCCY_SLURRY_7 -0.07
    FCCIN_CR01_7 OBJ -2.5
    FCCIN_CR01_7 VGOBAL_CR01_7 -1.0
    FCCIN_CR01_7 FCCCAP_7 1.0
    FCCIN_CR01_7 FCCY_FCCG_7 -0.55
    FCCIN_CR01_7 FCCY_LCO_7 -0.2
    FCCIN_CR01_7 FCCY_FLPG_7 -0.15
    FCCIN_CR01_7 FCCY_SLURRY_7 -0.07
    FCCIN_CR02_7 OBJ -2.5
    FCCIN_CR02_7 VGOBAL_CR02_7 -1.0
    FCCIN_CR02_7 FCCCAP_7 1.0
    FCCIN_CR02_7 FCCY_FCCG_7 -0.55
    FCCIN_CR02_7 FCCY_LCO_7 -0.2
    FCCIN_CR02_7 FCCY_FLPG_7 -0.15
    FCCIN_CR02_7 FCCY_SLURRY_7 -0.07
    FCCIN_CR03_7 OBJ -2.5
    FCCIN_CR03_7 VGOBAL_CR03_7 -1.0
    FCCIN_CR03_7 FCCCAP_7 1.0
    FCCIN_CR03_7 FCCY_FCCG_7 -0.55
    FCCIN_CR03_7 FCCY_LCO_7 -0.2
    FCCIN_CR03_7 FCCY_FLPG_7 -0.15
    FCCIN_CR03_7 FCCY_SLURRY_7 -0.07
    FCCIN_CR04_7 OBJ -2.5
    FCCIN_CR04_7 VGOBAL_CR04_7 -1.0
    FCCIN_CR04_7 FCCCAP_7 1.0
    FCCIN_CR04_7 FCCY_FCCG_7 -0.55
    FCCIN_CR04_7 FCCY_LCO_7 -0.2
    FCCIN_CR04_7 FCCY_FLPG_7 -0.15
    FCCIN_CR04_7 FCCY_SLURRY_7 -0.07
    FCCIN_CR05_7 OBJ -2.5
    FCCIN_CR05_7 VGOBAL_CR05_7 -1.0
    FCCIN_CR05_7 FCCCAP_7 1.0
    FCCIN_CR05_7 FCCY_FCCG_7 -0.55
    FCCIN_CR05_7 FCCY_LCO_7 -0.2
    FCCIN_CR05_7 FCCY_FLPG_7 -0.15
    FCCIN_CR05_7 FCCY_SLURRY_7 -0.07
    FCCIN_CR06_7 OBJ -2.5
    FCCIN_CR06_7 VGOBAL_CR06_7 -1.0
    FCCIN_CR06_7 FCCCAP_7 1.0
    FCCIN_CR06_7 FCCY_FCCG_7 -0.55
    FCCIN_CR06_7 FCCY_LCO_7 -0.2
    FCCIN_CR06_7 FCCY_FLPG_7 -0.15
    FCCIN_CR06_7 FCCY_SLURRY_7 -0.07
    FCCIN_CR07_7 OBJ -2.5
    FCCIN_CR07_7 VGOBAL_CR07_7 -1.0
    FCCIN_CR07_7 FCCCAP_7 1.0
    FCCIN_CR07_7 FCCY_FCCG_7 -0.55
    FCCIN_CR07_7 FCCY_LCO_7 -0.2
    FCCIN_CR07_7 FCCY_FLPG_7 -0.15
    FCCIN_CR07_7 FCCY_SLURRY_7 -0.07
    FCCIN_CR08_7 OBJ -2.5
    FCCIN_CR08_7 VGOBAL_CR08_7 -1.0
    FCCIN_CR08_7 FCCCAP_7 1.0
    FCCIN_CR08_7 FCCY_FCCG_7 -0.55
    FCCIN_CR08_7 FCCY_LCO_7 -0.2
    FCCIN_CR08_7 FCCY_FLPG_7 -0.15
    FCCIN_CR08_7 FCCY_SLURRY_7 -0.07
    FCCIN_CR09_7 OBJ -2.5
    FCCIN_CR09_7 VGOBAL_CR09_7 -1.0
    FCCIN_CR09_7 FCCCAP_7 1.0
    FCCIN_CR09_7 FCCY_FCCG_7 -0.55
    FCCIN_CR09_7 FCCY_LCO_7 -0.2
    FCCIN_CR09_7 FCCY_FLPG_7 -0.15
    FCCIN_CR09_7 FCCY_SLURRY_7 -0.07
    FCCIN_CR10_7 OBJ -2.5
    FCCIN_CR10_7 VGOBAL_CR10_7 -1.0
    FCCIN_CR10_7 FCCCAP_7 1.0
    FCCIN_CR10_7 FCCY_FCCG_7 -0.55
    FCCIN_CR10_7 FCCY_LCO_7 -0.2
    FCCIN_CR10_7 FCCY_FLPG_7 -0.15
    FCCIN_CR10_7 FCCY_SLURRY_7 -0.07
    FCCIN_CR11_7 OBJ -2.5
    FCCIN_CR11_7 VGOBAL_CR11_7 -1.0
    FCCIN_CR11_7 FCCCAP_7 1.0
    FCCIN_CR11_7 FCCY_FCCG_7 -0.55
    FCCIN_CR11_7 FCCY_LCO_7 -0.2
    FCCIN_CR11_7 FCCY_FLPG_7 -0.15
    FCCIN_CR11_7 FCCY_SLURRY_7 -0.07
    FCCIN_CR12_7 OBJ -2.5
    FCCIN_CR12_7 VGOBAL_CR12_7 -1.0
    FCCIN_CR12_7 FCCCAP_7 1.0
    FCCIN_CR12_7 FCCY_FCCG_7 -0.55
    FCCIN_CR12_7 FCCY_LCO_7 -0.2
    FCCIN_CR12_7 FCCY_FLPG_7 -0.15
    FCCIN_CR12_7 FCCY_SLURRY_7 -0.07
    FCCIN_CR13_7 OBJ -2.5
    FCCIN_CR13_7 VGOBAL_CR13_7 -1.0
    FCCIN_CR13_7 FCCCAP_7 1.0
    FCCIN_CR13_7 FCCY_FCCG_7 -0.55
    FCCIN_CR13_7 FCCY_LCO_7 -0.2
    FCCIN_CR13_7 FCCY_FLPG_7 -0.15
    FCCIN_CR13_7 FCCY_SLURRY_7 -0.07
    FCCIN_CR14_7 OBJ -2.5
    FCCIN_CR14_7 VGOBAL_CR14_7 -1.0
    FCCIN_CR14_7 FCCCAP_7 1.0
    FCCIN_CR14_7 FCCY_FCCG_7 -0.55
    FCCIN_CR14_7 FCCY_LCO_7 -0.2
    FCCIN_CR14_7 FCCY_FLPG_7 -0.15
    FCCIN_CR14_7 FCCY_SLURRY_7 -0.07
    FCCIN_CR15_7 OBJ -2.5
    FCCIN_CR15_7 VGOBAL_CR15_7 -1.0
    FCCIN_CR15_7 FCCCAP_7 1.0
    FCCIN_CR15_7 FCCY_FCCG_7 -0.55
    FCCIN_CR15_7 FCCY_LCO_7 -0.2
    FCCIN_CR15_7 FCCY_FLPG_7 -0.15
    FCCIN_CR15_7 FCCY_SLURRY_7 -0.07
    FCCIN_CR16_7 OBJ -2.5
    FCCIN_CR16_7 VGOBAL_CR16_7 -1.0
    FCCIN_CR16_7 FCCCAP_7 1.0
    FCCIN_CR16_7 FCCY_FCCG_7 -0.55
    FCCIN_CR16_7 FCCY_LCO_7 -0.2
    FCCIN_CR16_7 FCCY_FLPG_7 -0.15
    FCCIN_CR16_7 FCCY_SLURRY_7 -0.07
    FCCIN_CR17_7 OBJ -2.5
    FCCIN_CR17_7 VGOBAL_CR17_7 -1.0
    FCCIN_CR17_7 FCCCAP_7 1.0
    FCCIN_CR17_7 FCCY_FCCG_7 -0.55
    FCCIN_CR17_7 FCCY_LCO_7 -0.2
    FCCIN_CR17_7 FCCY_FLPG_7 -0.15
    FCCIN_CR17_7 FCCY_SLURRY_7 -0.07
    FCCIN_CR18_7 OBJ -2.5
    FCCIN_CR18_7 VGOBAL_CR18_7 -1.0
    FCCIN_CR18_7 FCCCAP_7 1.0
    FCCIN_CR18_7 FCCY_FCCG_7 -0.55
    FCCIN_CR18_7 FCCY_LCO_7 -0.2
    FCCIN_CR18_7 FCCY_FLPG_7 -0.15
    FCCIN_CR18_7 FCCY_SLURRY_7 -0.07
    FCCIN_CR19_7 OBJ -2.5
    FCCIN_CR19_7 VGOBAL_CR19_7 -1.0
    FCCIN_CR19_7 FCCCAP_7 1.0
    FCCIN_CR19_7 FCCY_FCCG_7 -0.55
    FCCIN_CR19_7 FCCY_LCO_7 -0.2
    FCCIN_CR19_7 FCCY_FLPG_7 -0.15
    FCCIN_CR19_7 FCCY_SLURRY_7 -0.07
    FCCG_7 FCCY_FCCG_7 1.0
    FCCG_7 GASBAL_7 -1.0
    FCCG_7 GASRON_7 1.0
    LCO_7 FCCY_LCO_7 1.0
    LCO_7 LCOBAL_7 1.0
    FLPG_7 FCCY_FLPG_7 1.0
    FLPG_7 LPGBAL_7 -1.0
    SLURRY_7 FCCY_SLURRY_7 1.0
    SLURRY_7 FOBAL_7 -1.0
    SLURRY_7 FOSUL_7 -1.5
    REFIN_CR00_7 OBJ -3.0
    REFIN_CR00_7 NAPBAL_CR00_7 -1.0
    REFIN_CR00_7 REFCAP_7 1.0
    REFIN_CR00_7 REFY_7 -0.85
    NAPGAS_CR00_7 NAPBAL_CR00_7 -1.0
    NAPGAS_CR00_7 GASBAL_7 -1.0
    NAPGAS_CR00_7 GASRON_7 -41.351908455631545
    REFIN_CR01_7 OBJ -3.0
    REFIN_CR01_7 NAPBAL_CR01_7 -1.0
    REFIN_CR01_7 REFCAP_7 1.0
    REFIN_CR01_7 REFY_7 -0.85
    NAPGAS_CR01_7 NAPBAL_CR01_7 -1.0
    NAPGAS_CR01_7 GASBAL_7 -1.0
    NAPGAS_CR01_7 GASRON_7 -33.623043958680114
    REFIN_CR02_7 OBJ -3.0
    REFIN_CR02_7 NAPBAL_CR02_7 -1.0
    REFIN_CR02_7 REFCAP_7 1.0
    REFIN_CR02_7 REFY_7 -0.85
    NAPGAS_CR02_7 NAPBAL_CR02_7 -1.0
    NAPGAS_CR02_7 GASBAL_7 -1.0
    NAPGAS_CR02_7 GASRON_7 -39.74522208078083
    REFIN_CR03_7 OBJ -3.0
    REFIN_CR03_7 NAPBAL_CR03_7 -1.0
    REFIN_CR03_7 REFCAP_7 1.0
    REFIN_CR03_7 REFY_7 -0.85
    NAPGAS_CR03_7 NAPBAL_CR03_7 -1.0
    NAPGAS_CR03_7 GASBAL_7 -1.0
    NAPGAS_CR03_7 GASRON_7 -39.32063345179839
    REFIN_CR04_7 OBJ -3.0
    REFIN_CR04_7 NAPBAL_CR04_7 -1.0
    REFIN_CR04_7 REFCAP_7 1.0
    REFIN_CR04_7 REFY_7 -0.85
    NAPGAS_CR04_7 NAPBAL_CR04_7 -1.0
    NAPGAS_CR04_7 GASBAL_7 -1.0
    NAPGAS_CR04_7 GASRON_7 -28.06018906757886
    REFIN_CR05_7 OBJ -3.0
    REFIN_CR05_7 NAPBAL_CR05_7 -1.0
    REFIN_CR05_7 REFCAP_7 1.0
    REFIN_CR05_7 REFY_7 -0.85
    NAPGAS_CR05_7 NAPBAL_CR05_7 -1.0
    NAPGAS_CR05_7 GASBAL_7 -1.0
    NAPGAS_CR05_7 GASRON_7 -37.177062383933254
    REFIN_CR06_7 OBJ -3.0
    REFIN_CR06_7 NAPBAL_CR06_7 -1.0
    REFIN_CR06_7 REFCAP_7 1.0
    REFIN_CR06_7 REFY_7 -0.85
    NAPGAS_CR06_7 NAPBAL_CR06_7 -1.0
    NAPGAS_CR06_7 GASBAL_7 -1.0
    NAPGAS_CR06_7 GASRON_7 -38.73738801284508
    REFIN_CR07_7 OBJ -3.0
    REFIN_CR07_7 NAPBAL_CR07_7 -1.0
    REFIN_CR07_7 REFCAP_7 1.0
    REFIN_CR07_7 REFY_7 -0.85
    NAPGAS_CR07_7 NAPBAL_CR07_7 -1.0
    NAPGAS_CR07_7 GASBAL_7 -1.0
    NAPGAS_CR07_7 GASRON_7 -31.720911449683953
    REFIN_CR08_7 OBJ -3.0
    REFIN_CR08_7 NAPBAL_CR08_7 -1.0
    REFIN_CR08_7 REFCAP_7 1.0
    REFIN_CR08_7 REFY_7 -0.85
    NAPGAS_CR08_7 NAPBAL_CR08_7 -1.0
    NAPGAS_CR08_7 GASBAL_7 -1.0
    NAPGAS_CR08_7 GASRON_7 -31.236267605063702
    REFIN_CR09_7 OBJ -3.0
    REFIN_CR09_7 NAPBAL_CR09_7 -1.0
    REFIN_CR09_7 REFCAP_7 1.0
    REFIN_CR09_7 REFY_7 -0.85
    NAPGAS_CR09_7 NAPBAL_CR09_7 -1.0
    NAPGAS_CR09_7 GASBAL_7 -1.0
    NAPGAS_CR09_7 GASRON_7 -29.9151768258086
    REFIN_CR10_7 OBJ -3.0
    REFIN_CR10_7 NAPBAL_CR10_7 -1.0
    REFIN_CR10_7 REFCAP_7 1.0
    REFIN_CR10_7 REFY_7 -0.85
    NAPGAS_CR10_7 NAPBAL_CR10_7 -1.0
    NAPGAS_CR10_7 GASBAL_7 -1.0
    NAPGAS_CR10_7 GASRON_7 -38.641707010486826
    REFIN_CR11_7 OBJ -3.0
    REFIN_CR11_7 NAPBAL_CR11_7 -1.0
    REFIN_CR11_7 REFCAP_7 1.0
    REFIN_CR11_7 REFY_7 -0.85
    NAPGAS_CR11_7 NAPBAL_CR11_7 -1.0
    NAPGAS_CR11_7 GASBAL_7 -1.0
    NAPGAS_CR11_7 GASRON_7 -31.364398664025877
    REFIN_CR12_7 OBJ -3.0
    REFIN_CR12_7 NAPBAL_CR12_7 -1.0
    REFIN_CR12_7 REFCAP_7 1.0
    REFIN_CR12_7 REFY_7 -0.85
    NAPGAS_CR12_7 NAPBAL_CR12_7 -1.0
    NAPGAS_CR12_7 GASBAL_7 -1.0
    NAPGAS_CR12_7 GASRON_7 -36.44295305412478
    REFIN_CR13_7 OBJ -3.0
    REFIN_CR13_7 NAPBAL_CR13_7 -1.0
    REFIN_CR13_7 REFCAP_7 1.0
    REFIN_CR13_7 REFY_7 -0.85
    NAPGAS_CR13_7 NAPBAL_CR13_7 -1.0
    NAPGAS_CR13_7 GASBAL_7 -1.0
    NAPGAS_CR13_7 GASRON_7 -36.368722409916884
    REFIN_CR14_7 OBJ -3.0
    REFIN_CR14_7 NAPBAL_CR14_7 -1.0
    REFIN_CR14_7 REFCAP_7 1.0
    REFIN_CR14_7 REFY_7 -0.85
    NAPGAS_CR14_7 NAPBAL_CR14_7 -1.0
    NAPGAS_CR14_7 GASBAL_7 -1.0
    NAPGAS_CR14_7 GASRON_7 -37.837781635780814
    REFIN_CR15_7 OBJ -3.0
    REFIN_CR15_7 NAPBAL_CR15_7 -1.0
    REFIN_CR15_7 REFCAP_7 1.0
    REFIN_CR15_7 REFY_7 -0.85
    NAPGAS_CR15_7 NAPBAL_CR15_7 -1.0
    NAPGAS_CR15_7 GASBAL_7 -1.0
    NAPGAS_CR15_7 GASRON_7 -36.91743369949054
    REFIN_CR16_7 OBJ -3.0
    REFIN_CR16_7 NAPBAL_CR16_7 -1.0
    REFIN_CR16_7 REFCAP_7 1.0
    REFIN_CR16_7 REFY_7 -0.85
    NAPGAS_CR16_7 NAPBAL_CR16_7 -1.0
    NAPGAS_CR16_7 GASBAL_7 -1.0
    NAPGAS_CR16_7 GASRON_7 -32.43244486749426
    REFIN_CR17_7 OBJ -3.0
    REFIN_CR17_7 NAPBAL_CR17_7 -1.0
    REFIN_CR17_7 REFCAP_7 1.0
    REFIN_CR17_7 REFY_7 -0.85
    NAPGAS_CR17_7 NAPBAL_CR17_7 -1.0
    NAPGAS_CR17_7 GASBAL_7 -1.0
    NAPGAS_CR17_7 GASRON_7 -32.30218201355821
    REFIN_CR18_7 OBJ -3.0
    REFIN_CR18_7 NAPBAL_CR18_7 -1.0
    REFIN_CR18_7 REFCAP_7 1.0
    REFIN_CR18_7 REFY_7 -0.85
    NAPGAS_CR18_7 NAPBAL_CR18_7 -1.0
    NAPGAS_CR18_7 GASBAL_7 -1.0
    NAPGAS_CR18_7 GASRON_7 -30.280860643235343
    REFIN_CR19_7 OBJ -3.0
    REFIN_CR19_7 NAPBAL_CR19_7 -1.0
    REFIN_CR19_7 REFCAP_7 1.0
    REFIN_CR19_7 REFY_7 -0.85
    NAPGAS_CR19_7 NAPBAL_CR19_7 -1.0
    NAPGAS_CR19_7 GASBAL_7 -1.0
    NAPGAS_CR19_7 GASRON_7 -35.8435432887995
    REFORMATE_7 REFY_7 1.0
    REFORMATE_7 GASBAL_7 -1.0
    REFORMATE_7 GASRON_7 7.0
    DHTIN_CR00_7 OBJ -2.0
    DHTIN_CR00_7 DSLBAL_CR00_7 -1.0
    DHTIN_CR00_7 DHTCAP_7 1.0
    DHTIN_CR00_7 DHTY_7 -0.98
    DSLDIR_CR00_7 DSLBAL_CR00_7 -1.0
    DSLDIR_CR00_7 DSLPB_7 -1.0
    DSLDIR_CR00_7 DSLSUL_7 1.5862267507032528
    DHTIN_CR01_7 OBJ -2.0
    DHTIN_CR01_7 DSLBAL_CR01_7 -1.0
    DHTIN_CR01_7 DHTCAP_7 1.0
    DHTIN_CR01_7 DHTY_7 -0.98
    DSLDIR_CR01_7 DSLBAL_CR01_7 -1.0
    DSLDIR_CR01_7 DSLPB_7 -1.0
    DSLDIR_CR01_7 DSLSUL_7 0.8149467463033994
    DHTIN_CR02_7 OBJ -2.0
    DHTIN_CR02_7 DSLBAL_CR02_7 -1.0
    DHTIN_CR02_7 DHTCAP_7 1.0
    DHTIN_CR02_7 DHTY_7 -0.98
    DSLDIR_CR02_7 DSLBAL_CR02_7 -1.0
    DSLDIR_CR02_7 DSLPB_7 -1.0
    DSLDIR_CR02_7 DSLSUL_7 1.0170271993959037
    DHTIN_CR03_7 OBJ -2.0
    DHTIN_CR03_7 DSLBAL_CR03_7 -1.0
    DHTIN_CR03_7 DHTCAP_7 1.0
    DHTIN_CR03_7 DHTY_7 -0.98
    DSLDIR_CR03_7 DSLBAL_CR03_7 -1.0
    DSLDIR_CR03_7 DSLPB_7 -1.0
    DSLDIR_CR03_7 DSLSUL_7 0.4394117672662308
    DHTIN_CR04_7 OBJ -2.0
    DHTIN_CR04_7 DSLBAL_CR04_7 -1.0
    DHTIN_CR04_7 DHTCAP_7 1.0
    DHTIN_CR04_7 DHTY_7 -0.98
    DSLDIR_CR04_7 DSLBAL_CR04_7 -1.0
    DSLDIR_CR04_7 DSLPB_7 -1.0
    DSLDIR_CR04_7 DSLSUL_7 1.6095005435592393
    DHTIN_CR05_7 OBJ -2.0
    DHTIN_CR05_7 DSLBAL_CR05_7 -1.0
    DHTIN_CR05_7 DHTCAP_7 1.0
    DHTIN_CR05_7 DHTY_7 -0.98
    DSLDIR_CR05_7 DSLBAL_CR05_7 -1.0
    DSLDIR_CR05_7 DSLPB_7 -1.0
    DSLDIR_CR05_7 DSLSUL_7 1.1028999274270206
    DHTIN_CR06_7 OBJ -2.0
    DHTIN_CR06_7 DSLBAL_CR06_7 -1.0
    DHTIN_CR06_7 DHTCAP_7 1.0
    DHTIN_CR06_7 DHTY_7 -0.98
    DSLDIR_CR06_7 DSLBAL_CR06_7 -1.0
    DSLDIR_CR06_7 DSLPB_7 -1.0
    DSLDIR_CR06_7 DSLSUL_7 1.0307656961819645
    DHTIN_CR07_7 OBJ -2.0
    DHTIN_CR07_7 DSLBAL_CR07_7 -1.0
    DHTIN_CR07_7 DHTCAP_7 1.0
    DHTIN_CR07_7 DHTY_7 -0.98
    DSLDIR_CR07_7 DSLBAL_CR07_7 -1.0
    DSLDIR_CR07_7 DSLPB_7 -1.0
    DSLDIR_CR07_7 DSLSUL_7 0.06500943297844713
    DHTIN_CR08_7 OBJ -2.0
    DHTIN_CR08_7 DSLBAL_CR08_7 -1.0
    DHTIN_CR08_7 DHTCAP_7 1.0
    DHTIN_CR08_7 DHTY_7 -0.98
    DSLDIR_CR08_7 DSLBAL_CR08_7 -1.0
    DSLDIR_CR08_7 DSLPB_7 -1.0
    DSLDIR_CR08_7 DSLSUL_7 1.0136884541165885
    DHTIN_CR09_7 OBJ -2.0
    DHTIN_CR09_7 DSLBAL_CR09_7 -1.0
    DHTIN_CR09_7 DHTCAP_7 1.0
    DHTIN_CR09_7 DHTY_7 -0.98
    DSLDIR_CR09_7 DSLBAL_CR09_7 -1.0
    DSLDIR_CR09_7 DSLPB_7 -1.0
    DSLDIR_CR09_7 DSLSUL_7 0.020618980777730833
    DHTIN_CR10_7 OBJ -2.0
    DHTIN_CR10_7 DSLBAL_CR10_7 -1.0
    DHTIN_CR10_7 DHTCAP_7 1.0
    DHTIN_CR10_7 DHTY_7 -0.98
    DSLDIR_CR10_7 DSLBAL_CR10_7 -1.0
    DSLDIR_CR10_7 DSLPB_7 -1.0
    DSLDIR_CR10_7 DSLSUL_7 1.62821888862855
    DHTIN_CR11_7 OBJ -2.0
    DHTIN_CR11_7 DSLBAL_CR11_7 -1.0
    DHTIN_CR11_7 DHTCAP_7 1.0
    DHTIN_CR11_7 DHTY_7 -0.98
    DSLDIR_CR11_7 DSLBAL_CR11_7 -1.0
    DSLDIR_CR11_7 DSLPB_7 -1.0
    DSLDIR_CR11_7 DSLSUL_7 0.8621530481854874
    DHTIN_CR12_7 OBJ -2.0
    DHTIN_CR12_7 DSLBAL_CR12_7 -1.0
    DHTIN_CR12_7 DHTCAP_7 1.0
    DHTIN_CR12_7 DHTY_7 -0.98
    DSLDIR_CR12_7 DSLBAL_CR12_7 -1.0
    DSLDIR_CR12_7 DSLPB_7 -1.0
    DSLDIR_CR12_7 DSLSUL_7 1.5756453880298185
    DHTIN_CR13_7 OBJ -2.0
    DHTIN_CR13_7 DSLBAL_CR13_7 -1.0
    DHTIN_CR13_7 DHTCAP_7 1.0
    DHTIN_CR13_7 DHTY_7 -0.98
    DSLDIR_CR13_7 DSLBAL_CR13_7 -1.0
    DSLDIR_CR13_7 DSLPB_7 -1.0
    DSLDIR_CR13_7 DSLSUL_7 0.13929860406737604
    DHTIN_CR14_7 OBJ -2.0
    DHTIN_CR14_7 DSLBAL_CR14_7 -1.0
    DHTIN_CR14_7 DHTCAP_7 1.0
    DHTIN_CR14_7 DHTY_7 -0.98
    DSLDIR_CR14_7 DSLBAL_CR14_7 -1.0
    DSLDIR_CR14_7 DSLPB_7 -1.0
    DSLDIR_CR14_7 DSLSUL_7 0.7289962148563339
    DHTIN_CR15_7 OBJ -2.0
    DHTIN_CR15_7 DSLBAL_CR15_7 -1.0
    DHTIN_CR15_7 DHTCAP_7 1.0
    DHTIN_CR15_7 DHTY_7 -0.98
    DSLDIR_CR15_7 DSLBAL_CR15_7 -1.0
    DSLDIR_CR15_7 DSLPB_7 -1.0
    DSLDIR_CR15_7 DSLSUL_7 0.0432280087396993
    DHTIN_CR16_7 OBJ -2.0
    DHTIN_CR16_7 DSLBAL_CR16_7 -1.0
    DHTIN_CR16_7 DHTCAP_7 1.0
    DHTIN_CR16_7 DHTY_7 -0.98
    DSLDIR_CR16_7 DSLBAL_CR16_7 -1.0
    DSLDIR_CR16_7 DSLPB_7 -1.0
    DSLDIR_CR16_7 DSLSUL_7 0.970875101525871
    DHTIN_CR17_7 OBJ -2.0
    DHTIN_CR17_7 DSLBAL_CR17_7 -1.0
    DHTIN_CR17_7 DHTCAP_7 1.0
    DHTIN_CR17_7 DHTY_7 -0.98
    DSLDIR_CR17_7 DSLBAL_CR17_7 -1.0
    DSLDIR_CR17_7 DSLPB_7 -1.0
    DSLDIR_CR17_7 DSLSUL_7 1.6384936942773962
    DHTIN_CR18_7 OBJ -2.0
    DHTIN_CR18_7 DSLBAL_CR18_7 -1.0
    DHTIN_CR18_7 DHTCAP_7 1.0
    DHTIN_CR18_7 DHTY_7 -0.98
    DSLDIR_CR18_7 DSLBAL_CR18_7 -1.0
    DSLDIR_CR18_7 DSLPB_7 -1.0
    DSLDIR_CR18_7 DSLSUL_7 0.08052474691335985
    DHTIN_CR19_7 OBJ -2.0
    DHTIN_CR19_7 DSLBAL_CR19_7 -1.0
    DHTIN_CR19_7 DHTCAP_7 1.0
    DHTIN_CR19_7 DHTY_7 -0.98
    DSLDIR_CR19_7 DSLBAL_CR19_7 -1.0
    DSLDIR_CR19_7 DSLPB_7 -1.0
    DSLDIR_CR19_7 DSLSUL_7 0.6552914452864763
    LCODHT_7 LCOBAL_7 -1.0
    LCODHT_7 DHTCAP_7 1.0
    LCODHT_7 DHTY_7 -0.95
    LCOFO_7 LCOBAL_7 -1.0
    LCOFO_7 FOBAL_7 -1.0
    LCOFO_7 FOSUL_7 -2.5
    ULSD_7 DHTY_7 1.0
    ULSD_7 DSLPB_7 -1.0
    ULSD_7 DSLSUL_7 -0.049
    SELL_LPG_7 OBJ 52.25000000000001
    SELL_LPG_7 PBAL_LPG_7 -1.0
    SELL_LPG_7 DMAX_LPG_7 1.0
    SELL_LPG_7 DMIN_LPG_7 1.0
    SELL_GAS_7 OBJ 99.75
    SELL_GAS_7 PBAL_GAS_7 -1.0
    SELL_GAS_7 DMAX_GAS_7 1.0
    SELL_GAS_7 DMIN_GAS_7 1.0
    SELL_JET_7 OBJ 95.0
    SELL_JET_7 PBAL_JET_7 -1.0
    SELL_JET_7 DMAX_JET_7 1.0
    SELL_JET_7 DMIN_JET_7 1.0
    SELL_DSL_7 OBJ 93.10000000000001
    SELL_DSL_7 PBAL_DSL_7 -1.0
    SELL_DSL_7 DMAX_DSL_7 1.0
    SELL_DSL_7 DMIN_DSL_7 1.0
    SELL_FO_7 OBJ 57.00000000000001
    SELL_FO_7 PBAL_FO_7 -1.0
    SELL_FO_7 DMAX_FO_7 1.0
    SELL_FO_7 DMIN_FO_7 1.0
    PINV_LPG_7 OBJ -0.5
    PINV_LPG_7 PBAL_LPG_7 -1.0
    PINV_LPG_7 PBAL_LPG_8 1.0
    PINV_GAS_7 OBJ -0.5
    PINV_GAS_7 PBAL_GAS_7 -1.0
    PINV_GAS_7 PBAL_GAS_8 1.0
    PINV_JET_7 OBJ -0.5
    PINV_JET_7 PBAL_JET_7 -1.0
    PINV_JET_7 PBAL_JET_8 1.0
    PINV_DSL_7 OBJ -0.5
    PINV_DSL_7 PBAL_DSL_7 -1.0
    PINV_DSL_7 PBAL_DSL_8 1.0
    PINV_FO_7 OBJ -0.5
    PINV_FO_7 PBAL_FO_7 -1.0
    PINV_FO_7 PBAL_FO_8 1.0
    SHORT_LPG_7 OBJ -400.0
    SHORT_LPG_7 DMIN_LPG_7 1.0
    SHORT_GAS_7 OBJ -400.0
    SHORT_GAS_7 DMIN_GAS_7 1.0
    SHORT_JET_7 OBJ -400.0
    SHORT_JET_7 DMIN_JET_7 1.0
    SHORT_DSL_7 OBJ -400.0
    SHORT_DSL_7 DMIN_DSL_7 1.0
    SHORT_FO_7 OBJ -400.0
    SHORT_FO_7 DMIN_FO_7 1.0
    GASPOOL_7 GASBAL_7 1.0
    GASPOOL_7 PBAL_GAS_7 1.0
    JETPOOL_7 JETBAL_7 1.0
    JETPOOL_7 PBAL_JET_7 1.0
    KERJET_CR00_7 KERBAL_CR00_7 -1.0
    KERJET_CR00_7 JETBAL_7 -1.0
    KERJET_CR00_7 JETSUL_7 0.10905668767581322
    KERDSL_CR00_7 KERBAL_CR00_7 -1.0
    KERDSL_CR00_7 DSLPB_7 -1.0
    KERDSL_CR00_7 DSLSUL_7 0.3590566876758132
    KERJET_CR01_7 KERBAL_CR01_7 -1.0
    KERJET_CR01_7 JETBAL_7 -1.0
    KERJET_CR01_7 JETSUL_7 -0.08376331342415014
    KERDSL_CR01_7 KERBAL_CR01_7 -1.0
    KERDSL_CR01_7 DSLPB_7 -1.0
    KERDSL_CR01_7 DSLSUL_7 0.16623668657584983
    KERJET_CR02_7 KERBAL_CR02_7 -1.0
    KERJET_CR02_7 JETBAL_7 -1.0
    KERJET_CR02_7 JETSUL_7 -0.033243200151024055
    KERDSL_CR02_7 KERBAL_CR02_7 -1.0
    KERDSL_CR02_7 DSLPB_7 -1.0
    KERDSL_CR02_7 DSLSUL_7 0.21675679984897595
    KERJET_CR03_7 KERBAL_CR03_7 -1.0
    KERJET_CR03_7 JETBAL_7 -1.0
    KERJET_CR03_7 JETSUL_7 -0.17764705818344229
    KERDSL_CR03_7 KERBAL_CR03_7 -1.0
    KERDSL_CR03_7 DSLPB_7 -1.0
    KERDSL_CR03_7 DSLSUL_7 0.0723529418165577
    KERJET_CR04_7 KERBAL_CR04_7 -1.0
    KERJET_CR04_7 JETBAL_7 -1.0
    KERJET_CR04_7 JETSUL_7 0.11487513588980985
    KERDSL_CR04_7 KERBAL_CR04_7 -1.0
    KERDSL_CR04_7 DSLPB_7 -1.0
    KERDSL_CR04_7 DSLSUL_7 0.36487513588980985
    KERJET_CR05_7 KERBAL_CR05_7 -1.0
    KERJET_CR05_7 JETBAL_7 -1.0
    KERJET_CR05_7 JETSUL_7 -0.011775018143244831
    KERDSL_CR05_7 KERBAL_CR05_7 -1.0
    KERDSL_CR05_7 DSLPB_7 -1.0
    KERDSL_CR05_7 DSLSUL_7 0.23822498185675517
    KERJET_CR06_7 KERBAL_CR06_7 -1.0
    KERJET_CR06_7 JETBAL_7 -1.0
    KERJET_CR06_7 JETSUL_7 -0.029808575954508865
    KERDSL_CR06_7 KERBAL_CR06_7 -1.0
    KERDSL_CR06_7 DSLPB_7 -1.0
    KERDSL_CR06_7 DSLSUL_7 0.22019142404549114
    KERJET_CR07_7 KERBAL_CR07_7 -1.0
    KERJET_CR07_7 JETBAL_7 -1.0
    KERJET_CR07_7 JETSUL_7 -0.2712476417553882
    KERDSL_CR07_7 KERBAL_CR07_7 -1.0
    KERDSL_CR07_7 DSLPB_7 -1.0
    KERDSL_CR07_7 DSLSUL_7 -0.02124764175538822
    KERJET_CR08_7 KERBAL_CR08_7 -1.0
    KERJET_CR08_7 JETBAL_7 -1.0
    KERJET_CR08_7 JETSUL_7 -0.03407788647085286
    KERDSL_CR08_7 KERBAL_CR08_7 -1.0
    KERDSL_CR08_7 DSLPB_7 -1.0
    KERDSL_CR08_7 DSLSUL_7 0.21592211352914714
    KERJET_CR09_7 KERBAL_CR09_7 -1.0
    KERJET_CR09_7 JETBAL_7 -1.0
    KERJET_CR09_7 JETSUL_7 -0.28234525480556727
    KERDSL_CR09_7 KERBAL_CR09_7 -1.0
    KERDSL_CR09_7 DSLPB_7 -1.0
    KERDSL_CR09_7 DSLSUL_7 -0.0323452548055673
    KERJET_CR10_7 KERBAL_CR10_7 -1.0
    KERJET_CR10_7 JETBAL_7 -1.0
    KERJET_CR10_7 JETSUL_7 0.11955472215713753
    KERDSL_CR10_7 KERBAL_CR10_7 -1.0
    KERDSL_CR10_7 DSLPB_7 -1.0
    KERDSL_CR10_7 DSLSUL_7 0.3695547221571375
    KERJET_CR11_7 KERBAL_CR11_7 -1.0
    KERJET_CR11_7 JETBAL_7 -1.0
    KERJET_CR11_7 JETSUL_7 -0.07196173795362812
    KERDSL_CR11_7 KERBAL_CR11_7 -1.0
    KERDSL_CR11_7 DSLPB_7 -1.0
    KERDSL_CR11_7 DSLSUL_7 0.17803826204637185
    KERJET_CR12_7 KERBAL_CR12_7 -1.0
    KERJET_CR12_7 JETBAL_7 -1.0
    KERJET_CR12_7 JETSUL_7 0.10641134700745464
    KERDSL_CR12_7 KERBAL_CR12_7 -1.0
    KERDSL_CR12_7 DSLPB_7 -1.0
    KERDSL_CR12_7 DSLSUL_7 0.35641134700745464
    KERJET_CR13_7 KERBAL_CR13_7 -1.0
    KERJET_CR13_7 JETBAL_7 -1.0
    KERJET_CR13_7 JETSUL_7 -0.25267534898315597
    KERDSL_CR13_7 KERBAL_CR13_7 -1.0
    KERDSL_CR13_7 DSLPB_7 -1.0
    KERDSL_CR13_7 DSLSUL_7 -0.002675348983155995
    KERJET_CR14_7 KERBAL_CR14_7 -1.0
    KERJET_CR14_7 JETBAL_7 -1.0
    KERJET_CR14_7 JETSUL_7 -0.1052509462859165
    KERDSL_CR14_7 KERBAL_CR14_7 -1.0
    KERDSL_CR14_7 DSLPB_7 -1.0
    KERDSL_CR14_7 DSLSUL_7 0.14474905371408348
    KERJET_CR15_7 KERBAL_CR15_7 -1.0
    KERJET_CR15_7 JETBAL_7 -1.0
    KERJET_CR15_7 JETSUL_7 -0.27669299781507517
    KERDSL_CR15_7 KERBAL_CR15_7 -1.0
    KERDSL_CR15_7 DSLPB_7 -1.0
    KERDSL_CR15_7 DSLSUL_7 -0.026692997815075177
    KERJET_CR16_7 KERBAL_CR16_7 -1.0
    KERJET_CR16_7 JETBAL_7 -1.0
    KERJET_CR16_7 JETSUL_7 -0.044781224618532234
    KERDSL_CR16_7 KERBAL_CR16_7 -1.0
    KERDSL_CR16_7 DSLPB_7 -1.0
    KERDSL_CR16_7 DSLSUL_7 0.20521877538146777
    KERJET_CR17_7 KERBAL_CR17_7 -1.0
    KERJET_CR17_7 JETBAL_7 -1.0
    KERJET_CR17_7 JETSUL_7 0.12212342356934908
    KERDSL_CR17_7 KERBAL_CR17_7 -1.0
    KERDSL_CR17_7 DSLPB_7 -1.0
    KERDSL_CR17_7 DSLSUL_7 0.3721234235693491
    KERJET_CR18_7 KERBAL_CR18_7 -1.0
    KERJET_CR18_7 JETBAL_7 -1.0
    KERJET_CR18_7 JETSUL_7 -0.26736881327166
    KERDSL_CR18_7 KERBAL_CR18_7 -1.0
    KERDSL_CR18_7 DSLPB_7 -1.0
    KERDSL_CR18_7 DSLSUL_7 -0.01736881327166004
    KERJET_CR19_7 KERBAL_CR19_7 -1.0
    KERJET_CR19_7 JETBAL_7 -1.0
    KERJET_CR19_7 JETSUL_7 -0.1236771386783809
    KERDSL_CR19_7 KERBAL_CR19_7 -1.0
    KERDSL_CR19_7 DSLPB_7 -1.0
    KERDSL_CR19_7 DSLSUL_7 0.12632286132161907
    DSLPOOL_7 DSLPB_7 1.0
    DSLPOOL_7 PBAL_DSL_7 1.0
    LPGPOOL_7 LPGBAL_7 1.0
    LPGPOOL_7 PBAL_LPG_7 1.0
    FOPOOL_7 FOBAL_7 1.0
    FOPOOL_7 PBAL_FO_7 1.0
    BUY_CR00_8 OBJ -54.42235414104387
    BUY_CR00_8 CBAL_CR00_8 1.0
    CINV_CR00_8 OBJ -0.3
    CINV_CR00_8 CBAL_CR00_8 -1.0
    CINV_CR00_8 CBAL_CR00_9 1.0
    CDU_CR00_8 CBAL_CR00_8 -1.0
    CDU_CR00_8 CDUCAP_8 1.0
    CDU_CR00_8 YLPG_CR00_8 -0.013786055933968056
    CDU_CR00_8 YNAP_CR00_8 -0.1214444916358349
    CDU_CR00_8 YKER_CR00_8 -0.10646372452567733
    CDU_CR00_8 YDSL_CR00_8 -0.20292085263352289
    CDU_CR00_8 YVGO_CR00_8 -0.27390944719057636
    CDU_CR00_8 YRES_CR00_8 -0.28147542808042036
    BUY_CR01_8 OBJ -70.01202762819769
    BUY_CR01_8 CBAL_CR01_8 1.0
    CINV_CR01_8 OBJ -0.3
    CINV_CR01_8 CBAL_CR01_8 -1.0
    CINV_CR01_8 CBAL_CR01_9 1.0
    CDU_CR01_8 CBAL_CR01_8 -1.0
    CDU_CR01_8 CDUCAP_8 1.0
    CDU_CR01_8 YLPG_CR01_8 -0.025127543584387436
    CDU_CR01_8 YNAP_CR01_8 -0.2025917905849106
    CDU_CR01_8 YKER_CR01_8 -0.13410952106049506
    CDU_CR01_8 YDSL_CR01_8 -0.24728591651278542
    CDU_CR01_8 YVGO_CR01_8 -0.22897185950088417
    CDU_CR01_8 YRES_CR01_8 -0.16191336875653717
    BUY_CR02_8 OBJ -56.95474802107232
    BUY_CR02_8 CBAL_CR02_8 1.0
    CINV_CR02_8 OBJ -0.3
    CINV_CR02_8 CBAL_CR02_8 -1.0
    CINV_CR02_8 CBAL_CR02_9 1.0
    CDU_CR02_8 CBAL_CR02_8 -1.0
    CDU_CR02_8 CDUCAP_8 1.0
    CDU_CR02_8 YLPG_CR02_8 -0.013444753666275039
    CDU_CR02_8 YNAP_CR02_8 -0.11889710072836579
    CDU_CR02_8 YKER_CR02_8 -0.103840437143255
    CDU_CR02_8 YDSL_CR02_8 -0.21229612809407214
    CDU_CR02_8 YVGO_CR02_8 -0.2628713956905896
    CDU_CR02_8 YRES_CR02_8 -0.28865018467744247
    BUY_CR03_8 OBJ -63.38727122663483
    BUY_CR03_8 CBAL_CR03_8 1.0
    CINV_CR03_8 OBJ -0.3
    CINV_CR03_8 CBAL_CR03_8 -1.0
    CINV_CR03_8 CBAL_CR03_9 1.0
    CDU_CR03_8 CBAL_CR03_8 -1.0
    CDU_CR03_8 CDUCAP_8 1.0
    CDU_CR03_8 YLPG_CR03_8 -0.01400858068810675
    CDU_CR03_8 YNAP_CR03_8 -0.1424923117986131
    CDU_CR03_8 YKER_CR03_8 -0.10784088582669263
    CDU_CR03_8 YDSL_CR03_8 -0.19279120630762445
    CDU_CR03_8 YVGO_CR03_8 -0.28544626211923063
    CDU_CR03_8 YRES_CR03_8 -0.2574207532597324
    BUY_CR04_8 OBJ -67.86501065465295
    BUY_CR04_8 CBAL_CR04_8 1.0
    CINV_CR04_8 OBJ -0.3
    CINV_CR04_8 CBAL_CR04_8 -1.0
    CINV_CR04_8 CBAL_CR04_9 1.0
    CDU_CR04_8 CBAL_CR04_8 -1.0
    CDU_CR04_8 CDUCAP_8 1.0
    CDU_CR04_8 YLPG_CR04_8 -0.02335213093765316
    CDU_CR04_8 YNAP_CR04_8 -0.2292355396921612
    CDU_CR04_8 YKER_CR04_8 -0.14240695851543803
    CDU_CR04_8 YDSL_CR04_8 -0.24384363627499198
    CDU_CR04_8 YVGO_CR04_8 -0.2465326974706559
    CDU_CR04_8 YRES_CR04_8 -0.1146290371090997
    BUY_CR05_8 OBJ -61.828066194760424
    BUY_CR05_8 CBAL_CR05_8 1.0
    CINV_CR05_8 OBJ -0.3
    CINV_CR05_8 CBAL_CR05_8 -1.0
    CINV_CR05_8 CBAL_CR05_9 1.0
    CDU_CR05_8 CBAL_CR05_8 -1.0
    CDU_CR05_8 CDUCAP_8 1.0
    CDU_CR05_8 YLPG_CR05_8 -0.01735729802728813
    CDU_CR05_8 YNAP_CR05_8 -0.16608619710065003
    CDU_CR05_8 YKER_CR05_8 -0.1170544437563835
    CDU_CR05_8 YDSL_CR05_8 -0.22299235889970878
    CDU_CR05_8 YVGO_CR05_8 -0.2433490540516293
    CDU_CR05_8 YRES_CR05_8 -0.23316064816434035
    BUY_CR06_8 OBJ -59.19482860366223
    BUY_CR06_8 CBAL_CR06_8 1.0
    CINV_CR06_8 OBJ -0.3
    CINV_CR06_8 CBAL_CR06_8 -1.0
    CINV_CR06_8 CBAL_CR06_9 1.0
    CDU_CR06_8 CBAL_CR06_8 -1.0
    CDU_CR06_8 CDUCAP_8 1.0
    CDU_CR06_8 YLPG_CR06_8 -0.014219474855875663
    CDU_CR06_8 YNAP_CR06_8 -0.13746806025500902
    CDU_CR06_8 YKER_CR06_8 -0.10533897185985656
    CDU_CR06_8 YDSL_CR06_8 -0.20403840195434858
    CDU_CR06_8 YVGO_CR06_8 -0.26484358994429863
    CDU_CR06_8 YRES_CR06_8 -0.27409150113061165
    BUY_CR07_8 OBJ -67.55234620021585
    BUY_CR07_8 CBAL_CR07_8 1.0
    CINV_CR07_8 OBJ -0.3
    CINV_CR07_8 CBAL_CR07_8 -1.0
    CINV_CR07_8 CBAL_CR07_9 1.0
    CDU_CR07_8 CBAL_CR07_8 -1.0
    CDU_CR07_8 CDUCAP_8 1.0
    CDU_CR07_8 YLPG_CR07_8 -0.01678766142162217
    CDU_CR07_8 YNAP_CR07_8 -0.18341674311422207
    CDU_CR07_8 YKER_CR07_8 -0.13271469159016522
    CDU_CR07_8 YDSL_CR07_8 -0.2249127244045356
    CDU_CR07_8 YVGO_CR07_8 -0.24848613807316539
    CDU_CR07_8 YRES_CR07_8 -0.19368204139628944
    BUY_CR08_8 OBJ -65.70661506504375
    BUY_CR08_8 CBAL_CR08_8 1.0
    CINV_CR08_8 OBJ -0.3
    CINV_CR08_8 CBAL_CR08_8 -1.0
    CINV_CR08_8 CBAL_CR08_9 1.0
    CDU_CR08_8 CBAL_CR08_8 -1.0
    CDU_CR08_8 CDUCAP_8 1.0
    CDU_CR08_8 YLPG_CR08_8 -0.023930881960770135
    CDU_CR08_8 YNAP_CR08_8 -0.199474063989656
    CDU_CR08_8 YKER_CR08_8 -0.13012967624359006
    CDU_CR08_8 YDSL_CR08_8 -0.24906213509239003
    CDU_CR08_8 YVGO_CR08_8 -0.24247509330512357
    CDU_CR08_8 YRES_CR08_8 -0.15492814940847022
    BUY_CR09_8 OBJ -73.87353241551313
    BUY_CR09_8 CBAL_CR09_8 1.0
    CINV_CR09_8 OBJ -0.3
    CINV_CR09_8 CBAL_CR09_8 -1.0
    CINV_CR09_8 CBAL_CR09_9 1.0
    CDU_CR09_8 CBAL_CR09_8 -1.0
    CDU_CR09_8 CDUCAP_8 1.0
    CDU_CR09_8 YLPG_CR09_8 -0.0254414593142613
    CDU_CR09_8 YNAP_CR09_8 -0.2406668892422991
    CDU_CR09_8 YKER_CR09_8 -0.14150533274546892
    CDU_CR09_8 YDSL_CR09_8 -0.23713673044274025
    CDU_CR09_8 YVGO_CR09_8 -0.23566730460149374
    CDU_CR09_8 YRES_CR09_8 -0.11958228365373665
    BUY_CR10_8 OBJ -54.84399042160608
    BUY_CR10_8 CBAL_CR10_8 1.0
    CINV_CR10_8 OBJ -0.3
    CINV_CR10_8 CBAL_CR10_8 -1.0
    CINV_CR10_8 CBAL_CR10_9 1.0
    CDU_CR10_8 CBAL_CR10_8 -1.0
    CDU_CR10_8 CDUCAP_8 1.0
    CDU_CR10_8 YLPG_CR10_8 -0.012631058640766385
    CDU_CR10_8 YNAP_CR10_8 -0.11501159644639905
    CDU_CR10_8 YKER_CR10_8 -0.1080956731900355
    CDU_CR10_8 YDSL_CR10_8 -0.20982857494392457
    CDU_CR10_8 YVGO_CR10_8 -0.2722572086368098
    CDU_CR10_8 YRES_CR10_8 -0.28217588814206473
    BUY_CR11_8 OBJ -66.475351005075
    BUY_CR11_8 CBAL_CR11_8 1.0
    CINV_CR11_8 OBJ -0.3
    CINV_CR11_8 CBAL_CR11_8 -1.0
    CINV_CR11_8 CBAL_CR11_9 1.0
    CDU_CR11_8 CBAL_CR11_8 -1.0
    CDU_CR11_8 CDUCAP_8 1.0
    CDU_CR11_8 YLPG_CR11_8 -0.018171926805686592
    CDU_CR11_8 YNAP_CR11_8 -0.18017303538659502
    CDU_CR11_8 YKER_CR11_8 -0.11622304467804759
    CDU_CR11_8 YDSL_CR11_8 -0.22678215323461023
    CDU_CR11_8 YVGO_CR11_8 -0.2637522217068048
    CDU_CR11_8 YRES_CR11_8 -0.19489761818825582
    BUY_CR12_8 OBJ -56.07640203753482
    BUY_CR12_8 CBAL_CR12_8 1.0
    CINV_CR12_8 OBJ -0.3
    CINV_CR12_8 CBAL_CR12_8 -1.0
    CINV_CR12_8 CBAL_CR12_9 1.0
    CDU_CR12_8 CBAL_CR12_8 -1.0
    CDU_CR12_8 CDUCAP_8 1.0
    CDU_CR12_8 YLPG_CR12_8 -0.016285402257558677
    CDU_CR12_8 YNAP_CR12_8 -0.1394251111460902
    CDU_CR12_8 YKER_CR12_8 -0.10627583407346515
    CDU_CR12_8 YDSL_CR12_8 -0.2004859030026821
    CDU_CR12_8 YVGO_CR12_8 -0.29053476615254664
    CDU_CR12_8 YRES_CR12_8 -0.2469929833676572
    BUY_CR13_8 OBJ -64.74591368279256
    BUY_CR13_8 CBAL_CR13_8 1.0
    CINV_CR13_8 OBJ -0.3
    CINV_CR13_8 CBAL_CR13_8 -1.0
    CINV_CR13_8 CBAL_CR13_9 1.0
    CDU_CR13_8 CBAL_CR13_8 -1.0
    CDU_CR13_8 CDUCAP_8 1.0
    CDU_CR13_8 YLPG_CR13_8 -0.015405562084299341
    CDU_CR13_8 YNAP_CR13_8 -0.1597372095049784
    CDU_CR13_8 YKER_CR13_8 -0.109230580221756
    CDU_CR13_8 YDSL_CR13_8 -0.20799117245133522
    CDU_CR13_8 YVGO_CR13_8 -0.2743070543343612
    CDU_CR13_8 YRES_CR13_8 -0.23332842140326976
    BUY_CR14_8 OBJ -58.957708757323374
    BUY_CR14_8 CBAL_CR14_8 1.0
    CINV_CR14_8 OBJ -0.3
    CINV_CR14_8 CBAL_CR14_8 -1.0
    CINV_CR14_8 CBAL_CR14_9 1.0
    CDU_CR14_8 CBAL_CR14_8 -1.0
    CDU_CR14_8 CDUCAP_8 1.0
    CDU_CR14_8 YLPG_CR14_8 -0.011676212845503672
    CDU_CR14_8 YNAP_CR14_8 -0.10963647957865116
    CDU_CR14_8 YKER_CR14_8 -0.09755861914812415
    CDU_CR14_8 YDSL_CR14_8 -0.22400035528460593
    CDU_CR14_8 YVGO_CR14_8 -0.27985390356413214
    CDU_CR14_8 YRES_CR14_8 -0.2772744295789829
    BUY_CR15_8 OBJ -60.720147266975026
    BUY_CR15_8 CBAL_CR15_8 1.0
    CINV_CR15_8 OBJ -0.3
    CINV_CR15_8 CBAL_CR15_8 -1.0
    CINV_CR15_8 CBAL_CR15_9 1.0
    CDU_CR15_8 CBAL_CR15_8 -1.0
    CDU_CR15_8 CDUCAP_8 1.0
    CDU_CR15_8 YLPG_CR15_8 -0.010625779986084445
    CDU_CR15_8 YNAP_CR15_8 -0.11766680402271243
    CDU_CR15_8 YKER_CR15_8 -0.09531893966264804
    CDU_CR15_8 YDSL_CR15_8 -0.2087175638151306
    CDU_CR15_8 YVGO_CR15_8 -0.2798835604956035
    CDU_CR15_8 YRES_CR15_8 -0.287787352017821
    BUY_CR16_8 OBJ -65.49198106290862
    BUY_CR16_8 CBAL_CR16_8 1.0
    CINV_CR16_8 OBJ -0.3
    CINV_CR16_8 CBAL_CR16_8 -1.0
    CINV_CR16_8 CBAL_CR16_9 1.0
    CDU_CR16_8 CBAL_CR16_8 -1.0
    CDU_CR16_8 CDUCAP_8 1.0
    CDU_CR16_8 YLPG_CR16_8 -0.021730435986974463
    CDU_CR16_8 YNAP_CR16_8 -0.22346814322949868
    CDU_CR16_8 YKER_CR16_8 -0.12962692092969477
    CDU_CR16_8 YDSL_CR16_8 -0.23580083169350696
    CDU_CR16_8 YVGO_CR16_8 -0.23197545191976185
    CDU_CR16_8 YRES_CR16_8 -0.1573982162405634
    BUY_CR17_8 OBJ -65.3670785414125
    BUY_CR17_8 CBAL_CR17_8 1.0
    CINV_CR17_8 OBJ -0.3
    CINV_CR17_8 CBAL_CR17_8 -1.0
    CINV_CR17_8 CBAL_CR17_9 1.0
    CDU_CR17_8 CBAL_CR17_8 -1.0
    CDU_CR17_8 CDUCAP_8 1.0
    CDU_CR17_8 YLPG_CR17_8 -0.023568928491133005
    CDU_CR17_8 YNAP_CR17_8 -0.24678008017283823
    CDU_CR17_8 YKER_CR17_8 -0.12826932733432603
    CDU_CR17_8 YDSL_CR17_8 -0.2495178182316694
    CDU_CR17_8 YVGO_CR17_8 -0.23510202280801157
    CDU_CR17_8 YRES_CR17_8 -0.1167618229620217
    BUY_CR18_8 OBJ -73.12279697393761
    BUY_CR18_8 CBAL_CR18_8 1.0
    CINV_CR18_8 OBJ -0.3
    CINV_CR18_8 CBAL_CR18_8 -1.0
    CINV_CR18_8 CBAL_CR18_9 1.0
    CDU_CR18_8 CBAL_CR18_8 -1.0
    CDU_CR18_8 CDUCAP_8 1.0
    CDU_CR18_8 YLPG_CR18_8 -0.02478422291723085
    CDU_CR18_8 YNAP_CR18_8 -0.23955258573301338
    CDU_CR18_8 YKER_CR18_8 -0.1322077813000583
    CDU_CR18_8 YDSL_CR18_8 -0.21167154879043004
    CDU_CR18_8 YVGO_CR18_8 -0.24506150244942554
    CDU_CR18_8 YRES_CR18_8 -0.146722358809842
    BUY_CR19_8 OBJ -62.873859950696016
    BUY_CR19_8 CBAL_CR19_8 1.0
    CINV_CR19_8 OBJ -0.3
    CINV_CR19_8 CBAL_CR19_8 -1.0
    CINV_CR19_8 CBAL_CR19_9 1.0
    CDU_CR19_8 CBAL_CR19_8 -1.0
    CDU_CR19_8 CDUCAP_8 1.0
    CDU_CR19_8 YLPG_CR19_8 -0.01626067739955701
    CDU_CR19_8 YNAP_CR19_8 -0.1715066574732045
    CDU_CR19_8 YKER_CR19_8 -0.11836465284470915
    CDU_CR19_8 YDSL_CR19_8 -0.20874443204167248
    CDU_CR19_8 YVGO_CR19_8 -0.2445178967491453
    CDU_CR19_8 YRES_CR19_8 -0.24060568349171155
    LPG_CR00_8 YLPG_CR00_8 1.0
    LPG_CR00_8 LPGBAL_8 -1.0
    NAP_CR00_8 YNAP_CR00_8 1.0
    NAP_CR00_8 NAPBAL_CR00_8 1.0
    KER_CR00_8 YKER_CR00_8 1.0
    KER_CR00_8 KERBAL_CR00_8 1.0
    DSL_CR00_8 YDSL_CR00_8 1.0
    DSL_CR00_8 DSLBAL_CR00_8 1.0
    VGO_CR00_8 YVGO_CR00_8 1.0
    VGO_CR00_8 VGOBAL_CR00_8 1.0
    RES_CR00_8 YRES_CR00_8 1.0
    RES_CR00_8 RESSPLIT_CR00_8 1.0
    LPG_CR01_8 YLPG_CR01_8 1.0
    LPG_CR01_8 LPGBAL_8 -1.0
    NAP_CR01_8 YNAP_CR01_8 1.0
    NAP_CR01_8 NAPBAL_CR01_8 1.0
    KER_CR01_8 YKER_CR01_8 1.0
    KER_CR01_8 KERBAL_CR01_8 1.0
    DSL_CR01_8 YDSL_CR01_8 1.0
    DSL_CR01_8 DSLBAL_CR01_8 1.0
    VGO_CR01_8 YVGO_CR01_8 1.0
    VGO_CR01_8 VGOBAL_CR01_8 1.0
    RES_CR01_8 YRES_CR01_8 1.0
    RES_CR01_8 RESSPLIT_CR01_8 1.0
    LPG_CR02_8 YLPG_CR02_8 1.0
    LPG_CR02_8 LPGBAL_8 -1.0
    NAP_CR02_8 YNAP_CR02_8 1.0
    NAP_CR02_8 NAPBAL_CR02_8 1.0
    KER_CR02_8 YKER_CR02_8 1.0
    KER_CR02_8 KERBAL_CR02_8 1.0
    DSL_CR02_8 YDSL_CR02_8 1.0
    DSL_CR02_8 DSLBAL_CR02_8 1.0
    VGO_CR02_8 YVGO_CR02_8 1.0
    VGO_CR02_8 VGOBAL_CR02_8 1.0
    RES_CR02_8 YRES_CR02_8 1.0
    RES_CR02_8 RESSPLIT_CR02_8 1.0
    LPG_CR03_8 YLPG_CR03_8 1.0
    LPG_CR03_8 LPGBAL_8 -1.0
    NAP_CR03_8 YNAP_CR03_8 1.0
    NAP_CR03_8 NAPBAL_CR03_8 1.0
    KER_CR03_8 YKER_CR03_8 1.0
    KER_CR03_8 KERBAL_CR03_8 1.0
    DSL_CR03_8 YDSL_CR03_8 1.0
    DSL_CR03_8 DSLBAL_CR03_8 1.0
    VGO_CR03_8 YVGO_CR03_8 1.0
    VGO_CR03_8 VGOBAL_CR03_8 1.0
    RES_CR03_8 YRES_CR03_8 1.0
    RES_CR03_8 RESSPLIT_CR03_8 1.0
    LPG_CR04_8 YLPG_CR04_8 1.0
    LPG_CR04_8 LPGBAL_8 -1.0
    NAP_CR04_8 YNAP_CR04_8 1.0
    NAP_CR04_8 NAPBAL_CR04_8 1.0
    KER_CR04_8 YKER_CR04_8 1.0
    KER_CR04_8 KERBAL_CR04_8 1.0
    DSL_CR04_8 YDSL_CR04_8 1.0
    DSL_CR04_8 DSLBAL_CR04_8 1.0
    VGO_CR04_8 YVGO_CR04_8 1.0
    VGO_CR04_8 VGOBAL_CR04_8 1.0
    RES_CR04_8 YRES_CR04_8 1.0
    RES_CR04_8 RESSPLIT_CR04_8 1.0
    LPG_CR05_8 YLPG_CR05_8 1.0
    LPG_CR05_8 LPGBAL_8 -1.0
    NAP_CR05_8 YNAP_CR05_8 1.0
    NAP_CR05_8 NAPBAL_CR05_8 1.0
    KER_CR05_8 YKER_CR05_8 1.0
    KER_CR05_8 KERBAL_CR05_8 1.0
    DSL_CR05_8 YDSL_CR05_8 1.0
    DSL_CR05_8 DSLBAL_CR05_8 1.0
    VGO_CR05_8 YVGO_CR05_8 1.0
    VGO_CR05_8 VGOBAL_CR05_8 1.0
    RES_CR05_8 YRES_CR05_8 1.0
    RES_CR05_8 RESSPLIT_CR05_8 1.0
    LPG_CR06_8 YLPG_CR06_8 1.0
    LPG_CR06_8 LPGBAL_8 -1.0
    NAP_CR06_8 YNAP_CR06_8 1.0
    NAP_CR06_8 NAPBAL_CR06_8 1.0
    KER_CR06_8 YKER_CR06_8 1.0
    KER_CR06_8 KERBAL_CR06_8 1.0
    DSL_CR06_8 YDSL_CR06_8 1.0
    DSL_CR06_8 DSLBAL_CR06_8 1.0
    VGO_CR06_8 YVGO_CR06_8 1.0
    VGO_CR06_8 VGOBAL_CR06_8 1.0
    RES_CR06_8 YRES_CR06_8 1.0
    RES_CR06_8 RESSPLIT_CR06_8 1.0
    LPG_CR07_8 YLPG_CR07_8 1.0
    LPG_CR07_8 LPGBAL_8 -1.0
    NAP_CR07_8 YNAP_CR07_8 1.0
    NAP_CR07_8 NAPBAL_CR07_8 1.0
    KER_CR07_8 YKER_CR07_8 1.0
    KER_CR07_8 KERBAL_CR07_8 1.0
    DSL_CR07_8 YDSL_CR07_8 1.0
    DSL_CR07_8 DSLBAL_CR07_8 1.0
    VGO_CR07_8 YVGO_CR07_8 1.0
    VGO_CR07_8 VGOBAL_CR07_8 1.0
    RES_CR07_8 YRES_CR07_8 1.0
    RES_CR07_8 RESSPLIT_CR07_8 1.0
    LPG_CR08_8 YLPG_CR08_8 1.0
    LPG_CR08_8 LPGBAL_8 -1.0
    NAP_CR08_8 YNAP_CR08_8 1.0
    NAP_CR08_8 NAPBAL_CR08_8 1.0
    KER_CR08_8 YKER_CR08_8 1.0
    KER_CR08_8 KERBAL_CR08_8 1.0
    DSL_CR08_8 YDSL_CR08_8 1.0
    DSL_CR08_8 DSLBAL_CR08_8 1.0
    VGO_CR08_8 YVGO_CR08_8 1.0
    VGO_CR08_8 VGOBAL_CR08_8 1.0
    RES_CR08_8 YRES_CR08_8 1.0
    RES_CR08_8 RESSPLIT_CR08_8 1.0
    LPG_CR09_8 YLPG_CR09_8 1.0
    LPG_CR09_8 LPGBAL_8 -1.0
    NAP_CR09_8 YNAP_CR09_8 1.0
    NAP_CR09_8 NAPBAL_CR09_8 1.0
    KER_CR09_8 YKER_CR09_8 1.0
    KER_CR09_8 KERBAL_CR09_8 1.0
    DSL_CR09_8 YDSL_CR09_8 1.0
    DSL_CR09_8 DSLBAL_CR09_8 1.0
    VGO_CR09_8 YVGO_CR09_8 1.0
    VGO_CR09_8 VGOBAL_CR09_8 1.0
    RES_CR09_8 YRES_CR09_8 1.0
    RES_CR09_8 RESSPLIT_CR09_8 1.0
    LPG_CR10_8 YLPG_CR10_8 1.0
    LPG_CR10_8 LPGBAL_8 -1.0
    NAP_CR10_8 YNAP_CR10_8 1.0
    NAP_CR10_8 NAPBAL_CR10_8 1.0
    KER_CR10_8 YKER_CR10_8 1.0
    KER_CR10_8 KERBAL_CR10_8 1.0
    DSL_CR10_8 YDSL_CR10_8 1.0
    DSL_CR10_8 DSLBAL_CR10_8 1.0
    VGO_CR10_8 YVGO_CR10_8 1.0
    VGO_CR10_8 VGOBAL_CR10_8 1.0
    RES_CR10_8 YRES_CR10_8 1.0
    RES_CR10_8 RESSPLIT_CR10_8 1.0
    LPG_CR11_8 YLPG_CR11_8 1.0
    LPG_CR11_8 LPGBAL_8 -1.0
    NAP_CR11_8 YNAP_CR11_8 1.0
    NAP_CR11_8 NAPBAL_CR11_8 1.0
    KER_CR11_8 YKER_CR11_8 1.0
    KER_CR11_8 KERBAL_CR11_8 1.0
    DSL_CR11_8 YDSL_CR11_8 1.0
    DSL_CR11_8 DSLBAL_CR11_8 1.0
    VGO_CR11_8 YVGO_CR11_8 1.0
    VGO_CR11_8 VGOBAL_CR11_8 1.0
    RES_CR11_8 YRES_CR11_8 1.0
    RES_CR11_8 RESSPLIT_CR11_8 1.0
    LPG_CR12_8 YLPG_CR12_8 1.0
    LPG_CR12_8 LPGBAL_8 -1.0
    NAP_CR12_8 YNAP_CR12_8 1.0
    NAP_CR12_8 NAPBAL_CR12_8 1.0
    KER_CR12_8 YKER_CR12_8 1.0
    KER_CR12_8 KERBAL_CR12_8 1.0
    DSL_CR12_8 YDSL_CR12_8 1.0
    DSL_CR12_8 DSLBAL_CR12_8 1.0
    VGO_CR12_8 YVGO_CR12_8 1.0
    VGO_CR12_8 VGOBAL_CR12_8 1.0
    RES_CR12_8 YRES_CR12_8 1.0
    RES_CR12_8 RESSPLIT_CR12_8 1.0
    LPG_CR13_8 YLPG_CR13_8 1.0
    LPG_CR13_8 LPGBAL_8 -1.0
    NAP_CR13_8 YNAP_CR13_8 1.0
    NAP_CR13_8 NAPBAL_CR13_8 1.0
    KER_CR13_8 YKER_CR13_8 1.0
    KER_CR13_8 KERBAL_CR13_8 1.0
    DSL_CR13_8 YDSL_CR13_8 1.0
    DSL_CR13_8 DSLBAL_CR13_8 1.0
    VGO_CR13_8 YVGO_CR13_8 1.0
    VGO_CR13_8 VGOBAL_CR13_8 1.0
    RES_CR13_8 YRES_CR13_8 1.0
    RES_CR13_8 RESSPLIT_CR13_8 1.0
    LPG_CR14_8 YLPG_CR14_8 1.0
    LPG_CR14_8 LPGBAL_8 -1.0
    NAP_CR14_8 YNAP_CR14_8 1.0
    NAP_CR14_8 NAPBAL_CR14_8 1.0
    KER_CR14_8 YKER_CR14_8 1.0
    KER_CR14_8 KERBAL_CR14_8 1.0
    DSL_CR14_8 YDSL_CR14_8 1.0
    DSL_CR14_8 DSLBAL_CR14_8 1.0
    VGO_CR14_8 YVGO_CR14_8 1.0
    VGO_CR14_8 VGOBAL_CR14_8 1.0
    RES_CR14_8 YRES_CR14_8 1.0
    RES_CR14_8 RESSPLIT_CR14_8 1.0
    LPG_CR15_8 YLPG_CR15_8 1.0
    LPG_CR15_8 LPGBAL_8 -1.0
    NAP_CR15_8 YNAP_CR15_8 1.0
    NAP_CR15_8 NAPBAL_CR15_8 1.0
    KER_CR15_8 YKER_CR15_8 1.0
    KER_CR15_8 KERBAL_CR15_8 1.0
    DSL_CR15_8 YDSL_CR15_8 1.0
    DSL_CR15_8 DSLBAL_CR15_8 1.0
    VGO_CR15_8 YVGO_CR15_8 1.0
    VGO_CR15_8 VGOBAL_CR15_8 1.0
    RES_CR15_8 YRES_CR15_8 1.0
    RES_CR15_8 RESSPLIT_CR15_8 1.0
    LPG_CR16_8 YLPG_CR16_8 1.0
    LPG_CR16_8 LPGBAL_8 -1.0
    NAP_CR16_8 YNAP_CR16_8 1.0
    NAP_CR16_8 NAPBAL_CR16_8 1.0
    KER_CR16_8 YKER_CR16_8 1.0
    KER_CR16_8 KERBAL_CR16_8 1.0
    DSL_CR16_8 YDSL_CR16_8 1.0
    DSL_CR16_8 DSLBAL_CR16_8 1.0
    VGO_CR16_8 YVGO_CR16_8 1.0
    VGO_CR16_8 VGOBAL_CR16_8 1.0
    RES_CR16_8 YRES_CR16_8 1.0
    RES_CR16_8 RESSPLIT_CR16_8 1.0
    LPG_CR17_8 YLPG_CR17_8 1.0
    LPG_CR17_8 LPGBAL_8 -1.0
    NAP_CR17_8 YNAP_CR17_8 1.0
    NAP_CR17_8 NAPBAL_CR17_8 1.0
    KER_CR17_8 YKER_CR17_8 1.0
    KER_CR17_8 KERBAL_CR17_8 1.0
    DSL_CR17_8 YDSL_CR17_8 1.0
    DSL_CR17_8 DSLBAL_CR17_8 1.0
    VGO_CR17_8 YVGO_CR17_8 1.0
    VGO_CR17_8 VGOBAL_CR17_8 1.0
    RES_CR17_8 YRES_CR17_8 1.0
    RES_CR17_8 RESSPLIT_CR17_8 1.0
    LPG_CR18_8 YLPG_CR18_8 1.0
    LPG_CR18_8 LPGBAL_8 -1.0
    NAP_CR18_8 YNAP_CR18_8 1.0
    NAP_CR18_8 NAPBAL_CR18_8 1.0
    KER_CR18_8 YKER_CR18_8 1.0
    KER_CR18_8 KERBAL_CR18_8 1.0
    DSL_CR18_8 YDSL_CR18_8 1.0
    DSL_CR18_8 DSLBAL_CR18_8 1.0
    VGO_CR18_8 YVGO_CR18_8 1.0
    VGO_CR18_8 VGOBAL_CR18_8 1.0
    RES_CR18_8 YRES_CR18_8 1.0
    RES_CR18_8 RESSPLIT_CR18_8 1.0
    LPG_CR19_8 YLPG_CR19_8 1.0
    LPG_CR19_8 LPGBAL_8 -1.0
    NAP_CR19_8 YNAP_CR19_8 1.0
    NAP_CR19_8 NAPBAL_CR19_8 1.0
    KER_CR19_8 YKER_CR19_8 1.0
    KER_CR19_8 KERBAL_CR19_8 1.0
    DSL_CR19_8 YDSL_CR19_8 1.0
    DSL_CR19_8 DSLBAL_CR19_8 1.0
    VGO_CR19_8 YVGO_CR19_8 1.0
    VGO_CR19_8 VGOBAL_CR19_8 1.0
    RES_CR19_8 YRES_CR19_8 1.0
    RES_CR19_8 RESSPLIT_CR19_8 1.0
    VDUIN_CR00_8 RESSPLIT_CR00_8 -1.0
    VDUIN_CR00_8 VDUY1_CR00_8 -0.45
    VDUIN_CR00_8 VDUY2_CR00_8 -0.55
    VDUIN_CR00_8 VDUCAP_8 1.0
    RESFO_CR00_8 RESSPLIT_CR00_8 -1.0
    RESFO_CR00_8 FOBAL_8 -1.0
    RESFO_CR00_8 FOSUL_8 1.9540891690108433
    VGO2_CR00_8 VDUY1_CR00_8 1.0
    VGO2_CR00_8 VGOBAL_CR00_8 1.0
    VR_CR00_8 VDUY2_CR00_8 1.0
    VR_CR00_8 FOBAL_8 -1.0
    VR_CR00_8 FOSUL_8 3.5903159197140964
    VDUIN_CR01_8 RESSPLIT_CR01_8 -1.0
    VDUIN_CR01_8 VDUY1_CR01_8 -0.45
    VDUIN_CR01_8 VDUY2_CR01_8 -0.55
    VDUIN_CR01_8 VDUCAP_8 1.0
    RESFO_CR01_8 RESSPLIT_CR01_8 -1.0
    RESFO_CR01_8 FOBAL_8 -1.0
    RESFO_CR01_8 FOSUL_8 -0.6168441789886687
    VGO2_CR01_8 VDUY1_CR01_8 1.0
    VGO2_CR01_8 VGOBAL_CR01_8 1.0
    VR_CR01_8 VDUY2_CR01_8 1.0
    VR_CR01_8 FOBAL_8 -1.0
    VR_CR01_8 FOSUL_8 0.24810256731473057
    VDUIN_CR02_8 RESSPLIT_CR02_8 -1.0
    VDUIN_CR02_8 VDUY1_CR02_8 -0.45
    VDUIN_CR02_8 VDUY2_CR02_8 -0.55
    VDUIN_CR02_8 VDUCAP_8 1.0
    RESFO_CR02_8 RESSPLIT_CR02_8 -1.0
    RESFO_CR02_8 FOBAL_8 -1.0
    RESFO_CR02_8 FOSUL_8 0.05675733131967897
    VGO2_CR02_8 VDUY1_CR02_8 1.0
    VGO2_CR02_8 VGOBAL_CR02_8 1.0
    VR_CR02_8 VDUY2_CR02_8 1.0
    VR_CR02_8 FOBAL_8 -1.0
    VR_CR02_8 FOSUL_8 1.1237845307155832
    VDUIN_CR03_8 RESSPLIT_CR03_8 -1.0
    VDUIN_CR03_8 VDUY1_CR03_8 -0.45
    VDUIN_CR03_8 VDUY2_CR03_8 -0.55
    VDUIN_CR03_8 VDUCAP_8 1.0
    RESFO_CR03_8 RESSPLIT_CR03_8 -1.0
    RESFO_CR03_8 FOBAL_8 -1.0
    RESFO_CR03_8 FOSUL_8 -1.8686274424458973
    VGO2_CR03_8 VDUY1_CR03_8 1.0
    VGO2_CR03_8 VGOBAL_CR03_8 1.0
    VR_CR03_8 VDUY2_CR03_8 1.0
    VR_CR03_8 FOBAL_8 -1.0
    VR_CR03_8 FOSUL_8 -1.3792156751796663
    VDUIN_CR04_8 RESSPLIT_CR04_8 -1.0
    VDUIN_CR04_8 VDUY1_CR04_8 -0.45
    VDUIN_CR04_8 VDUY2_CR04_8 -0.55
    VDUIN_CR04_8 VDUCAP_8 1.0
    RESFO_CR04_8 RESSPLIT_CR04_8 -1.0
    RESFO_CR04_8 FOBAL_8 -1.0
    RESFO_CR04_8 FOSUL_8 2.031668478530798
    VGO2_CR04_8 VDUY1_CR04_8 1.0
    VGO2_CR04_8 VGOBAL_CR04_8 1.0
    VR_CR04_8 VDUY2_CR04_8 1.0
    VR_CR04_8 FOBAL_8 -1.0
    VR_CR04_8 FOSUL_8 3.6911690220900377
    VDUIN_CR05_8 RESSPLIT_CR05_8 -1.0
    VDUIN_CR05_8 VDUY1_CR05_8 -0.45
    VDUIN_CR05_8 VDUY2_CR05_8 -0.55
    VDUIN_CR05_8 VDUCAP_8 1.0
    RESFO_CR05_8 RESSPLIT_CR05_8 -1.0
    RESFO_CR05_8 FOBAL_8 -1.0
    RESFO_CR05_8 FOSUL_8 0.3429997580900688
    VGO2_CR05_8 VDUY1_CR05_8 1.0
    VGO2_CR05_8 VGOBAL_CR05_8 1.0
    VR_CR05_8 VDUY2_CR05_8 1.0
    VR_CR05_8 FOBAL_8 -1.0
    VR_CR05_8 FOSUL_8 1.4958996855170898
    VDUIN_CR06_8 RESSPLIT_CR06_8 -1.0
    VDUIN_CR06_8 VDUY1_CR06_8 -0.45
    VDUIN_CR06_8 VDUY2_CR06_8 -0.55
    VDUIN_CR06_8 VDUCAP_8 1.0
    RESFO_CR06_8 RESSPLIT_CR06_8 -1.0
    RESFO_CR06_8 FOBAL_8 -1.0
    RESFO_CR06_8 FOSUL_8 0.10255232060654862
    VGO2_CR06_8 VDUY1_CR06_8 1.0
    VGO2_CR06_8 VGOBAL_CR06_8 1.0
    VR_CR06_8 VDUY2_CR06_8 1.0
    VR_CR06_8 FOBAL_8 -1.0
    VR_CR06_8 FOSUL_8 1.1833180167885136
    VDUIN_CR07_8 RESSPLIT_CR07_8 -1.0
    VDUIN_CR07_8 VDUY1_CR07_8 -0.45
    VDUIN_CR07_8 VDUY2_CR07_8 -0.55
    VDUIN_CR07_8 VDUCAP_8 1.0
    RESFO_CR07_8 RESSPLIT_CR07_8 -1.0
    RESFO_CR07_8 FOBAL_8 -1.0
    RESFO_CR07_8 FOSUL_8 -3.116635223405176
    VGO2_CR07_8 VDUY1_CR07_8 1.0
    VGO2_CR07_8 VGOBAL_CR07_8 1.0
    VR_CR07_8 VDUY2_CR07_8 1.0
    VR_CR07_8 FOBAL_8 -1.0
    VR_CR07_8 FOSUL_8 -3.001625790426729
    VDUIN_CR08_8 RESSPLIT_CR08_8 -1.0
    VDUIN_CR08_8 VDUY1_CR08_8 -0.45
    VDUIN_CR08_8 VDUY2_CR08_8 -0.55
    VDUIN_CR08_8 VDUCAP_8 1.0
    RESFO_CR08_8 RESSPLIT_CR08_8 -1.0
    RESFO_CR08_8 FOBAL_8 -1.0
    RESFO_CR08_8 FOSUL_8 0.0456281803886287
    VGO2_CR08_8 VDUY1_CR08_8 1.0
    VGO2_CR08_8 VGOBAL_CR08_8 1.0
    VR_CR08_8 VDUY2_CR08_8 1.0
    VR_CR08_8 FOBAL_8 -1.0
    VR_CR08_8 FOSUL_8 1.109316634505218
    VDUIN_CR09_8 RESSPLIT_CR09_8 -1.0
    VDUIN_CR09_8 VDUY1_CR09_8 -0.45
    VDUIN_CR09_8 VDUY2_CR09_8 -0.55
    VDUIN_CR09_8 VDUCAP_8 1.0
    RESFO_CR09_8 RESSPLIT_CR09_8 -1.0
    RESFO_CR09_8 FOBAL_8 -1.0
    RESFO_CR09_8 FOSUL_8 -3.264603397407564
    VGO2_CR09_8 VDUY1_CR09_8 1.0
    VGO2_CR09_8 VGOBAL_CR09_8 1.0
    VR_CR09_8 VDUY2_CR09_8 1.0
    VR_CR09_8 FOBAL_8 -1.0
    VR_CR09_8 FOSUL_8 -3.1939844166298332
    VDUIN_CR10_8 RESSPLIT_CR10_8 -1.0
    VDUIN_CR10_8 VDUY1_CR10_8 -0.45
    VDUIN_CR10_8 VDUY2_CR10_8 -0.55
    VDUIN_CR10_8 VDUCAP_8 1.0
    RESFO_CR10_8 RESSPLIT_CR10_8 -1.0
    RESFO_CR10_8 FOBAL_8 -1.0
    RESFO_CR10_8 FOSUL_8 2.094062962095167
    VGO2_CR10_8 VDUY1_CR10_8 1.0
    VGO2_CR10_8 VGOBAL_CR10_8 1.0
    VR_CR10_8 VDUY2_CR10_8 1.0
    VR_CR10_8 FOBAL_8 -1.0
    VR_CR10_8 FOSUL_8 3.7722818507237177
    VDUIN_CR11_8 RESSPLIT_CR11_8 -1.0
    VDUIN_CR11_8 VDUY1_CR11_8 -0.45
    VDUIN_CR11_8 VDUY2_CR11_8 -0.55
    VDUIN_CR11_8 VDUCAP_8 1.0
    RESFO_CR11_8 RESSPLIT_CR11_8 -1.0
    RESFO_CR11_8 FOBAL_8 -1.0
    RESFO_CR11_8 FOSUL_8 -0.4594898393817082
    VGO2_CR11_8 VDUY1_CR11_8 1.0
    VGO2_CR11_8 VGOBAL_CR11_8 1.0
    VR_CR11_8 VDUY2_CR11_8 1.0
    VR_CR11_8 FOBAL_8 -1.0
    VR_CR11_8 FOSUL_8 0.4526632088037794
    VDUIN_CR12_8 RESSPLIT_CR12_8 -1.0
    VDUIN_CR12_8 VDUY1_CR12_8 -0.45
    VDUIN_CR12_8 VDUY2_CR12_8 -0.55
    VDUIN_CR12_8 VDUCAP_8 1.0
    RESFO_CR12_8 RESSPLIT_CR12_8 -1.0
    RESFO_CR12_8 FOBAL_8 -1.0
    RESFO_CR12_8 FOSUL_8 1.9188179600993953
    VGO2_CR12_8 VDUY1_CR12_8 1.0
    VGO2_CR12_8 VGOBAL_CR12_8 1.0
    VR_CR12_8 VDUY2_CR12_8 1.0
    VR_CR12_8 FOBAL_8 -1.0
    VR_CR12_8 FOSUL_8 3.544463348129214
    VDUIN_CR13_8 RESSPLIT_CR13_8 -1.0
    VDUIN_CR13_8 VDUY1_CR13_8 -0.45
    VDUIN_CR13_8 VDUY2_CR13_8 -0.55
    VDUIN_CR13_8 VDUCAP_8 1.0
    RESFO_CR13_8 RESSPLIT_CR13_8 -1.0
    RESFO_CR13_8 FOBAL_8 -1.0
    RESFO_CR13_8 FOSUL_8 -2.8690046531087465
    VGO2_CR13_8 VDUY1_CR13_8 1.0
    VGO2_CR13_8 VGOBAL_CR13_8 1.0
    VR_CR13_8 VDUY2_CR13_8 1.0
    VR_CR13_8 FOBAL_8 -1.0
    VR_CR13_8 FOSUL_8 -2.6797060490413704
    VDUIN_CR14_8 RESSPLIT_CR14_8 -1.0
    VDUIN_CR14_8 VDUY1_CR14_8 -0.45
    VDUIN_CR14_8 VDUY2_CR14_8 -0.55
    VDUIN_CR14_8 VDUCAP_8 1.0
    RESFO_CR14_8 RESSPLIT_CR14_8 -1.0
    RESFO_CR14_8 FOBAL_8 -1.0
    RESFO_CR14_8 FOSUL_8 -0.9033459504788866
    VGO2_CR14_8 VDUY1_CR14_8 1.0
    VGO2_CR14_8 VGOBAL_CR14_8 1.0
    VR_CR14_8 VDUY2_CR14_8 1.0
    VR_CR14_8 FOBAL_8 -1.0
    VR_CR14_8 FOSUL_8 -0.12434973562255225
    VDUIN_CR15_8 RESSPLIT_CR15_8 -1.0
    VDUIN_CR15_8 VDUY1_CR15_8 -0.45
    VDUIN_CR15_8 VDUY2_CR15_8 -0.55
    VDUIN_CR15_8 VDUCAP_8 1.0
    RESFO_CR15_8 RESSPLIT_CR15_8 -1.0
    RESFO_CR15_8 FOBAL_8 -1.0
    RESFO_CR15_8 FOSUL_8 -3.189239970867669
    VGO2_CR15_8 VDUY1_CR15_8 1.0
    VGO2_CR15_8 VGOBAL_CR15_8 1.0
    VR_CR15_8 VDUY2_CR15_8 1.0
    VR_CR15_8 FOBAL_8 -1.0
    VR_CR15_8 FOSUL_8 -3.0960119621279696
    VDUIN_CR16_8 RESSPLIT_CR16_8 -1.0
    VDUIN_CR16_8 VDUY1_CR16_8 -0.45
    VDUIN_CR16_8 VDUY2_CR16_8 -0.55
    VDUIN_CR16_8 VDUCAP_8 1.0
    RESFO_CR16_8 RESSPLIT_CR16_8 -1.0
    RESFO_CR16_8 FOBAL_8 -1.0
    RESFO_CR16_8 FOSUL_8 -0.09708299491376327
    VGO2_CR16_8 VDUY1_CR16_8 1.0
    VGO2_CR16_8 VGOBAL_CR16_8 1.0
    VR_CR16_8 VDUY2_CR16_8 1.0
    VR_CR16_8 FOBAL_8 -1.0
    VR_CR16_8 FOSUL_8 0.9237921066121082
    VDUIN_CR17_8 RESSPLIT_CR17_8 -1.0
    VDUIN_CR17_8 VDUY1_CR17_8 -0.45
    VDUIN_CR17_8 VDUY2_CR17_8 -0.55
    VDUIN_CR17_8 VDUCAP_8 1.0
    RESFO_CR17_8 RESSPLIT_CR17_8 -1.0
    RESFO_CR17_8 FOBAL_8 -1.0
    RESFO_CR17_8 FOSUL_8 2.128312314257988
    VGO2_CR17_8 VDUY1_CR17_8 1.0
    VGO2_CR17_8 VGOBAL_CR17_8 1.0
    VR_CR17_8 VDUY2_CR17_8 1.0
    VR_CR17_8 FOBAL_8 -1.0
    VR_CR17_8 FOSUL_8 3.8168060085353845
    VDUIN_CR18_8 RESSPLIT_CR18_8 -1.0
    VDUIN_CR18_8 VDUY1_CR18_8 -0.45
    VDUIN_CR18_8 VDUY2_CR18_8 -0.55
    VDUIN_CR18_8 VDUCAP_8 1.0
    RESFO_CR18_8 RESSPLIT_CR18_8 -1.0
    RESFO_CR18_8 FOBAL_8 -1.0
    RESFO_CR18_8 FOSUL_8 -3.0649175102888004
    VGO2_CR18_8 VDUY1_CR18_8 1.0
    VGO2_CR18_8 VGOBAL_CR18_8 1.0
    VR_CR18_8 VDUY2_CR18_8 1.0
    VR_CR18_8 FOBAL_8 -1.0
    VR_CR18_8 FOSUL_8 -2.9343927633754405
    VDUIN_CR19_8 RESSPLIT_CR19_8 -1.0
    VDUIN_CR19_8 VDUY1_CR19_8 -0.45
    VDUIN_CR19_8 VDUY2_CR19_8 -0.55
    VDUIN_CR19_8 VDUCAP_8 1.0
    RESFO_CR19_8 RESSPLIT_CR19_8 -1.0
    RESFO_CR19_8 FOBAL_8 -1.0
    RESFO_CR19_8 FOSUL_8 -1.1490285157117452
    VGO2_CR19_8 VDUY1_CR19_8 1.0
    VGO2_CR19_8 VGOBAL_CR19_8 1.0
    VR_CR19_8 VDUY2_CR19_8 1.0
    VR_CR19_8 FOBAL_8 -1.0
    VR_CR19_8 FOSUL_8 -0.4437370704252688
    FCCIN_CR00_8 OBJ -2.5
    FCCIN_CR00_8 VGOBAL_CR00_8 -1.0
    FCCIN_CR00_8 FCCCAP_8 1.0
    FCCIN_CR00_8 FCCY_FCCG_8 -0.55
    FCCIN_CR00_8 FCCY_LCO_8 -0.2
    FCCIN_CR00_8 FCCY_FLPG_8 -0.15
    FCCIN_CR00_8 FCCY_SLURRY_8 -0.07
    FCCIN_CR01_8 OBJ -2.5
    FCCIN_CR01_8 VGOBAL_CR01_8 -1.0
    FCCIN_CR01_8 FCCCAP_8 1.0
    FCCIN_CR01_8 FCCY_FCCG_8 -0.55
    FCCIN_CR01_8 FCCY_LCO_8 -0.2
    FCCIN_CR01_8 FCCY_FLPG_8 -0.15
    FCCIN_CR01_8 FCCY_SLURRY_8 -0.07
    FCCIN_CR02_8 OBJ -2.5
    FCCIN_CR02_8 VGOBAL_CR02_8 -1.0
    FCCIN_CR02_8 FCCCAP_8 1.0
    FCCIN_CR02_8 FCCY_FCCG_8 -0.55
    FCCIN_CR02_8 FCCY_LCO_8 -0.2
    FCCIN_CR02_8 FCCY_FLPG_8 -0.15
    FCCIN_CR02_8 FCCY_SLURRY_8 -0.07
    FCCIN_CR03_8 OBJ -2.5
    FCCIN_CR03_8 VGOBAL_CR03_8 -1.0
    FCCIN_CR03_8 FCCCAP_8 1.0
    FCCIN_CR03_8 FCCY_FCCG_8 -0.55
    FCCIN_CR03_8 FCCY_LCO_8 -0.2
    FCCIN_CR03_8 FCCY_FLPG_8 -0.15
    FCCIN_CR03_8 FCCY_SLURRY_8 -0.07
    FCCIN_CR04_8 OBJ -2.5
    FCCIN_CR04_8 VGOBAL_CR04_8 -1.0
    FCCIN_CR04_8 FCCCAP_8 1.0
    FCCIN_CR04_8 FCCY_FCCG_8 -0.55
    FCCIN_CR04_8 FCCY_LCO_8 -0.2
    FCCIN_CR04_8 FCCY_FLPG_8 -0.15
    FCCIN_CR04_8 FCCY_SLURRY_8 -0.07
    FCCIN_CR05_8 OBJ -2.5
    FCCIN_CR05_8 VGOBAL_CR05_8 -1.0
    FCCIN_CR05_8 FCCCAP_8 1.0
    FCCIN_CR05_8 FCCY_FCCG_8 -0.55
    FCCIN_CR05_8 FCCY_LCO_8 -0.2
    FCCIN_CR05_8 FCCY_FLPG_8 -0.15
    FCCIN_CR05_8 FCCY_SLURRY_8 -0.07
    FCCIN_CR06_8 OBJ -2.5
    FCCIN_CR06_8 VGOBAL_CR06_8 -1.0
    FCCIN_CR06_8 FCCCAP_8 1.0
    FCCIN_CR06_8 FCCY_FCCG_8 -0.55
    FCCIN_CR06_8 FCCY_LCO_8 -0.2
    FCCIN_CR06_8 FCCY_FLPG_8 -0.15
    FCCIN_CR06_8 FCCY_SLURRY_8 -0.07
    FCCIN_CR07_8 OBJ -2.5
    FCCIN_CR07_8 VGOBAL_CR07_8 -1.0
    FCCIN_CR07_8 FCCCAP_8 1.0
    FCCIN_CR07_8 FCCY_FCCG_8 -0.55
    FCCIN_CR07_8 FCCY_LCO_8 -0.2
    FCCIN_CR07_8 FCCY_FLPG_8 -0.15
    FCCIN_CR07_8 FCCY_SLURRY_8 -0.07
    FCCIN_CR08_8 OBJ -2.5
    FCCIN_CR08_8 VGOBAL_CR08_8 -1.0
    FCCIN_CR08_8 FCCCAP_8 1.0
    FCCIN_CR08_8 FCCY_FCCG_8 -0.55
    FCCIN_CR08_8 FCCY_LCO_8 -0.2
    FCCIN_CR08_8 FCCY_FLPG_8 -0.15
    FCCIN_CR08_8 FCCY_SLURRY_8 -0.07
    FCCIN_CR09_8 OBJ -2.5
    FCCIN_CR09_8 VGOBAL_CR09_8 -1.0
    FCCIN_CR09_8 FCCCAP_8 1.0
    FCCIN_CR09_8 FCCY_FCCG_8 -0.55
    FCCIN_CR09_8 FCCY_LCO_8 -0.2
    FCCIN_CR09_8 FCCY_FLPG_8 -0.15
    FCCIN_CR09_8 FCCY_SLURRY_8 -0.07
    FCCIN_CR10_8 OBJ -2.5
    FCCIN_CR10_8 VGOBAL_CR10_8 -1.0
    FCCIN_CR10_8 FCCCAP_8 1.0
    FCCIN_CR10_8 FCCY_FCCG_8 -0.55
    FCCIN_CR10_8 FCCY_LCO_8 -0.2
    FCCIN_CR10_8 FCCY_FLPG_8 -0.15
    FCCIN_CR10_8 FCCY_SLURRY_8 -0.07
    FCCIN_CR11_8 OBJ -2.5
    FCCIN_CR11_8 VGOBAL_CR11_8 -1.0
    FCCIN_CR11_8 FCCCAP_8 1.0
    FCCIN_CR11_8 FCCY_FCCG_8 -0.55
    FCCIN_CR11_8 FCCY_LCO_8 -0.2
    FCCIN_CR11_8 FCCY_FLPG_8 -0.15
    FCCIN_CR11_8 FCCY_SLURRY_8 -0.07
    FCCIN_CR12_8 OBJ -2.5
    FCCIN_CR12_8 VGOBAL_CR12_8 -1.0
    FCCIN_CR12_8 FCCCAP_8 1.0
    FCCIN_CR12_8 FCCY_FCCG_8 -0.55
    FCCIN_CR12_8 FCCY_LCO_8 -0.2
    FCCIN_CR12_8 FCCY_FLPG_8 -0.15
    FCCIN_CR12_8 FCCY_SLURRY_8 -0.07
    FCCIN_CR13_8 OBJ -2.5
    FCCIN_CR13_8 VGOBAL_CR13_8 -1.0
    FCCIN_CR13_8 FCCCAP_8 1.0
    FCCIN_CR13_8 FCCY_FCCG_8 -0.55
    FCCIN_CR13_8 FCCY_LCO_8 -0.2
    FCCIN_CR13_8 FCCY_FLPG_8 -0.15
    FCCIN_CR13_8 FCCY_SLURRY_8 -0.07
    FCCIN_CR14_8 OBJ -2.5
    FCCIN_CR14_8 VGOBAL_CR14_8 -1.0
    FCCIN_CR14_8 FCCCAP_8 1.0
    FCCIN_CR14_8 FCCY_FCCG_8 -0.55
    FCCIN_CR14_8 FCCY_LCO_8 -0.2
    FCCIN_CR14_8 FCCY_FLPG_8 -0.15
    FCCIN_CR14_8 FCCY_SLURRY_8 -0.07
    FCCIN_CR15_8 OBJ -2.5
    FCCIN_CR15_8 VGOBAL_CR15_8 -1.0
    FCCIN_CR15_8 FCCCAP_8 1.0
    FCCIN_CR15_8 FCCY_FCCG_8 -0.55
    FCCIN_CR15_8 FCCY_LCO_8 -0.2
    FCCIN_CR15_8 FCCY_FLPG_8 -0.15
    FCCIN_CR15_8 FCCY_SLURRY_8 -0.07
    FCCIN_CR16_8 OBJ -2.5
    FCCIN_CR16_8 VGOBAL_CR16_8 -1.0
    FCCIN_CR16_8 FCCCAP_8 1.0
    FCCIN_CR16_8 FCCY_FCCG_8 -0.55
    FCCIN_CR16_8 FCCY_LCO_8 -0.2
    FCCIN_CR16_8 FCCY_FLPG_8 -0.15
    FCCIN_CR16_8 FCCY_SLURRY_8 -0.07
    FCCIN_CR17_8 OBJ -2.5
    FCCIN_CR17_8 VGOBAL_CR17_8 -1.0
    FCCIN_CR17_8 FCCCAP_8 1.0
    FCCIN_CR17_8 FCCY_FCCG_8 -0.55
    FCCIN_CR17_8 FCCY_LCO_8 -0.2
    FCCIN_CR17_8 FCCY_FLPG_8 -0.15
    FCCIN_CR17_8 FCCY_SLURRY_8 -0.07
    FCCIN_CR18_8 OBJ -2.5
    FCCIN_CR18_8 VGOBAL_CR18_8 -1.0
    FCCIN_CR18_8 FCCCAP_8 1.0
    FCCIN_CR18_8 FCCY_FCCG_8 -0.55
    FCCIN_CR18_8 FCCY_LCO_8 -0.2
    FCCIN_CR18_8 FCCY_FLPG_8 -0.15
    FCCIN_CR18_8 FCCY_SLURRY_8 -0.07
    FCCIN_CR19_8 OBJ -2.5
    FCCIN_CR19_8 VGOBAL_CR19_8 -1.0
    FCCIN_CR19_8 FCCCAP_8 1.0
    FCCIN_CR19_8 FCCY_FCCG_8 -0.55
    FCCIN_CR19_8 FCCY_LCO_8 -0.2
    FCCIN_CR19_8 FCCY_FLPG_8 -0.15
    FCCIN_CR19_8 FCCY_SLURRY_8 -0.07
    FCCG_8 FCCY_FCCG_8 1.0
    FCCG_8 GASBAL_8 -1.0
    FCCG_8 GASRON_8 1.0
    LCO_8 FCCY_LCO_8 1.0
    LCO_8 LCOBAL_8 1.0
    FLPG_8 FCCY_FLPG_8 1.0
    FLPG_8 LPGBAL_8 -1.0
    SLURRY_8 FCCY_SLURRY_8 1.0
    SLURRY_8 FOBAL_8 -1.0
    SLURRY_8 FOSUL_8 -1.5
    REFIN_CR00_8 OBJ -3.0
    REFIN_CR00_8 NAPBAL_CR00_8 -1.0
    REFIN_CR00_8 REFCAP_8 1.0
    REFIN_CR00_8 REFY_8 -0.85
    NAPGAS_CR00_8 NAPBAL_CR00_8 -1.0
    NAPGAS_CR00_8 GASBAL_8 -1.0
    NAPGAS_CR00_8 GASRON_8 -41.351908455631545
    REFIN_CR01_8 OBJ -3.0
    REFIN_CR01_8 NAPBAL_CR01_8 -1.0
    REFIN_CR01_8 REFCAP_8 1.0
    REFIN_CR01_8 REFY_8 -0.85
    NAPGAS_CR01_8 NAPBAL_CR01_8 -1.0
    NAPGAS_CR01_8 GASBAL_8 -1.0
    NAPGAS_CR01_8 GASRON_8 -33.623043958680114
    REFIN_CR02_8 OBJ -3.0
    REFIN_CR02_8 NAPBAL_CR02_8 -1.0
    REFIN_CR02_8 REFCAP_8 1.0
    REFIN_CR02_8 REFY_8 -0.85
    NAPGAS_CR02_8 NAPBAL_CR02_8 -1.0
    NAPGAS_CR02_8 GASBAL_8 -1.0
    NAPGAS_CR02_8 GASRON_8 -39.74522208078083
    REFIN_CR03_8 OBJ -3.0
    REFIN_CR03_8 NAPBAL_CR03_8 -1.0
    REFIN_CR03_8 REFCAP_8 1.0
    REFIN_CR03_8 REFY_8 -0.85
    NAPGAS_CR03_8 NAPBAL_CR03_8 -1.0
    NAPGAS_CR03_8 GASBAL_8 -1.0
    NAPGAS_CR03_8 GASRON_8 -39.32063345179839
    REFIN_CR04_8 OBJ -3.0
    REFIN_CR04_8 NAPBAL_CR04_8 -1.0
    REFIN_CR04_8 REFCAP_8 1.0
    REFIN_CR04_8 REFY_8 -0.85
    NAPGAS_CR04_8 NAPBAL_CR04_8 -1.0
    NAPGAS_CR04_8 GASBAL_8 -1.0
    NAPGAS_CR04_8 GASRON_8 -28.06018906757886
    REFIN_CR05_8 OBJ -3.0
    REFIN_CR05_8 NAPBAL_CR05_8 -1.0
    REFIN_CR05_8 REFCAP_8 1.0
    REFIN_CR05_8 REFY_8 -0.85
    NAPGAS_CR05_8 NAPBAL_CR05_8 -1.0
    NAPGAS_CR05_8 GASBAL_8 -1.0
    NAPGAS_CR05_8 GASRON_8 -37.177062383933254
    REFIN_CR06_8 OBJ -3.0
    REFIN_CR06_8 NAPBAL_CR06_8 -1.0
    REFIN_CR06_8 REFCAP_8 1.0
    REFIN_CR06_8 REFY_8 -0.85
    NAPGAS_CR06_8 NAPBAL_CR06_8 -1.0
    NAPGAS_CR06_8 GASBAL_8 -1.0
    NAPGAS_CR06_8 GASRON_8 -38.73738801284508
    REFIN_CR07_8 OBJ -3.0
    REFIN_CR07_8 NAPBAL_CR07_8 -1.0
    REFIN_CR07_8 REFCAP_8 1.0
    REFIN_CR07_8 REFY_8 -0.85
    NAPGAS_CR07_8 NAPBAL_CR07_8 -1.0
    NAPGAS_CR07_8 GASBAL_8 -1.0
    NAPGAS_CR07_8 GASRON_8 -31.720911449683953
    REFIN_CR08_8 OBJ -3.0
    REFIN_CR08_8 NAPBAL_CR08_8 -1.0
    REFIN_CR08_8 REFCAP_8 1.0
    REFIN_CR08_8 REFY_8 -0.85
    NAPGAS_CR08_8 NAPBAL_CR08_8 -1.0
    NAPGAS_CR08_8 GASBAL_8 -1.0
    NAPGAS_CR08_8 GASRON_8 -31.236267605063702
    REFIN_CR09_8 OBJ -3.0
    REFIN_CR09_8 NAPBAL_CR09_8 -1.0
    REFIN_CR09_8 REFCAP_8 1.0
    REFIN_CR09_8 REFY_8 -0.85
    NAPGAS_CR09_8 NAPBAL_CR09_8 -1.0
    NAPGAS_CR09_8 GASBAL_8 -1.0
    NAPGAS_CR09_8 GASRON_8 -29.9151768258086
    REFIN_CR10_8 OBJ -3.0
    REFIN_CR10_8 NAPBAL_CR10_8 -1.0
    REFIN_CR10_8 REFCAP_8 1.0
    REFIN_CR10_8 REFY_8 -0.85
    NAPGAS_CR10_8 NAPBAL_CR10_8 -1.0
    NAPGAS_CR10_8 GASBAL_8 -1.0
    NAPGAS_CR10_8 GASRON_8 -38.641707010486826
    REFIN_CR11_8 OBJ -3.0
    REFIN_CR11_8 NAPBAL_CR11_8 -1.0
    REFIN_CR11_8 REFCAP_8 1.0
    REFIN_CR11_8 REFY_8 -0.85
    NAPGAS_CR11_8 NAPBAL_CR11_8 -1.0
    NAPGAS_CR11_8 GASBAL_8 -1.0
    NAPGAS_CR11_8 GASRON_8 -31.364398664025877
    REFIN_CR12_8 OBJ -3.0
    REFIN_CR12_8 NAPBAL_CR12_8 -1.0
    REFIN_CR12_8 REFCAP_8 1.0
    REFIN_CR12_8 REFY_8 -0.85
    NAPGAS_CR12_8 NAPBAL_CR12_8 -1.0
    NAPGAS_CR12_8 GASBAL_8 -1.0
    NAPGAS_CR12_8 GASRON_8 -36.44295305412478
    REFIN_CR13_8 OBJ -3.0
    REFIN_CR13_8 NAPBAL_CR13_8 -1.0
    REFIN_CR13_8 REFCAP_8 1.0
    REFIN_CR13_8 REFY_8 -0.85
    NAPGAS_CR13_8 NAPBAL_CR13_8 -1.0
    NAPGAS_CR13_8 GASBAL_8 -1.0
    NAPGAS_CR13_8 GASRON_8 -36.368722409916884
    REFIN_CR14_8 OBJ -3.0
    REFIN_CR14_8 NAPBAL_CR14_8 -1.0
    REFIN_CR14_8 REFCAP_8 1.0
    REFIN_CR14_8 REFY_8 -0.85
    NAPGAS_CR14_8 NAPBAL_CR14_8 -1.0
    NAPGAS_CR14_8 GASBAL_8 -1.0
    NAPGAS_CR14_8 GASRON_8 -37.837781635780814
    REFIN_CR15_8 OBJ -3.0
    REFIN_CR15_8 NAPBAL_CR15_8 -1.0
    REFIN_CR15_8 REFCAP_8 1.0
    REFIN_CR15_8 REFY_8 -0.85
    NAPGAS_CR15_8 NAPBAL_CR15_8 -1.0
    NAPGAS_CR15_8 GASBAL_8 -1.0
    NAPGAS_CR15_8 GASRON_8 -36.91743369949054
    REFIN_CR16_8 OBJ -3.0
    REFIN_CR16_8 NAPBAL_CR16_8 -1.0
    REFIN_CR16_8 REFCAP_8 1.0
    REFIN_CR16_8 REFY_8 -0.85
    NAPGAS_CR16_8 NAPBAL_CR16_8 -1.0
    NAPGAS_CR16_8 GASBAL_8 -1.0
    NAPGAS_CR16_8 GASRON_8 -32.43244486749426
    REFIN_CR17_8 OBJ -3.0
    REFIN_CR17_8 NAPBAL_CR17_8 -1.0
    REFIN_CR17_8 REFCAP_8 1.0
    REFIN_CR17_8 REFY_8 -0.85
    NAPGAS_CR17_8 NAPBAL_CR17_8 -1.0
    NAPGAS_CR17_8 GASBAL_8 -1.0
    NAPGAS_CR17_8 GASRON_8 -32.30218201355821
    REFIN_CR18_8 OBJ -3.0
    REFIN_CR18_8 NAPBAL_CR18_8 -1.0
    REFIN_CR18_8 REFCAP_8 1.0
    REFIN_CR18_8 REFY_8 -0.85
    NAPGAS_CR18_8 NAPBAL_CR18_8 -1.0
    NAPGAS_CR18_8 GASBAL_8 -1.0
    NAPGAS_CR18_8 GASRON_8 -30.280860643235343
    REFIN_CR19_8 OBJ -3.0
    REFIN_CR19_8 NAPBAL_CR19_8 -1.0
    REFIN_CR19_8 REFCAP_8 1.0
    REFIN_CR19_8 REFY_8 -0.85
    NAPGAS_CR19_8 NAPBAL_CR19_8 -1.0
    NAPGAS_CR19_8 GASBAL_8 -1.0
    NAPGAS_CR19_8 GASRON_8 -35.8435432887995
    REFORMATE_8 REFY_8 1.0
    REFORMATE_8 GASBAL_8 -1.0
    REFORMATE_8 GASRON_8 7.0
    DHTIN_CR00_8 OBJ -2.0
    DHTIN_CR00_8 DSLBAL_CR00_8 -1.0
    DHTIN_CR00_8 DHTCAP_8 1.0
    DHTIN_CR00_8 DHTY_8 -0.98
    DSLDIR_CR00_8 DSLBAL_CR00_8 -1.0
    DSLDIR_CR00_8 DSLPB_8 -1.0
    DSLDIR_CR00_8 DSLSUL_8 1.5862267507032528
    DHTIN_CR01_8 OBJ -2.0
    DHTIN_CR01_8 DSLBAL_CR01_8 -1.0
    DHTIN_CR01_8 DHTCAP_8 1.0
    DHTIN_CR01_8 DHTY_8 -0.98
    DSLDIR_CR01_8 DSLBAL_CR01_8 -1.0
    DSLDIR_CR01_8 DSLPB_8 -1.0
    DSLDIR_CR01_8 DSLSUL_8 0.8149467463033994
    DHTIN_CR02_8 OBJ -2.0
    DHTIN_CR02_8 DSLBAL_CR02_8 -1.0
    DHTIN_CR02_8 DHTCAP_8 1.0
    DHTIN_CR02_8 DHTY_8 -0.98
    DSLDIR_CR02_8 DSLBAL_CR02_8 -1.0
    DSLDIR_CR02_8 DSLPB_8 -1.0
    DSLDIR_CR02_8 DSLSUL_8 1.0170271993959037
    DHTIN_CR03_8 OBJ -2.0
    DHTIN_CR03_8 DSLBAL_CR03_8 -1.0
    DHTIN_CR03_8 DHTCAP_8 1.0
    DHTIN_CR03_8 DHTY_8 -0.98
    DSLDIR_CR03_8 DSLBAL_CR03_8 -1.0
    DSLDIR_CR03_8 DSLPB_8 -1.0
    DSLDIR_CR03_8 DSLSUL_8 0.4394117672662308
    DHTIN_CR04_8 OBJ -2.0
    DHTIN_CR04_8 DSLBAL_CR04_8 -1.0
    DHTIN_CR04_8 DHTCAP_8 1.0
    DHTIN_CR04_8 DHTY_8 -0.98
    DSLDIR_CR04_8 DSLBAL_CR04_8 -1.0
    DSLDIR_CR04_8 DSLPB_8 -1.0
    DSLDIR_CR04_8 DSLSUL_8 1.6095005435592393
    DHTIN_CR05_8 OBJ -2.0
    DHTIN_CR05_8 DSLBAL_CR05_8 -1.0
    DHTIN_CR05_8 DHTCAP_8 1.0
    DHTIN_CR05_8 DHTY_8 -0.98
    DSLDIR_CR05_8 DSLBAL_CR05_8 -1.0
    DSLDIR_CR05_8 DSLPB_8 -1.0
    DSLDIR_CR05_8 DSLSUL_8 1.1028999274270206
    DHTIN_CR06_8 OBJ -2.0
    DHTIN_CR06_8 DSLBAL_CR06_8 -1.0
    DHTIN_CR06_8 DHTCAP_8 1.0
    DHTIN_CR06_8 DHTY_8 -0.98
    DSLDIR_CR06_8 DSLBAL_CR06_8 -1.0
    DSLDIR_CR06_8 DSLPB_8 -1.0
    DSLDIR_CR06_8 DSLSUL_8 1.0307656961819645
    DHTIN_CR07_8 OBJ -2.0
    DHTIN_CR07_8 DSLBAL_CR07_8 -1.0
    DHTIN_CR07_8 DHTCAP_8 1.0
    DHTIN_CR07_8 DHTY_8 -0.98
    DSLDIR_CR07_8 DSLBAL_CR07_8 -1.0
    DSLDIR_CR07_8 DSLPB_8 -1.0
    DSLDIR_CR07_8 DSLSUL_8 0.06500943297844713
    DHTIN_CR08_8 OBJ -2.0
    DHTIN_CR08_8 DSLBAL_CR08_8 -1.0
    DHTIN_CR08_8 DHTCAP_8 1.0
    DHTIN_CR08_8 DHTY_8 -0.98
    DSLDIR_CR08_8 DSLBAL_CR08_8 -1.0
    DSLDIR_CR08_8 DSLPB_8 -1.0
    DSLDIR_CR08_8 DSLSUL_8 1.0136884541165885
    DHTIN_CR09_8 OBJ -2.0
    DHTIN_CR09_8 DSLBAL_CR09_8 -1.0
    DHTIN_CR09_8 DHTCAP_8 1.0
    DHTIN_CR09_8 DHTY_8 -0.98
    DSLDIR_CR09_8 DSLBAL_CR09_8 -1.0
    DSLDIR_CR09_8 DSLPB_8 -1.0
    DSLDIR_CR09_8 DSLSUL_8 0.020618980777730833
    DHTIN_CR10_8 OBJ -2.0
    DHTIN_CR10_8 DSLBAL_CR10_8 -1.0
    DHTIN_CR10_8 DHTCAP_8 1.0
    DHTIN_CR10_8 DHTY_8 -0.98
    DSLDIR_CR10_8 DSLBAL_CR10_8 -1.0
    DSLDIR_CR10_8 DSLPB_8 -1.0
    DSLDIR_CR10_8 DSLSUL_8 1.62821888862855
    DHTIN_CR11_8 OBJ -2.0
    DHTIN_CR11_8 DSLBAL_CR11_8 -1.0
    DHTIN_CR11_8 DHTCAP_8 1.0
    DHTIN_CR11_8 DHTY_8 -0.98
    DSLDIR_CR11_8 DSLBAL_CR11_8 -1.0
    DSLDIR_CR11_8 DSLPB_8 -1.0
    DSLDIR_CR11_8 DSLSUL_8 0.8621530481854874
    DHTIN_CR12_8 OBJ -2.0
    DHTIN_CR12_8 DSLBAL_CR12_8 -1.0
    DHTIN_CR12_8 DHTCAP_8 1.0
    DHTIN_CR12_8 DHTY_8 -0.98
    DSLDIR_CR12_8 DSLBAL_CR12_8 -1.0
    DSLDIR_CR12_8 DSLPB_8 -1.0
    DSLDIR_CR12_8 DSLSUL_8 1.5756453880298185
    DHTIN_CR13_8 OBJ -2.0
    DHTIN_CR13_8 DSLBAL_CR13_8 -1.0
    DHTIN_CR13_8 DHTCAP_8 1.0
    DHTIN_CR13_8 DHTY_8 -0.98
    DSLDIR_CR13_8 DSLBAL_CR13_8 -1.0
    DSLDIR_CR13_8 DSLPB_8 -1.0
    DSLDIR_CR13_8 DSLSUL_8 0.13929860406737604
    DHTIN_CR14_8 OBJ -2.0
    DHTIN_CR14_8 DSLBAL_CR14_8 -1.0
    DHTIN_CR14_8 DHTCAP_8 1.0
    DHTIN_CR14_8 DHTY_8 -0.98
    DSLDIR_CR14_8 DSLBAL_CR14_8 -1.0
    DSLDIR_CR14_8 DSLPB_8 -1.0
    DSLDIR_CR14_8 DSLSUL_8 0.7289962148563339
    DHTIN_CR15_8 OBJ -2.0
    DHTIN_CR15_8 DSLBAL_CR15_8 -1.0
    DHTIN_CR15_8 DHTCAP_8 1.0
    DHTIN_CR15_8 DHTY_8 -0.98
    DSLDIR_CR15_8 DSLBAL_CR15_8 -1.0
    DSLDIR_CR15_8 DSLPB_8 -1.0
    DSLDIR_CR15_8 DSLSUL_8 0.0432280087396993
    DHTIN_CR16_8 OBJ -2.0
    DHTIN_CR16_8 DSLBAL_CR16_8 -1.0
    DHTIN_CR16_8 DHTCAP_8 1.0
    DHTIN_CR16_8 DHTY_8 -0.98
    DSLDIR_CR16_8 DSLBAL_CR16_8 -1.0
    DSLDIR_CR16_8 DSLPB_8 -1.0
    DSLDIR_CR16_8 DSLSUL_8 0.970875101525871
    DHTIN_CR17_8 OBJ -2.0
    DHTIN_CR17_8 DSLBAL_CR17_8 -1.0
    DHTIN_CR17_8 DHTCAP_8 1.0
    DHTIN_CR17_8 DHTY_8 -0.98
    DSLDIR_CR17_8 DSLBAL_CR17_8 -1.0
    DSLDIR_CR17_8 DSLPB_8 -1.0
    DSLDIR_CR17_8 DSLSUL_8 1.6384936942773962
    DHTIN_CR18_8 OBJ -2.0
    DHTIN_CR18_8 DSLBAL_CR18_8 -1.0
    DHTIN_CR18_8 DHTCAP_8 1.0
    DHTIN_CR18_8 DHTY_8 -0.98
    DSLDIR_CR18_8 DSLBAL_CR18_8 -1.0
    DSLDIR_CR18_8 DSLPB_8 -1.0
    DSLDIR_CR18_8 DSLSUL_8 0.08052474691335985
    DHTIN_CR19_8 OBJ -2.0
    DHTIN_CR19_8 DSLBAL_CR19_8 -1.0
    DHTIN_CR19_8 DHTCAP_8 1.0
    DHTIN_CR19_8 DHTY_8 -0.98
    DSLDIR_CR19_8 DSLBAL_CR19_8 -1.0
    DSLDIR_CR19_8 DSLPB_8 -1.0
    DSLDIR_CR19_8 DSLSUL_8 0.6552914452864763
    LCODHT_8 LCOBAL_8 -1.0
    LCODHT_8 DHTCAP_8 1.0
    LCODHT_8 DHTY_8 -0.95
    LCOFO_8 LCOBAL_8 -1.0
    LCOFO_8 FOBAL_8 -1.0
    LCOFO_8 FOSUL_8 -2.5
    ULSD_8 DHTY_8 1.0
    ULSD_8 DSLPB_8 -1.0
    ULSD_8 DSLSUL_8 -0.049
    SELL_LPG_8 OBJ 50.23686027918559
    SELL_LPG_8 PBAL_LPG_8 -1.0
    SELL_LPG_8 DMAX_LPG_8 1.0
    SELL_LPG_8 DMIN_LPG_8 1.0
    SELL_GAS_8 OBJ 95.9067332602634
    SELL_GAS_8 PBAL_GAS_8 -1.0
    SELL_GAS_8 DMAX_GAS_8 1.0
    SELL_GAS_8 DMIN_GAS_8 1.0
    SELL_JET_8 OBJ 91.33974596215562
    SELL_JET_8 PBAL_JET_8 -1.0
    SELL_JET_8 DMAX_JET_8 1.0
    SELL_JET_8 DMIN_JET_8 1.0
    SELL_DSL_8 OBJ 89.5129510429125
    SELL_DSL_8 PBAL_DSL_8 -1.0
    SELL_DSL_8 DMAX_DSL_8 1.0
    SELL_DSL_8 DMIN_DSL_8 1.0
    SELL_FO_8 OBJ 54.80384757729337
    SELL_FO_8 PBAL_FO_8 -1.0
    SELL_FO_8 DMAX_FO_8 1.0
    SELL_FO_8 DMIN_FO_8 1.0
    PINV_LPG_8 OBJ -0.5
    PINV_LPG_8 PBAL_LPG_8 -1.0
    PINV_LPG_8 PBAL_LPG_9 1.0
    PINV_GAS_8 OBJ -0.5
    PINV_GAS_8 PBAL_GAS_8 -1.0
    PINV_GAS_8 PBAL_GAS_9 1.0
    PINV_JET_8 OBJ -0.5
    PINV_JET_8 PBAL_JET_8 -1.0
    PINV_JET_8 PBAL_JET_9 1.0
    PINV_DSL_8 OBJ -0.5
    PINV_DSL_8 PBAL_DSL_8 -1.0
    PINV_DSL_8 PBAL_DSL_9 1.0
    PINV_FO_8 OBJ -0.5
    PINV_FO_8 PBAL_FO_8 -1.0
    PINV_FO_8 PBAL_FO_9 1.0
    SHORT_LPG_8 OBJ -400.0
    SHORT_LPG_8 DMIN_LPG_8 1.0
    SHORT_GAS_8 OBJ -400.0
    SHORT_GAS_8 DMIN_GAS_8 1.0
    SHORT_JET_8 OBJ -400.0
    SHORT_JET_8 DMIN_JET_8 1.0
    SHORT_DSL_8 OBJ -400.0
    SHORT_DSL_8 DMIN_DSL_8 1.0
    SHORT_FO_8 OBJ -400.0
    SHORT_FO_8 DMIN_FO_8 1.0
    GASPOOL_8 GASBAL_8 1.0
    GASPOOL_8 PBAL_GAS_8 1.0
    JETPOOL_8 JETBAL_8 1.0
    JETPOOL_8 PBAL_JET_8 1.0
    KERJET_CR00_8 KERBAL_CR00_8 -1.0
    KERJET_CR00_8 JETBAL_8 -1.0
    KERJET_CR00_8 JETSUL_8 0.10905668767581322
    KERDSL_CR00_8 KERBAL_CR00_8 -1.0
    KERDSL_CR00_8 DSLPB_8 -1.0
    KERDSL_CR00_8 DSLSUL_8 0.3590566876758132
    KERJET_CR01_8 KERBAL_CR01_8 -1.0
    KERJET_CR01_8 JETBAL_8 -1.0
    KERJET_CR01_8 JETSUL_8 -0.08376331342415014
    KERDSL_CR01_8 KERBAL_CR01_8 -1.0
    KERDSL_CR01_8 DSLPB_8 -1.0
    KERDSL_CR01_8 DSLSUL_8 0.16623668657584983
    KERJET_CR02_8 KERBAL_CR02_8 -1.0
    KERJET_CR02_8 JETBAL_8 -1.0
    KERJET_CR02_8 JETSUL_8 -0.033243200151024055
    KERDSL_CR02_8 KERBAL_CR02_8 -1.0
    KERDSL_CR02_8 DSLPB_8 -1.0
    KERDSL_CR02_8 DSLSUL_8 0.21675679984897595
    KERJET_CR03_8 KERBAL_CR03_8 -1.0
    KERJET_CR03_8 JETBAL_8 -1.0
    KERJET_CR03_8 JETSUL_8 -0.17764705818344229
    KERDSL_CR03_8 KERBAL_CR03_8 -1.0
    KERDSL_CR03_8 DSLPB_8 -1.0
    KERDSL_CR03_8 DSLSUL_8 0.0723529418165577
    KERJET_CR04_8 KERBAL_CR04_8 -1.0
    KERJET_CR04_8 JETBAL_8 -1.0
    KERJET_CR04_8 JETSUL_8 0.11487513588980985
    KERDSL_CR04_8 KERBAL_CR04_8 -1.0
    KERDSL_CR04_8 DSLPB_8 -1.0
    KERDSL_CR04_8 DSLSUL_8 0.36487513588980985
    KERJET_CR05_8 KERBAL_CR05_8 -1.0
    KERJET_CR05_8 JETBAL_8 -1.0
    KERJET_CR05_8 JETSUL_8 -0.011775018143244831
    KERDSL_CR05_8 KERBAL_CR05_8 -1.0
    KERDSL_CR05_8 DSLPB_8 -1.0
    KERDSL_CR05_8 DSLSUL_8 0.23822498185675517
    KERJET_CR06_8 KERBAL_CR06_8 -1.0
    KERJET_CR06_8 JETBAL_8 -1.0
    KERJET_CR06_8 JETSUL_8 -0.029808575954508865
    KERDSL_CR06_8 KERBAL_CR06_8 -1.0
    KERDSL_CR06_8 DSLPB_8 -1.0
    KERDSL_CR06_8 DSLSUL_8 0.22019142404549114
    KERJET_CR07_8 KERBAL_CR07_8 -1.0
    KERJET_CR07_8 JETBAL_8 -1.0
    KERJET_CR07_8 JETSUL_8 -0.2712476417553882
    KERDSL_CR07_8 KERBAL_CR07_8 -1.0
    KERDSL_CR07_8 DSLPB_8 -1.0
    KERDSL_CR07_8 DSLSUL_8 -0.02124764175538822
    KERJET_CR08_8 KERBAL_CR08_8 -1.0
    KERJET_CR08_8 JETBAL_8 -1.0
    KERJET_CR08_8 JETSUL_8 -0.03407788647085286
    KERDSL_CR08_8 KERBAL_CR08_8 -1.0
    KERDSL_CR08_8 DSLPB_8 -1.0
    KERDSL_CR08_8 DSLSUL_8 0.21592211352914714
    KERJET_CR09_8 KERBAL_CR09_8 -1.0
    KERJET_CR09_8 JETBAL_8 -1.0
    KERJET_CR09_8 JETSUL_8 -0.28234525480556727
    KERDSL_CR09_8 KERBAL_CR09_8 -1.0
    KERDSL_CR09_8 DSLPB_8 -1.0
    KERDSL_CR09_8 DSLSUL_8 -0.0323452548055673
    KERJET_CR10_8 KERBAL_CR10_8 -1.0
    KERJET_CR10_8 JETBAL_8 -1.0
    KERJET_CR10_8 JETSUL_8 0.11955472215713753
    KERDSL_CR10_8 KERBAL_CR10_8 -1.0
    KERDSL_CR10_8 DSLPB_8 -1.0
    KERDSL_CR10_8 DSLSUL_8 0.3695547221571375
    KERJET_CR11_8 KERBAL_CR11_8 -1.0
    KERJET_CR11_8 JETBAL_8 -1.0
    KERJET_CR11_8 JETSUL_8 -0.07196173795362812
    KERDSL_CR11_8 KERBAL_CR11_8 -1.0
    KERDSL_CR11_8 DSLPB_8 -1.0
    KERDSL_CR11_8 DSLSUL_8 0.17803826204637185
    KERJET_CR12_8 KERBAL_CR12_8 -1.0
    KERJET_CR12_8 JETBAL_8 -1.0
    KERJET_CR12_8 JETSUL_8 0.10641134700745464
    KERDSL_CR12_8 KERBAL_CR12_8 -1.0
    KERDSL_CR12_8 DSLPB_8 -1.0
    KERDSL_CR12_8 DSLSUL_8 0.35641134700745464
    KERJET_CR13_8 KERBAL_CR13_8 -1.0
    KERJET_CR13_8 JETBAL_8 -1.0
    KERJET_CR13_8 JETSUL_8 -0.25267534898315597
    KERDSL_CR13_8 KERBAL_CR13_8 -1.0
    KERDSL_CR13_8 DSLPB_8 -1.0
    KERDSL_CR13_8 DSLSUL_8 -0.002675348983155995
    KERJET_CR14_8 KERBAL_CR14_8 -1.0
    KERJET_CR14_8 JETBAL_8 -1.0
    KERJET_CR14_8 JETSUL_8 -0.1052509462859165
    KERDSL_CR14_8 KERBAL_CR14_8 -1.0
    KERDSL_CR14_8 DSLPB_8 -1.0
    KERDSL_CR14_8 DSLSUL_8 0.14474905371408348
    KERJET_CR15_8 KERBAL_CR15_8 -1.0
    KERJET_CR15_8 JETBAL_8 -1.0
    KERJET_CR15_8 JETSUL_8 -0.27669299781507517
    KERDSL_CR15_8 KERBAL_CR15_8 -1.0
    KERDSL_CR15_8 DSLPB_8 -1.0
    KERDSL_CR15_8 DSLSUL_8 -0.026692997815075177
    KERJET_CR16_8 KERBAL_CR16_8 -1.0
    KERJET_CR16_8 JETBAL_8 -1.0
    KERJET_CR16_8 JETSUL_8 -0.044781224618532234
    KERDSL_CR16_8 KERBAL_CR16_8 -1.0
    KERDSL_CR16_8 DSLPB_8 -1.0
    KERDSL_CR16_8 DSLSUL_8 0.20521877538146777
    KERJET_CR17_8 KERBAL_CR17_8 -1.0
    KERJET_CR17_8 JETBAL_8 -1.0
    KERJET_CR17_8 JETSUL_8 0.12212342356934908
    KERDSL_CR17_8 KERBAL_CR17_8 -1.0
    KERDSL_CR17_8 DSLPB_8 -1.0
    KERDSL_CR17_8 DSLSUL_8 0.3721234235693491
    KERJET_CR18_8 KERBAL_CR18_8 -1.0
    KERJET_CR18_8 JETBAL_8 -1.0
    KERJET_CR18_8 JETSUL_8 -0.26736881327166
    KERDSL_CR18_8 KERBAL_CR18_8 -1.0
    KERDSL_CR18_8 DSLPB_8 -1.0
    KERDSL_CR18_8 DSLSUL_8 -0.01736881327166004
    KERJET_CR19_8 KERBAL_CR19_8 -1.0
    KERJET_CR19_8 JETBAL_8 -1.0
    KERJET_CR19_8 JETSUL_8 -0.1236771386783809
    KERDSL_CR19_8 KERBAL_CR19_8 -1.0
    KERDSL_CR19_8 DSLPB_8 -1.0
    KERDSL_CR19_8 DSLSUL_8 0.12632286132161907
    DSLPOOL_8 DSLPB_8 1.0
    DSLPOOL_8 PBAL_DSL_8 1.0
    LPGPOOL_8 LPGBAL_8 1.0
    LPGPOOL_8 PBAL_LPG_8 1.0
    FOPOOL_8 FOBAL_8 1.0
    FOPOOL_8 PBAL_FO_8 1.0
    BUY_CR00_9 OBJ -54.401017515970935
    BUY_CR00_9 CBAL_CR00_9 1.0
    CINV_CR00_9 OBJ -0.3
    CINV_CR00_9 CBAL_CR00_9 -1.0
    CINV_CR00_9 CBAL_CR00_10 1.0
    CDU_CR00_9 CBAL_CR00_9 -1.0
    CDU_CR00_9 CDUCAP_9 1.0
    CDU_CR00_9 YLPG_CR00_9 -0.013786055933968056
    CDU_CR00_9 YNAP_CR00_9 -0.1214444916358349
    CDU_CR00_9 YKER_CR00_9 -0.10646372452567733
    CDU_CR00_9 YDSL_CR00_9 -0.20292085263352289
    CDU_CR00_9 YVGO_CR00_9 -0.27390944719057636
    CDU_CR00_9 YRES_CR00_9 -0.28147542808042036
    BUY_CR01_9 OBJ -69.8384596189594
    BUY_CR01_9 CBAL_CR01_9 1.0
    CINV_CR01_9 OBJ -0.3
    CINV_CR01_9 CBAL_CR01_9 -1.0
    CINV_CR01_9 CBAL_CR01_10 1.0
    CDU_CR01_9 CBAL_CR01_9 -1.0
    CDU_CR01_9 CDUCAP_9 1.0
    CDU_CR01_9 YLPG_CR01_9 -0.025127543584387436
    CDU_CR01_9 YNAP_CR01_9 -0.2025917905849106
    CDU_CR01_9 YKER_CR01_9 -0.13410952106049506
    CDU_CR01_9 YDSL_CR01_9 -0.24728591651278542
    CDU_CR01_9 YVGO_CR01_9 -0.22897185950088417
    CDU_CR01_9 YRES_CR01_9 -0.16191336875653717
    BUY_CR02_9 OBJ -57.17972032517715
    BUY_CR02_9 CBAL_CR02_9 1.0
    CINV_CR02_9 OBJ -0.3
    CINV_CR02_9 CBAL_CR02_9 -1.0
    CINV_CR02_9 CBAL_CR02_10 1.0
    CDU_CR02_9 CBAL_CR02_9 -1.0
    CDU_CR02_9 CDUCAP_9 1.0
    CDU_CR02_9 YLPG_CR02_9 -0.013444753666275039
    CDU_CR02_9 YNAP_CR02_9 -0.11889710072836579
    CDU_CR02_9 YKER_CR02_9 -0.103840437143255
    CDU_CR02_9 YDSL_CR02_9 -0.21229612809407214
    CDU_CR02_9 YVGO_CR02_9 -0.2628713956905896
    CDU_CR02_9 YRES_CR02_9 -0.28865018467744247
    BUY_CR03_9 OBJ -63.13613649907583
    BUY_CR03_9 CBAL_CR03_9 1.0
    CINV_CR03_9 OBJ -0.3
    CINV_CR03_9 CBAL_CR03_9 -1.0
    CINV_CR03_9 CBAL_CR03_10 1.0
    CDU_CR03_9 CBAL_CR03_9 -1.0
    CDU_CR03_9 CDUCAP_9 1.0
    CDU_CR03_9 YLPG_CR03_9 -0.01400858068810675
    CDU_CR03_9 YNAP_CR03_9 -0.1424923117986131
    CDU_CR03_9 YKER_CR03_9 -0.10784088582669263
    CDU_CR03_9 YDSL_CR03_9 -0.19279120630762445
    CDU_CR03_9 YVGO_CR03_9 -0.28544626211923063
    CDU_CR03_9 YRES_CR03_9 -0.2574207532597324
    BUY_CR04_9 OBJ -67.75819295470711
    BUY_CR04_9 CBAL_CR04_9 1.0
    CINV_CR04_9 OBJ -0.3
    CINV_CR04_9 CBAL_CR04_9 -1.0
    CINV_CR04_9 CBAL_CR04_10 1.0
    CDU_CR04_9 CBAL_CR04_9 -1.0
    CDU_CR04_9 CDUCAP_9 1.0
    CDU_CR04_9 YLPG_CR04_9 -0.02335213093765316
    CDU_CR04_9 YNAP_CR04_9 -0.2292355396921612
    CDU_CR04_9 YKER_CR04_9 -0.14240695851543803
    CDU_CR04_9 YDSL_CR04_9 -0.24384363627499198
    CDU_CR04_9 YVGO_CR04_9 -0.2465326974706559
    CDU_CR04_9 YRES_CR04_9 -0.1146290371090997
    BUY_CR05_9 OBJ -61.78658162278281
    BUY_CR05_9 CBAL_CR05_9 1.0
    CINV_CR05_9 OBJ -0.3
    CINV_CR05_9 CBAL_CR05_9 -1.0
    CINV_CR05_9 CBAL_CR05_10 1.0
    CDU_CR05_9 CBAL_CR05_9 -1.0
    CDU_CR05_9 CDUCAP_9 1.0
    CDU_CR05_9 YLPG_CR05_9 -0.01735729802728813
    CDU_CR05_9 YNAP_CR05_9 -0.16608619710065003
    CDU_CR05_9 YKER_CR05_9 -0.1170544437563835
    CDU_CR05_9 YDSL_CR05_9 -0.22299235889970878
    CDU_CR05_9 YVGO_CR05_9 -0.2433490540516293
    CDU_CR05_9 YRES_CR05_9 -0.23316064816434035
    BUY_CR06_9 OBJ -59.124015423350144
    BUY_CR06_9 CBAL_CR06_9 1.0
    CINV_CR06_9 OBJ -0.3
    CINV_CR06_9 CBAL_CR06_9 -1.0
    CINV_CR06_9 CBAL_CR06_10 1.0
    CDU_CR06_9 CBAL_CR06_9 -1.0
    CDU_CR06_9 CDUCAP_9 1.0
    CDU_CR06_9 YLPG_CR06_9 -0.014219474855875663
    CDU_CR06_9 YNAP_CR06_9 -0.13746806025500902
    CDU_CR06_9 YKER_CR06_9 -0.10533897185985656
    CDU_CR06_9 YDSL_CR06_9 -0.20403840195434858
    CDU_CR06_9 YVGO_CR06_9 -0.26484358994429863
    CDU_CR06_9 YRES_CR06_9 -0.27409150113061165
    BUY_CR07_9 OBJ -67.71984129544485
    BUY_CR07_9 CBAL_CR07_9 1.0
    CINV_CR07_9 OBJ -0.3
    CINV_CR07_9 CBAL_CR07_9 -1.0
    CINV_CR07_9 CBAL_CR07_10 1.0
    CDU_CR07_9 CBAL_CR07_9 -1.0
    CDU_CR07_9 CDUCAP_9 1.0
    CDU_CR07_9 YLPG_CR07_9 -0.01678766142162217
    CDU_CR07_9 YNAP_CR07_9 -0.18341674311422207
    CDU_CR07_9 YKER_CR07_9 -0.13271469159016522
    CDU_CR07_9 YDSL_CR07_9 -0.2249127244045356
    CDU_CR07_9 YVGO_CR07_9 -0.24848613807316539
    CDU_CR07_9 YRES_CR07_9 -0.19368204139628944
    BUY_CR08_9 OBJ -65.69352321401156
    BUY_CR08_9 CBAL_CR08_9 1.0
    CINV_CR08_9 OBJ -0.3
    CINV_CR08_9 CBAL_CR08_9 -1.0
    CINV_CR08_9 CBAL_CR08_10 1.0
    CDU_CR08_9 CBAL_CR08_9 -1.0
    CDU_CR08_9 CDUCAP_9 1.0
    CDU_CR08_9 YLPG_CR08_9 -0.023930881960770135
    CDU_CR08_9 YNAP_CR08_9 -0.199474063989656
    CDU_CR08_9 YKER_CR08_9 -0.13012967624359006
    CDU_CR08_9 YDSL_CR08_9 -0.24906213509239003
    CDU_CR08_9 YVGO_CR08_9 -0.24247509330512357
    CDU_CR08_9 YRES_CR08_9 -0.15492814940847022
    BUY_CR09_9 OBJ -73.87846267643953
    BUY_CR09_9 CBAL_CR09_9 1.0
    CINV_CR09_9 OBJ -0.3
    CINV_CR09_9 CBAL_CR09_9 -1.0
    CINV_CR09_9 CBAL_CR09_10 1.0
    CDU_CR09_9 CBAL_CR09_9 -1.0
    CDU_CR09_9 CDUCAP_9 1.0
    CDU_CR09_9 YLPG_CR09_9 -0.0254414593142613
    CDU_CR09_9 YNAP_CR09_9 -0.2406668892422991
    CDU_CR09_9 YKER_CR09_9 -0.14150533274546892
    CDU_CR09_9 YDSL_CR09_9 -0.23713673044274025
    CDU_CR09_9 YVGO_CR09_9 -0.23566730460149374
    CDU_CR09_9 YRES_CR09_9 -0.11958228365373665
    BUY_CR10_9 OBJ -55.08709197478667
    BUY_CR10_9 CBAL_CR10_9 1.0
    CINV_CR10_9 OBJ -0.3
    CINV_CR10_9 CBAL_CR10_9 -1.0
    CINV_CR10_9 CBAL_CR10_10 1.0
    CDU_CR10_9 CBAL_CR10_9 -1.0
    CDU_CR10_9 CDUCAP_9 1.0
    CDU_CR10_9 YLPG_CR10_9 -0.012631058640766385
    CDU_CR10_9 YNAP_CR10_9 -0.11501159644639905
    CDU_CR10_9 YKER_CR10_9 -0.1080956731900355
    CDU_CR10_9 YDSL_CR10_9 -0.20982857494392457
    CDU_CR10_9 YVGO_CR10_9 -0.2722572086368098
    CDU_CR10_9 YRES_CR10_9 -0.28217588814206473
    BUY_CR11_9 OBJ -66.48116114769925
    BUY_CR11_9 CBAL_CR11_9 1.0
    CINV_CR11_9 OBJ -0.3
    CINV_CR11_9 CBAL_CR11_9 -1.0
    CINV_CR11_9 CBAL_CR11_10 1.0
    CDU_CR11_9 CBAL_CR11_9 -1.0
    CDU_CR11_9 CDUCAP_9 1.0
    CDU_CR11_9 YLPG_CR11_9 -0.018171926805686592
    CDU_CR11_9 YNAP_CR11_9 -0.18017303538659502
    CDU_CR11_9 YKER_CR11_9 -0.11622304467804759
    CDU_CR11_9 YDSL_CR11_9 -0.22678215323461023
    CDU_CR11_9 YVGO_CR11_9 -0.2637522217068048
    CDU_CR11_9 YRES_CR11_9 -0.19489761818825582
    BUY_CR12_9 OBJ -56.151960957369596
    BUY_CR12_9 CBAL_CR12_9 1.0
    CINV_CR12_9 OBJ -0.3
    CINV_CR12_9 CBAL_CR12_9 -1.0
    CINV_CR12_9 CBAL_CR12_10 1.0
    CDU_CR12_9 CBAL_CR12_9 -1.0
    CDU_CR12_9 CDUCAP_9 1.0
    CDU_CR12_9 YLPG_CR12_9 -0.016285402257558677
    CDU_CR12_9 YNAP_CR12_9 -0.1394251111460902
    CDU_CR12_9 YKER_CR12_9 -0.10627583407346515
    CDU_CR12_9 YDSL_CR12_9 -0.2004859030026821
    CDU_CR12_9 YVGO_CR12_9 -0.29053476615254664
    CDU_CR12_9 YRES_CR12_9 -0.2469929833676572
    BUY_CR13_9 OBJ -64.88060113955198
    BUY_CR13_9 CBAL_CR13_9 1.0
    CINV_CR13_9 OBJ -0.3
    CINV_CR13_9 CBAL_CR13_9 -1.0
    CINV_CR13_9 CBAL_CR13_10 1.0
    CDU_CR13_9 CBAL_CR13_9 -1.0
    CDU_CR13_9 CDUCAP_9 1.0
    CDU_CR13_9 YLPG_CR13_9 -0.015405562084299341
    CDU_CR13_9 YNAP_CR13_9 -0.1597372095049784
    CDU_CR13_9 YKER_CR13_9 -0.109230580221756
    CDU_CR13_9 YDSL_CR13_9 -0.20799117245133522
    CDU_CR13_9 YVGO_CR13_9 -0.2743070543343612
    CDU_CR13_9 YRES_CR13_9 -0.23332842140326976
    BUY_CR14_9 OBJ -59.215789527203604
    BUY_CR14_9 CBAL_CR14_9 1.0
    CINV_CR14_9 OBJ -0.3
    CINV_CR14_9 CBAL_CR14_9 -1.0
    CINV_CR14_9 CBAL_CR14_10 1.0
    CDU_CR14_9 CBAL_CR14_9 -1.0
    CDU_CR14_9 CDUCAP_9 1.0
    CDU_CR14_9 YLPG_CR14_9 -0.011676212845503672
    CDU_CR14_9 YNAP_CR14_9 -0.10963647957865116
    CDU_CR14_9 YKER_CR14_9 -0.09755861914812415
    CDU_CR14_9 YDSL_CR14_9 -0.22400035528460593
    CDU_CR14_9 YVGO_CR14_9 -0.27985390356413214
    CDU_CR14_9 YRES_CR14_9 -0.2772744295789829
    BUY_CR15_9 OBJ -60.857892870557095
    BUY_CR15_9 CBAL_CR15_9 1.0
    CINV_CR15_9 OBJ -0.3
    CINV_CR15_9 CBAL_CR15_9 -1.0
    CINV_CR15_9 CBAL_CR15_10 1.0
    CDU_CR15_9 CBAL_CR15_9 -1.0
    CDU_CR15_9 CDUCAP_9 1.0
    CDU_CR15_9 YLPG_CR15_9 -0.010625779986084445
    CDU_CR15_9 YNAP_CR15_9 -0.11766680402271243
    CDU_CR15_9 YKER_CR15_9 -0.09531893966264804
    CDU_CR15_9 YDSL_CR15_9 -0.2087175638151306
    CDU_CR15_9 YVGO_CR15_9 -0.2798835604956035
    CDU_CR15_9 YRES_CR15_9 -0.287787352017821
    BUY_CR16_9 OBJ -65.56627265929401
    BUY_CR16_9 CBAL_CR16_9 1.0
    CINV_CR16_9 OBJ -0.3
    CINV_CR16_9 CBAL_CR16_9 -1.0
    CINV_CR16_9 CBAL_CR16_10 1.0
    CDU_CR16_9 CBAL_CR16_9 -1.0
    CDU_CR16_9 CDUCAP_9 1.0
    CDU_CR16_9 YLPG_CR16_9 -0.021730435986974463
    CDU_CR16_9 YNAP_CR16_9 -0.22346814322949868
    CDU_CR16_9 YKER_CR16_9 -0.12962692092969477
    CDU_CR16_9 YDSL_CR16_9 -0.23580083169350696
    CDU_CR16_9 YVGO_CR16_9 -0.23197545191976185
    CDU_CR16_9 YRES_CR16_9 -0.1573982162405634
    BUY_CR17_9 OBJ -65.40499382225366
    BUY_CR17_9 CBAL_CR17_9 1.0
    CINV_CR17_9 OBJ -0.3
    CINV_CR17_9 CBAL_CR17_9 -1.0
    CINV_CR17_9 CBAL_CR17_10 1.0
    CDU_CR17_9 CBAL_CR17_9 -1.0
    CDU_CR17_9 CDUCAP_9 1.0
    CDU_CR17_9 YLPG_CR17_9 -0.023568928491133005
    CDU_CR17_9 YNAP_CR17_9 -0.24678008017283823
    CDU_CR17_9 YKER_CR17_9 -0.12826932733432603
    CDU_CR17_9 YDSL_CR17_9 -0.2495178182316694
    CDU_CR17_9 YVGO_CR17_9 -0.23510202280801157
    CDU_CR17_9 YRES_CR17_9 -0.1167618229620217
    BUY_CR18_9 OBJ -73.17159563417304
    BUY_CR18_9 CBAL_CR18_9 1.0
    CINV_CR18_9 OBJ -0.3
    CINV_CR18_9 CBAL_CR18_9 -1.0
    CINV_CR18_9 CBAL_CR18_10 1.0
    CDU_CR18_9 CBAL_CR18_9 -1.0
    CDU_CR18_9 CDUCAP_9 1.0
    CDU_CR18_9 YLPG_CR18_9 -0.02478422291723085
    CDU_CR18_9 YNAP_CR18_9 -0.23955258573301338
    CDU_CR18_9 YKER_CR18_9 -0.1322077813000583
    CDU_CR18_9 YDSL_CR18_9 -0.21167154879043004
    CDU_CR18_9 YVGO_CR18_9 -0.24506150244942554
    CDU_CR18_9 YRES_CR18_9 -0.146722358809842
    BUY_CR19_9 OBJ -62.9650646968639
    BUY_CR19_9 CBAL_CR19_9 1.0
    CINV_CR19_9 OBJ -0.3
    CINV_CR19_9 CBAL_CR19_9 -1.0
    CINV_CR19_9 CBAL_CR19_10 1.0
    CDU_CR19_9 CBAL_CR19_9 -1.0
    CDU_CR19_9 CDUCAP_9 1.0
    CDU_CR19_9 YLPG_CR19_9 -0.01626067739955701
    CDU_CR19_9 YNAP_CR19_9 -0.1715066574732045
    CDU_CR19_9 YKER_CR19_9 -0.11836465284470915
    CDU_CR19_9 YDSL_CR19_9 -0.20874443204167248
    CDU_CR19_9 YVGO_CR19_9 -0.2445178967491453
    CDU_CR19_9 YRES_CR19_9 -0.24060568349171155
    LPG_CR00_9 YLPG_CR00_9 1.0
    LPG_CR00_9 LPGBAL_9 -1.0
    NAP_CR00_9 YNAP_CR00_9 1.0
    NAP_CR00_9 NAPBAL_CR00_9 1.0
    KER_CR00_9 YKER_CR00_9 1.0
    KER_CR00_9 KERBAL_CR00_9 1.0
    DSL_CR00_9 YDSL_CR00_9 1.0
    DSL_CR00_9 DSLBAL_CR00_9 1.0
    VGO_CR00_9 YVGO_CR00_9 1.0
    VGO_CR00_9 VGOBAL_CR00_9 1.0
    RES_CR00_9 YRES_CR00_9 1.0
    RES_CR00_9 RESSPLIT_CR00_9 1.0
    LPG_CR01_9 YLPG_CR01_9 1.0
    LPG_CR01_9 LPGBAL_9 -1.0
    NAP_CR01_9 YNAP_CR01_9 1.0
    NAP_CR01_9 NAPBAL_CR01_9 1.0
    KER_CR01_9 YKER_CR01_9 1.0
    KER_CR01_9 KERBAL_CR01_9 1.0
    DSL_CR01_9 YDSL_CR01_9 1.0
    DSL_CR01_9 DSLBAL_CR01_9 1.0
    VGO_CR01_9 YVGO_CR01_9 1.0
    VGO_CR01_9 VGOBAL_CR01_9 1.0
    RES_CR01_9 YRES_CR01_9 1.0
    RES_CR01_9 RESSPLIT_CR01_9 1.0
    LPG_CR02_9 YLPG_CR02_9 1.0
    LPG_CR02_9 LPGBAL_9 -1.0
    NAP_CR02_9 YNAP_CR02_9 1.0
    NAP_CR02_9 NAPBAL_CR02_9 1.0
    KER_CR02_9 YKER_CR02_9 1.0
    KER_CR02_9 KERBAL_CR02_9 1.0
    DSL_CR02_9 YDSL_CR02_9 1.0
    DSL_CR02_9 DSLBAL_CR02_9 1.0
    VGO_CR02_9 YVGO_CR02_9 1.0
    VGO_CR02_9 VGOBAL_CR02_9 1.0
    RES_CR02_9 YRES_CR02_9 1.0
    RES_CR02_9 RESSPLIT_CR02_9 1.0
    LPG_CR03_9 YLPG_CR03_9 1.0
    LPG_CR03_9 LPGBAL_9 -1.0
    NAP_CR03_9 YNAP_CR03_9 1.0
    NAP_CR03_9 NAPBAL_CR03_9 1.0
    KER_CR03_9 YKER_CR03_9 1.0
    KER_CR03_9 KERBAL_CR03_9 1.0
    DSL_CR03_9 YDSL_CR03_9 1.0
    DSL_CR03_9 DSLBAL_CR03_9 1.0
    VGO_CR03_9 YVGO_CR03_9 1.0
    VGO_CR03_9 VGOBAL_CR03_9 1.0
    RES_CR03_9 YRES_CR03_9 1.0
    RES_CR03_9 RESSPLIT_CR03_9 1.0
    LPG_CR04_9 YLPG_CR04_9 1.0
    LPG_CR04_9 LPGBAL_9 -1.0
    NAP_CR04_9 YNAP_CR04_9 1.0
    NAP_CR04_9 NAPBAL_CR04_9 1.0
    KER_CR04_9 YKER_CR04_9 1.0
    KER_CR04_9 KERBAL_CR04_9 1.0
    DSL_CR04_9 YDSL_CR04_9 1.0
    DSL_CR04_9 DSLBAL_CR04_9 1.0
    VGO_CR04_9 YVGO_CR04_9 1.0
    VGO_CR04_9 VGOBAL_CR04_9 1.0
    RES_CR04_9 YRES_CR04_9 1.0
    RES_CR04_9 RESSPLIT_CR04_9 1.0
    LPG_CR05_9 YLPG_CR05_9 1.0
    LPG_CR05_9 LPGBAL_9 -1.0
    NAP_CR05_9 YNAP_CR05_9 1.0
    NAP_CR05_9 NAPBAL_CR05_9 1.0
    KER_CR05_9 YKER_CR05_9 1.0
    KER_CR05_9 KERBAL_CR05_9 1.0
    DSL_CR05_9 YDSL_CR05_9 1.0
    DSL_CR05_9 DSLBAL_CR05_9 1.0
    VGO_CR05_9 YVGO_CR05_9 1.0
    VGO_CR05_9 VGOBAL_CR05_9 1.0
    RES_CR05_9 YRES_CR05_9 1.0
    RES_CR05_9 RESSPLIT_CR05_9 1.0
    LPG_CR06_9 YLPG_CR06_9 1.0
    LPG_CR06_9 LPGBAL_9 -1.0
    NAP_CR06_9 YNAP_CR06_9 1.0
    NAP_CR06_9 NAPBAL_CR06_9 1.0
    KER_CR06_9 YKER_CR06_9 1.0
    KER_CR06_9 KERBAL_CR06_9 1.0
    DSL_CR06_9 YDSL_CR06_9 1.0
    DSL_CR06_9 DSLBAL_CR06_9 1.0
    VGO_CR06_9 YVGO_CR06_9 1.0
    VGO_CR06_9 VGOBAL_CR06_9 1.0
    RES_CR06_9 YRES_CR06_9 1.0
    RES_CR06_9 RESSPLIT_CR06_9 1.0
    LPG_CR07_9 YLPG_CR07_9 1.0
    LPG_CR07_9 LPGBAL_9 -1.0
    NAP_CR07_9 YNAP_CR07_9 1.0
    NAP_CR07_9 NAPBAL_CR07_9 1.0
    KER_CR07_9 YKER_CR07_9 1.0
    KER_CR07_9 KERBAL_CR07_9 1.0
    DSL_CR07_9 YDSL_CR07_9 1.0
    DSL_CR07_9 DSLBAL_CR07_9 1.0
    VGO_CR07_9 YVGO_CR07_9 1.0
    VGO_CR07_9 VGOBAL_CR07_9 1.0
    RES_CR07_9 YRES_CR07_9 1.0
    RES_CR07_9 RESSPLIT_CR07_9 1.0
    LPG_CR08_9 YLPG_CR08_9 1.0
    LPG_CR08_9 LPGBAL_9 -1.0
    NAP_CR08_9 YNAP_CR08_9 1.0
    NAP_CR08_9 NAPBAL_CR08_9 1.0
    KER_CR08_9 YKER_CR08_9 1.0
    KER_CR08_9 KERBAL_CR08_9 1.0
    DSL_CR08_9 YDSL_CR08_9 1.0
    DSL_CR08_9 DSLBAL_CR08_9 1.0
    VGO_CR08_9 YVGO_CR08_9 1.0
    VGO_CR08_9 VGOBAL_CR08_9 1.0
    RES_CR08_9 YRES_CR08_9 1.0
    RES_CR08_9 RESSPLIT_CR08_9 1.0
    LPG_CR09_9 YLPG_CR09_9 1.0
    LPG_CR09_9 LPGBAL_9 -1.0
    NAP_CR09_9 YNAP_CR09_9 1.0
    NAP_CR09_9 NAPBAL_CR09_9 1.0
    KER_CR09_9 YKER_CR09_9 1.0
    KER_CR09_9 KERBAL_CR09_9 1.0
    DSL_CR09_9 YDSL_CR09_9 1.0
    DSL_CR09_9 DSLBAL_CR09_9 1.0
    VGO_CR09_9 YVGO_CR09_9 1.0
    VGO_CR09_9 VGOBAL_CR09_9 1.0
    RES_CR09_9 YRES_CR09_9 1.0
    RES_CR09_9 RESSPLIT_CR09_9 1.0
    LPG_CR10_9 YLPG_CR10_9 1.0
    LPG_CR10_9 LPGBAL_9 -1.0
    NAP_CR10_9 YNAP_CR10_9 1.0
    NAP_CR10_9 NAPBAL_CR10_9 1.0
    KER_CR10_9 YKER_CR10_9 1.0
    KER_CR10_9 KERBAL_CR10_9 1.0
    DSL_CR10_9 YDSL_CR10_9 1.0
    DSL_CR10_9 DSLBAL_CR10_9 1.0
    VGO_CR10_9 YVGO_CR10_9 1.0
    VGO_CR10_9 VGOBAL_CR10_9 1.0
    RES_CR10_9 YRES_CR10_9 1.0
    RES_CR10_9 RESSPLIT_CR10_9 1.0
    LPG_CR11_9 YLPG_CR11_9 1.0
    LPG_CR11_9 LPGBAL_9 -1.0
    NAP_CR11_9 YNAP_CR11_9 1.0
    NAP_CR11_9 NAPBAL_CR11_9 1.0
    KER_CR11_9 YKER_CR11_9 1.0
    KER_CR11_9 KERBAL_CR11_9 1.0
    DSL_CR11_9 YDSL_CR11_9 1.0
    DSL_CR11_9 DSLBAL_CR11_9 1.0
    VGO_CR11_9 YVGO_CR11_9 1.0
    VGO_CR11_9 VGOBAL_CR11_9 1.0
    RES_CR11_9 YRES_CR11_9 1.0
    RES_CR11_9 RESSPLIT_CR11_9 1.0
    LPG_CR12_9 YLPG_CR12_9 1.0
    LPG_CR12_9 LPGBAL_9 -1.0
    NAP_CR12_9 YNAP_CR12_9 1.0
    NAP_CR12_9 NAPBAL_CR12_9 1.0
    KER_CR12_9 YKER_CR12_9 1.0
    KER_CR12_9 KERBAL_CR12_9 1.0
    DSL_CR12_9 YDSL_CR12_9 1.0
    DSL_CR12_9 DSLBAL_CR12_9 1.0
    VGO_CR12_9 YVGO_CR12_9 1.0
    VGO_CR12_9 VGOBAL_CR12_9 1.0
    RES_CR12_9 YRES_CR12_9 1.0
    RES_CR12_9 RESSPLIT_CR12_9 1.0
    LPG_CR13_9 YLPG_CR13_9 1.0
    LPG_CR13_9 LPGBAL_9 -1.0
    NAP_CR13_9 YNAP_CR13_9 1.0
    NAP_CR13_9 NAPBAL_CR13_9 1.0
    KER_CR13_9 YKER_CR13_9 1.0
    KER_CR13_9 KERBAL_CR13_9 1.0
    DSL_CR13_9 YDSL_CR13_9 1.0
    DSL_CR13_9 DSLBAL_CR13_9 1.0
    VGO_CR13_9 YVGO_CR13_9 1.0
    VGO_CR13_9 VGOBAL_CR13_9 1.0
    RES_CR13_9 YRES_CR13_9 1.0
    RES_CR13_9 RESSPLIT_CR13_9 1.0
    LPG_CR14_9 YLPG_CR14_9 1.0
    LPG_CR14_9 LPGBAL_9 -1.0
    NAP_CR14_9 YNAP_CR14_9 1.0
    NAP_CR14_9 NAPBAL_CR14_9 1.0
    KER_CR14_9 YKER_CR14_9 1.0
    KER_CR14_9 KERBAL_CR14_9 1.0
    DSL_CR14_9 YDSL_CR14_9 1.0
    DSL_CR14_9 DSLBAL_CR14_9 1.0
    VGO_CR14_9 YVGO_CR14_9 1.0
    VGO_CR14_9 VGOBAL_CR14_9 1.0
    RES_CR14_9 YRES_CR14_9 1.0
    RES_CR14_9 RESSPLIT_CR14_9 1.0
    LPG_CR15_9 YLPG_CR15_9 1.0
    LPG_CR15_9 LPGBAL_9 -1.0
    NAP_CR15_9 YNAP_CR15_9 1.0
    NAP_CR15_9 NAPBAL_CR15_9 1.0
    KER_CR15_9 YKER_CR15_9 1.0
    KER_CR15_9 KERBAL_CR15_9 1.0
    DSL_CR15_9 YDSL_CR15_9 1.0
    DSL_CR15_9 DSLBAL_CR15_9 1.0
    VGO_CR15_9 YVGO_CR15_9 1.0
    VGO_CR15_9 VGOBAL_CR15_9 1.0
    RES_CR15_9 YRES_CR15_9 1.0
    RES_CR15_9 RESSPLIT_CR15_9 1.0
    LPG_CR16_9 YLPG_CR16_9 1.0
    LPG_CR16_9 LPGBAL_9 -1.0
    NAP_CR16_9 YNAP_CR16_9 1.0
    NAP_CR16_9 NAPBAL_CR16_9 1.0
    KER_CR16_9 YKER_CR16_9 1.0
    KER_CR16_9 KERBAL_CR16_9 1.0
    DSL_CR16_9 YDSL_CR16_9 1.0
    DSL_CR16_9 DSLBAL_CR16_9 1.0
    VGO_CR16_9 YVGO_CR16_9 1.0
    VGO_CR16_9 VGOBAL_CR16_9 1.0
    RES_CR16_9 YRES_CR16_9 1.0
    RES_CR16_9 RESSPLIT_CR16_9 1.0
    LPG_CR17_9 YLPG_CR17_9 1.0
    LPG_CR17_9 LPGBAL_9 -1.0
    NAP_CR17_9 YNAP_CR17_9 1.0
    NAP_CR17_9 NAPBAL_CR17_9 1.0
    KER_CR17_9 YKER_CR17_9 1.0
    KER_CR17_9 KERBAL_CR17_9 1.0
    DSL_CR17_9 YDSL_CR17_9 1.0
    DSL_CR17_9 DSLBAL_CR17_9 1.0
    VGO_CR17_9 YVGO_CR17_9 1.0
    VGO_CR17_9 VGOBAL_CR17_9 1.0
    RES_CR17_9 YRES_CR17_9 1.0
    RES_CR17_9 RESSPLIT_CR17_9 1.0
    LPG_CR18_9 YLPG_CR18_9 1.0
    LPG_CR18_9 LPGBAL_9 -1.0
    NAP_CR18_9 YNAP_CR18_9 1.0
    NAP_CR18_9 NAPBAL_CR18_9 1.0
    KER_CR18_9 YKER_CR18_9 1.0
    KER_CR18_9 KERBAL_CR18_9 1.0
    DSL_CR18_9 YDSL_CR18_9 1.0
    DSL_CR18_9 DSLBAL_CR18_9 1.0
    VGO_CR18_9 YVGO_CR18_9 1.0
    VGO_CR18_9 VGOBAL_CR18_9 1.0
    RES_CR18_9 YRES_CR18_9 1.0
    RES_CR18_9 RESSPLIT_CR18_9 1.0
    LPG_CR19_9 YLPG_CR19_9 1.0
    LPG_CR19_9 LPGBAL_9 -1.0
    NAP_CR19_9 YNAP_CR19_9 1.0
    NAP_CR19_9 NAPBAL_CR19_9 1.0
    KER_CR19_9 YKER_CR19_9 1.0
    KER_CR19_9 KERBAL_CR19_9 1.0
    DSL_CR19_9 YDSL_CR19_9 1.0
    DSL_CR19_9 DSLBAL_CR19_9 1.0
    VGO_CR19_9 YVGO_CR19_9 1.0
    VGO_CR19_9 VGOBAL_CR19_9 1.0
    RES_CR19_9 YRES_CR19_9 1.0
    RES_CR19_9 RESSPLIT_CR19_9 1.0
    VDUIN_CR00_9 RESSPLIT_CR00_9 -1.0
    VDUIN_CR00_9 VDUY1_CR00_9 -0.45
    VDUIN_CR00_9 VDUY2_CR00_9 -0.55
    VDUIN_CR00_9 VDUCAP_9 1.0
    RESFO_CR00_9 RESSPLIT_CR00_9 -1.0
    RESFO_CR00_9 FOBAL_9 -1.0
    RESFO_CR00_9 FOSUL_9 1.9540891690108433
    VGO2_CR00_9 VDUY1_CR00_9 1.0
    VGO2_CR00_9 VGOBAL_CR00_9 1.0
    VR_CR00_9 VDUY2_CR00_9 1.0
    VR_CR00_9 FOBAL_9 -1.0
    VR_CR00_9 FOSUL_9 3.5903159197140964
    VDUIN_CR01_9 RESSPLIT_CR01_9 -1.0
    VDUIN_CR01_9 VDUY1_CR01_9 -0.45
    VDUIN_CR01_9 VDUY2_CR01_9 -0.55
    VDUIN_CR01_9 VDUCAP_9 1.0
    RESFO_CR01_9 RESSPLIT_CR01_9 -1.0
    RESFO_CR01_9 FOBAL_9 -1.0
    RESFO_CR01_9 FOSUL_9 -0.6168441789886687
    VGO2_CR01_9 VDUY1_CR01_9 1.0
    VGO2_CR01_9 VGOBAL_CR01_9 1.0
    VR_CR01_9 VDUY2_CR01_9 1.0
    VR_CR01_9 FOBAL_9 -1.0
    VR_CR01_9 FOSUL_9 0.24810256731473057
    VDUIN_CR02_9 RESSPLIT_CR02_9 -1.0
    VDUIN_CR02_9 VDUY1_CR02_9 -0.45
    VDUIN_CR02_9 VDUY2_CR02_9 -0.55
    VDUIN_CR02_9 VDUCAP_9 1.0
    RESFO_CR02_9 RESSPLIT_CR02_9 -1.0
    RESFO_CR02_9 FOBAL_9 -1.0
    RESFO_CR02_9 FOSUL_9 0.05675733131967897
    VGO2_CR02_9 VDUY1_CR02_9 1.0
    VGO2_CR02_9 VGOBAL_CR02_9 1.0
    VR_CR02_9 VDUY2_CR02_9 1.0
    VR_CR02_9 FOBAL_9 -1.0
    VR_CR02_9 FOSUL_9 1.1237845307155832
    VDUIN_CR03_9 RESSPLIT_CR03_9 -1.0
    VDUIN_CR03_9 VDUY1_CR03_9 -0.45
    VDUIN_CR03_9 VDUY2_CR03_9 -0.55
    VDUIN_CR03_9 VDUCAP_9 1.0
    RESFO_CR03_9 RESSPLIT_CR03_9 -1.0
    RESFO_CR03_9 FOBAL_9 -1.0
    RESFO_CR03_9 FOSUL_9 -1.8686274424458973
    VGO2_CR03_9 VDUY1_CR03_9 1.0
    VGO2_CR03_9 VGOBAL_CR03_9 1.0
    VR_CR03_9 VDUY2_CR03_9 1.0
    VR_CR03_9 FOBAL_9 -1.0
    VR_CR03_9 FOSUL_9 -1.3792156751796663
    VDUIN_CR04_9 RESSPLIT_CR04_9 -1.0
    VDUIN_CR04_9 VDUY1_CR04_9 -0.45
    VDUIN_CR04_9 VDUY2_CR04_9 -0.55
    VDUIN_CR04_9 VDUCAP_9 1.0
    RESFO_CR04_9 RESSPLIT_CR04_9 -1.0
    RESFO_CR04_9 FOBAL_9 -1.0
    RESFO_CR04_9 FOSUL_9 2.031668478530798
    VGO2_CR04_9 VDUY1_CR04_9 1.0
    VGO2_CR04_9 VGOBAL_CR04_9 1.0
    VR_CR04_9 VDUY2_CR04_9 1.0
    VR_CR04_9 FOBAL_9 -1.0
    VR_CR04_9 FOSUL_9 3.6911690220900377
    VDUIN_CR05_9 RESSPLIT_CR05_9 -1.0
    VDUIN_CR05_9 VDUY1_CR05_9 -0.45
    VDUIN_CR05_9 VDUY2_CR05_9 -0.55
    VDUIN_CR05_9 VDUCAP_9 1.0
    RESFO_CR05_9 RESSPLIT_CR05_9 -1.0
    RESFO_CR05_9 FOBAL_9 -1.0
    RESFO_CR05_9 FOSUL_9 0.3429997580900688
    VGO2_CR05_9 VDUY1_CR05_9 1.0
    VGO2_CR05_9 VGOBAL_CR05_9 1.0
    VR_CR05_9 VDUY2_CR05_9 1.0
    VR_CR05_9 FOBAL_9 -1.0
    VR_CR05_9 FOSUL_9 1.4958996855170898
    VDUIN_CR06_9 RESSPLIT_CR06_9 -1.0
    VDUIN_CR06_9 VDUY1_CR06_9 -0.45
    VDUIN_CR06_9 VDUY2_CR06_9 -0.55
    VDUIN_CR06_9 VDUCAP_9 1.0
    RESFO_CR06_9 RESSPLIT_CR06_9 -1.0
    RESFO_CR06_9 FOBAL_9 -1.0
    RESFO_CR06_9 FOSUL_9 0.10255232060654862
    VGO2_CR06_9 VDUY1_CR06_9 1.0
    VGO2_CR06_9 VGOBAL_CR06_9 1.0
    VR_CR06_9 VDUY2_CR06_9 1.0
    VR_CR06_9 FOBAL_9 -1.0
    VR_CR06_9 FOSUL_9 1.1833180167885136
    VDUIN_CR07_9 RESSPLIT_CR07_9 -1.0
    VDUIN_CR07_9 VDUY1_CR07_9 -0.45
    VDUIN_CR07_9 VDUY2_CR07_9 -0.55
    VDUIN_CR07_9 VDUCAP_9 1.0
    RESFO_CR07_9 RESSPLIT_CR07_9 -1.0
    RESFO_CR07_9 FOBAL_9 -1.0
    RESFO_CR07_9 FOSUL_9 -3.116635223405176
    VGO2_CR07_9 VDUY1_CR07_9 1.0
    VGO2_CR07_9 VGOBAL_CR07_9 1.0
    VR_CR07_9 VDUY2_CR07_9 1.0
    VR_CR07_9 FOBAL_9 -1.0
    VR_CR07_9 FOSUL_9 -3.001625790426729
    VDUIN_CR08_9 RESSPLIT_CR08_9 -1.0
    VDUIN_CR08_9 VDUY1_CR08_9 -0.45
    VDUIN_CR08_9 VDUY2_CR08_9 -0.55
    VDUIN_CR08_9 VDUCAP_9 1.0
    RESFO_CR08_9 RESSPLIT_CR08_9 -1.0
    RESFO_CR08_9 FOBAL_9 -1.0
    RESFO_CR08_9 FOSUL_9 0.0456281803886287
    VGO2_CR08_9 VDUY1_CR08_9 1.0
    VGO2_CR08_9 VGOBAL_CR08_9 1.0
    VR_CR08_9 VDUY2_CR08_9 1.0
    VR_CR08_9 FOBAL_9 -1.0
    VR_CR08_9 FOSUL_9 1.109316634505218
    VDUIN_CR09_9 RESSPLIT_CR09_9 -1.0
    VDUIN_CR09_9 VDUY1_CR09_9 -0.45
    VDUIN_CR09_9 VDUY2_CR09_9 -0.55
    VDUIN_CR09_9 VDUCAP_9 1.0
    RESFO_CR09_9 RESSPLIT_CR09_9 -1.0
    RESFO_CR09_9 FOBAL_9 -1.0
    RESFO_CR09_9 FOSUL_9 -3.264603397407564
    VGO2_CR09_9 VDUY1_CR09_9 1.0
    VGO2_CR09_9 VGOBAL_CR09_9 1.0
    VR_CR09_9 VDUY2_CR09_9 1.0
    VR_CR09_9 FOBAL_9 -1.0
    VR_CR09_9 FOSUL_9 -3.1939844166298332
    VDUIN_CR10_9 RESSPLIT_CR10_9 -1.0
    VDUIN_CR10_9 VDUY1_CR10_9 -0.45
    VDUIN_CR10_9 VDUY2_CR10_9 -0.55
    VDUIN_CR10_9 VDUCAP_9 1.0
    RESFO_CR10_9 RESSPLIT_CR10_9 -1.0
    RESFO_CR10_9 FOBAL_9 -1.0
    RESFO_CR10_9 FOSUL_9 2.094062962095167
    VGO2_CR10_9 VDUY1_CR10_9 1.0
    VGO2_CR10_9 VGOBAL_CR10_9 1.0
    VR_CR10_9 VDUY2_CR10_9 1.0
    VR_CR10_9 FOBAL_9 -1.0
    VR_CR10_9 FOSUL_9 3.7722818507237177
    VDUIN_CR11_9 RESSPLIT_CR11_9 -1.0
    VDUIN_CR11_9 VDUY1_CR11_9 -0.45
    VDUIN_CR11_9 VDUY2_CR11_9 -0.55
    VDUIN_CR11_9 VDUCAP_9 1.0
    RESFO_CR11_9 RESSPLIT_CR11_9 -1.0
    RESFO_CR11_9 FOBAL_9 -1.0
    RESFO_CR11_9 FOSUL_9 -0.4594898393817082
    VGO2_CR11_9 VDUY1_CR11_9 1.0
    VGO2_CR11_9 VGOBAL_CR11_9 1.0
    VR_CR11_9 VDUY2_CR11_9 1.0
    VR_CR11_9 FOBAL_9 -1.0
    VR_CR11_9 FOSUL_9 0.4526632088037794
    VDUIN_CR12_9 RESSPLIT_CR12_9 -1.0
    VDUIN_CR12_9 VDUY1_CR12_9 -0.45
    VDUIN_CR12_9 VDUY2_CR12_9 -0.55
    VDUIN_CR12_9 VDUCAP_9 1.0
    RESFO_CR12_9 RESSPLIT_CR12_9 -1.0
    RESFO_CR12_9 FOBAL_9 -1.0
    RESFO_CR12_9 FOSUL_9 1.9188179600993953
    VGO2_CR12_9 VDUY1_CR12_9 1.0
    VGO2_CR12_9 VGOBAL_CR12_9 1.0
    VR_CR12_9 VDUY2_CR12_9 1.0
    VR_CR12_9 FOBAL_9 -1.0
    VR_CR12_9 FOSUL_9 3.544463348129214
    VDUIN_CR13_9 RESSPLIT_CR13_9 -1.0
    VDUIN_CR13_9 VDUY1_CR13_9 -0.45
    VDUIN_CR13_9 VDUY2_CR13_9 -0.55
    VDUIN_CR13_9 VDUCAP_9 1.0
    RESFO_CR13_9 RESSPLIT_CR13_9 -1.0
    RESFO_CR13_9 FOBAL_9 -1.0
    RESFO_CR13_9 FOSUL_9 -2.8690046531087465
    VGO2_CR13_9 VDUY1_CR13_9 1.0
    VGO2_CR13_9 VGOBAL_CR13_9 1.0
    VR_CR13_9 VDUY2_CR13_9 1.0
    VR_CR13_9 FOBAL_9 -1.0
    VR_CR13_9 FOSUL_9 -2.6797060490413704
    VDUIN_CR14_9 RESSPLIT_CR14_9 -1.0
    VDUIN_CR14_9 VDUY1_CR14_9 -0.45
    VDUIN_CR14_9 VDUY2_CR14_9 -0.55
    VDUIN_CR14_9 VDUCAP_9 1.0
    RESFO_CR14_9 RESSPLIT_CR14_9 -1.0
    RESFO_CR14_9 FOBAL_9 -1.0
    RESFO_CR14_9 FOSUL_9 -0.9033459504788866
    VGO2_CR14_9 VDUY1_CR14_9 1.0
    VGO2_CR14_9 VGOBAL_CR14_9 1.0
    VR_CR14_9 VDUY2_CR14_9 1.0
    VR_CR14_9 FOBAL_9 -1.0
    VR_CR14_9 FOSUL_9 -0.12434973562255225
    VDUIN_CR15_9 RESSPLIT_CR15_9 -1.0
    VDUIN_CR15_9 VDUY1_CR15_9 -0.45
    VDUIN_CR15_9 VDUY2_CR15_9 -0.55
    VDUIN_CR15_9 VDUCAP_9 1.0
    RESFO_CR15_9 RESSPLIT_CR15_9 -1.0
    RESFO_CR15_9 FOBAL_9 -1.0
    RESFO_CR15_9 FOSUL_9 -3.189239970867669
    VGO2_CR15_9 VDUY1_CR15_9 1.0
    VGO2_CR15_9 VGOBAL_CR15_9 1.0
    VR_CR15_9 VDUY2_CR15_9 1.0
    VR_CR15_9 FOBAL_9 -1.0
    VR_CR15_9 FOSUL_9 -3.0960119621279696
    VDUIN_CR16_9 RESSPLIT_CR16_9 -1.0
    VDUIN_CR16_9 VDUY1_CR16_9 -0.45
    VDUIN_CR16_9 VDUY2_CR16_9 -0.55
    VDUIN_CR16_9 VDUCAP_9 1.0
    RESFO_CR16_9 RESSPLIT_CR16_9 -1.0
    RESFO_CR16_9 FOBAL_9 -1.0
    RESFO_CR16_9 FOSUL_9 -0.09708299491376327
    VGO2_CR16_9 VDUY1_CR16_9 1.0
    VGO2_CR16_9 VGOBAL_CR16_9 1.0
    VR_CR16_9 VDUY2_CR16_9 1.0
    VR_CR16_9 FOBAL_9 -1.0
    VR_CR16_9 FOSUL_9 0.9237921066121082
    VDUIN_CR17_9 RESSPLIT_CR17_9 -1.0
    VDUIN_CR17_9 VDUY1_CR17_9 -0.45
    VDUIN_CR17_9 VDUY2_CR17_9 -0.55
    VDUIN_CR17_9 VDUCAP_9 1.0
    RESFO_CR17_9 RESSPLIT_CR17_9 -1.0
    RESFO_CR17_9 FOBAL_9 -1.0
    RESFO_CR17_9 FOSUL_9 2.128312314257988
    VGO2_CR17_9 VDUY1_CR17_9 1.0
    VGO2_CR17_9 VGOBAL_CR17_9 1.0
    VR_CR17_9 VDUY2_CR17_9 1.0
    VR_CR17_9 FOBAL_9 -1.0
    VR_CR17_9 FOSUL_9 3.8168060085353845
    VDUIN_CR18_9 RESSPLIT_CR18_9 -1.0
    VDUIN_CR18_9 VDUY1_CR18_9 -0.45
    VDUIN_CR18_9 VDUY2_CR18_9 -0.55
    VDUIN_CR18_9 VDUCAP_9 1.0
    RESFO_CR18_9 RESSPLIT_CR18_9 -1.0
    RESFO_CR18_9 FOBAL_9 -1.0
    RESFO_CR18_9 FOSUL_9 -3.0649175102888004
    VGO2_CR18_9 VDUY1_CR18_9 1.0
    VGO2_CR18_9 VGOBAL_CR18_9 1.0
    VR_CR18_9 VDUY2_CR18_9 1.0
    VR_CR18_9 FOBAL_9 -1.0
    VR_CR18_9 FOSUL_9 -2.9343927633754405
    VDUIN_CR19_9 RESSPLIT_CR19_9 -1.0
    VDUIN_CR19_9 VDUY1_CR19_9 -0.45
    VDUIN_CR19_9 VDUY2_CR19_9 -0.55
    VDUIN_CR19_9 VDUCAP_9 1.0
    RESFO_CR19_9 RESSPLIT_CR19_9 -1.0
    RESFO_CR19_9 FOBAL_9 -1.0
    RESFO_CR19_9 FOSUL_9 -1.1490285157117452
    VGO2_CR19_9 VDUY1_CR19_9 1.0
    VGO2_CR19_9 VGOBAL_CR19_9 1.0
    VR_CR19_9 VDUY2_CR19_9 1.0
    VR_CR19_9 FOBAL_9 -1.0
    VR_CR19_9 FOSUL_9 -0.4437370704252688
    FCCIN_CR00_9 OBJ -2.5
    FCCIN_CR00_9 VGOBAL_CR00_9 -1.0
    FCCIN_CR00_9 FCCCAP_9 1.0
    FCCIN_CR00_9 FCCY_FCCG_9 -0.55
    FCCIN_CR00_9 FCCY_LCO_9 -0.2
    FCCIN_CR00_9 FCCY_FLPG_9 -0.15
    FCCIN_CR00_9 FCCY_SLURRY_9 -0.07
    FCCIN_CR01_9 OBJ -2.5
    FCCIN_CR01_9 VGOBAL_CR01_9 -1.0
    FCCIN_CR01_9 FCCCAP_9 1.0
    FCCIN_CR01_9 FCCY_FCCG_9 -0.55
    FCCIN_CR01_9 FCCY_LCO_9 -0.2
    FCCIN_CR01_9 FCCY_FLPG_9 -0.15
    FCCIN_CR01_9 FCCY_SLURRY_9 -0.07
    FCCIN_CR02_9 OBJ -2.5
    FCCIN_CR02_9 VGOBAL_CR02_9 -1.0
    FCCIN_CR02_9 FCCCAP_9 1.0
    FCCIN_CR02_9 FCCY_FCCG_9 -0.55
    FCCIN_CR02_9 FCCY_LCO_9 -0.2
    FCCIN_CR02_9 FCCY_FLPG_9 -0.15
    FCCIN_CR02_9 FCCY_SLURRY_9 -0.07
    FCCIN_CR03_9 OBJ -2.5
    FCCIN_CR03_9 VGOBAL_CR03_9 -1.0
    FCCIN_CR03_9 FCCCAP_9 1.0
    FCCIN_CR03_9 FCCY_FCCG_9 -0.55
    FCCIN_CR03_9 FCCY_LCO_9 -0.2
    FCCIN_CR03_9 FCCY_FLPG_9 -0.15
    FCCIN_CR03_9 FCCY_SLURRY_9 -0.07
    FCCIN_CR04_9 OBJ -2.5
    FCCIN_CR04_9 VGOBAL_CR04_9 -1.0
    FCCIN_CR04_9 FCCCAP_9 1.0
    FCCIN_CR04_9 FCCY_FCCG_9 -0.55
    FCCIN_CR04_9 FCCY_LCO_9 -0.2
    FCCIN_CR04_9 FCCY_FLPG_9 -0.15
    FCCIN_CR04_9 FCCY_SLURRY_9 -0.07
    FCCIN_CR05_9 OBJ -2.5
    FCCIN_CR05_9 VGOBAL_CR05_9 -1.0
    FCCIN_CR05_9 FCCCAP_9 1.0
    FCCIN_CR05_9 FCCY_FCCG_9 -0.55
    FCCIN_CR05_9 FCCY_LCO_9 -0.2
    FCCIN_CR05_9 FCCY_FLPG_9 -0.15
    FCCIN_CR05_9 FCCY_SLURRY_9 -0.07
    FCCIN_CR06_9 OBJ -2.5
    FCCIN_CR06_9 VGOBAL_CR06_9 -1.0
    FCCIN_CR06_9 FCCCAP_9 1.0
    FCCIN_CR06_9 FCCY_FCCG_9 -0.55
    FCCIN_CR06_9 FCCY_LCO_9 -0.2
    FCCIN_CR06_9 FCCY_FLPG_9 -0.15
    FCCIN_CR06_9 FCCY_SLURRY_9 -0.07
    FCCIN_CR07_9 OBJ -2.5
    FCCIN_CR07_9 VGOBAL_CR07_9 -1.0
    FCCIN_CR07_9 FCCCAP_9 1.0
    FCCIN_CR07_9 FCCY_FCCG_9 -0.55
    FCCIN_CR07_9 FCCY_LCO_9 -0.2
    FCCIN_CR07_9 FCCY_FLPG_9 -0.15
    FCCIN_CR07_9 FCCY_SLURRY_9 -0.07
    FCCIN_CR08_9 OBJ -2.5
    FCCIN_CR08_9 VGOBAL_CR08_9 -1.0
    FCCIN_CR08_9 FCCCAP_9 1.0
    FCCIN_CR08_9 FCCY_FCCG_9 -0.55
    FCCIN_CR08_9 FCCY_LCO_9 -0.2
    FCCIN_CR08_9 FCCY_FLPG_9 -0.15
    FCCIN_CR08_9 FCCY_SLURRY_9 -0.07
    FCCIN_CR09_9 OBJ -2.5
    FCCIN_CR09_9 VGOBAL_CR09_9 -1.0
    FCCIN_CR09_9 FCCCAP_9 1.0
    FCCIN_CR09_9 FCCY_FCCG_9 -0.55
    FCCIN_CR09_9 FCCY_LCO_9 -0.2
    FCCIN_CR09_9 FCCY_FLPG_9 -0.15
    FCCIN_CR09_9 FCCY_SLURRY_9 -0.07
    FCCIN_CR10_9 OBJ -2.5
    FCCIN_CR10_9 VGOBAL_CR10_9 -1.0
    FCCIN_CR10_9 FCCCAP_9 1.0
    FCCIN_CR10_9 FCCY_FCCG_9 -0.55
    FCCIN_CR10_9 FCCY_LCO_9 -0.2
    FCCIN_CR10_9 FCCY_FLPG_9 -0.15
    FCCIN_CR10_9 FCCY_SLURRY_9 -0.07
    FCCIN_CR11_9 OBJ -2.5
    FCCIN_CR11_9 VGOBAL_CR11_9 -1.0
    FCCIN_CR11_9 FCCCAP_9 1.0
    FCCIN_CR11_9 FCCY_FCCG_9 -0.55
    FCCIN_CR11_9 FCCY_LCO_9 -0.2
    FCCIN_CR11_9 FCCY_FLPG_9 -0.15
    FCCIN_CR11_9 FCCY_SLURRY_9 -0.07
    FCCIN_CR12_9 OBJ -2.5
    FCCIN_CR12_9 VGOBAL_CR12_9 -1.0
    FCCIN_CR12_9 FCCCAP_9 1.0
    FCCIN_CR12_9 FCCY_FCCG_9 -0.55
    FCCIN_CR12_9 FCCY_LCO_9 -0.2
    FCCIN_CR12_9 FCCY_FLPG_9 -0.15
    FCCIN_CR12_9 FCCY_SLURRY_9 -0.07
    FCCIN_CR13_9 OBJ -2.5
    FCCIN_CR13_9 VGOBAL_CR13_9 -1.0
    FCCIN_CR13_9 FCCCAP_9 1.0
    FCCIN_CR13_9 FCCY_FCCG_9 -0.55
    FCCIN_CR13_9 FCCY_LCO_9 -0.2
    FCCIN_CR13_9 FCCY_FLPG_9 -0.15
    FCCIN_CR13_9 FCCY_SLURRY_9 -0.07
    FCCIN_CR14_9 OBJ -2.5
    FCCIN_CR14_9 VGOBAL_CR14_9 -1.0
    FCCIN_CR14_9 FCCCAP_9 1.0
    FCCIN_CR14_9 FCCY_FCCG_9 -0.55
    FCCIN_CR14_9 FCCY_LCO_9 -0.2
    FCCIN_CR14_9 FCCY_FLPG_9 -0.15
    FCCIN_CR14_9 FCCY_SLURRY_9 -0.07
    FCCIN_CR15_9 OBJ -2.5
    FCCIN_CR15_9 VGOBAL_CR15_9 -1.0
    FCCIN_CR15_9 FCCCAP_9 1.0
    FCCIN_CR15_9 FCCY_FCCG_9 -0.55
    FCCIN_CR15_9 FCCY_LCO_9 -0.2
    FCCIN_CR15_9 FCCY_FLPG_9 -0.15
    FCCIN_CR15_9 FCCY_SLURRY_9 -0.07
    FCCIN_CR16_9 OBJ -2.5
    FCCIN_CR16_9 VGOBAL_CR16_9 -1.0
    FCCIN_CR16_9 FCCCAP_9 1.0
    FCCIN_CR16_9 FCCY_FCCG_9 -0.55
    FCCIN_CR16_9 FCCY_LCO_9 -0.2
    FCCIN_CR16_9 FCCY_FLPG_9 -0.15
    FCCIN_CR16_9 FCCY_SLURRY_9 -0.07
    FCCIN_CR17_9 OBJ -2.5
    FCCIN_CR17_9 VGOBAL_CR17_9 -1.0
    FCCIN_CR17_9 FCCCAP_9 1.0
    FCCIN_CR17_9 FCCY_FCCG_9 -0.55
    FCCIN_CR17_9 FCCY_LCO_9 -0.2
    FCCIN_CR17_9 FCCY_FLPG_9 -0.15
    FCCIN_CR17_9 FCCY_SLURRY_9 -0.07
    FCCIN_CR18_9 OBJ -2.5
    FCCIN_CR18_9 VGOBAL_CR18_9 -1.0
    FCCIN_CR18_9 FCCCAP_9 1.0
    FCCIN_CR18_9 FCCY_FCCG_9 -0.55
    FCCIN_CR18_9 FCCY_LCO_9 -0.2
    FCCIN_CR18_9 FCCY_FLPG_9 -0.15
    FCCIN_CR18_9 FCCY_SLURRY_9 -0.07
    FCCIN_CR19_9 OBJ -2.5
    FCCIN_CR19_9 VGOBAL_CR19_9 -1.0
    FCCIN_CR19_9 FCCCAP_9 1.0
    FCCIN_CR19_9 FCCY_FCCG_9 -0.55
    FCCIN_CR19_9 FCCY_LCO_9 -0.2
    FCCIN_CR19_9 FCCY_FLPG_9 -0.15
    FCCIN_CR19_9 FCCY_SLURRY_9 -0.07
    FCCG_9 FCCY_FCCG_9 1.0
    FCCG_9 GASBAL_9 -1.0
    FCCG_9 GASRON_9 1.0
    LCO_9 FCCY_LCO_9 1.0
    LCO_9 LCOBAL_9 1.0
    FLPG_9 FCCY_FLPG_9 1.0
    FLPG_9 LPGBAL_9 -1.0
    SLURRY_9 FCCY_SLURRY_9 1.0
    SLURRY_9 FOBAL_9 -1.0
    SLURRY_9 FOSUL_9 -1.5
    REFIN_CR00_9 OBJ -3.0
    REFIN_CR00_9 NAPBAL_CR00_9 -1.0
    REFIN_CR00_9 REFCAP_9 1.0
    REFIN_CR00_9 REFY_9 -0.85
    NAPGAS_CR00_9 NAPBAL_CR00_9 -1.0
    NAPGAS_CR00_9 GASBAL_9 -1.0
    NAPGAS_CR00_9 GASRON_9 -41.351908455631545
    REFIN_CR01_9 OBJ -3.0
    REFIN_CR01_9 NAPBAL_CR01_9 -1.0
    REFIN_CR01_9 REFCAP_9 1.0
    REFIN_CR01_9 REFY_9 -0.85
    NAPGAS_CR01_9 NAPBAL_CR01_9 -1.0
    NAPGAS_CR01_9 GASBAL_9 -1.0
    NAPGAS_CR01_9 GASRON_9 -33.623043958680114
    REFIN_CR02_9 OBJ -3.0
    REFIN_CR02_9 NAPBAL_CR02_9 -1.0
    REFIN_CR02_9 REFCAP_9 1.0
    REFIN_CR02_9 REFY_9 -0.85
    NAPGAS_CR02_9 NAPBAL_CR02_9 -1.0
    NAPGAS_CR02_9 GASBAL_9 -1.0
    NAPGAS_CR02_9 GASRON_9 -39.74522208078083
    REFIN_CR03_9 OBJ -3.0
    REFIN_CR03_9 NAPBAL_CR03_9 -1.0
    REFIN_CR03_9 REFCAP_9 1.0
    REFIN_CR03_9 REFY_9 -0.85
    NAPGAS_CR03_9 NAPBAL_CR03_9 -1.0
    NAPGAS_CR03_9 GASBAL_9 -1.0
    NAPGAS_CR03_9 GASRON_9 -39.32063345179839
    REFIN_CR04_9 OBJ -3.0
    REFIN_CR04_9 NAPBAL_CR04_9 -1.0
    REFIN_CR04_9 REFCAP_9 1.0
    REFIN_CR04_9 REFY_9 -0.85
    NAPGAS_CR04_9 NAPBAL_CR04_9 -1.0
    NAPGAS_CR04_9 GASBAL_9 -1.0
    NAPGAS_CR04_9 GASRON_9 -28.06018906757886
    REFIN_CR05_9 OBJ -3.0
    REFIN_CR05_9 NAPBAL_CR05_9 -1.0
    REFIN_CR05_9 REFCAP_9 1.0
    REFIN_CR05_9 REFY_9 -0.85
    NAPGAS_CR05_9 NAPBAL_CR05_9 -1.0
    NAPGAS_CR05_9 GASBAL_9 -1.0
    NAPGAS_CR05_9 GASRON_9 -37.177062383933254
    REFIN_CR06_9 OBJ -3.0
    REFIN_CR06_9 NAPBAL_CR06_9 -1.0
    REFIN_CR06_9 REFCAP_9 1.0
    REFIN_CR06_9 REFY_9 -0.85
    NAPGAS_CR06_9 NAPBAL_CR06_9 -1.0
    NAPGAS_CR06_9 GASBAL_9 -1.0
    NAPGAS_CR06_9 GASRON_9 -38.73738801284508
    REFIN_CR07_9 OBJ -3.0
    REFIN_CR07_9 NAPBAL_CR07_9 -1.0
    REFIN_CR07_9 REFCAP_9 1.0
    REFIN_CR07_9 REFY_9 -0.85
    NAPGAS_CR07_9 NAPBAL_CR07_9 -1.0
    NAPGAS_CR07_9 GASBAL_9 -1.0
    NAPGAS_CR07_9 GASRON_9 -31.720911449683953
    REFIN_CR08_9 OBJ -3.0
    REFIN_CR08_9 NAPBAL_CR08_9 -1.0
    REFIN_CR08_9 REFCAP_9 1.0
    REFIN_CR08_9 REFY_9 -0.85
    NAPGAS_CR08_9 NAPBAL_CR08_9 -1.0
    NAPGAS_CR08_9 GASBAL_9 -1.0
    NAPGAS_CR08_9 GASRON_9 -31.236267605063702
    REFIN_CR09_9 OBJ -3.0
    REFIN_CR09_9 NAPBAL_CR09_9 -1.0
    REFIN_CR09_9 REFCAP_9 1.0
    REFIN_CR09_9 REFY_9 -0.85
    NAPGAS_CR09_9 NAPBAL_CR09_9 -1.0
    NAPGAS_CR09_9 GASBAL_9 -1.0
    NAPGAS_CR09_9 GASRON_9 -29.9151768258086
    REFIN_CR10_9 OBJ -3.0
    REFIN_CR10_9 NAPBAL_CR10_9 -1.0
    REFIN_CR10_9 REFCAP_9 1.0
    REFIN_CR10_9 REFY_9 -0.85
    NAPGAS_CR10_9 NAPBAL_CR10_9 -1.0
    NAPGAS_CR10_9 GASBAL_9 -1.0
    NAPGAS_CR10_9 GASRON_9 -38.641707010486826
    REFIN_CR11_9 OBJ -3.0
    REFIN_CR11_9 NAPBAL_CR11_9 -1.0
    REFIN_CR11_9 REFCAP_9 1.0
    REFIN_CR11_9 REFY_9 -0.85
    NAPGAS_CR11_9 NAPBAL_CR11_9 -1.0
    NAPGAS_CR11_9 GASBAL_9 -1.0
    NAPGAS_CR11_9 GASRON_9 -31.364398664025877
    REFIN_CR12_9 OBJ -3.0
    REFIN_CR12_9 NAPBAL_CR12_9 -1.0
    REFIN_CR12_9 REFCAP_9 1.0
    REFIN_CR12_9 REFY_9 -0.85
    NAPGAS_CR12_9 NAPBAL_CR12_9 -1.0
    NAPGAS_CR12_9 GASBAL_9 -1.0
    NAPGAS_CR12_9 GASRON_9 -36.44295305412478
    REFIN_CR13_9 OBJ -3.0
    REFIN_CR13_9 NAPBAL_CR13_9 -1.0
    REFIN_CR13_9 REFCAP_9 1.0
    REFIN_CR13_9 REFY_9 -0.85
    NAPGAS_CR13_9 NAPBAL_CR13_9 -1.0
    NAPGAS_CR13_9 GASBAL_9 -1.0
    NAPGAS_CR13_9 GASRON_9 -36.368722409916884
    REFIN_CR14_9 OBJ -3.0
    REFIN_CR14_9 NAPBAL_CR14_9 -1.0
    REFIN_CR14_9 REFCAP_9 1.0
    REFIN_CR14_9 REFY_9 -0.85
    NAPGAS_CR14_9 NAPBAL_CR14_9 -1.0
    NAPGAS_CR14_9 GASBAL_9 -1.0
    NAPGAS_CR14_9 GASRON_9 -37.837781635780814
    REFIN_CR15_9 OBJ -3.0
    REFIN_CR15_9 NAPBAL_CR15_9 -1.0
    REFIN_CR15_9 REFCAP_9 1.0
    REFIN_CR15_9 REFY_9 -0.85
    NAPGAS_CR15_9 NAPBAL_CR15_9 -1.0
    NAPGAS_CR15_9 GASBAL_9 -1.0
    NAPGAS_CR15_9 GASRON_9 -36.91743369949054
    REFIN_CR16_9 OBJ -3.0
    REFIN_CR16_9 NAPBAL_CR16_9 -1.0
    REFIN_CR16_9 REFCAP_9 1.0
    REFIN_CR16_9 REFY_9 -0.85
    NAPGAS_CR16_9 NAPBAL_CR16_9 -1.0
    NAPGAS_CR16_9 GASBAL_9 -1.0
    NAPGAS_CR16_9 GASRON_9 -32.43244486749426
    REFIN_CR17_9 OBJ -3.0
    REFIN_CR17_9 NAPBAL_CR17_9 -1.0
    REFIN_CR17_9 REFCAP_9 1.0
    REFIN_CR17_9 REFY_9 -0.85
    NAPGAS_CR17_9 NAPBAL_CR17_9 -1.0
    NAPGAS_CR17_9 GASBAL_9 -1.0
    NAPGAS_CR17_9 GASRON_9 -32.30218201355821
    REFIN_CR18_9 OBJ -3.0
    REFIN_CR18_9 NAPBAL_CR18_9 -1.0
    REFIN_CR18_9 REFCAP_9 1.0
    REFIN_CR18_9 REFY_9 -0.85
    NAPGAS_CR18_9 NAPBAL_CR18_9 -1.0
    NAPGAS_CR18_9 GASBAL_9 -1.0
    NAPGAS_CR18_9 GASRON_9 -30.280860643235343
    REFIN_CR19_9 OBJ -3.0
    REFIN_CR19_9 NAPBAL_CR19_9 -1.0
    REFIN_CR19_9 REFCAP_9 1.0
    REFIN_CR19_9 REFY_9 -0.85
    NAPGAS_CR19_9 NAPBAL_CR19_9 -1.0
    NAPGAS_CR19_9 GASBAL_9 -1.0
    NAPGAS_CR19_9 GASRON_9 -35.8435432887995
    REFORMATE_9 REFY_9 1.0
    REFORMATE_9 GASBAL_9 -1.0
    REFORMATE_9 GASRON_9 7.0
    DHTIN_CR00_9 OBJ -2.0
    DHTIN_CR00_9 DSLBAL_CR00_9 -1.0
    DHTIN_CR00_9 DHTCAP_9 1.0
    DHTIN_CR00_9 DHTY_9 -0.98
    DSLDIR_CR00_9 DSLBAL_CR00_9 -1.0
    DSLDIR_CR00_9 DSLPB_9 -1.0
    DSLDIR_CR00_9 DSLSUL_9 1.5862267507032528
    DHTIN_CR01_9 OBJ -2.0
    DHTIN_CR01_9 DSLBAL_CR01_9 -1.0
    DHTIN_CR01_9 DHTCAP_9 1.0
    DHTIN_CR01_9 DHTY_9 -0.98
    DSLDIR_CR01_9 DSLBAL_CR01_9 -1.0
    DSLDIR_CR01_9 DSLPB_9 -1.0
    DSLDIR_CR01_9 DSLSUL_9 0.8149467463033994
    DHTIN_CR02_9 OBJ -2.0
    DHTIN_CR02_9 DSLBAL_CR02_9 -1.0
    DHTIN_CR02_9 DHTCAP_9 1.0
    DHTIN_CR02_9 DHTY_9 -0.98
    DSLDIR_CR02_9 DSLBAL_CR02_9 -1.0
    DSLDIR_CR02_9 DSLPB_9 -1.0
    DSLDIR_CR02_9 DSLSUL_9 1.0170271993959037
    DHTIN_CR03_9 OBJ -2.0
    DHTIN_CR03_9 DSLBAL_CR03_9 -1.0
    DHTIN_CR03_9 DHTCAP_9 1.0
    DHTIN_CR03_9 DHTY_9 -0.98
    DSLDIR_CR03_9 DSLBAL_CR03_9 -1.0
    DSLDIR_CR03_9 DSLPB_9 -1.0
    DSLDIR_CR03_9 DSLSUL_9 0.4394117672662308
    DHTIN_CR04_9 OBJ -2.0
    DHTIN_CR04_9 DSLBAL_CR04_9 -1.0
    DHTIN_CR04_9 DHTCAP_9 1.0
    DHTIN_CR04_9 DHTY_9 -0.98
    DSLDIR_CR04_9 DSLBAL_CR04_9 -1.0
    DSLDIR_CR04_9 DSLPB_9 -1.0
    DSLDIR_CR04_9 DSLSUL_9 1.6095005435592393
    DHTIN_CR05_9 OBJ -2.0
    DHTIN_CR05_9 DSLBAL_CR05_9 -1.0
    DHTIN_CR05_9 DHTCAP_9 1.0
    DHTIN_CR05_9 DHTY_9 -0.98
    DSLDIR_CR05_9 DSLBAL_CR05_9 -1.0
    DSLDIR_CR05_9 DSLPB_9 -1.0
    DSLDIR_CR05_9 DSLSUL_9 1.1028999274270206
    DHTIN_CR06_9 OBJ -2.0
    DHTIN_CR06_9 DSLBAL_CR06_9 -1.0
    DHTIN_CR06_9 DHTCAP_9 1.0
    DHTIN_CR06_9 DHTY_9 -0.98
    DSLDIR_CR06_9 DSLBAL_CR06_9 -1.0
    DSLDIR_CR06_9 DSLPB_9 -1.0
    DSLDIR_CR06_9 DSLSUL_9 1.0307656961819645
    DHTIN_CR07_9 OBJ -2.0
    DHTIN_CR07_9 DSLBAL_CR07_9 -1.0
    DHTIN_CR07_9 DHTCAP_9 1.0
    DHTIN_CR07_9 DHTY_9 -0.98
    DSLDIR_CR07_9 DSLBAL_CR07_9 -1.0
    DSLDIR_CR07_9 DSLPB_9 -1.0
    DSLDIR_CR07_9 DSLSUL_9 0.06500943297844713
    DHTIN_CR08_9 OBJ -2.0
    DHTIN_CR08_9 DSLBAL_CR08_9 -1.0
    DHTIN_CR08_9 DHTCAP_9 1.0
    DHTIN_CR08_9 DHTY_9 -0.98
    DSLDIR_CR08_9 DSLBAL_CR08_9 -1.0
    DSLDIR_CR08_9 DSLPB_9 -1.0
    DSLDIR_CR08_9 DSLSUL_9 1.0136884541165885
    DHTIN_CR09_9 OBJ -2.0
    DHTIN_CR09_9 DSLBAL_CR09_9 -1.0
    DHTIN_CR09_9 DHTCAP_9 1.0
    DHTIN_CR09_9 DHTY_9 -0.98
    DSLDIR_CR09_9 DSLBAL_CR09_9 -1.0
    DSLDIR_CR09_9 DSLPB_9 -1.0
    DSLDIR_CR09_9 DSLSUL_9 0.020618980777730833
    DHTIN_CR10_9 OBJ -2.0
    DHTIN_CR10_9 DSLBAL_CR10_9 -1.0
    DHTIN_CR10_9 DHTCAP_9 1.0
    DHTIN_CR10_9 DHTY_9 -0.98
    DSLDIR_CR10_9 DSLBAL_CR10_9 -1.0
    DSLDIR_CR10_9 DSLPB_9 -1.0
    DSLDIR_CR10_9 DSLSUL_9 1.62821888862855
    DHTIN_CR11_9 OBJ -2.0
    DHTIN_CR11_9 DSLBAL_CR11_9 -1.0
    DHTIN_CR11_9 DHTCAP_9 1.0
    DHTIN_CR11_9 DHTY_9 -0.98
    DSLDIR_CR11_9 DSLBAL_CR11_9 -1.0
    DSLDIR_CR11_9 DSLPB_9 -1.0
    DSLDIR_CR11_9 DSLSUL_9 0.8621530481854874
    DHTIN_CR12_9 OBJ -2.0
    DHTIN_CR12_9 DSLBAL_CR12_9 -1.0
    DHTIN_CR12_9 DHTCAP_9 1.0
    DHTIN_CR12_9 DHTY_9 -0.98
    DSLDIR_CR12_9 DSLBAL_CR12_9 -1.0
    DSLDIR_CR12_9 DSLPB_9 -1.0
    DSLDIR_CR12_9 DSLSUL_9 1.5756453880298185
    DHTIN_CR13_9 OBJ -2.0
    DHTIN_CR13_9 DSLBAL_CR13_9 -1.0
    DHTIN_CR13_9 DHTCAP_9 1.0
    DHTIN_CR13_9 DHTY_9 -0.98
    DSLDIR_CR13_9 DSLBAL_CR13_9 -1.0
    DSLDIR_CR13_9 DSLPB_9 -1.0
    DSLDIR_CR13_9 DSLSUL_9 0.13929860406737604
    DHTIN_CR14_9 OBJ -2.0
    DHTIN_CR14_9 DSLBAL_CR14_9 -1.0
    DHTIN_CR14_9 DHTCAP_9 1.0
    DHTIN_CR14_9 DHTY_9 -0.98
    DSLDIR_CR14_9 DSLBAL_CR14_9 -1.0
    DSLDIR_CR14_9 DSLPB_9 -1.0
    DSLDIR_CR14_9 DSLSUL_9 0.7289962148563339
    DHTIN_CR15_9 OBJ -2.0
    DHTIN_CR15_9 DSLBAL_CR15_9 -1.0
    DHTIN_CR15_9 DHTCAP_9 1.0
    DHTIN_CR15_9 DHTY_9 -0.98
    DSLDIR_CR15_9 DSLBAL_CR15_9 -1.0
    DSLDIR_CR15_9 DSLPB_9 -1.0
    DSLDIR_CR15_9 DSLSUL_9 0.0432280087396993
    DHTIN_CR16_9 OBJ -2.0
    DHTIN_CR16_9 DSLBAL_CR16_9 -1.0
    DHTIN_CR16_9 DHTCAP_9 1.0
    DHTIN_CR16_9 DHTY_9 -0.98
    DSLDIR_CR16_9 DSLBAL_CR16_9 -1.0
    DSLDIR_CR16_9 DSLPB_9 -1.0
    DSLDIR_CR16_9 DSLSUL_9 0.970875101525871
    DHTIN_CR17_9 OBJ -2.0
    DHTIN_CR17_9 DSLBAL_CR17_9 -1.0
    DHTIN_CR17_9 DHTCAP_9 1.0
    DHTIN_CR17_9 DHTY_9 -0.98
    DSLDIR_CR17_9 DSLBAL_CR17_9 -1.0
    DSLDIR_CR17_9 DSLPB_9 -1.0
    DSLDIR_CR17_9 DSLSUL_9 1.6384936942773962
    DHTIN_CR18_9 OBJ -2.0
    DHTIN_CR18_9 DSLBAL_CR18_9 -1.0
    DHTIN_CR18_9 DHTCAP_9 1.0
    DHTIN_CR18_9 DHTY_9 -0.98
    DSLDIR_CR18_9 DSLBAL_CR18_9 -1.0
    DSLDIR_CR18_9 DSLPB_9 -1.0
    DSLDIR_CR18_9 DSLSUL_9 0.08052474691335985
    DHTIN_CR19_9 OBJ -2.0
    DHTIN_CR19_9 DSLBAL_CR19_9 -1.0
    DHTIN_CR19_9 DHTCAP_9 1.0
    DHTIN_CR19_9 DHTY_9 -0.98
    DSLDIR_CR19_9 DSLBAL_CR19_9 -1.0
    DSLDIR_CR19_9 DSLPB_9 -1.0
    DSLDIR_CR19_9 DSLSUL_9 0.6552914452864763
    LCODHT_9 LCOBAL_9 -1.0
    LCODHT_9 DHTCAP_9 1.0
    LCODHT_9 DHTY_9 -0.95
    LCOFO_9 LCOBAL_9 -1.0
    LCOFO_9 FOBAL_9 -1.0
    LCOFO_9 FOSUL_9 -2.5
    ULSD_9 DHTY_9 1.0
    ULSD_9 DSLPB_9 -1.0
    ULSD_9 DSLSUL_9 -0.049
    SELL_LPG_9 OBJ 49.5
    SELL_LPG_9 PBAL_LPG_9 -1.0
    SELL_LPG_9 DMAX_LPG_9 1.0
    SELL_LPG_9 DMIN_LPG_9 1.0
    SELL_GAS_9 OBJ 94.5
    SELL_GAS_9 PBAL_GAS_9 -1.0
    SELL_GAS_9 DMAX_GAS_9 1.0
    SELL_GAS_9 DMIN_GAS_9 1.0
    SELL_JET_9 OBJ 90.0
    SELL_JET_9 PBAL_JET_9 -1.0
    SELL_JET_9 DMAX_JET_9 1.0
    SELL_JET_9 DMIN_JET_9 1.0
    SELL_DSL_9 OBJ 88.2
    SELL_DSL_9 PBAL_DSL_9 -1.0
    SELL_DSL_9 DMAX_DSL_9 1.0
    SELL_DSL_9 DMIN_DSL_9 1.0
    SELL_FO_9 OBJ 54.0
    SELL_FO_9 PBAL_FO_9 -1.0
    SELL_FO_9 DMAX_FO_9 1.0
    SELL_FO_9 DMIN_FO_9 1.0
    PINV_LPG_9 OBJ -0.5
    PINV_LPG_9 PBAL_LPG_9 -1.0
    PINV_LPG_9 PBAL_LPG_10 1.0
    PINV_GAS_9 OBJ -0.5
    PINV_GAS_9 PBAL_GAS_9 -1.0
    PINV_GAS_9 PBAL_GAS_10 1.0
    PINV_JET_9 OBJ -0.5
    PINV_JET_9 PBAL_JET_9 -1.0
    PINV_JET_9 PBAL_JET_10 1.0
    PINV_DSL_9 OBJ -0.5
    PINV_DSL_9 PBAL_DSL_9 -1.0
    PINV_DSL_9 PBAL_DSL_10 1.0
    PINV_FO_9 OBJ -0.5
    PINV_FO_9 PBAL_FO_9 -1.0
    PINV_FO_9 PBAL_FO_10 1.0
    SHORT_LPG_9 OBJ -400.0
    SHORT_LPG_9 DMIN_LPG_9 1.0
    SHORT_GAS_9 OBJ -400.0
    SHORT_GAS_9 DMIN_GAS_9 1.0
    SHORT_JET_9 OBJ -400.0
    SHORT_JET_9 DMIN_JET_9 1.0
    SHORT_DSL_9 OBJ -400.0
    SHORT_DSL_9 DMIN_DSL_9 1.0
    SHORT_FO_9 OBJ -400.0
    SHORT_FO_9 DMIN_FO_9 1.0
    GASPOOL_9 GASBAL_9 1.0
    GASPOOL_9 PBAL_GAS_9 1.0
    JETPOOL_9 JETBAL_9 1.0
    JETPOOL_9 PBAL_JET_9 1.0
    KERJET_CR00_9 KERBAL_CR00_9 -1.0
    KERJET_CR00_9 JETBAL_9 -1.0
    KERJET_CR00_9 JETSUL_9 0.10905668767581322
    KERDSL_CR00_9 KERBAL_CR00_9 -1.0
    KERDSL_CR00_9 DSLPB_9 -1.0
    KERDSL_CR00_9 DSLSUL_9 0.3590566876758132
    KERJET_CR01_9 KERBAL_CR01_9 -1.0
    KERJET_CR01_9 JETBAL_9 -1.0
    KERJET_CR01_9 JETSUL_9 -0.08376331342415014
    KERDSL_CR01_9 KERBAL_CR01_9 -1.0
    KERDSL_CR01_9 DSLPB_9 -1.0
    KERDSL_CR01_9 DSLSUL_9 0.16623668657584983
    KERJET_CR02_9 KERBAL_CR02_9 -1.0
    KERJET_CR02_9 JETBAL_9 -1.0
    KERJET_CR02_9 JETSUL_9 -0.033243200151024055
    KERDSL_CR02_9 KERBAL_CR02_9 -1.0
    KERDSL_CR02_9 DSLPB_9 -1.0
    KERDSL_CR02_9 DSLSUL_9 0.21675679984897595
    KERJET_CR03_9 KERBAL_CR03_9 -1.0
    KERJET_CR03_9 JETBAL_9 -1.0
    KERJET_CR03_9 JETSUL_9 -0.17764705818344229
    KERDSL_CR03_9 KERBAL_CR03_9 -1.0
    KERDSL_CR03_9 DSLPB_9 -1.0
    KERDSL_CR03_9 DSLSUL_9 0.0723529418165577
    KERJET_CR04_9 KERBAL_CR04_9 -1.0
    KERJET_CR04_9 JETBAL_9 -1.0
    KERJET_CR04_9 JETSUL_9 0.11487513588980985
    KERDSL_CR04_9 KERBAL_CR04_9 -1.0
    KERDSL_CR04_9 DSLPB_9 -1.0
    KERDSL_CR04_9 DSLSUL_9 0.36487513588980985
    KERJET_CR05_9 KERBAL_CR05_9 -1.0
    KERJET_CR05_9 JETBAL_9 -1.0
    KERJET_CR05_9 JETSUL_9 -0.011775018143244831
    KERDSL_CR05_9 KERBAL_CR05_9 -1.0
    KERDSL_CR05_9 DSLPB_9 -1.0
    KERDSL_CR05_9 DSLSUL_9 0.23822498185675517
    KERJET_CR06_9 KERBAL_CR06_9 -1.0
    KERJET_CR06_9 JETBAL_9 -1.0
    KERJET_CR06_9 JETSUL_9 -0.029808575954508865
    KERDSL_CR06_9 KERBAL_CR06_9 -1.0
    KERDSL_CR06_9 DSLPB_9 -1.0
    KERDSL_CR06_9 DSLSUL_9 0.22019142404549114
    KERJET_CR07_9 KERBAL_CR07_9 -1.0
    KERJET_CR07_9 JETBAL_9 -1.0
    KERJET_CR07_9 JETSUL_9 -0.2712476417553882
    KERDSL_CR07_9 KERBAL_CR07_9 -1.0
    KERDSL_CR07_9 DSLPB_9 -1.0
    KERDSL_CR07_9 DSLSUL_9 -0.02124764175538822
    KERJET_CR08_9 KERBAL_CR08_9 -1.0
    KERJET_CR08_9 JETBAL_9 -1.0
    KERJET_CR08_9 JETSUL_9 -0.03407788647085286
    KERDSL_CR08_9 KERBAL_CR08_9 -1.0
    KERDSL_CR08_9 DSLPB_9 -1.0
    KERDSL_CR08_9 DSLSUL_9 0.21592211352914714
    KERJET_CR09_9 KERBAL_CR09_9 -1.0
    KERJET_CR09_9 JETBAL_9 -1.0
    KERJET_CR09_9 JETSUL_9 -0.28234525480556727
    KERDSL_CR09_9 KERBAL_CR09_9 -1.0
    KERDSL_CR09_9 DSLPB_9 -1.0
    KERDSL_CR09_9 DSLSUL_9 -0.0323452548055673
    KERJET_CR10_9 KERBAL_CR10_9 -1.0
    KERJET_CR10_9 JETBAL_9 -1.0
    KERJET_CR10_9 JETSUL_9 0.11955472215713753
    KERDSL_CR10_9 KERBAL_CR10_9 -1.0
    KERDSL_CR10_9 DSLPB_9 -1.0
    KERDSL_CR10_9 DSLSUL_9 0.3695547221571375
    KERJET_CR11_9 KERBAL_CR11_9 -1.0
    KERJET_CR11_9 JETBAL_9 -1.0
    KERJET_CR11_9 JETSUL_9 -0.07196173795362812
    KERDSL_CR11_9 KERBAL_CR11_9 -1.0
    KERDSL_CR11_9 DSLPB_9 -1.0
    KERDSL_CR11_9 DSLSUL_9 0.17803826204637185
    KERJET_CR12_9 KERBAL_CR12_9 -1.0
    KERJET_CR12_9 JETBAL_9 -1.0
    KERJET_CR12_9 JETSUL_9 0.10641134700745464
    KERDSL_CR12_9 KERBAL_CR12_9 -1.0
    KERDSL_CR12_9 DSLPB_9 -1.0
    KERDSL_CR12_9 DSLSUL_9 0.35641134700745464
    KERJET_CR13_9 KERBAL_CR13_9 -1.0
    KERJET_CR13_9 JETBAL_9 -1.0
    KERJET_CR13_9 JETSUL_9 -0.25267534898315597
    KERDSL_CR13_9 KERBAL_CR13_9 -1.0
    KERDSL_CR13_9 DSLPB_9 -1.0
    KERDSL_CR13_9 DSLSUL_9 -0.002675348983155995
    KERJET_CR14_9 KERBAL_CR14_9 -1.0
    KERJET_CR14_9 JETBAL_9 -1.0
    KERJET_CR14_9 JETSUL_9 -0.1052509462859165
    KERDSL_CR14_9 KERBAL_CR14_9 -1.0
    KERDSL_CR14_9 DSLPB_9 -1.0
    KERDSL_CR14_9 DSLSUL_9 0.14474905371408348
    KERJET_CR15_9 KERBAL_CR15_9 -1.0
    KERJET_CR15_9 JETBAL_9 -1.0
    KERJET_CR15_9 JETSUL_9 -0.27669299781507517
    KERDSL_CR15_9 KERBAL_CR15_9 -1.0
    KERDSL_CR15_9 DSLPB_9 -1.0
    KERDSL_CR15_9 DSLSUL_9 -0.026692997815075177
    KERJET_CR16_9 KERBAL_CR16_9 -1.0
    KERJET_CR16_9 JETBAL_9 -1.0
    KERJET_CR16_9 JETSUL_9 -0.044781224618532234
    KERDSL_CR16_9 KERBAL_CR16_9 -1.0
    KERDSL_CR16_9 DSLPB_9 -1.0
    KERDSL_CR16_9 DSLSUL_9 0.20521877538146777
    KERJET_CR17_9 KERBAL_CR17_9 -1.0
    KERJET_CR17_9 JETBAL_9 -1.0
    KERJET_CR17_9 JETSUL_9 0.12212342356934908
    KERDSL_CR17_9 KERBAL_CR17_9 -1.0
    KERDSL_CR17_9 DSLPB_9 -1.0
    KERDSL_CR17_9 DSLSUL_9 0.3721234235693491
    KERJET_CR18_9 KERBAL_CR18_9 -1.0
    KERJET_CR18_9 JETBAL_9 -1.0
    KERJET_CR18_9 JETSUL_9 -0.26736881327166
    KERDSL_CR18_9 KERBAL_CR18_9 -1.0
    KERDSL_CR18_9 DSLPB_9 -1.0
    KERDSL_CR18_9 DSLSUL_9 -0.01736881327166004
    KERJET_CR19_9 KERBAL_CR19_9 -1.0
    KERJET_CR19_9 JETBAL_9 -1.0
    KERJET_CR19_9 JETSUL_9 -0.1236771386783809
    KERDSL_CR19_9 KERBAL_CR19_9 -1.0
    KERDSL_CR19_9 DSLPB_9 -1.0
    KERDSL_CR19_9 DSLSUL_9 0.12632286132161907
    DSLPOOL_9 DSLPB_9 1.0
    DSLPOOL_9 PBAL_DSL_9 1.0
    LPGPOOL_9 LPGBAL_9 1.0
    LPGPOOL_9 PBAL_LPG_9 1.0
    FOPOOL_9 FOBAL_9 1.0
    FOPOOL_9 PBAL_FO_9 1.0
    BUY_CR00_10 OBJ -55.541251698860016
    BUY_CR00_10 CBAL_CR00_10 1.0
    CINV_CR00_10 OBJ -0.3
    CINV_CR00_10 CBAL_CR00_10 -1.0
    CINV_CR00_10 CBAL_CR00_11 1.0
    CDU_CR00_10 CBAL_CR00_10 -1.0
    CDU_CR00_10 CDUCAP_10 1.0
    CDU_CR00_10 YLPG_CR00_10 -0.013786055933968056
    CDU_CR00_10 YNAP_CR00_10 -0.1214444916358349
    CDU_CR00_10 YKER_CR00_10 -0.10646372452567733
    CDU_CR00_10 YDSL_CR00_10 -0.20292085263352289
    CDU_CR00_10 YVGO_CR00_10 -0.27390944719057636
    CDU_CR00_10 YRES_CR00_10 -0.28147542808042036
    BUY_CR01_10 OBJ -71.51019180487947
    BUY_CR01_10 CBAL_CR01_10 1.0
    CINV_CR01_10 OBJ -0.3
    CINV_CR01_10 CBAL_CR01_10 -1.0
    CINV_CR01_10 CBAL_CR01_11 1.0
    CDU_CR01_10 CBAL_CR01_10 -1.0
    CDU_CR01_10 CDUCAP_10 1.0
    CDU_CR01_10 YLPG_CR01_10 -0.025127543584387436
    CDU_CR01_10 YNAP_CR01_10 -0.2025917905849106
    CDU_CR01_10 YKER_CR01_10 -0.13410952106049506
    CDU_CR01_10 YDSL_CR01_10 -0.24728591651278542
    CDU_CR01_10 YVGO_CR01_10 -0.22897185950088417
    CDU_CR01_10 YRES_CR01_10 -0.16191336875653717
    BUY_CR02_10 OBJ -57.63912904690774
    BUY_CR02_10 CBAL_CR02_10 1.0
    CINV_CR02_10 OBJ -0.3
    CINV_CR02_10 CBAL_CR02_10 -1.0
    CINV_CR02_10 CBAL_CR02_11 1.0
    CDU_CR02_10 CBAL_CR02_10 -1.0
    CDU_CR02_10 CDUCAP_10 1.0
    CDU_CR02_10 YLPG_CR02_10 -0.013444753666275039
    CDU_CR02_10 YNAP_CR02_10 -0.11889710072836579
    CDU_CR02_10 YKER_CR02_10 -0.103840437143255
    CDU_CR02_10 YDSL_CR02_10 -0.21229612809407214
    CDU_CR02_10 YVGO_CR02_10 -0.2628713956905896
    CDU_CR02_10 YRES_CR02_10 -0.28865018467744247
    BUY_CR03_10 OBJ -64.3938059564779
    BUY_CR03_10 CBAL_CR03_10 1.0
    CINV_CR03_10 OBJ -0.3
    CINV_CR03_10 CBAL_CR03_10 -1.0
    CINV_CR03_10 CBAL_CR03_11 1.0
    CDU_CR03_10 CBAL_CR03_10 -1.0
    CDU_CR03_10 CDUCAP_10 1.0
    CDU_CR03_10 YLPG_CR03_10 -0.01400858068810675
    CDU_CR03_10 YNAP_CR03_10 -0.1424923117986131
    CDU_CR03_10 YKER_CR03_10 -0.10784088582669263
    CDU_CR03_10 YDSL_CR03_10 -0.19279120630762445
    CDU_CR03_10 YVGO_CR03_10 -0.28544626211923063
    CDU_CR03_10 YRES_CR03_10 -0.2574207532597324
    BUY_CR04_10 OBJ -68.42804415720632
    BUY_CR04_10 CBAL_CR04_10 1.0
    CINV_CR04_10 OBJ -0.3
    CINV_CR04_10 CBAL_CR04_10 -1.0
    CINV_CR04_10 CBAL_CR04_11 1.0
    CDU_CR04_10 CBAL_CR04_10 -1.0
    CDU_CR04_10 CDUCAP_10 1.0
    CDU_CR04_10 YLPG_CR04_10 -0.02335213093765316
    CDU_CR04_10 YNAP_CR04_10 -0.2292355396921612
    CDU_CR04_10 YKER_CR04_10 -0.14240695851543803
    CDU_CR04_10 YDSL_CR04_10 -0.24384363627499198
    CDU_CR04_10 YVGO_CR04_10 -0.2465326974706559
    CDU_CR04_10 YRES_CR04_10 -0.1146290371090997
    BUY_CR05_10 OBJ -61.981502855635085
    BUY_CR05_10 CBAL_CR05_10 1.0
    CINV_CR05_10 OBJ -0.3
    CINV_CR05_10 CBAL_CR05_10 -1.0
    CINV_CR05_10 CBAL_CR05_11 1.0
    CDU_CR05_10 CBAL_CR05_10 -1.0
    CDU_CR05_10 CDUCAP_10 1.0
    CDU_CR05_10 YLPG_CR05_10 -0.01735729802728813
    CDU_CR05_10 YNAP_CR05_10 -0.16608619710065003
    CDU_CR05_10 YKER_CR05_10 -0.1170544437563835
    CDU_CR05_10 YDSL_CR05_10 -0.22299235889970878
    CDU_CR05_10 YVGO_CR05_10 -0.2433490540516293
    CDU_CR05_10 YRES_CR05_10 -0.23316064816434035
    BUY_CR06_10 OBJ -59.90184481388088
    BUY_CR06_10 CBAL_CR06_10 1.0
    CINV_CR06_10 OBJ -0.3
    CINV_CR06_10 CBAL_CR06_10 -1.0
    CINV_CR06_10 CBAL_CR06_11 1.0
    CDU_CR06_10 CBAL_CR06_10 -1.0
    CDU_CR06_10 CDUCAP_10 1.0
    CDU_CR06_10 YLPG_CR06_10 -0.014219474855875663
    CDU_CR06_10 YNAP_CR06_10 -0.13746806025500902
    CDU_CR06_10 YKER_CR06_10 -0.10533897185985656
    CDU_CR06_10 YDSL_CR06_10 -0.20403840195434858
    CDU_CR06_10 YVGO_CR06_10 -0.26484358994429863
    CDU_CR06_10 YRES_CR06_10 -0.27409150113061165
    BUY_CR07_10 OBJ -68.90179942914644
    BUY_CR07_10 CBAL_CR07_10 1.0
    CINV_CR07_10 OBJ -0.3
    CINV_CR07_10 CBAL_CR07_10 -1.0
    CINV_CR07_10 CBAL_CR07_11 1.0
    CDU_CR07_10 CBAL_CR07_10 -1.0
    CDU_CR07_10 CDUCAP_10 1.0
    CDU_CR07_10 YLPG_CR07_10 -0.01678766142162217
    CDU_CR07_10 YNAP_CR07_10 -0.18341674311422207
    CDU_CR07_10 YKER_CR07_10 -0.13271469159016522
    CDU_CR07_10 YDSL_CR07_10 -0.2249127244045356
    CDU_CR07_10 YVGO_CR07_10 -0.24848613807316539
    CDU_CR07_10 YRES_CR07_10 -0.19368204139628944
    BUY_CR08_10 OBJ -66.4006290836587
    BUY_CR08_10 CBAL_CR08_10 1.0
    CINV_CR08_10 OBJ -0.3
    CINV_CR08_10 CBAL_CR08_10 -1.0
    CINV_CR08_10 CBAL_CR08_11 1.0
    CDU_CR08_10 CBAL_CR08_10 -1.0
    CDU_CR08_10 CDUCAP_10 1.0
    CDU_CR08_10 YLPG_CR08_10 -0.023930881960770135
    CDU_CR08_10 YNAP_CR08_10 -0.199474063989656
    CDU_CR08_10 YKER_CR08_10 -0.13012967624359006
    CDU_CR08_10 YDSL_CR08_10 -0.24906213509239003
    CDU_CR08_10 YVGO_CR08_10 -0.24247509330512357
    CDU_CR08_10 YRES_CR08_10 -0.15492814940847022
    BUY_CR09_10 OBJ -74.51039915517859
    BUY_CR09_10 CBAL_CR09_10 1.0
    CINV_CR09_10 OBJ -0.3
    CINV_CR09_10 CBAL_CR09_10 -1.0
    CINV_CR09_10 CBAL_CR09_11 1.0
    CDU_CR09_10 CBAL_CR09_10 -1.0
    CDU_CR09_10 CDUCAP_10 1.0
    CDU_CR09_10 YLPG_CR09_10 -0.0254414593142613
    CDU_CR09_10 YNAP_CR09_10 -0.2406668892422991
    CDU_CR09_10 YKER_CR09_10 -0.14150533274546892
    CDU_CR09_10 YDSL_CR09_10 -0.23713673044274025
    CDU_CR09_10 YVGO_CR09_10 -0.23566730460149374
    CDU_CR09_10 YRES_CR09_10 -0.11958228365373665
    BUY_CR10_10 OBJ -55.90649616955254
    BUY_CR10_10 CBAL_CR10_10 1.0
    CINV_CR10_10 OBJ -0.3
    CINV_CR10_10 CBAL_CR10_10 -1.0
    CINV_CR10_10 CBAL_CR10_11 1.0
    CDU_CR10_10 CBAL_CR10_10 -1.0
    CDU_CR10_10 CDUCAP_10 1.0
    CDU_CR10_10 YLPG_CR10_10 -0.012631058640766385
    CDU_CR10_10 YNAP_CR10_10 -0.11501159644639905
    CDU_CR10_10 YKER_CR10_10 -0.1080956731900355
    CDU_CR10_10 YDSL_CR10_10 -0.20982857494392457
    CDU_CR10_10 YVGO_CR10_10 -0.2722572086368098
    CDU_CR10_10 YRES_CR10_10 -0.28217588814206473
    BUY_CR11_10 OBJ -67.78601021865202
    BUY_CR11_10 CBAL_CR11_10 1.0
    CINV_CR11_10 OBJ -0.3
    CINV_CR11_10 CBAL_CR11_10 -1.0
    CINV_CR11_10 CBAL_CR11_11 1.0
    CDU_CR11_10 CBAL_CR11_10 -1.0
    CDU_CR11_10 CDUCAP_10 1.0
    CDU_CR11_10 YLPG_CR11_10 -0.018171926805686592
    CDU_CR11_10 YNAP_CR11_10 -0.18017303538659502
    CDU_CR11_10 YKER_CR11_10 -0.11622304467804759
    CDU_CR11_10 YDSL_CR11_10 -0.22678215323461023
    CDU_CR11_10 YVGO_CR11_10 -0.2637522217068048
    CDU_CR11_10 YRES_CR11_10 -0.19489761818825582
    BUY_CR12_10 OBJ -57.04873780054513
    BUY_CR12_10 CBAL_CR12_10 1.0
    CINV_CR12_10 OBJ -0.3
    CINV_CR12_10 CBAL_CR12_10 -1.0
    CINV_CR12_10 CBAL_CR12_11 1.0
    CDU_CR12_10 CBAL_CR12_10 -1.0
    CDU_CR12_10 CDUCAP_10 1.0
    CDU_CR12_10 YLPG_CR12_10 -0.016285402257558677
    CDU_CR12_10 YNAP_CR12_10 -0.1394251111460902
    CDU_CR12_10 YKER_CR12_10 -0.10627583407346515
    CDU_CR12_10 YDSL_CR12_10 -0.2004859030026821
    CDU_CR12_10 YVGO_CR12_10 -0.29053476615254664
    CDU_CR12_10 YRES_CR12_10 -0.2469929833676572
    BUY_CR13_10 OBJ -65.44836033989687
    BUY_CR13_10 CBAL_CR13_10 1.0
    CINV_CR13_10 OBJ -0.3
    CINV_CR13_10 CBAL_CR13_10 -1.0
    CINV_CR13_10 CBAL_CR13_11 1.0
    CDU_CR13_10 CBAL_CR13_10 -1.0
    CDU_CR13_10 CDUCAP_10 1.0
    CDU_CR13_10 YLPG_CR13_10 -0.015405562084299341
    CDU_CR13_10 YNAP_CR13_10 -0.1597372095049784
    CDU_CR13_10 YKER_CR13_10 -0.109230580221756
    CDU_CR13_10 YDSL_CR13_10 -0.20799117245133522
    CDU_CR13_10 YVGO_CR13_10 -0.2743070543343612
    CDU_CR13_10 YRES_CR13_10 -0.23332842140326976
    BUY_CR14_10 OBJ -59.73112087608794
    BUY_CR14_10 CBAL_CR14_10 1.0
    CINV_CR14_10 OBJ -0.3
    CINV_CR14_10 CBAL_CR14_10 -1.0
    CINV_CR14_10 CBAL_CR14_11 1.0
    CDU_CR14_10 CBAL_CR14_10 -1.0
    CDU_CR14_10 CDUCAP_10 1.0
    CDU_CR14_10 YLPG_CR14_10 -0.011676212845503672
    CDU_CR14_10 YNAP_CR14_10 -0.10963647957865116
    CDU_CR14_10 YKER_CR14_10 -0.09755861914812415
    CDU_CR14_10 YDSL_CR14_10 -0.22400035528460593
    CDU_CR14_10 YVGO_CR14_10 -0.27985390356413214
    CDU_CR14_10 YRES_CR14_10 -0.2772744295789829
    BUY_CR15_10 OBJ -61.21185699643166
    BUY_CR15_10 CBAL_CR15_10 1.0
    CINV_CR15_10 OBJ -0.3
    CINV_CR15_10 CBAL_CR15_10 -1.0
    CINV_CR15_10 CBAL_CR15_11 1.0
    CDU_CR15_10 CBAL_CR15_10 -1.0
    CDU_CR15_10 CDUCAP_10 1.0
    CDU_CR15_10 YLPG_CR15_10 -0.010625779986084445
    CDU_CR15_10 YNAP_CR15_10 -0.11766680402271243
    CDU_CR15_10 YKER_CR15_10 -0.09531893966264804
    CDU_CR15_10 YDSL_CR15_10 -0.2087175638151306
    CDU_CR15_10 YVGO_CR15_10 -0.2798835604956035
    CDU_CR15_10 YRES_CR15_10 -0.287787352017821
    BUY_CR16_10 OBJ -65.93119296925063
    BUY_CR16_10 CBAL_CR16_10 1.0
    CINV_CR16_10 OBJ -0.3
    CINV_CR16_10 CBAL_CR16_10 -1.0
    CINV_CR16_10 CBAL_CR16_11 1.0
    CDU_CR16_10 CBAL_CR16_10 -1.0
    CDU_CR16_10 CDUCAP_10 1.0
    CDU_CR16_10 YLPG_CR16_10 -0.021730435986974463
    CDU_CR16_10 YNAP_CR16_10 -0.22346814322949868
    CDU_CR16_10 YKER_CR16_10 -0.12962692092969477
    CDU_CR16_10 YDSL_CR16_10 -0.23580083169350696
    CDU_CR16_10 YVGO_CR16_10 -0.23197545191976185
    CDU_CR16_10 YRES_CR16_10 -0.1573982162405634
    BUY_CR17_10 OBJ -66.66001089607555
    BUY_CR17_10 CBAL_CR17_10 1.0
    CINV_CR17_10 OBJ -0.3
    CINV_CR17_10 CBAL_CR17_10 -1.0
    CINV_CR17_10 CBAL_CR17_11 1.0
    CDU_CR17_10 CBAL_CR17_10 -1.0
    CDU_CR17_10 CDUCAP_10 1.0
    CDU_CR17_10 YLPG_CR17_10 -0.023568928491133005
    CDU_CR17_10 YNAP_CR17_10 -0.24678008017283823
    CDU_CR17_10 YKER_CR17_10 -0.12826932733432603
    CDU_CR17_10 YDSL_CR17_10 -0.2495178182316694
    CDU_CR17_10 YVGO_CR17_10 -0.23510202280801157
    CDU_CR17_10 YRES_CR17_10 -0.1167618229620217
    BUY_CR18_10 OBJ -73.66548928438608
    BUY_CR18_10 CBAL_CR18_10 1.0
    CINV_CR18_10 OBJ -0.3
    CINV_CR18_10 CBAL_CR18_10 -1.0
    CINV_CR18_10 CBAL_CR18_11 1.0
    CDU_CR18_10 CBAL_CR18_10 -1.0
    CDU_CR18_10 CDUCAP_10 1.0
    CDU_CR18_10 YLPG_CR18_10 -0.02478422291723085
    CDU_CR18_10 YNAP_CR18_10 -0.23955258573301338
    CDU_CR18_10 YKER_CR18_10 -0.1322077813000583
    CDU_CR18_10 YDSL_CR18_10 -0.21167154879043004
    CDU_CR18_10 YVGO_CR18_10 -0.24506150244942554
    CDU_CR18_10 YRES_CR18_10 -0.146722358809842
    BUY_CR19_10 OBJ -63.93268029577398
    BUY_CR19_10 CBAL_CR19_10 1.0
    CINV_CR19_10 OBJ -0.3
    CINV_CR19_10 CBAL_CR19_10 -1.0
    CINV_CR19_10 CBAL_CR19_11 1.0
    CDU_CR19_10 CBAL_CR19_10 -1.0
    CDU_CR19_10 CDUCAP_10 1.0
    CDU_CR19_10 YLPG_CR19_10 -0.01626067739955701
    CDU_CR19_10 YNAP_CR19_10 -0.1715066574732045
    CDU_CR19_10 YKER_CR19_10 -0.11836465284470915
    CDU_CR19_10 YDSL_CR19_10 -0.20874443204167248
    CDU_CR19_10 YVGO_CR19_10 -0.2445178967491453
    CDU_CR19_10 YRES_CR19_10 -0.24060568349171155
    LPG_CR00_10 YLPG_CR00_10 1.0
    LPG_CR00_10 LPGBAL_10 -1.0
    NAP_CR00_10 YNAP_CR00_10 1.0
    NAP_CR00_10 NAPBAL_CR00_10 1.0
    KER_CR00_10 YKER_CR00_10 1.0
    KER_CR00_10 KERBAL_CR00_10 1.0
    DSL_CR00_10 YDSL_CR00_10 1.0
    DSL_CR00_10 DSLBAL_CR00_10 1.0
    VGO_CR00_10 YVGO_CR00_10 1.0
    VGO_CR00_10 VGOBAL_CR00_10 1.0
    RES_CR00_10 YRES_CR00_10 1.0
    RES_CR00_10 RESSPLIT_CR00_10 1.0
    LPG_CR01_10 YLPG_CR01_10 1.0
    LPG_CR01_10 LPGBAL_10 -1.0
    NAP_CR01_10 YNAP_CR01_10 1.0
    NAP_CR01_10 NAPBAL_CR01_10 1.0
    KER_CR01_10 YKER_CR01_10 1.0
    KER_CR01_10 KERBAL_CR01_10 1.0
    DSL_CR01_10 YDSL_CR01_10 1.0
    DSL_CR01_10 DSLBAL_CR01_10 1.0
    VGO_CR01_10 YVGO_CR01_10 1.0
    VGO_CR01_10 VGOBAL_CR01_10 1.0
    RES_CR01_10 YRES_CR01_10 1.0
    RES_CR01_10 RESSPLIT_CR01_10 1.0
    LPG_CR02_10 YLPG_CR02_10 1.0
    LPG_CR02_10 LPGBAL_10 -1.0
    NAP_CR02_10 YNAP_CR02_10 1.0
    NAP_CR02_10 NAPBAL_CR02_10 1.0
    KER_CR02_10 YKER_CR02_10 1.0
    KER_CR02_10 KERBAL_CR02_10 1.0
    DSL_CR02_10 YDSL_CR02_10 1.0
    DSL_CR02_10 DSLBAL_CR02_10 1.0
    VGO_CR02_10 YVGO_CR02_10 1.0
    VGO_CR02_10 VGOBAL_CR02_10 1.0
    RES_CR02_10 YRES_CR02_10 1.0
    RES_CR02_10 RESSPLIT_CR02_10 1.0
    LPG_CR03_10 YLPG_CR03_10 1.0
    LPG_CR03_10 LPGBAL_10 -1.0
    NAP_CR03_10 YNAP_CR03_10 1.0
    NAP_CR03_10 NAPBAL_CR03_10 1.0
    KER_CR03_10 YKER_CR03_10 1.0
    KER_CR03_10 KERBAL_CR03_10 1.0
    DSL_CR03_10 YDSL_CR03_10 1.0
    DSL_CR03_10 DSLBAL_CR03_10 1.0
    VGO_CR03_10 YVGO_CR03_10 1.0
    VGO_CR03_10 VGOBAL_CR03_10 1.0
    RES_CR03_10 YRES_CR03_10 1.0
    RES_CR03_10 RESSPLIT_CR03_10 1.0
    LPG_CR04_10 YLPG_CR04_10 1.0
    LPG_CR04_10 LPGBAL_10 -1.0
    NAP_CR04_10 YNAP_CR04_10 1.0
    NAP_CR04_10 NAPBAL_CR04_10 1.0
    KER_CR04_10 YKER_CR04_10 1.0
    KER_CR04_10 KERBAL_CR04_10 1.0
    DSL_CR04_10 YDSL_CR04_10 1.0
    DSL_CR04_10 DSLBAL_CR04_10 1.0
    VGO_CR04_10 YVGO_CR04_10 1.0
    VGO_CR04_10 VGOBAL_CR04_10 1.0
    RES_CR04_10 YRES_CR04_10 1.0
    RES_CR04_10 RESSPLIT_CR04_10 1.0
    LPG_CR05_10 YLPG_CR05_10 1.0
    LPG_CR05_10 LPGBAL_10 -1.0
    NAP_CR05_10 YNAP_CR05_10 1.0
    NAP_CR05_10 NAPBAL_CR05_10 1.0
    KER_CR05_10 YKER_CR05_10 1.0
    KER_CR05_10 KERBAL_CR05_10 1.0
    DSL_CR05_10 YDSL_CR05_10 1.0
    DSL_CR05_10 DSLBAL_CR05_10 1.0
    VGO_CR05_10 YVGO_CR05_10 1.0
    VGO_CR05_10 VGOBAL_CR05_10 1.0
    RES_CR05_10 YRES_CR05_10 1.0
    RES_CR05_10 RESSPLIT_CR05_10 1.0
    LPG_CR06_10 YLPG_CR06_10 1.0
    LPG_CR06_10 LPGBAL_10 -1.0
    NAP_CR06_10 YNAP_CR06_10 1.0
    NAP_CR06_10 NAPBAL_CR06_10 1.0
    KER_CR06_10 YKER_CR06_10 1.0
    KER_CR06_10 KERBAL_CR06_10 1.0
    DSL_CR06_10 YDSL_CR06_10 1.0
    DSL_CR06_10 DSLBAL_CR06_10 1.0
    VGO_CR06_10 YVGO_CR06_10 1.0
    VGO_CR06_10 VGOBAL_CR06_10 1.0
    RES_CR06_10 YRES_CR06_10 1.0
    RES_CR06_10 RESSPLIT_CR06_10 1.0
    LPG_CR07_10 YLPG_CR07_10 1.0
    LPG_CR07_10 LPGBAL_10 -1.0
    NAP_CR07_10 YNAP_CR07_10 1.0
    NAP_CR07_10 NAPBAL_CR07_10 1.0
    KER_CR07_10 YKER_CR07_10 1.0
    KER_CR07_10 KERBAL_CR07_10 1.0
    DSL_CR07_10 YDSL_CR07_10 1.0
    DSL_CR07_10 DSLBAL_CR07_10 1.0
    VGO_CR07_10 YVGO_CR07_10 1.0
    VGO_CR07_10 VGOBAL_CR07_10 1.0
    RES_CR07_10 YRES_CR07_10 1.0
    RES_CR07_10 RESSPLIT_CR07_10 1.0
    LPG_CR08_10 YLPG_CR08_10 1.0
    LPG_CR08_10 LPGBAL_10 -1.0
    NAP_CR08_10 YNAP_CR08_10 1.0
    NAP_CR08_10 NAPBAL_CR08_10 1.0
    KER_CR08_10 YKER_CR08_10 1.0
    KER_CR08_10 KERBAL_CR08_10 1.0
    DSL_CR08_10 YDSL_CR08_10 1.0
    DSL_CR08_10 DSLBAL_CR08_10 1.0
    VGO_CR08_10 YVGO_CR08_10 1.0
    VGO_CR08_10 VGOBAL_CR08_10 1.0
    RES_CR08_10 YRES_CR08_10 1.0
    RES_CR08_10 RESSPLIT_CR08_10 1.0
    LPG_CR09_10 YLPG_CR09_10 1.0
    LPG_CR09_10 LPGBAL_10 -1.0
    NAP_CR09_10 YNAP_CR09_10 1.0
    NAP_CR09_10 NAPBAL_CR09_10 1.0
    KER_CR09_10 YKER_CR09_10 1.0
    KER_CR09_10 KERBAL_CR09_10 1.0
    DSL_CR09_10 YDSL_CR09_10 1.0
    DSL_CR09_10 DSLBAL_CR09_10 1.0
    VGO_CR09_10 YVGO_CR09_10 1.0
    VGO_CR09_10 VGOBAL_CR09_10 1.0
    RES_CR09_10 YRES_CR09_10 1.0
    RES_CR09_10 RESSPLIT_CR09_10 1.0
    LPG_CR10_10 YLPG_CR10_10 1.0
    LPG_CR10_10 LPGBAL_10 -1.0
    NAP_CR10_10 YNAP_CR10_10 1.0
    NAP_CR10_10 NAPBAL_CR10_10 1.0
    KER_CR10_10 YKER_CR10_10 1.0
    KER_CR10_10 KERBAL_CR10_10 1.0
    DSL_CR10_10 YDSL_CR10_10 1.0
    DSL_CR10_10 DSLBAL_CR10_10 1.0
    VGO_CR10_10 YVGO_CR10_10 1.0
    VGO_CR10_10 VGOBAL_CR10_10 1.0
    RES_CR10_10 YRES_CR10_10 1.0
    RES_CR10_10 RESSPLIT_CR10_10 1.0
    LPG_CR11_10 YLPG_CR11_10 1.0
    LPG_CR11_10 LPGBAL_10 -1.0
    NAP_CR11_10 YNAP_CR11_10 1.0
    NAP_CR11_10 NAPBAL_CR11_10 1.0
    KER_CR11_10 YKER_CR11_10 1.0
    KER_CR11_10 KERBAL_CR11_10 1.0
    DSL_CR11_10 YDSL_CR11_10 1.0
    DSL_CR11_10 DSLBAL_CR11_10 1.0
    VGO_CR11_10 YVGO_CR11_10 1.0
    VGO_CR11_10 VGOBAL_CR11_10 1.0
    RES_CR11_10 YRES_CR11_10 1.0
    RES_CR11_10 RESSPLIT_CR11_10 1.0
    LPG_CR12_10 YLPG_CR12_10 1.0
    LPG_CR12_10 LPGBAL_10 -1.0
    NAP_CR12_10 YNAP_CR12_10 1.0
    NAP_CR12_10 NAPBAL_CR12_10 1.0
    KER_CR12_10 YKER_CR12_10 1.0
    KER_CR12_10 KERBAL_CR12_10 1.0
    DSL_CR12_10 YDSL_CR12_10 1.0
    DSL_CR12_10 DSLBAL_CR12_10 1.0
    VGO_CR12_10 YVGO_CR12_10 1.0
    VGO_CR12_10 VGOBAL_CR12_10 1.0
    RES_CR12_10 YRES_CR12_10 1.0
    RES_CR12_10 RESSPLIT_CR12_10 1.0
    LPG_CR13_10 YLPG_CR13_10 1.0
    LPG_CR13_10 LPGBAL_10 -1.0
    NAP_CR13_10 YNAP_CR13_10 1.0
    NAP_CR13_10 NAPBAL_CR13_10 1.0
    KER_CR13_10 YKER_CR13_10 1.0
    KER_CR13_10 KERBAL_CR13_10 1.0
    DSL_CR13_10 YDSL_CR13_10 1.0
    DSL_CR13_10 DSLBAL_CR13_10 1.0
    VGO_CR13_10 YVGO_CR13_10 1.0
    VGO_CR13_10 VGOBAL_CR13_10 1.0
    RES_CR13_10 YRES_CR13_10 1.0
    RES_CR13_10 RESSPLIT_CR13_10 1.0
    LPG_CR14_10 YLPG_CR14_10 1.0
    LPG_CR14_10 LPGBAL_10 -1.0
    NAP_CR14_10 YNAP_CR14_10 1.0
    NAP_CR14_10 NAPBAL_CR14_10 1.0
    KER_CR14_10 YKER_CR14_10 1.0
    KER_CR14_10 KERBAL_CR14_10 1.0
    DSL_CR14_10 YDSL_CR14_10 1.0
    DSL_CR14_10 DSLBAL_CR14_10 1.0
    VGO_CR14_10 YVGO_CR14_10 1.0
    VGO_CR14_10 VGOBAL_CR14_10 1.0
    RES_CR14_10 YRES_CR14_10 1.0
    RES_CR14_10 RESSPLIT_CR14_10 1.0
    LPG_CR15_10 YLPG_CR15_10 1.0
    LPG_CR15_10 LPGBAL_10 -1.0
    NAP_CR15_10 YNAP_CR15_10 1.0
    NAP_CR15_10 NAPBAL_CR15_10 1.0
    KER_CR15_10 YKER_CR15_10 1.0
    KER_CR15_10 KERBAL_CR15_10 1.0
    DSL_CR15_10 YDSL_CR15_10 1.0
    DSL_CR15_10 DSLBAL_CR15_10 1.0
    VGO_CR15_10 YVGO_CR15_10 1.0
    VGO_CR15_10 VGOBAL_CR15_10 1.0
    RES_CR15_10 YRES_CR15_10 1.0
    RES_CR15_10 RESSPLIT_CR15_10 1.0
    LPG_CR16_10 YLPG_CR16_10 1.0
    LPG_CR16_10 LPGBAL_10 -1.0
    NAP_CR16_10 YNAP_CR16_10 1.0
    NAP_CR16_10 NAPBAL_CR16_10 1.0
    KER_CR16_10 YKER_CR16_10 1.0
    KER_CR16_10 KERBAL_CR16_10 1.0
    DSL_CR16_10 YDSL_CR16_10 1.0
    DSL_CR16_10 DSLBAL_CR16_10 1.0
    VGO_CR16_10 YVGO_CR16_10 1.0
    VGO_CR16_10 VGOBAL_CR16_10 1.0
    RES_CR16_10 YRES_CR16_10 1.0
    RES_CR16_10 RESSPLIT_CR16_10 1.0
    LPG_CR17_10 YLPG_CR17_10 1.0
    LPG_CR17_10 LPGBAL_10 -1.0
    NAP_CR17_10 YNAP_CR17_10 1.0
    NAP_CR17_10 NAPBAL_CR17_10 1.0
    KER_CR17_10 YKER_CR17_10 1.0
    KER_CR17_10 KERBAL_CR17_10 1.0
    DSL_CR17_10 YDSL_CR17_10 1.0
    DSL_CR17_10 DSLBAL_CR17_10 1.0
    VGO_CR17_10 YVGO_CR17_10 1.0
    VGO_CR17_10 VGOBAL_CR17_10 1.0
    RES_CR17_10 YRES_CR17_10 1.0
    RES_CR17_10 RESSPLIT_CR17_10 1.0
    LPG_CR18_10 YLPG_CR18_10 1.0
    LPG_CR18_10 LPGBAL_10 -1.0
    NAP_CR18_10 YNAP_CR18_10 1.0
    NAP_CR18_10 NAPBAL_CR18_10 1.0
    KER_CR18_10 YKER_CR18_10 1.0
    KER_CR18_10 KERBAL_CR18_10 1.0
    DSL_CR18_10 YDSL_CR18_10 1.0
    DSL_CR18_10 DSLBAL_CR18_10 1.0
    VGO_CR18_10 YVGO_CR18_10 1.0
    VGO_CR18_10 VGOBAL_CR18_10 1.0
    RES_CR18_10 YRES_CR18_10 1.0
    RES_CR18_10 RESSPLIT_CR18_10 1.0
    LPG_CR19_10 YLPG_CR19_10 1.0
    LPG_CR19_10 LPGBAL_10 -1.0
    NAP_CR19_10 YNAP_CR19_10 1.0
    NAP_CR19_10 NAPBAL_CR19_10 1.0
    KER_CR19_10 YKER_CR19_10 1.0
    KER_CR19_10 KERBAL_CR19_10 1.0
    DSL_CR19_10 YDSL_CR19_10 1.0
    DSL_CR19_10 DSLBAL_CR19_10 1.0
    VGO_CR19_10 YVGO_CR19_10 1.0
    VGO_CR19_10 VGOBAL_CR19_10 1.0
    RES_CR19_10 YRES_CR19_10 1.0
    RES_CR19_10 RESSPLIT_CR19_10 1.0
    VDUIN_CR00_10 RESSPLIT_CR00_10 -1.0
    VDUIN_CR00_10 VDUY1_CR00_10 -0.45
    VDUIN_CR00_10 VDUY2_CR00_10 -0.55
    VDUIN_CR00_10 VDUCAP_10 1.0
    RESFO_CR00_10 RESSPLIT_CR00_10 -1.0
    RESFO_CR00_10 FOBAL_10 -1.0
    RESFO_CR00_10 FOSUL_10 1.9540891690108433
    VGO2_CR00_10 VDUY1_CR00_10 1.0
    VGO2_CR00_10 VGOBAL_CR00_10 1.0
    VR_CR00_10 VDUY2_CR00_10 1.0
    VR_CR00_10 FOBAL_10 -1.0
    VR_CR00_10 FOSUL_10 3.5903159197140964
    VDUIN_CR01_10 RESSPLIT_CR01_10 -1.0
    VDUIN_CR01_10 VDUY1_CR01_10 -0.45
    VDUIN_CR01_10 VDUY2_CR01_10 -0.55
    VDUIN_CR01_10 VDUCAP_10 1.0
    RESFO_CR01_10 RESSPLIT_CR01_10 -1.0
    RESFO_CR01_10 FOBAL_10 -1.0
    RESFO_CR01_10 FOSUL_10 -0.6168441789886687
    VGO2_CR01_10 VDUY1_CR01_10 1.0
    VGO2_CR01_10 VGOBAL_CR01_10 1.0
    VR_CR01_10 VDUY2_CR01_10 1.0
    VR_CR01_10 FOBAL_10 -1.0
    VR_CR01_10 FOSUL_10 0.24810256731473057
    VDUIN_CR02_10 RESSPLIT_CR02_10 -1.0
    VDUIN_CR02_10 VDUY1_CR02_10 -0.45
    VDUIN_CR02_10 VDUY2_CR02_10 -0.55
    VDUIN_CR02_10 VDUCAP_10 1.0
    RESFO_CR02_10 RESSPLIT_CR02_10 -1.0
    RESFO_CR02_10 FOBAL_10 -1.0
    RESFO_CR02_10 FOSUL_10 0.05675733131967897
    VGO2_CR02_10 VDUY1_CR02_10 1.0
    VGO2_CR02_10 VGOBAL_CR02_10 1.0
    VR_CR02_10 VDUY2_CR02_10 1.0
    VR_CR02_10 FOBAL_10 -1.0
    VR_CR02_10 FOSUL_10 1.1237845307155832
    VDUIN_CR03_10 RESSPLIT_CR03_10 -1.0
    VDUIN_CR03_10 VDUY1_CR03_10 -0.45
    VDUIN_CR03_10 VDUY2_CR03_10 -0.55
    VDUIN_CR03_10 VDUCAP_10 1.0
    RESFO_CR03_10 RESSPLIT_CR03_10 -1.0
    RESFO_CR03_10 FOBAL_10 -1.0
    RESFO_CR03_10 FOSUL_10 -1.8686274424458973
    VGO2_CR03_10 VDUY1_CR03_10 1.0
    VGO2_CR03_10 VGOBAL_CR03_10 1.0
    VR_CR03_10 VDUY2_CR03_10 1.0
    VR_CR03_10 FOBAL_10 -1.0
    VR_CR03_10 FOSUL_10 -1.3792156751796663
    VDUIN_CR04_10 RESSPLIT_CR04_10 -1.0
    VDUIN_CR04_10 VDUY1_CR04_10 -0.45
    VDUIN_CR04_10 VDUY2_CR04_10 -0.55
    VDUIN_CR04_10 VDUCAP_10 1.0
    RESFO_CR04_10 RESSPLIT_CR04_10 -1.0
    RESFO_CR04_10 FOBAL_10 -1.0
    RESFO_CR04_10 FOSUL_10 2.031668478530798
    VGO2_CR04_10 VDUY1_CR04_10 1.0
    VGO2_CR04_10 VGOBAL_CR04_10 1.0
    VR_CR04_10 VDUY2_CR04_10 1.0
    VR_CR04_10 FOBAL_10 -1.0
    VR_CR04_10 FOSUL_10 3.6911690220900377
    VDUIN_CR05_10 RESSPLIT_CR05_10 -1.0
    VDUIN_CR05_10 VDUY1_CR05_10 -0.45
    VDUIN_CR05_10 VDUY2_CR05_10 -0.55
    VDUIN_CR05_10 VDUCAP_10 1.0
    RESFO_CR05_10 RESSPLIT_CR05_10 -1.0
    RESFO_CR05_10 FOBAL_10 -1.0
    RESFO_CR05_10 FOSUL_10 0.3429997580900688
    VGO2_CR05_10 VDUY1_CR05_10 1.0
    VGO2_CR05_10 VGOBAL_CR05_10 1.0
    VR_CR05_10 VDUY2_CR05_10 1.0
    VR_CR05_10 FOBAL_10 -1.0
    VR_CR05_10 FOSUL_10 1.4958996855170898
    VDUIN_CR06_10 RESSPLIT_CR06_10 -1.0
    VDUIN_CR06_10 VDUY1_CR06_10 -0.45
    VDUIN_CR06_10 VDUY2_CR06_10 -0.55
    VDUIN_CR06_10 VDUCAP_10 1.0
    RESFO_CR06_10 RESSPLIT_CR06_10 -1.0
    RESFO_CR06_10 FOBAL_10 -1.0
    RESFO_CR06_10 FOSUL_10 0.10255232060654862
    VGO2_CR06_10 VDUY1_CR06_10 1.0
    VGO2_CR06_10 VGOBAL_CR06_10 1.0
    VR_CR06_10 VDUY2_CR06_10 1.0
    VR_CR06_10 FOBAL_10 -1.0
    VR_CR06_10 FOSUL_10 1.1833180167885136
    VDUIN_CR07_10 RESSPLIT_CR07_10 -1.0
    VDUIN_CR07_10 VDUY1_CR07_10 -0.45
    VDUIN_CR07_10 VDUY2_CR07_10 -0.55
    VDUIN_CR07_10 VDUCAP_10 1.0
    RESFO_CR07_10 RESSPLIT_CR07_10 -1.0
    RESFO_CR07_10 FOBAL_10 -1.0
    RESFO_CR07_10 FOSUL_10 -3.116635223405176
    VGO2_CR07_10 VDUY1_CR07_10 1.0
    VGO2_CR07_10 VGOBAL_CR07_10 1.0
    VR_CR07_10 VDUY2_CR07_10 1.0
    VR_CR07_10 FOBAL_10 -1.0
    VR_CR07_10 FOSUL_10 -3.001625790426729
    VDUIN_CR08_10 RESSPLIT_CR08_10 -1.0
    VDUIN_CR08_10 VDUY1_CR08_10 -0.45
    VDUIN_CR08_10 VDUY2_CR08_10 -0.55
    VDUIN_CR08_10 VDUCAP_10 1.0
    RESFO_CR08_10 RESSPLIT_CR08_10 -1.0
    RESFO_CR08_10 FOBAL_10 -1.0
    RESFO_CR08_10 FOSUL_10 0.0456281803886287
    VGO2_CR08_10 VDUY1_CR08_10 1.0
    VGO2_CR08_10 VGOBAL_CR08_10 1.0
    VR_CR08_10 VDUY2_CR08_10 1.0
    VR_CR08_10 FOBAL_10 -1.0
    VR_CR08_10 FOSUL_10 1.109316634505218
    VDUIN_CR09_10 RESSPLIT_CR09_10 -1.0
    VDUIN_CR09_10 VDUY1_CR09_10 -0.45
    VDUIN_CR09_10 VDUY2_CR09_10 -0.55
    VDUIN_CR09_10 VDUCAP_10 1.0
    RESFO_CR09_10 RESSPLIT_CR09_10 -1.0
    RESFO_CR09_10 FOBAL_10 -1.0
    RESFO_CR09_10 FOSUL_10 -3.264603397407564
    VGO2_CR09_10 VDUY1_CR09_10 1.0
    VGO2_CR09_10 VGOBAL_CR09_10 1.0
    VR_CR09_10 VDUY2_CR09_10 1.0
    VR_CR09_10 FOBAL_10 -1.0
    VR_CR09_10 FOSUL_10 -3.1939844166298332
    VDUIN_CR10_10 RESSPLIT_CR10_10 -1.0
    VDUIN_CR10_10 VDUY1_CR10_10 -0.45
    VDUIN_CR10_10 VDUY2_CR10_10 -0.55
    VDUIN_CR10_10 VDUCAP_10 1.0
    RESFO_CR10_10 RESSPLIT_CR10_10 -1.0
    RESFO_CR10_10 FOBAL_10 -1.0
    RESFO_CR10_10 FOSUL_10 2.094062962095167
    VGO2_CR10_10 VDUY1_CR10_10 1.0
    VGO2_CR10_10 VGOBAL_CR10_10 1.0
    VR_CR10_10 VDUY2_CR10_10 1.0
    VR_CR10_10 FOBAL_10 -1.0
    VR_CR10_10 FOSUL_10 3.7722818507237177
    VDUIN_CR11_10 RESSPLIT_CR11_10 -1.0
    VDUIN_CR11_10 VDUY1_CR11_10 -0.45
    VDUIN_CR11_10 VDUY2_CR11_10 -0.55
    VDUIN_CR11_10 VDUCAP_10 1.0
    RESFO_CR11_10 RESSPLIT_CR11_10 -1.0
    RESFO_CR11_10 FOBAL_10 -1.0
    RESFO_CR11_10 FOSUL_10 -0.4594898393817082
    VGO2_CR11_10 VDUY1_CR11_10 1.0
    VGO2_CR11_10 VGOBAL_CR11_10 1.0
    VR_CR11_10 VDUY2_CR11_10 1.0
    VR_CR11_10 FOBAL_10 -1.0
    VR_CR11_10 FOSUL_10 0.4526632088037794
    VDUIN_CR12_10 RESSPLIT_CR12_10 -1.0
    VDUIN_CR12_10 VDUY1_CR12_10 -0.45
    VDUIN_CR12_10 VDUY2_CR12_10 -0.55
    VDUIN_CR12_10 VDUCAP_10 1.0
    RESFO_CR12_10 RESSPLIT_CR12_10 -1.0
    RESFO_CR12_10 FOBAL_10 -1.0
    RESFO_CR12_10 FOSUL_10 1.9188179600993953
    VGO2_CR12_10 VDUY1_CR12_10 1.0
    VGO2_CR12_10 VGOBAL_CR12_10 1.0
    VR_CR12_10 VDUY2_CR12_10 1.0
    VR_CR12_10 FOBAL_10 -1.0
    VR_CR12_10 FOSUL_10 3.544463348129214
    VDUIN_CR13_10 RESSPLIT_CR13_10 -1.0
    VDUIN_CR13_10 VDUY1_CR13_10 -0.45
    VDUIN_CR13_10 VDUY2_CR13_10 -0.55
    VDUIN_CR13_10 VDUCAP_10 1.0
    RESFO_CR13_10 RESSPLIT_CR13_10 -1.0
    RESFO_CR13_10 FOBAL_10 -1.0
    RESFO_CR13_10 FOSUL_10 -2.8690046531087465
    VGO2_CR13_10 VDUY1_CR13_10 1.0
    VGO2_CR13_10 VGOBAL_CR13_10 1.0
    VR_CR13_10 VDUY2_CR13_10 1.0
    VR_CR13_10 FOBAL_10 -1.0
    VR_CR13_10 FOSUL_10 -2.6797060490413704
    VDUIN_CR14_10 RESSPLIT_CR14_10 -1.0
    VDUIN_CR14_10 VDUY1_CR14_10 -0.45
    VDUIN_CR14_10 VDUY2_CR14_10 -0.55
    VDUIN_CR14_10 VDUCAP_10 1.0
    RESFO_CR14_10 RESSPLIT_CR14_10 -1.0
    RESFO_CR14_10 FOBAL_10 -1.0
    RESFO_CR14_10 FOSUL_10 -0.9033459504788866
    VGO2_CR14_10 VDUY1_CR14_10 1.0
    VGO2_CR14_10 VGOBAL_CR14_10 1.0
    VR_CR14_10 VDUY2_CR14_10 1.0
    VR_CR14_10 FOBAL_10 -1.0
    VR_CR14_10 FOSUL_10 -0.12434973562255225
    VDUIN_CR15_10 RESSPLIT_CR15_10 -1.0
    VDUIN_CR15_10 VDUY1_CR15_10 -0.45
    VDUIN_CR15_10 VDUY2_CR15_10 -0.55
    VDUIN_CR15_10 VDUCAP_10 1.0
    RESFO_CR15_10 RESSPLIT_CR15_10 -1.0
    RESFO_CR15_10 FOBAL_10 -1.0
    RESFO_CR15_10 FOSUL_10 -3.189239970867669
    VGO2_CR15_10 VDUY1_CR15_10 1.0
    VGO2_CR15_10 VGOBAL_CR15_10 1.0
    VR_CR15_10 VDUY2_CR15_10 1.0
    VR_CR15_10 FOBAL_10 -1.0
    VR_CR15_10 FOSUL_10 -3.0960119621279696
    VDUIN_CR16_10 RESSPLIT_CR16_10 -1.0
    VDUIN_CR16_10 VDUY1_CR16_10 -0.45
    VDUIN_CR16_10 VDUY2_CR16_10 -0.55
    VDUIN_CR16_10 VDUCAP_10 1.0
    RESFO_CR16_10 RESSPLIT_CR16_10 -1.0
    RESFO_CR16_10 FOBAL_10 -1.0
    RESFO_CR16_10 FOSUL_10 -0.09708299491376327
    VGO2_CR16_10 VDUY1_CR16_10 1.0
    VGO2_CR16_10 VGOBAL_CR16_10 1.0
    VR_CR16_10 VDUY2_CR16_10 1.0
    VR_CR16_10 FOBAL_10 -1.0
    VR_CR16_10 FOSUL_10 0.9237921066121082
    VDUIN_CR17_10 RESSPLIT_CR17_10 -1.0
    VDUIN_CR17_10 VDUY1_CR17_10 -0.45
    VDUIN_CR17_10 VDUY2_CR17_10 -0.55
    VDUIN_CR17_10 VDUCAP_10 1.0
    RESFO_CR17_10 RESSPLIT_CR17_10 -1.0
    RESFO_CR17_10 FOBAL_10 -1.0
    RESFO_CR17_10 FOSUL_10 2.128312314257988
    VGO2_CR17_10 VDUY1_CR17_10 1.0
    VGO2_CR17_10 VGOBAL_CR17_10 1.0
    VR_CR17_10 VDUY2_CR17_10 1.0
    VR_CR17_10 FOBAL_10 -1.0
    VR_CR17_10 FOSUL_10 3.8168060085353845
    VDUIN_CR18_10 RESSPLIT_CR18_10 -1.0
    VDUIN_CR18_10 VDUY1_CR18_10 -0.45
    VDUIN_CR18_10 VDUY2_CR18_10 -0.55
    VDUIN_CR18_10 VDUCAP_10 1.0
    RESFO_CR18_10 RESSPLIT_CR18_10 -1.0
    RESFO_CR18_10 FOBAL_10 -1.0
    RESFO_CR18_10 FOSUL_10 -3.0649175102888004
    VGO2_CR18_10 VDUY1_CR18_10 1.0
    VGO2_CR18_10 VGOBAL_CR18_10 1.0
    VR_CR18_10 VDUY2_CR18_10 1.0
    VR_CR18_10 FOBAL_10 -1.0
    VR_CR18_10 FOSUL_10 -2.9343927633754405
    VDUIN_CR19_10 RESSPLIT_CR19_10 -1.0
    VDUIN_CR19_10 VDUY1_CR19_10 -0.45
    VDUIN_CR19_10 VDUY2_CR19_10 -0.55
    VDUIN_CR19_10 VDUCAP_10 1.0
    RESFO_CR19_10 RESSPLIT_CR19_10 -1.0
    RESFO_CR19_10 FOBAL_10 -1.0
    RESFO_CR19_10 FOSUL_10 -1.1490285157117452
    VGO2_CR19_10 VDUY1_CR19_10 1.0
    VGO2_CR19_10 VGOBAL_CR19_10 1.0
    VR_CR19_10 VDUY2_CR19_10 1.0
    VR_CR19_10 FOBAL_10 -1.0
    VR_CR19_10 FOSUL_10 -0.4437370704252688
    FCCIN_CR00_10 OBJ -2.5
    FCCIN_CR00_10 VGOBAL_CR00_10 -1.0
    FCCIN_CR00_10 FCCCAP_10 1.0
    FCCIN_CR00_10 FCCY_FCCG_10 -0.55
    FCCIN_CR00_10 FCCY_LCO_10 -0.2
    FCCIN_CR00_10 FCCY_FLPG_10 -0.15
    FCCIN_CR00_10 FCCY_SLURRY_10 -0.07
    FCCIN_CR01_10 OBJ -2.5
    FCCIN_CR01_10 VGOBAL_CR01_10 -1.0
    FCCIN_CR01_10 FCCCAP_10 1.0
    FCCIN_CR01_10 FCCY_FCCG_10 -0.55
    FCCIN_CR01_10 FCCY_LCO_10 -0.2
    FCCIN_CR01_10 FCCY_FLPG_10 -0.15
    FCCIN_CR01_10 FCCY_SLURRY_10 -0.07
    FCCIN_CR02_10 OBJ -2.5
    FCCIN_CR02_10 VGOBAL_CR02_10 -1.0
    FCCIN_CR02_10 FCCCAP_10 1.0
    FCCIN_CR02_10 FCCY_FCCG_10 -0.55
    FCCIN_CR02_10 FCCY_LCO_10 -0.2
    FCCIN_CR02_10 FCCY_FLPG_10 -0.15
    FCCIN_CR02_10 FCCY_SLURRY_10 -0.07
    FCCIN_CR03_10 OBJ -2.5
    FCCIN_CR03_10 VGOBAL_CR03_10 -1.0
    FCCIN_CR03_10 FCCCAP_10 1.0
    FCCIN_CR03_10 FCCY_FCCG_10 -0.55
    FCCIN_CR03_10 FCCY_LCO_10 -0.2
    FCCIN_CR03_10 FCCY_FLPG_10 -0.15
    FCCIN_CR03_10 FCCY_SLURRY_10 -0.07
    FCCIN_CR04_10 OBJ -2.5
    FCCIN_CR04_10 VGOBAL_CR04_10 -1.0
    FCCIN_CR04_10 FCCCAP_10 1.0
    FCCIN_CR04_10 FCCY_FCCG_10 -0.55
    FCCIN_CR04_10 FCCY_LCO_10 -0.2
    FCCIN_CR04_10 FCCY_FLPG_10 -0.15
    FCCIN_CR04_10 FCCY_SLURRY_10 -0.07
    FCCIN_CR05_10 OBJ -2.5
    FCCIN_CR05_10 VGOBAL_CR05_10 -1.0
    FCCIN_CR05_10 FCCCAP_10 1.0
    FCCIN_CR05_10 FCCY_FCCG_10 -0.55
    FCCIN_CR05_10 FCCY_LCO_10 -0.2
    FCCIN_CR05_10 FCCY_FLPG_10 -0.15
    FCCIN_CR05_10 FCCY_SLURRY_10 -0.07
    FCCIN_CR06_10 OBJ -2.5
    FCCIN_CR06_10 VGOBAL_CR06_10 -1.0
    FCCIN_CR06_10 FCCCAP_10 1.0
    FCCIN_CR06_10 FCCY_FCCG_10 -0.55
    FCCIN_CR06_10 FCCY_LCO_10 -0.2
    FCCIN_CR06_10 FCCY_FLPG_10 -0.15
    FCCIN_CR06_10 FCCY_SLURRY_10 -0.07
    FCCIN_CR07_10 OBJ -2.5
    FCCIN_CR07_10 VGOBAL_CR07_10 -1.0
    FCCIN_CR07_10 FCCCAP_10 1.0
    FCCIN_CR07_10 FCCY_FCCG_10 -0.55
    FCCIN_CR07_10 FCCY_LCO_10 -0.2
    FCCIN_CR07_10 FCCY_FLPG_10 -0.15
    FCCIN_CR07_10 FCCY_SLURRY_10 -0.07
    FCCIN_CR08_10 OBJ -2.5
    FCCIN_CR08_10 VGOBAL_CR08_10 -1.0
    FCCIN_CR08_10 FCCCAP_10 1.0
    FCCIN_CR08_10 FCCY_FCCG_10 -0.55
    FCCIN_CR08_10 FCCY_LCO_10 -0.2
    FCCIN_CR08_10 FCCY_FLPG_10 -0.15
    FCCIN_CR08_10 FCCY_SLURRY_10 -0.07
    FCCIN_CR09_10 OBJ -2.5
    FCCIN_CR09_10 VGOBAL_CR09_10 -1.0
    FCCIN_CR09_10 FCCCAP_10 1.0
    FCCIN_CR09_10 FCCY_FCCG_10 -0.55
    FCCIN_CR09_10 FCCY_LCO_10 -0.2
    FCCIN_CR09_10 FCCY_FLPG_10 -0.15
    FCCIN_CR09_10 FCCY_SLURRY_10 -0.07
    FCCIN_CR10_10 OBJ -2.5
    FCCIN_CR10_10 VGOBAL_CR10_10 -1.0
    FCCIN_CR10_10 FCCCAP_10 1.0
    FCCIN_CR10_10 FCCY_FCCG_10 -0.55
    FCCIN_CR10_10 FCCY_LCO_10 -0.2
    FCCIN_CR10_10 FCCY_FLPG_10 -0.15
    FCCIN_CR10_10 FCCY_SLURRY_10 -0.07
    FCCIN_CR11_10 OBJ -2.5
    FCCIN_CR11_10 VGOBAL_CR11_10 -1.0
    FCCIN_CR11_10 FCCCAP_10 1.0
    FCCIN_CR11_10 FCCY_FCCG_10 -0.55
    FCCIN_CR11_10 FCCY_LCO_10 -0.2
    FCCIN_CR11_10 FCCY_FLPG_10 -0.15
    FCCIN_CR11_10 FCCY_SLURRY_10 -0.07
    FCCIN_CR12_10 OBJ -2.5
    FCCIN_CR12_10 VGOBAL_CR12_10 -1.0
    FCCIN_CR12_10 FCCCAP_10 1.0
    FCCIN_CR12_10 FCCY_FCCG_10 -0.55
    FCCIN_CR12_10 FCCY_LCO_10 -0.2
    FCCIN_CR12_10 FCCY_FLPG_10 -0.15
    FCCIN_CR12_10 FCCY_SLURRY_10 -0.07
    FCCIN_CR13_10 OBJ -2.5
    FCCIN_CR13_10 VGOBAL_CR13_10 -1.0
    FCCIN_CR13_10 FCCCAP_10 1.0
    FCCIN_CR13_10 FCCY_FCCG_10 -0.55
    FCCIN_CR13_10 FCCY_LCO_10 -0.2
    FCCIN_CR13_10 FCCY_FLPG_10 -0.15
    FCCIN_CR13_10 FCCY_SLURRY_10 -0.07
    FCCIN_CR14_10 OBJ -2.5
    FCCIN_CR14_10 VGOBAL_CR14_10 -1.0
    FCCIN_CR14_10 FCCCAP_10 1.0
    FCCIN_CR14_10 FCCY_FCCG_10 -0.55
    FCCIN_CR14_10 FCCY_LCO_10 -0.2
    FCCIN_CR14_10 FCCY_FLPG_10 -0.15
    FCCIN_CR14_10 FCCY_SLURRY_10 -0.07
    FCCIN_CR15_10 OBJ -2.5
    FCCIN_CR15_10 VGOBAL_CR15_10 -1.0
    FCCIN_CR15_10 FCCCAP_10 1.0
    FCCIN_CR15_10 FCCY_FCCG_10 -0.55
    FCCIN_CR15_10 FCCY_LCO_10 -0.2
    FCCIN_CR15_10 FCCY_FLPG_10 -0.15
    FCCIN_CR15_10 FCCY_SLURRY_10 -0.07
    FCCIN_CR16_10 OBJ -2.5
    FCCIN_CR16_10 VGOBAL_CR16_10 -1.0
    FCCIN_CR16_10 FCCCAP_10 1.0
    FCCIN_CR16_10 FCCY_FCCG_10 -0.55
    FCCIN_CR16_10 FCCY_LCO_10 -0.2
    FCCIN_CR16_10 FCCY_FLPG_10 -0.15
    FCCIN_CR16_10 FCCY_SLURRY_10 -0.07
    FCCIN_CR17_10 OBJ -2.5
    FCCIN_CR17_10 VGOBAL_CR17_10 -1.0
    FCCIN_CR17_10 FCCCAP_10 1.0
    FCCIN_CR17_10 FCCY_FCCG_10 -0.55
    FCCIN_CR17_10 FCCY_LCO_10 -0.2
    FCCIN_CR17_10 FCCY_FLPG_10 -0.15
    FCCIN_CR17_10 FCCY_SLURRY_10 -0.07
    FCCIN_CR18_10 OBJ -2.5
    FCCIN_CR18_10 VGOBAL_CR18_10 -1.0
    FCCIN_CR18_10 FCCCAP_10 1.0
    FCCIN_CR18_10 FCCY_FCCG_10 -0.55
    FCCIN_CR18_10 FCCY_LCO_10 -0.2
    FCCIN_CR18_10 FCCY_FLPG_10 -0.15
    FCCIN_CR18_10 FCCY_SLURRY_10 -0.07
    FCCIN_CR19_10 OBJ -2.5
    FCCIN_CR19_10 VGOBAL_CR19_10 -1.0
    FCCIN_CR19_10 FCCCAP_10 1.0
    FCCIN_CR19_10 FCCY_FCCG_10 -0.55
    FCCIN_CR19_10 FCCY_LCO_10 -0.2
    FCCIN_CR19_10 FCCY_FLPG_10 -0.15
    FCCIN_CR19_10 FCCY_SLURRY_10 -0.07
    FCCG_10 FCCY_FCCG_10 1.0
    FCCG_10 GASBAL_10 -1.0
    FCCG_10 GASRON_10 1.0
    LCO_10 FCCY_LCO_10 1.0
    LCO_10 LCOBAL_10 1.0
    FLPG_10 FCCY_FLPG_10 1.0
    FLPG_10 LPGBAL_10 -1.0
    SLURRY_10 FCCY_SLURRY_10 1.0
    SLURRY_10 FOBAL_10 -1.0
    SLURRY_10 FOSUL_10 -1.5
    REFIN_CR00_10 OBJ -3.0
    REFIN_CR00_10 NAPBAL_CR00_10 -1.0
    REFIN_CR00_10 REFCAP_10 1.0
    REFIN_CR00_10 REFY_10 -0.85
    NAPGAS_CR00_10 NAPBAL_CR00_10 -1.0
    NAPGAS_CR00_10 GASBAL_10 -1.0
    NAPGAS_CR00_10 GASRON_10 -41.351908455631545
    REFIN_CR01_10 OBJ -3.0
    REFIN_CR01_10 NAPBAL_CR01_10 -1.0
    REFIN_CR01_10 REFCAP_10 1.0
    REFIN_CR01_10 REFY_10 -0.85
    NAPGAS_CR01_10 NAPBAL_CR01_10 -1.0
    NAPGAS_CR01_10 GASBAL_10 -1.0
    NAPGAS_CR01_10 GASRON_10 -33.623043958680114
    REFIN_CR02_10 OBJ -3.0
    REFIN_CR02_10 NAPBAL_CR02_10 -1.0
    REFIN_CR02_10 REFCAP_10 1.0
    REFIN_CR02_10 REFY_10 -0.85
    NAPGAS_CR02_10 NAPBAL_CR02_10 -1.0
    NAPGAS_CR02_10 GASBAL_10 -1.0
    NAPGAS_CR02_10 GASRON_10 -39.74522208078083
    REFIN_CR03_10 OBJ -3.0
    REFIN_CR03_10 NAPBAL_CR03_10 -1.0
    REFIN_CR03_10 REFCAP_10 1.0
    REFIN_CR03_10 REFY_10 -0.85
    NAPGAS_CR03_10 NAPBAL_CR03_10 -1.0
    NAPGAS_CR03_10 GASBAL_10 -1.0
    NAPGAS_CR03_10 GASRON_10 -39.32063345179839
    REFIN_CR04_10 OBJ -3.0
    REFIN_CR04_10 NAPBAL_CR04_10 -1.0
    REFIN_CR04_10 REFCAP_10 1.0
    REFIN_CR04_10 REFY_10 -0.85
    NAPGAS_CR04_10 NAPBAL_CR04_10 -1.0
    NAPGAS_CR04_10 GASBAL_10 -1.0
    NAPGAS_CR04_10 GASRON_10 -28.06018906757886
    REFIN_CR05_10 OBJ -3.0
    REFIN_CR05_10 NAPBAL_CR05_10 -1.0
    REFIN_CR05_10 REFCAP_10 1.0
    REFIN_CR05_10 REFY_10 -0.85
    NAPGAS_CR05_10 NAPBAL_CR05_10 -1.0
    NAPGAS_CR05_10 GASBAL_10 -1.0
    NAPGAS_CR05_10 GASRON_10 -37.177062383933254
    REFIN_CR06_10 OBJ -3.0
    REFIN_CR06_10 NAPBAL_CR06_10 -1.0
    REFIN_CR06_10 REFCAP_10 1.0
    REFIN_CR06_10 REFY_10 -0.85
    NAPGAS_CR06_10 NAPBAL_CR06_10 -1.0
    NAPGAS_CR06_10 GASBAL_10 -1.0
    NAPGAS_CR06_10 GASRON_10 -38.73738801284508
    REFIN_CR07_10 OBJ -3.0
    REFIN_CR07_10 NAPBAL_CR07_10 -1.0
    REFIN_CR07_10 REFCAP_10 1.0
    REFIN_CR07_10 REFY_10 -0.85
    NAPGAS_CR07_10 NAPBAL_CR07_10 -1.0
    NAPGAS_CR07_10 GASBAL_10 -1.0
    NAPGAS_CR07_10 GASRON_10 -31.720911449683953
    REFIN_CR08_10 OBJ -3.0
    REFIN_CR08_10 NAPBAL_CR08_10 -1.0
    REFIN_CR08_10 REFCAP_10 1.0
    REFIN_CR08_10 REFY_10 -0.85
    NAPGAS_CR08_10 NAPBAL_CR08_10 -1.0
    NAPGAS_CR08_10 GASBAL_10 -1.0
    NAPGAS_CR08_10 GASRON_10 -31.236267605063702
    REFIN_CR09_10 OBJ -3.0
    REFIN_CR09_10 NAPBAL_CR09_10 -1.0
    REFIN_CR09_10 REFCAP_10 1.0
    REFIN_CR09_10 REFY_10 -0.85
    NAPGAS_CR09_10 NAPBAL_CR09_10 -1.0
    NAPGAS_CR09_10 GASBAL_10 -1.0
    NAPGAS_CR09_10 GASRON_10 -29.9151768258086
    REFIN_CR10_10 OBJ -3.0
    REFIN_CR10_10 NAPBAL_CR10_10 -1.0
    REFIN_CR10_10 REFCAP_10 1.0
    REFIN_CR10_10 REFY_10 -0.85
    NAPGAS_CR10_10 NAPBAL_CR10_10 -1.0
    NAPGAS_CR10_10 GASBAL_10 -1.0
    NAPGAS_CR10_10 GASRON_10 -38.641707010486826
    REFIN_CR11_10 OBJ -3.0
    REFIN_CR11_10 NAPBAL_CR11_10 -1.0
    REFIN_CR11_10 REFCAP_10 1.0
    REFIN_CR11_10 REFY_10 -0.85
    NAPGAS_CR11_10 NAPBAL_CR11_10 -1.0
    NAPGAS_CR11_10 GASBAL_10 -1.0
    NAPGAS_CR11_10 GASRON_10 -31.364398664025877
    REFIN_CR12_10 OBJ -3.0
    REFIN_CR12_10 NAPBAL_CR12_10 -1.0
    REFIN_CR12_10 REFCAP_10 1.0
    REFIN_CR12_10 REFY_10 -0.85
    NAPGAS_CR12_10 NAPBAL_CR12_10 -1.0
    NAPGAS_CR12_10 GASBAL_10 -1.0
    NAPGAS_CR12_10 GASRON_10 -36.44295305412478
    REFIN_CR13_10 OBJ -3.0
    REFIN_CR13_10 NAPBAL_CR13_10 -1.0
    REFIN_CR13_10 REFCAP_10 1.0
    REFIN_CR13_10 REFY_10 -0.85
    NAPGAS_CR13_10 NAPBAL_CR13_10 -1.0
    NAPGAS_CR13_10 GASBAL_10 -1.0
    NAPGAS_CR13_10 GASRON_10 -36.368722409916884
    REFIN_CR14_10 OBJ -3.0
    REFIN_CR14_10 NAPBAL_CR14_10 -1.0
    REFIN_CR14_10 REFCAP_10 1.0
    REFIN_CR14_10 REFY_10 -0.85
    NAPGAS_CR14_10 NAPBAL_CR14_10 -1.0
    NAPGAS_CR14_10 GASBAL_10 -1.0
    NAPGAS_CR14_10 GASRON_10 -37.837781635780814
    REFIN_CR15_10 OBJ -3.0
    REFIN_CR15_10 NAPBAL_CR15_10 -1.0
    REFIN_CR15_10 REFCAP_10 1.0
    REFIN_CR15_10 REFY_10 -0.85
    NAPGAS_CR15_10 NAPBAL_CR15_10 -1.0
    NAPGAS_CR15_10 GASBAL_10 -1.0
    NAPGAS_CR15_10 GASRON_10 -36.91743369949054
    REFIN_CR16_10 OBJ -3.0
    REFIN_CR16_10 NAPBAL_CR16_10 -1.0
    REFIN_CR16_10 REFCAP_10 1.0
    REFIN_CR16_10 REFY_10 -0.85
    NAPGAS_CR16_10 NAPBAL_CR16_10 -1.0
    NAPGAS_CR16_10 GASBAL_10 -1.0
    NAPGAS_CR16_10 GASRON_10 -32.43244486749426
    REFIN_CR17_10 OBJ -3.0
    REFIN_CR17_10 NAPBAL_CR17_10 -1.0
    REFIN_CR17_10 REFCAP_10 1.0
    REFIN_CR17_10 REFY_10 -0.85
    NAPGAS_CR17_10 NAPBAL_CR17_10 -1.0
    NAPGAS_CR17_10 GASBAL_10 -1.0
    NAPGAS_CR17_10 GASRON_10 -32.30218201355821
    REFIN_CR18_10 OBJ -3.0
    REFIN_CR18_10 NAPBAL_CR18_10 -1.0
    REFIN_CR18_10 REFCAP_10 1.0
    REFIN_CR18_10 REFY_10 -0.85
    NAPGAS_CR18_10 NAPBAL_CR18_10 -1.0
    NAPGAS_CR18_10 GASBAL_10 -1.0
    NAPGAS_CR18_10 GASRON_10 -30.280860643235343
    REFIN_CR19_10 OBJ -3.0
    REFIN_CR19_10 NAPBAL_CR19_10 -1.0
    REFIN_CR19_10 REFCAP_10 1.0
    REFIN_CR19_10 REFY_10 -0.85
    NAPGAS_CR19_10 NAPBAL_CR19_10 -1.0
    NAPGAS_CR19_10 GASBAL_10 -1.0
    NAPGAS_CR19_10 GASRON_10 -35.8435432887995
    REFORMATE_10 REFY_10 1.0
    REFORMATE_10 GASBAL_10 -1.0
    REFORMATE_10 GASRON_10 7.0
    DHTIN_CR00_10 OBJ -2.0
    DHTIN_CR00_10 DSLBAL_CR00_10 -1.0
    DHTIN_CR00_10 DHTCAP_10 1.0
    DHTIN_CR00_10 DHTY_10 -0.98
    DSLDIR_CR00_10 DSLBAL_CR00_10 -1.0
    DSLDIR_CR00_10 DSLPB_10 -1.0
    DSLDIR_CR00_10 DSLSUL_10 1.5862267507032528
    DHTIN_CR01_10 OBJ -2.0
    DHTIN_CR01_10 DSLBAL_CR01_10 -1.0
    DHTIN_CR01_10 DHTCAP_10 1.0
    DHTIN_CR01_10 DHTY_10 -0.98
    DSLDIR_CR01_10 DSLBAL_CR01_10 -1.0
    DSLDIR_CR01_10 DSLPB_10 -1.0
    DSLDIR_CR01_10 DSLSUL_10 0.8149467463033994
    DHTIN_CR02_10 OBJ -2.0
    DHTIN_CR02_10 DSLBAL_CR02_10 -1.0
    DHTIN_CR02_10 DHTCAP_10 1.0
    DHTIN_CR02_10 DHTY_10 -0.98
    DSLDIR_CR02_10 DSLBAL_CR02_10 -1.0
    DSLDIR_CR02_10 DSLPB_10 -1.0
    DSLDIR_CR02_10 DSLSUL_10 1.0170271993959037
    DHTIN_CR03_10 OBJ -2.0
    DHTIN_CR03_10 DSLBAL_CR03_10 -1.0
    DHTIN_CR03_10 DHTCAP_10 1.0
    DHTIN_CR03_10 DHTY_10 -0.98
    DSLDIR_CR03_10 DSLBAL_CR03_10 -1.0
    DSLDIR_CR03_10 DSLPB_10 -1.0
    DSLDIR_CR03_10 DSLSUL_10 0.4394117672662308
    DHTIN_CR04_10 OBJ -2.0
    DHTIN_CR04_10 DSLBAL_CR04_10 -1.0
    DHTIN_CR04_10 DHTCAP_10 1.0
    DHTIN_CR04_10 DHTY_10 -0.98
    DSLDIR_CR04_10 DSLBAL_CR04_10 -1.0
    DSLDIR_CR04_10 DSLPB_10 -1.0
    DSLDIR_CR04_10 DSLSUL_10 1.6095005435592393
    DHTIN_CR05_10 OBJ -2.0
    DHTIN_CR05_10 DSLBAL_CR05_10 -1.0
    DHTIN_CR05_10 DHTCAP_10 1.0
    DHTIN_CR05_10 DHTY_10 -0.98
    DSLDIR_CR05_10 DSLBAL_CR05_10 -1.0
    DSLDIR_CR05_10 DSLPB_10 -1.0
    DSLDIR_CR05_10 DSLSUL_10 1.1028999274270206
    DHTIN_CR06_10 OBJ -2.0
    DHTIN_CR06_10 DSLBAL_CR06_10 -1.0
    DHTIN_CR06_10 DHTCAP_10 1.0
    DHTIN_CR06_10 DHTY_10 -0.98
    DSLDIR_CR06_10 DSLBAL_CR06_10 -1.0
    DSLDIR_CR06_10 DSLPB_10 -1.0
    DSLDIR_CR06_10 DSLSUL_10 1.0307656961819645
    DHTIN_CR07_10 OBJ -2.0
    DHTIN_CR07_10 DSLBAL_CR07_10 -1.0
    DHTIN_CR07_10 DHTCAP_10 1.0
    DHTIN_CR07_10 DHTY_10 -0.98
    DSLDIR_CR07_10 DSLBAL_CR07_10 -1.0
    DSLDIR_CR07_10 DSLPB_10 -1.0
    DSLDIR_CR07_10 DSLSUL_10 0.06500943297844713
    DHTIN_CR08_10 OBJ -2.0
    DHTIN_CR08_10 DSLBAL_CR08_10 -1.0
    DHTIN_CR08_10 DHTCAP_10 1.0
    DHTIN_CR08_10 DHTY_10 -0.98
    DSLDIR_CR08_10 DSLBAL_CR08_10 -1.0
    DSLDIR_CR08_10 DSLPB_10 -1.0
    DSLDIR_CR08_10 DSLSUL_10 1.0136884541165885
    DHTIN_CR09_10 OBJ -2.0
    DHTIN_CR09_10 DSLBAL_CR09_10 -1.0
    DHTIN_CR09_10 DHTCAP_10 1.0
    DHTIN_CR09_10 DHTY_10 -0.98
    DSLDIR_CR09_10 DSLBAL_CR09_10 -1.0
    DSLDIR_CR09_10 DSLPB_10 -1.0
    DSLDIR_CR09_10 DSLSUL_10 0.020618980777730833
    DHTIN_CR10_10 OBJ -2.0
    DHTIN_CR10_10 DSLBAL_CR10_10 -1.0
    DHTIN_CR10_10 DHTCAP_10 1.0
    DHTIN_CR10_10 DHTY_10 -0.98
    DSLDIR_CR10_10 DSLBAL_CR10_10 -1.0
    DSLDIR_CR10_10 DSLPB_10 -1.0
    DSLDIR_CR10_10 DSLSUL_10 1.62821888862855
    DHTIN_CR11_10 OBJ -2.0
    DHTIN_CR11_10 DSLBAL_CR11_10 -1.0
    DHTIN_CR11_10 DHTCAP_10 1.0
    DHTIN_CR11_10 DHTY_10 -0.98
    DSLDIR_CR11_10 DSLBAL_CR11_10 -1.0
    DSLDIR_CR11_10 DSLPB_10 -1.0
    DSLDIR_CR11_10 DSLSUL_10 0.8621530481854874
    DHTIN_CR12_10 OBJ -2.0
    DHTIN_CR12_10 DSLBAL_CR12_10 -1.0
    DHTIN_CR12_10 DHTCAP_10 1.0
    DHTIN_CR12_10 DHTY_10 -0.98
    DSLDIR_CR12_10 DSLBAL_CR12_10 -1.0
    DSLDIR_CR12_10 DSLPB_10 -1.0
    DSLDIR_CR12_10 DSLSUL_10 1.5756453880298185
    DHTIN_CR13_10 OBJ -2.0
    DHTIN_CR13_10 DSLBAL_CR13_10 -1.0
    DHTIN_CR13_10 DHTCAP_10 1.0
    DHTIN_CR13_10 DHTY_10 -0.98
    DSLDIR_CR13_10 DSLBAL_CR13_10 -1.0
    DSLDIR_CR13_10 DSLPB_10 -1.0
    DSLDIR_CR13_10 DSLSUL_10 0.13929860406737604
    DHTIN_CR14_10 OBJ -2.0
    DHTIN_CR14_10 DSLBAL_CR14_10 -1.0
    DHTIN_CR14_10 DHTCAP_10 1.0
    DHTIN_CR14_10 DHTY_10 -0.98
    DSLDIR_CR14_10 DSLBAL_CR14_10 -1.0
    DSLDIR_CR14_10 DSLPB_10 -1.0
    DSLDIR_CR14_10 DSLSUL_10 0.7289962148563339
    DHTIN_CR15_10 OBJ -2.0
    DHTIN_CR15_10 DSLBAL_CR15_10 -1.0
    DHTIN_CR15_10 DHTCAP_10 1.0
    DHTIN_CR15_10 DHTY_10 -0.98
    DSLDIR_CR15_10 DSLBAL_CR15_10 -1.0
    DSLDIR_CR15_10 DSLPB_10 -1.0
    DSLDIR_CR15_10 DSLSUL_10 0.0432280087396993
    DHTIN_CR16_10 OBJ -2.0
    DHTIN_CR16_10 DSLBAL_CR16_10 -1.0
    DHTIN_CR16_10 DHTCAP_10 1.0
    DHTIN_CR16_10 DHTY_10 -0.98
    DSLDIR_CR16_10 DSLBAL_CR16_10 -1.0
    DSLDIR_CR16_10 DSLPB_10 -1.0
    DSLDIR_CR16_10 DSLSUL_10 0.970875101525871
    DHTIN_CR17_10 OBJ -2.0
    DHTIN_CR17_10 DSLBAL_CR17_10 -1.0
    DHTIN_CR17_10 DHTCAP_10 1.0
    DHTIN_CR17_10 DHTY_10 -0.98
    DSLDIR_CR17_10 DSLBAL_CR17_10 -1.0
    DSLDIR_CR17_10 DSLPB_10 -1.0
    DSLDIR_CR17_10 DSLSUL_10 1.6384936942773962
    DHTIN_CR18_10 OBJ -2.0
    DHTIN_CR18_10 DSLBAL_CR18_10 -1.0
    DHTIN_CR18_10 DHTCAP_10 1.0
    DHTIN_CR18_10 DHTY_10 -0.98
    DSLDIR_CR18_10 DSLBAL_CR18_10 -1.0
    DSLDIR_CR18_10 DSLPB_10 -1.0
    DSLDIR_CR18_10 DSLSUL_10 0.08052474691335985
    DHTIN_CR19_10 OBJ -2.0
    DHTIN_CR19_10 DSLBAL_CR19_10 -1.0
    DHTIN_CR19_10 DHTCAP_10 1.0
    DHTIN_CR19_10 DHTY_10 -0.98
    DSLDIR_CR19_10 DSLBAL_CR19_10 -1.0
    DSLDIR_CR19_10 DSLPB_10 -1.0
    DSLDIR_CR19_10 DSLSUL_10 0.6552914452864763
    LCODHT_10 LCOBAL_10 -1.0
    LCODHT_10 DHTCAP_10 1.0
    LCODHT_10 DHTY_10 -0.95
    LCOFO_10 LCOBAL_10 -1.0
    LCOFO_10 FOBAL_10 -1.0
    LCOFO_10 FOSUL_10 -2.5
    ULSD_10 DHTY_10 1.0
    ULSD_10 DSLPB_10 -1.0
    ULSD_10 DSLSUL_10 -0.049
    SELL_LPG_10 OBJ 50.23686027918559
    SELL_LPG_10 PBAL_LPG_10 -1.0
    SELL_LPG_10 DMAX_LPG_10 1.0
    SELL_LPG_10 DMIN_LPG_10 1.0
    SELL_GAS_10 OBJ 95.9067332602634
    SELL_GAS_10 PBAL_GAS_10 -1.0
    SELL_GAS_10 DMAX_GAS_10 1.0
    SELL_GAS_10 DMIN_GAS_10 1.0
    SELL_JET_10 OBJ 91.33974596215562
    SELL_JET_10 PBAL_JET_10 -1.0
    SELL_JET_10 DMAX_JET_10 1.0
    SELL_JET_10 DMIN_JET_10 1.0
    SELL_DSL_10 OBJ 89.5129510429125
    SELL_DSL_10 PBAL_DSL_10 -1.0
    SELL_DSL_10 DMAX_DSL_10 1.0
    SELL_DSL_10 DMIN_DSL_10 1.0
    SELL_FO_10 OBJ 54.80384757729337
    SELL_FO_10 PBAL_FO_10 -1.0
    SELL_FO_10 DMAX_FO_10 1.0
    SELL_FO_10 DMIN_FO_10 1.0
    PINV_LPG_10 OBJ -0.5
    PINV_LPG_10 PBAL_LPG_10 -1.0
    PINV_LPG_10 PBAL_LPG_11 1.0
    PINV_GAS_10 OBJ -0.5
    PINV_GAS_10 PBAL_GAS_10 -1.0
    PINV_GAS_10 PBAL_GAS_11 1.0
    PINV_JET_10 OBJ -0.5
    PINV_JET_10 PBAL_JET_10 -1.0
    PINV_JET_10 PBAL_JET_11 1.0
    PINV_DSL_10 OBJ -0.5
    PINV_DSL_10 PBAL_DSL_10 -1.0
    PINV_DSL_10 PBAL_DSL_11 1.0
    PINV_FO_10 OBJ -0.5
    PINV_FO_10 PBAL_FO_10 -1.0
    PINV_FO_10 PBAL_FO_11 1.0
    SHORT_LPG_10 OBJ -400.0
    SHORT_LPG_10 DMIN_LPG_10 1.0
    SHORT_GAS_10 OBJ -400.0
    SHORT_GAS_10 DMIN_GAS_10 1.0
    SHORT_JET_10 OBJ -400.0
    SHORT_JET_10 DMIN_JET_10 1.0
    SHORT_DSL_10 OBJ -400.0
    SHORT_DSL_10 DMIN_DSL_10 1.0
    SHORT_FO_10 OBJ -400.0
    SHORT_FO_10 DMIN_FO_10 1.0
    GASPOOL_10 GASBAL_10 1.0
    GASPOOL_10 PBAL_GAS_10 1.0
    JETPOOL_10 JETBAL_10 1.0
    JETPOOL_10 PBAL_JET_10 1.0
    KERJET_CR00_10 KERBAL_CR00_10 -1.0
    KERJET_CR00_10 JETBAL_10 -1.0
    KERJET_CR00_10 JETSUL_10 0.10905668767581322
    KERDSL_CR00_10 KERBAL_CR00_10 -1.0
    KERDSL_CR00_10 DSLPB_10 -1.0
    KERDSL_CR00_10 DSLSUL_10 0.3590566876758132
    KERJET_CR01_10 KERBAL_CR01_10 -1.0
    KERJET_CR01_10 JETBAL_10 -1.0
    KERJET_CR01_10 JETSUL_10 -0.08376331342415014
    KERDSL_CR01_10 KERBAL_CR01_10 -1.0
    KERDSL_CR01_10 DSLPB_10 -1.0
    KERDSL_CR01_10 DSLSUL_10 0.16623668657584983
    KERJET_CR02_10 KERBAL_CR02_10 -1.0
    KERJET_CR02_10 JETBAL_10 -1.0
    KERJET_CR02_10 JETSUL_10 -0.033243200151024055
    KERDSL_CR02_10 KERBAL_CR02_10 -1.0
    KERDSL_CR02_10 DSLPB_10 -1.0
    KERDSL_CR02_10 DSLSUL_10 0.21675679984897595
    KERJET_CR03_10 KERBAL_CR03_10 -1.0
    KERJET_CR03_10 JETBAL_10 -1.0
    KERJET_CR03_10 JETSUL_10 -0.17764705818344229
    KERDSL_CR03_10 KERBAL_CR03_10 -1.0
    KERDSL_CR03_10 DSLPB_10 -1.0
    KERDSL_CR03_10 DSLSUL_10 0.0723529418165577
    KERJET_CR04_10 KERBAL_CR04_10 -1.0
    KERJET_CR04_10 JETBAL_10 -1.0
    KERJET_CR04_10 JETSUL_10 0.11487513588980985
    KERDSL_CR04_10 KERBAL_CR04_10 -1.0
    KERDSL_CR04_10 DSLPB_10 -1.0
    KERDSL_CR04_10 DSLSUL_10 0.36487513588980985
    KERJET_CR05_10 KERBAL_CR05_10 -1.0
    KERJET_CR05_10 JETBAL_10 -1.0
    KERJET_CR05_10 JETSUL_10 -0.011775018143244831
    KERDSL_CR05_10 KERBAL_CR05_10 -1.0
    KERDSL_CR05_10 DSLPB_10 -1.0
    KERDSL_CR05_10 DSLSUL_10 0.23822498185675517
    KERJET_CR06_10 KERBAL_CR06_10 -1.0
    KERJET_CR06_10 JETBAL_10 -1.0
    KERJET_CR06_10 JETSUL_10 -0.029808575954508865
    KERDSL_CR06_10 KERBAL_CR06_10 -1.0
    KERDSL_CR06_10 DSLPB_10 -1.0
    KERDSL_CR06_10 DSLSUL_10 0.22019142404549114
    KERJET_CR07_10 KERBAL_CR07_10 -1.0
    KERJET_CR07_10 JETBAL_10 -1.0
    KERJET_CR07_10 JETSUL_10 -0.2712476417553882
    KERDSL_CR07_10 KERBAL_CR07_10 -1.0
    KERDSL_CR07_10 DSLPB_10 -1.0
    KERDSL_CR07_10 DSLSUL_10 -0.02124764175538822
    KERJET_CR08_10 KERBAL_CR08_10 -1.0
    KERJET_CR08_10 JETBAL_10 -1.0
    KERJET_CR08_10 JETSUL_10 -0.03407788647085286
    KERDSL_CR08_10 KERBAL_CR08_10 -1.0
    KERDSL_CR08_10 DSLPB_10 -1.0
    KERDSL_CR08_10 DSLSUL_10 0.21592211352914714
    KERJET_CR09_10 KERBAL_CR09_10 -1.0
    KERJET_CR09_10 JETBAL_10 -1.0
    KERJET_CR09_10 JETSUL_10 -0.28234525480556727
    KERDSL_CR09_10 KERBAL_CR09_10 -1.0
    KERDSL_CR09_10 DSLPB_10 -1.0
    KERDSL_CR09_10 DSLSUL_10 -0.0323452548055673
    KERJET_CR10_10 KERBAL_CR10_10 -1.0
    KERJET_CR10_10 JETBAL_10 -1.0
    KERJET_CR10_10 JETSUL_10 0.11955472215713753
    KERDSL_CR10_10 KERBAL_CR10_10 -1.0
    KERDSL_CR10_10 DSLPB_10 -1.0
    KERDSL_CR10_10 DSLSUL_10 0.3695547221571375
    KERJET_CR11_10 KERBAL_CR11_10 -1.0
    KERJET_CR11_10 JETBAL_10 -1.0
    KERJET_CR11_10 JETSUL_10 -0.07196173795362812
    KERDSL_CR11_10 KERBAL_CR11_10 -1.0
    KERDSL_CR11_10 DSLPB_10 -1.0
    KERDSL_CR11_10 DSLSUL_10 0.17803826204637185
    KERJET_CR12_10 KERBAL_CR12_10 -1.0
    KERJET_CR12_10 JETBAL_10 -1.0
    KERJET_CR12_10 JETSUL_10 0.10641134700745464
    KERDSL_CR12_10 KERBAL_CR12_10 -1.0
    KERDSL_CR12_10 DSLPB_10 -1.0
    KERDSL_CR12_10 DSLSUL_10 0.35641134700745464
    KERJET_CR13_10 KERBAL_CR13_10 -1.0
    KERJET_CR13_10 JETBAL_10 -1.0
    KERJET_CR13_10 JETSUL_10 -0.25267534898315597
    KERDSL_CR13_10 KERBAL_CR13_10 -1.0
    KERDSL_CR13_10 DSLPB_10 -1.0
    KERDSL_CR13_10 DSLSUL_10 -0.002675348983155995
    KERJET_CR14_10 KERBAL_CR14_10 -1.0
    KERJET_CR14_10 JETBAL_10 -1.0
    KERJET_CR14_10 JETSUL_10 -0.1052509462859165
    KERDSL_CR14_10 KERBAL_CR14_10 -1.0
    KERDSL_CR14_10 DSLPB_10 -1.0
    KERDSL_CR14_10 DSLSUL_10 0.14474905371408348
    KERJET_CR15_10 KERBAL_CR15_10 -1.0
    KERJET_CR15_10 JETBAL_10 -1.0
    KERJET_CR15_10 JETSUL_10 -0.27669299781507517
    KERDSL_CR15_10 KERBAL_CR15_10 -1.0
    KERDSL_CR15_10 DSLPB_10 -1.0
    KERDSL_CR15_10 DSLSUL_10 -0.026692997815075177
    KERJET_CR16_10 KERBAL_CR16_10 -1.0
    KERJET_CR16_10 JETBAL_10 -1.0
    KERJET_CR16_10 JETSUL_10 -0.044781224618532234
    KERDSL_CR16_10 KERBAL_CR16_10 -1.0
    KERDSL_CR16_10 DSLPB_10 -1.0
    KERDSL_CR16_10 DSLSUL_10 0.20521877538146777
    KERJET_CR17_10 KERBAL_CR17_10 -1.0
    KERJET_CR17_10 JETBAL_10 -1.0
    KERJET_CR17_10 JETSUL_10 0.12212342356934908
    KERDSL_CR17_10 KERBAL_CR17_10 -1.0
    KERDSL_CR17_10 DSLPB_10 -1.0
    KERDSL_CR17_10 DSLSUL_10 0.3721234235693491
    KERJET_CR18_10 KERBAL_CR18_10 -1.0
    KERJET_CR18_10 JETBAL_10 -1.0
    KERJET_CR18_10 JETSUL_10 -0.26736881327166
    KERDSL_CR18_10 KERBAL_CR18_10 -1.0
    KERDSL_CR18_10 DSLPB_10 -1.0
    KERDSL_CR18_10 DSLSUL_10 -0.01736881327166004
    KERJET_CR19_10 KERBAL_CR19_10 -1.0
    KERJET_CR19_10 JETBAL_10 -1.0
    KERJET_CR19_10 JETSUL_10 -0.1236771386783809
    KERDSL_CR19_10 KERBAL_CR19_10 -1.0
    KERDSL_CR19_10 DSLPB_10 -1.0
    KERDSL_CR19_10 DSLSUL_10 0.12632286132161907
    DSLPOOL_10 DSLPB_10 1.0
    DSLPOOL_10 PBAL_DSL_10 1.0
    LPGPOOL_10 LPGBAL_10 1.0
    LPGPOOL_10 PBAL_LPG_10 1.0
    FOPOOL_10 FOBAL_10 1.0
    FOPOOL_10 PBAL_FO_10 1.0
    BUY_CR00_11 OBJ -56.59292603760528
    BUY_CR00_11 CBAL_CR00_11 1.0
    CINV_CR00_11 OBJ -0.3
    CINV_CR00_11 CBAL_CR00_11 -1.0
    CDU_CR00_11 CBAL_CR00_11 -1.0
    CDU_CR00_11 CDUCAP_11 1.0
    CDU_CR00_11 YLPG_CR00_11 -0.013786055933968056
    CDU_CR00_11 YNAP_CR00_11 -0.1214444916358349
    CDU_CR00_11 YKER_CR00_11 -0.10646372452567733
    CDU_CR00_11 YDSL_CR00_11 -0.20292085263352289
    CDU_CR00_11 YVGO_CR00_11 -0.27390944719057636
    CDU_CR00_11 YRES_CR00_11 -0.28147542808042036
    BUY_CR01_11 OBJ -73.20141727955611
    BUY_CR01_11 CBAL_CR01_11 1.0
    CINV_CR01_11 OBJ -0.3
    CINV_CR01_11 CBAL_CR01_11 -1.0
    CDU_CR01_11 CBAL_CR01_11 -1.0
    CDU_CR01_11 CDUCAP_11 1.0
    CDU_CR01_11 YLPG_CR01_11 -0.025127543584387436
    CDU_CR01_11 YNAP_CR01_11 -0.2025917905849106
    CDU_CR01_11 YKER_CR01_11 -0.13410952106049506
    CDU_CR01_11 YDSL_CR01_11 -0.24728591651278542
    CDU_CR01_11 YVGO_CR01_11 -0.22897185950088417
    CDU_CR01_11 YRES_CR01_11 -0.16191336875653717
    BUY_CR02_11 OBJ -59.47195856533947
    BUY_CR02_11 CBAL_CR02_11 1.0
    CINV_CR02_11 OBJ -0.3
    CINV_CR02_11 CBAL_CR02_11 -1.0
    CDU_CR02_11 CBAL_CR02_11 -1.0
    CDU_CR02_11 CDUCAP_11 1.0
    CDU_CR02_11 YLPG_CR02_11 -0.013444753666275039
    CDU_CR02_11 YNAP_CR02_11 -0.11889710072836579
    CDU_CR02_11 YKER_CR02_11 -0.103840437143255
    CDU_CR02_11 YDSL_CR02_11 -0.21229612809407214
    CDU_CR02_11 YVGO_CR02_11 -0.2628713956905896
    CDU_CR02_11 YRES_CR02_11 -0.28865018467744247
    BUY_CR03_11 OBJ -65.37242850501306
    BUY_CR03_11 CBAL_CR03_11 1.0
    CINV_CR03_11 OBJ -0.3
    CINV_CR03_11 CBAL_CR03_11 -1.0
    CDU_CR03_11 CBAL_CR03_11 -1.0
    CDU_CR03_11 CDUCAP_11 1.0
    CDU_CR03_11 YLPG_CR03_11 -0.01400858068810675
    CDU_CR03_11 YNAP_CR03_11 -0.1424923117986131
    CDU_CR03_11 YKER_CR03_11 -0.10784088582669263
    CDU_CR03_11 YDSL_CR03_11 -0.19279120630762445
    CDU_CR03_11 YVGO_CR03_11 -0.28544626211923063
    CDU_CR03_11 YRES_CR03_11 -0.2574207532597324
    BUY_CR04_11 OBJ -70.18301112556513
    BUY_CR04_11 CBAL_CR04_11 1.0
    CINV_CR04_11 OBJ -0.3
    CINV_CR04_11 CBAL_CR04_11 -1.0
    CDU_CR04_11 CBAL_CR04_11 -1.0
    CDU_CR04_11 CDUCAP_11 1.0
    CDU_CR04_11 YLPG_CR04_11 -0.02335213093765316
    CDU_CR04_11 YNAP_CR04_11 -0.2292355396921612
    CDU_CR04_11 YKER_CR04_11 -0.14240695851543803
    CDU_CR04_11 YDSL_CR04_11 -0.24384363627499198
    CDU_CR04_11 YVGO_CR04_11 -0.2465326974706559
    CDU_CR04_11 YRES_CR04_11 -0.1146290371090997
    BUY_CR05_11 OBJ -63.364425739486066
    BUY_CR05_11 CBAL_CR05_11 1.0
    CINV_CR05_11 OBJ -0.3
    CINV_CR05_11 CBAL_CR05_11 -1.0
    CDU_CR05_11 CBAL_CR05_11 -1.0
    CDU_CR05_11 CDUCAP_11 1.0
    CDU_CR05_11 YLPG_CR05_11 -0.01735729802728813
    CDU_CR05_11 YNAP_CR05_11 -0.16608619710065003
    CDU_CR05_11 YKER_CR05_11 -0.1170544437563835
    CDU_CR05_11 YDSL_CR05_11 -0.22299235889970878
    CDU_CR05_11 YVGO_CR05_11 -0.2433490540516293
    CDU_CR05_11 YRES_CR05_11 -0.23316064816434035
    BUY_CR06_11 OBJ -61.30049430231655
    BUY_CR06_11 CBAL_CR06_11 1.0
    CINV_CR06_11 OBJ -0.3
    CINV_CR06_11 CBAL_CR06_11 -1.0
    CDU_CR06_11 CBAL_CR06_11 -1.0
    CDU_CR06_11 CDUCAP_11 1.0
    CDU_CR06_11 YLPG_CR06_11 -0.014219474855875663
    CDU_CR06_11 YNAP_CR06_11 -0.13746806025500902
    CDU_CR06_11 YKER_CR06_11 -0.10533897185985656
    CDU_CR06_11 YDSL_CR06_11 -0.20403840195434858
    CDU_CR06_11 YVGO_CR06_11 -0.26484358994429863
    CDU_CR06_11 YRES_CR06_11 -0.27409150113061165
    BUY_CR07_11 OBJ -69.6722311215312
    BUY_CR07_11 CBAL_CR07_11 1.0
    CINV_CR07_11 OBJ -0.3
    CINV_CR07_11 CBAL_CR07_11 -1.0
    CDU_CR07_11 CBAL_CR07_11 -1.0
    CDU_CR07_11 CDUCAP_11 1.0
    CDU_CR07_11 YLPG_CR07_11 -0.01678766142162217
    CDU_CR07_11 YNAP_CR07_11 -0.18341674311422207
    CDU_CR07_11 YKER_CR07_11 -0.13271469159016522
    CDU_CR07_11 YDSL_CR07_11 -0.2249127244045356
    CDU_CR07_11 YVGO_CR07_11 -0.24848613807316539
    CDU_CR07_11 YRES_CR07_11 -0.19368204139628944
    BUY_CR08_11 OBJ -67.94192784242139
    BUY_CR08_11 CBAL_CR08_11 1.0
    CINV_CR08_11 OBJ -0.3
    CINV_CR08_11 CBAL_CR08_11 -1.0
    CDU_CR08_11 CBAL_CR08_11 -1.0
    CDU_CR08_11 CDUCAP_11 1.0
    CDU_CR08_11 YLPG_CR08_11 -0.023930881960770135
    CDU_CR08_11 YNAP_CR08_11 -0.199474063989656
    CDU_CR08_11 YKER_CR08_11 -0.13012967624359006
    CDU_CR08_11 YDSL_CR08_11 -0.24906213509239003
    CDU_CR08_11 YVGO_CR08_11 -0.24247509330512357
    CDU_CR08_11 YRES_CR08_11 -0.15492814940847022
    BUY_CR09_11 OBJ -77.54215843699518
    BUY_CR09_11 CBAL_CR09_11 1.0
    CINV_CR09_11 OBJ -0.3
    CINV_CR09_11 CBAL_CR09_11 -1.0
    CDU_CR09_11 CBAL_CR09_11 -1.0
    CDU_CR09_11 CDUCAP_11 1.0
    CDU_CR09_11 YLPG_CR09_11 -0.0254414593142613
    CDU_CR09_11 YNAP_CR09_11 -0.2406668892422991
    CDU_CR09_11 YKER_CR09_11 -0.14150533274546892
    CDU_CR09_11 YDSL_CR09_11 -0.23713673044274025
    CDU_CR09_11 YVGO_CR09_11 -0.23566730460149374
    CDU_CR09_11 YRES_CR09_11 -0.11958228365373665
    BUY_CR10_11 OBJ -56.32193981787618
    BUY_CR10_11 CBAL_CR10_11 1.0
    CINV_CR10_11 OBJ -0.3
    CINV_CR10_11 CBAL_CR10_11 -1.0
    CDU_CR10_11 CBAL_CR10_11 -1.0
    CDU_CR10_11 CDUCAP_11 1.0
    CDU_CR10_11 YLPG_CR10_11 -0.012631058640766385
    CDU_CR10_11 YNAP_CR10_11 -0.11501159644639905
    CDU_CR10_11 YKER_CR10_11 -0.1080956731900355
    CDU_CR10_11 YDSL_CR10_11 -0.20982857494392457
    CDU_CR10_11 YVGO_CR10_11 -0.2722572086368098
    CDU_CR10_11 YRES_CR10_11 -0.28217588814206473
    BUY_CR11_11 OBJ -69.65158319026196
    BUY_CR11_11 CBAL_CR11_11 1.0
    CINV_CR11_11 OBJ -0.3
    CINV_CR11_11 CBAL_CR11_11 -1.0
    CDU_CR11_11 CBAL_CR11_11 -1.0
    CDU_CR11_11 CDUCAP_11 1.0
    CDU_CR11_11 YLPG_CR11_11 -0.018171926805686592
    CDU_CR11_11 YNAP_CR11_11 -0.18017303538659502
    CDU_CR11_11 YKER_CR11_11 -0.11622304467804759
    CDU_CR11_11 YDSL_CR11_11 -0.22678215323461023
    CDU_CR11_11 YVGO_CR11_11 -0.2637522217068048
    CDU_CR11_11 YRES_CR11_11 -0.19489761818825582
    BUY_CR12_11 OBJ -57.94519873069999
    BUY_CR12_11 CBAL_CR12_11 1.0
    CINV_CR12_11 OBJ -0.3
    CINV_CR12_11 CBAL_CR12_11 -1.0
    CDU_CR12_11 CBAL_CR12_11 -1.0
    CDU_CR12_11 CDUCAP_11 1.0
    CDU_CR12_11 YLPG_CR12_11 -0.016285402257558677
    CDU_CR12_11 YNAP_CR12_11 -0.1394251111460902
    CDU_CR12_11 YKER_CR12_11 -0.10627583407346515
    CDU_CR12_11 YDSL_CR12_11 -0.2004859030026821
    CDU_CR12_11 YVGO_CR12_11 -0.29053476615254664
    CDU_CR12_11 YRES_CR12_11 -0.2469929833676572
    BUY_CR13_11 OBJ -67.94326910246566
    BUY_CR13_11 CBAL_CR13_11 1.0
    CINV_CR13_11 OBJ -0.3
    CINV_CR13_11 CBAL_CR13_11 -1.0
    CDU_CR13_11 CBAL_CR13_11 -1.0
    CDU_CR13_11 CDUCAP_11 1.0
    CDU_CR13_11 YLPG_CR13_11 -0.015405562084299341
    CDU_CR13_11 YNAP_CR13_11 -0.1597372095049784
    CDU_CR13_11 YKER_CR13_11 -0.109230580221756
    CDU_CR13_11 YDSL_CR13_11 -0.20799117245133522
    CDU_CR13_11 YVGO_CR13_11 -0.2743070543343612
    CDU_CR13_11 YRES_CR13_11 -0.23332842140326976
    BUY_CR14_11 OBJ -61.84486390973773
    BUY_CR14_11 CBAL_CR14_11 1.0
    CINV_CR14_11 OBJ -0.3
    CINV_CR14_11 CBAL_CR14_11 -1.0
    CDU_CR14_11 CBAL_CR14_11 -1.0
    CDU_CR14_11 CDUCAP_11 1.0
    CDU_CR14_11 YLPG_CR14_11 -0.011676212845503672
    CDU_CR14_11 YNAP_CR14_11 -0.10963647957865116
    CDU_CR14_11 YKER_CR14_11 -0.09755861914812415
    CDU_CR14_11 YDSL_CR14_11 -0.22400035528460593
    CDU_CR14_11 YVGO_CR14_11 -0.27985390356413214
    CDU_CR14_11 YRES_CR14_11 -0.2772744295789829
    BUY_CR15_11 OBJ -62.519200199813085
    BUY_CR15_11 CBAL_CR15_11 1.0
    CINV_CR15_11 OBJ -0.3
    CINV_CR15_11 CBAL_CR15_11 -1.0
    CDU_CR15_11 CBAL_CR15_11 -1.0
    CDU_CR15_11 CDUCAP_11 1.0
    CDU_CR15_11 YLPG_CR15_11 -0.010625779986084445
    CDU_CR15_11 YNAP_CR15_11 -0.11766680402271243
    CDU_CR15_11 YKER_CR15_11 -0.09531893966264804
    CDU_CR15_11 YDSL_CR15_11 -0.2087175638151306
    CDU_CR15_11 YVGO_CR15_11 -0.2798835604956035
    CDU_CR15_11 YRES_CR15_11 -0.287787352017821
    BUY_CR16_11 OBJ -67.16407743283308
    BUY_CR16_11 CBAL_CR16_11 1.0
    CINV_CR16_11 OBJ -0.3
    CINV_CR16_11 CBAL_CR16_11 -1.0
    CDU_CR16_11 CBAL_CR16_11 -1.0
    CDU_CR16_11 CDUCAP_11 1.0
    CDU_CR16_11 YLPG_CR16_11 -0.021730435986974463
    CDU_CR16_11 YNAP_CR16_11 -0.22346814322949868
    CDU_CR16_11 YKER_CR16_11 -0.12962692092969477
    CDU_CR16_11 YDSL_CR16_11 -0.23580083169350696
    CDU_CR16_11 YVGO_CR16_11 -0.23197545191976185
    CDU_CR16_11 YRES_CR16_11 -0.1573982162405634
    BUY_CR17_11 OBJ -67.9448881109208
    BUY_CR17_11 CBAL_CR17_11 1.0
    CINV_CR17_11 OBJ -0.3
    CINV_CR17_11 CBAL_CR17_11 -1.0
    CDU_CR17_11 CBAL_CR17_11 -1.0
    CDU_CR17_11 CDUCAP_11 1.0
    CDU_CR17_11 YLPG_CR17_11 -0.023568928491133005
    CDU_CR17_11 YNAP_CR17_11 -0.24678008017283823
    CDU_CR17_11 YKER_CR17_11 -0.12826932733432603
    CDU_CR17_11 YDSL_CR17_11 -0.2495178182316694
    CDU_CR17_11 YVGO_CR17_11 -0.23510202280801157
    CDU_CR17_11 YRES_CR17_11 -0.1167618229620217
    BUY_CR18_11 OBJ -75.73417499172793
    BUY_CR18_11 CBAL_CR18_11 1.0
    CINV_CR18_11 OBJ -0.3
    CINV_CR18_11 CBAL_CR18_11 -1.0
    CDU_CR18_11 CBAL_CR18_11 -1.0
    CDU_CR18_11 CDUCAP_11 1.0
    CDU_CR18_11 YLPG_CR18_11 -0.02478422291723085
    CDU_CR18_11 YNAP_CR18_11 -0.23955258573301338
    CDU_CR18_11 YKER_CR18_11 -0.1322077813000583
    CDU_CR18_11 YDSL_CR18_11 -0.21167154879043004
    CDU_CR18_11 YVGO_CR18_11 -0.24506150244942554
    CDU_CR18_11 YRES_CR18_11 -0.146722358809842
    BUY_CR19_11 OBJ -64.93326942132067
    BUY_CR19_11 CBAL_CR19_11 1.0
    CINV_CR19_11 OBJ -0.3
    CINV_CR19_11 CBAL_CR19_11 -1.0
    CDU_CR19_11 CBAL_CR19_11 -1.0
    CDU_CR19_11 CDUCAP_11 1.0
    CDU_CR19_11 YLPG_CR19_11 -0.01626067739955701
    CDU_CR19_11 YNAP_CR19_11 -0.1715066574732045
    CDU_CR19_11 YKER_CR19_11 -0.11836465284470915
    CDU_CR19_11 YDSL_CR19_11 -0.20874443204167248
    CDU_CR19_11 YVGO_CR19_11 -0.2445178967491453
    CDU_CR19_11 YRES_CR19_11 -0.24060568349171155
    LPG_CR00_11 YLPG_CR00_11 1.0
    LPG_CR00_11 LPGBAL_11 -1.0
    NAP_CR00_11 YNAP_CR00_11 1.0
    NAP_CR00_11 NAPBAL_CR00_11 1.0
    KER_CR00_11 YKER_CR00_11 1.0
    KER_CR00_11 KERBAL_CR00_11 1.0
    DSL_CR00_11 YDSL_CR00_11 1.0
    DSL_CR00_11 DSLBAL_CR00_11 1.0
    VGO_CR00_11 YVGO_CR00_11 1.0
    VGO_CR00_11 VGOBAL_CR00_11 1.0
    RES_CR00_11 YRES_CR00_11 1.0
    RES_CR00_11 RESSPLIT_CR00_11 1.0
    LPG_CR01_11 YLPG_CR01_11 1.0
    LPG_CR01_11 LPGBAL_11 -1.0
    NAP_CR01_11 YNAP_CR01_11 1.0
    NAP_CR01_11 NAPBAL_CR01_11 1.0
    KER_CR01_11 YKER_CR01_11 1.0
    KER_CR01_11 KERBAL_CR01_11 1.0
    DSL_CR01_11 YDSL_CR01_11 1.0
    DSL_CR01_11 DSLBAL_CR01_11 1.0
    VGO_CR01_11 YVGO_CR01_11 1.0
    VGO_CR01_11 VGOBAL_CR01_11 1.0
    RES_CR01_11 YRES_CR01_11 1.0
    RES_CR01_11 RESSPLIT_CR01_11 1.0
    LPG_CR02_11 YLPG_CR02_11 1.0
    LPG_CR02_11 LPGBAL_11 -1.0
    NAP_CR02_11 YNAP_CR02_11 1.0
    NAP_CR02_11 NAPBAL_CR02_11 1.0
    KER_CR02_11 YKER_CR02_11 1.0
    KER_CR02_11 KERBAL_CR02_11 1.0
    DSL_CR02_11 YDSL_CR02_11 1.0
    DSL_CR02_11 DSLBAL_CR02_11 1.0
    VGO_CR02_11 YVGO_CR02_11 1.0
    VGO_CR02_11 VGOBAL_CR02_11 1.0
    RES_CR02_11 YRES_CR02_11 1.0
    RES_CR02_11 RESSPLIT_CR02_11 1.0
    LPG_CR03_11 YLPG_CR03_11 1.0
    LPG_CR03_11 LPGBAL_11 -1.0
    NAP_CR03_11 YNAP_CR03_11 1.0
    NAP_CR03_11 NAPBAL_CR03_11 1.0
    KER_CR03_11 YKER_CR03_11 1.0
    KER_CR03_11 KERBAL_CR03_11 1.0
    DSL_CR03_11 YDSL_CR03_11 1.0
    DSL_CR03_11 DSLBAL_CR03_11 1.0
    VGO_CR03_11 YVGO_CR03_11 1.0
    VGO_CR03_11 VGOBAL_CR03_11 1.0
    RES_CR03_11 YRES_CR03_11 1.0
    RES_CR03_11 RESSPLIT_CR03_11 1.0
    LPG_CR04_11 YLPG_CR04_11 1.0
    LPG_CR04_11 LPGBAL_11 -1.0
    NAP_CR04_11 YNAP_CR04_11 1.0
    NAP_CR04_11 NAPBAL_CR04_11 1.0
    KER_CR04_11 YKER_CR04_11 1.0
    KER_CR04_11 KERBAL_CR04_11 1.0
    DSL_CR04_11 YDSL_CR04_11 1.0
    DSL_CR04_11 DSLBAL_CR04_11 1.0
    VGO_CR04_11 YVGO_CR04_11 1.0
    VGO_CR04_11 VGOBAL_CR04_11 1.0
    RES_CR04_11 YRES_CR04_11 1.0
    RES_CR04_11 RESSPLIT_CR04_11 1.0
    LPG_CR05_11 YLPG_CR05_11 1.0
    LPG_CR05_11 LPGBAL_11 -1.0
    NAP_CR05_11 YNAP_CR05_11 1.0
    NAP_CR05_11 NAPBAL_CR05_11 1.0
    KER_CR05_11 YKER_CR05_11 1.0
    KER_CR05_11 KERBAL_CR05_11 1.0
    DSL_CR05_11 YDSL_CR05_11 1.0
    DSL_CR05_11 DSLBAL_CR05_11 1.0
    VGO_CR05_11 YVGO_CR05_11 1.0
    VGO_CR05_11 VGOBAL_CR05_11 1.0
    RES_CR05_11 YRES_CR05_11 1.0
    RES_CR05_11 RESSPLIT_CR05_11 1.0
    LPG_CR06_11 YLPG_CR06_11 1.0
    LPG_CR06_11 LPGBAL_11 -1.0
    NAP_CR06_11 YNAP_CR06_11 1.0
    NAP_CR06_11 NAPBAL_CR06_11 1.0
    KER_CR06_11 YKER_CR06_11 1.0
    KER_CR06_11 KERBAL_CR06_11 1.0
    DSL_CR06_11 YDSL_CR06_11 1.0
    DSL_CR06_11 DSLBAL_CR06_11 1.0
    VGO_CR06_11 YVGO_CR06_11 1.0
    VGO_CR06_11 VGOBAL_CR06_11 1.0
    RES_CR06_11 YRES_CR06_11 1.0
    RES_CR06_11 RESSPLIT_CR06_11 1.0
    LPG_CR07_11 YLPG_CR07_11 1.0
    LPG_CR07_11 LPGBAL_11 -1.0
    NAP_CR07_11 YNAP_CR07_11 1.0
    NAP_CR07_11 NAPBAL_CR07_11 1.0
    KER_CR07_11 YKER_CR07_11 1.0
    KER_CR07_11 KERBAL_CR07_11 1.0
    DSL_CR07_11 YDSL_CR07_11 1.0
    DSL_CR07_11 DSLBAL_CR07_11 1.0
    VGO_CR07_11 YVGO_CR07_11 1.0
    VGO_CR07_11 VGOBAL_CR07_11 1.0
    RES_CR07_11 YRES_CR07_11 1.0
    RES_CR07_11 RESSPLIT_CR07_11 1.0
    LPG_CR08_11 YLPG_CR08_11 1.0
    LPG_CR08_11 LPGBAL_11 -1.0
    NAP_CR08_11 YNAP_CR08_11 1.0
    NAP_CR08_11 NAPBAL_CR08_11 1.0
    KER_CR08_11 YKER_CR08_11 1.0
    KER_CR08_11 KERBAL_CR08_11 1.0
    DSL_CR08_11 YDSL_CR08_11 1.0
    DSL_CR08_11 DSLBAL_CR08_11 1.0
    VGO_CR08_11 YVGO_CR08_11 1.0
    VGO_CR08_11 VGOBAL_CR08_11 1.0
    RES_CR08_11 YRES_CR08_11 1.0
    RES_CR08_11 RESSPLIT_CR08_11 1.0
    LPG_CR09_11 YLPG_CR09_11 1.0
    LPG_CR09_11 LPGBAL_11 -1.0
    NAP_CR09_11 YNAP_CR09_11 1.0
    NAP_CR09_11 NAPBAL_CR09_11 1.0
    KER_CR09_11 YKER_CR09_11 1.0
    KER_CR09_11 KERBAL_CR09_11 1.0
    DSL_CR09_11 YDSL_CR09_11 1.0
    DSL_CR09_11 DSLBAL_CR09_11 1.0
    VGO_CR09_11 YVGO_CR09_11 1.0
    VGO_CR09_11 VGOBAL_CR09_11 1.0
    RES_CR09_11 YRES_CR09_11 1.0
    RES_CR09_11 RESSPLIT_CR09_11 1.0
    LPG_CR10_11 YLPG_CR10_11 1.0
    LPG_CR10_11 LPGBAL_11 -1.0
    NAP_CR10_11 YNAP_CR10_11 1.0
    NAP_CR10_11 NAPBAL_CR10_11 1.0
    KER_CR10_11 YKER_CR10_11 1.0
    KER_CR10_11 KERBAL_CR10_11 1.0
    DSL_CR10_11 YDSL_CR10_11 1.0
    DSL_CR10_11 DSLBAL_CR10_11 1.0
    VGO_CR10_11 YVGO_CR10_11 1.0
    VGO_CR10_11 VGOBAL_CR10_11 1.0
    RES_CR10_11 YRES_CR10_11 1.0
    RES_CR10_11 RESSPLIT_CR10_11 1.0
    LPG_CR11_11 YLPG_CR11_11 1.0
    LPG_CR11_11 LPGBAL_11 -1.0
    NAP_CR11_11 YNAP_CR11_11 1.0
    NAP_CR11_11 NAPBAL_CR11_11 1.0
    KER_CR11_11 YKER_CR11_11 1.0
    KER_CR11_11 KERBAL_CR11_11 1.0
    DSL_CR11_11 YDSL_CR11_11 1.0
    DSL_CR11_11 DSLBAL_CR11_11 1.0
    VGO_CR11_11 YVGO_CR11_11 1.0
    VGO_CR11_11 VGOBAL_CR11_11 1.0
    RES_CR11_11 YRES_CR11_11 1.0
    RES_CR11_11 RESSPLIT_CR11_11 1.0
    LPG_CR12_11 YLPG_CR12_11 1.0
    LPG_CR12_11 LPGBAL_11 -1.0
    NAP_CR12_11 YNAP_CR12_11 1.0
    NAP_CR12_11 NAPBAL_CR12_11 1.0
    KER_CR12_11 YKER_CR12_11 1.0
    KER_CR12_11 KERBAL_CR12_11 1.0
    DSL_CR12_11 YDSL_CR12_11 1.0
    DSL_CR12_11 DSLBAL_CR12_11 1.0
    VGO_CR12_11 YVGO_CR12_11 1.0
    VGO_CR12_11 VGOBAL_CR12_11 1.0
    RES_CR12_11 YRES_CR12_11 1.0
    RES_CR12_11 RESSPLIT_CR12_11 1.0
    LPG_CR13_11 YLPG_CR13_11 1.0
    LPG_CR13_11 LPGBAL_11 -1.0
    NAP_CR13_11 YNAP_CR13_11 1.0
    NAP_CR13_11 NAPBAL_CR13_11 1.0
    KER_CR13_11 YKER_CR13_11 1.0
    KER_CR13_11 KERBAL_CR13_11 1.0
    DSL_CR13_11 YDSL_CR13_11 1.0
    DSL_CR13_11 DSLBAL_CR13_11 1.0
    VGO_CR13_11 YVGO_CR13_11 1.0
    VGO_CR13_11 VGOBAL_CR13_11 1.0
    RES_CR13_11 YRES_CR13_11 1.0
    RES_CR13_11 RESSPLIT_CR13_11 1.0
    LPG_CR14_11 YLPG_CR14_11 1.0
    LPG_CR14_11 LPGBAL_11 -1.0
    NAP_CR14_11 YNAP_CR14_11 1.0
    NAP_CR14_11 NAPBAL_CR14_11 1.0
    KER_CR14_11 YKER_CR14_11 1.0
    KER_CR14_11 KERBAL_CR14_11 1.0
    DSL_CR14_11 YDSL_CR14_11 1.0
    DSL_CR14_11 DSLBAL_CR14_11 1.0
    VGO_CR14_11 YVGO_CR14_11 1.0
    VGO_CR14_11 VGOBAL_CR14_11 1.0
    RES_CR14_11 YRES_CR14_11 1.0
    RES_CR14_11 RESSPLIT_CR14_11 1.0
    LPG_CR15_11 YLPG_CR15_11 1.0
    LPG_CR15_11 LPGBAL_11 -1.0
    NAP_CR15_11 YNAP_CR15_11 1.0
    NAP_CR15_11 NAPBAL_CR15_11 1.0
    KER_CR15_11 YKER_CR15_11 1.0
    KER_CR15_11 KERBAL_CR15_11 1.0
    DSL_CR15_11 YDSL_CR15_11 1.0
    DSL_CR15_11 DSLBAL_CR15_11 1.0
    VGO_CR15_11 YVGO_CR15_11 1.0
    VGO_CR15_11 VGOBAL_CR15_11 1.0
    RES_CR15_11 YRES_CR15_11 1.0
    RES_CR15_11 RESSPLIT_CR15_11 1.0
    LPG_CR16_11 YLPG_CR16_11 1.0
    LPG_CR16_11 LPGBAL_11 -1.0
    NAP_CR16_11 YNAP_CR16_11 1.0
    NAP_CR16_11 NAPBAL_CR16_11 1.0
    KER_CR16_11 YKER_CR16_11 1.0
    KER_CR16_11 KERBAL_CR16_11 1.0
    DSL_CR16_11 YDSL_CR16_11 1.0
    DSL_CR16_11 DSLBAL_CR16_11 1.0
    VGO_CR16_11 YVGO_CR16_11 1.0
    VGO_CR16_11 VGOBAL_CR16_11 1.0
    RES_CR16_11 YRES_CR16_11 1.0
    RES_CR16_11 RESSPLIT_CR16_11 1.0
    LPG_CR17_11 YLPG_CR17_11 1.0
    LPG_CR17_11 LPGBAL_11 -1.0
    NAP_CR17_11 YNAP_CR17_11 1.0
    NAP_CR17_11 NAPBAL_CR17_11 1.0
    KER_CR17_11 YKER_CR17_11 1.0
    KER_CR17_11 KERBAL_CR17_11 1.0
    DSL_CR17_11 YDSL_CR17_11 1.0
    DSL_CR17_11 DSLBAL_CR17_11 1.0
    VGO_CR17_11 YVGO_CR17_11 1.0
    VGO_CR17_11 VGOBAL_CR17_11 1.0
    RES_CR17_11 YRES_CR17_11 1.0
    RES_CR17_11 RESSPLIT_CR17_11 1.0
    LPG_CR18_11 YLPG_CR18_11 1.0
    LPG_CR18_11 LPGBAL_11 -1.0
    NAP_CR18_11 YNAP_CR18_11 1.0
    NAP_CR18_11 NAPBAL_CR18_11 1.0
    KER_CR18_11 YKER_CR18_11 1.0
    KER_CR18_11 KERBAL_CR18_11 1.0
    DSL_CR18_11 YDSL_CR18_11 1.0
    DSL_CR18_11 DSLBAL_CR18_11 1.0
    VGO_CR18_11 YVGO_CR18_11 1.0
    VGO_CR18_11 VGOBAL_CR18_11 1.0
    RES_CR18_11 YRES_CR18_11 1.0
    RES_CR18_11 RESSPLIT_CR18_11 1.0
    LPG_CR19_11 YLPG_CR19_11 1.0
    LPG_CR19_11 LPGBAL_11 -1.0
    NAP_CR19_11 YNAP_CR19_11 1.0
    NAP_CR19_11 NAPBAL_CR19_11 1.0
    KER_CR19_11 YKER_CR19_11 1.0
    KER_CR19_11 KERBAL_CR19_11 1.0
    DSL_CR19_11 YDSL_CR19_11 1.0
    DSL_CR19_11 DSLBAL_CR19_11 1.0
    VGO_CR19_11 YVGO_CR19_11 1.0
    VGO_CR19_11 VGOBAL_CR19_11 1.0
    RES_CR19_11 YRES_CR19_11 1.0
    RES_CR19_11 RESSPLIT_CR19_11 1.0
    VDUIN_CR00_11 RESSPLIT_CR00_11 -1.0
    VDUIN_CR00_11 VDUY1_CR00_11 -0.45
    VDUIN_CR00_11 VDUY2_CR00_11 -0.55
    VDUIN_CR00_11 VDUCAP_11 1.0
    RESFO_CR00_11 RESSPLIT_CR00_11 -1.0
    RESFO_CR00_11 FOBAL_11 -1.0
    RESFO_CR00_11 FOSUL_11 1.9540891690108433
    VGO2_CR00_11 VDUY1_CR00_11 1.0
    VGO2_CR00_11 VGOBAL_CR00_11 1.0
    VR_CR00_11 VDUY2_CR00_11 1.0
    VR_CR00_11 FOBAL_11 -1.0
    VR_CR00_11 FOSUL_11 3.5903159197140964
    VDUIN_CR01_11 RESSPLIT_CR01_11 -1.0
    VDUIN_CR01_11 VDUY1_CR01_11 -0.45
    VDUIN_CR01_11 VDUY2_CR01_11 -0.55
    VDUIN_CR01_11 VDUCAP_11 1.0
    RESFO_CR01_11 RESSPLIT_CR01_11 -1.0
    RESFO_CR01_11 FOBAL_11 -1.0
    RESFO_CR01_11 FOSUL_11 -0.6168441789886687
    VGO2_CR01_11 VDUY1_CR01_11 1.0
    VGO2_CR01_11 VGOBAL_CR01_11 1.0
    VR_CR01_11 VDUY2_CR01_11 1.0
    VR_CR01_11 FOBAL_11 -1.0
    VR_CR01_11 FOSUL_11 0.24810256731473057
    VDUIN_CR02_11 RESSPLIT_CR02_11 -1.0
    VDUIN_CR02_11 VDUY1_CR02_11 -0.45
    VDUIN_CR02_11 VDUY2_CR02_11 -0.55
    VDUIN_CR02_11 VDUCAP_11 1.0
    RESFO_CR02_11 RESSPLIT_CR02_11 -1.0
    RESFO_CR02_11 FOBAL_11 -1.0
    RESFO_CR02_11 FOSUL_11 0.05675733131967897
    VGO2_CR02_11 VDUY1_CR02_11 1.0
    VGO2_CR02_11 VGOBAL_CR02_11 1.0
    VR_CR02_11 VDUY2_CR02_11 1.0
    VR_CR02_11 FOBAL_11 -1.0
    VR_CR02_11 FOSUL_11 1.1237845307155832
    VDUIN_CR03_11 RESSPLIT_CR03_11 -1.0
    VDUIN_CR03_11 VDUY1_CR03_11 -0.45
    VDUIN_CR03_11 VDUY2_CR03_11 -0.55
    VDUIN_CR03_11 VDUCAP_11 1.0
    RESFO_CR03_11 RESSPLIT_CR03_11 -1.0
    RESFO_CR03_11 FOBAL_11 -1.0
    RESFO_CR03_11 FOSUL_11 -1.8686274424458973
    VGO2_CR03_11 VDUY1_CR03_11 1.0
    VGO2_CR03_11 VGOBAL_CR03_11 1.0
    VR_CR03_11 VDUY2_CR03_11 1.0
    VR_CR03_11 FOBAL_11 -1.0
    VR_CR03_11 FOSUL_11 -1.3792156751796663
    VDUIN_CR04_11 RESSPLIT_CR04_11 -1.0
    VDUIN_CR04_11 VDUY1_CR04_11 -0.45
    VDUIN_CR04_11 VDUY2_CR04_11 -0.55
    VDUIN_CR04_11 VDUCAP_11 1.0
    RESFO_CR04_11 RESSPLIT_CR04_11 -1.0
    RESFO_CR04_11 FOBAL_11 -1.0
    RESFO_CR04_11 FOSUL_11 2.031668478530798
    VGO2_CR04_11 VDUY1_CR04_11 1.0
    VGO2_CR04_11 VGOBAL_CR04_11 1.0
    VR_CR04_11 VDUY2_CR04_11 1.0
    VR_CR04_11 FOBAL_11 -1.0
    VR_CR04_11 FOSUL_11 3.6911690220900377
    VDUIN_CR05_11 RESSPLIT_CR05_11 -1.0
    VDUIN_CR05_11 VDUY1_CR05_11 -0.45
    VDUIN_CR05_11 VDUY2_CR05_11 -0.55
    VDUIN_CR05_11 VDUCAP_11 1.0
    RESFO_CR05_11 RESSPLIT_CR05_11 -1.0
    RESFO_CR05_11 FOBAL_11 -1.0
    RESFO_CR05_11 FOSUL_11 0.3429997580900688
    VGO2_CR05_11 VDUY1_CR05_11 1.0
    VGO2_CR05_11 VGOBAL_CR05_11 1.0
    VR_CR05_11 VDUY2_CR05_11 1.0
    VR_CR05_11 FOBAL_11 -1.0
    VR_CR05_11 FOSUL_11 1.4958996855170898
    VDUIN_CR06_11 RESSPLIT_CR06_11 -1.0
    VDUIN_CR06_11 VDUY1_CR06_11 -0.45
    VDUIN_CR06_11 VDUY2_CR06_11 -0.55
    VDUIN_CR06_11 VDUCAP_11 1.0
    RESFO_CR06_11 RESSPLIT_CR06_11 -1.0
    RESFO_CR06_11 FOBAL_11 -1.0
    RESFO_CR06_11 FOSUL_11 0.10255232060654862
    VGO2_CR06_11 VDUY1_CR06_11 1.0
    VGO2_CR06_11 VGOBAL_CR06_11 1.0
    VR_CR06_11 VDUY2_CR06_11 1.0
    VR_CR06_11 FOBAL_11 -1.0
    VR_CR06_11 FOSUL_11 1.1833180167885136
    VDUIN_CR07_11 RESSPLIT_CR07_11 -1.0
    VDUIN_CR07_11 VDUY1_CR07_11 -0.45
    VDUIN_CR07_11 VDUY2_CR07_11 -0.55
    VDUIN_CR07_11 VDUCAP_11 1.0
    RESFO_CR07_11 RESSPLIT_CR07_11 -1.0
    RESFO_CR07_11 FOBAL_11 -1.0
    RESFO_CR07_11 FOSUL_11 -3.116635223405176
    VGO2_CR07_11 VDUY1_CR07_11 1.0
    VGO2_CR07_11 VGOBAL_CR07_11 1.0
    VR_CR07_11 VDUY2_CR07_11 1.0
    VR_CR07_11 FOBAL_11 -1.0
    VR_CR07_11 FOSUL_11 -3.001625790426729
    VDUIN_CR08_11 RESSPLIT_CR08_11 -1.0
    VDUIN_CR08_11 VDUY1_CR08_11 -0.45
    VDUIN_CR08_11 VDUY2_CR08_11 -0.55
    VDUIN_CR08_11 VDUCAP_11 1.0
    RESFO_CR08_11 RESSPLIT_CR08_11 -1.0
    RESFO_CR08_11 FOBAL_11 -1.0
    RESFO_CR08_11 FOSUL_11 0.0456281803886287
    VGO2_CR08_11 VDUY1_CR08_11 1.0
    VGO2_CR08_11 VGOBAL_CR08_11 1.0
    VR_CR08_11 VDUY2_CR08_11 1.0
    VR_CR08_11 FOBAL_11 -1.0
    VR_CR08_11 FOSUL_11 1.109316634505218
    VDUIN_CR09_11 RESSPLIT_CR09_11 -1.0
    VDUIN_CR09_11 VDUY1_CR09_11 -0.45
    VDUIN_CR09_11 VDUY2_CR09_11 -0.55
    VDUIN_CR09_11 VDUCAP_11 1.0
    RESFO_CR09_11 RESSPLIT_CR09_11 -1.0
    RESFO_CR09_11 FOBAL_11 -1.0
    RESFO_CR09_11 FOSUL_11 -3.264603397407564
    VGO2_CR09_11 VDUY1_CR09_11 1.0
    VGO2_CR09_11 VGOBAL_CR09_11 1.0
    VR_CR09_11 VDUY2_CR09_11 1.0
    VR_CR09_11 FOBAL_11 -1.0
    VR_CR09_11 FOSUL_11 -3.1939844166298332
    VDUIN_CR10_11 RESSPLIT_CR10_11 -1.0
    VDUIN_CR10_11 VDUY1_CR10_11 -0.45
    VDUIN_CR10_11 VDUY2_CR10_11 -0.55
    VDUIN_CR10_11 VDUCAP_11 1.0
    RESFO_CR10_11 RESSPLIT_CR10_11 -1.0
    RESFO_CR10_11 FOBAL_11 -1.0
    RESFO_CR10_11 FOSUL_11 2.094062962095167
    VGO2_CR10_11 VDUY1_CR10_11 1.0
    VGO2_CR10_11 VGOBAL_CR10_11 1.0
    VR_CR10_11 VDUY2_CR10_11 1.0
    VR_CR10_11 FOBAL_11 -1.0
    VR_CR10_11 FOSUL_11 3.7722818507237177
    VDUIN_CR11_11 RESSPLIT_CR11_11 -1.0
    VDUIN_CR11_11 VDUY1_CR11_11 -0.45
    VDUIN_CR11_11 VDUY2_CR11_11 -0.55
    VDUIN_CR11_11 VDUCAP_11 1.0
    RESFO_CR11_11 RESSPLIT_CR11_11 -1.0
    RESFO_CR11_11 FOBAL_11 -1.0
    RESFO_CR11_11 FOSUL_11 -0.4594898393817082
    VGO2_CR11_11 VDUY1_CR11_11 1.0
    VGO2_CR11_11 VGOBAL_CR11_11 1.0
    VR_CR11_11 VDUY2_CR11_11 1.0
    VR_CR11_11 FOBAL_11 -1.0
    VR_CR11_11 FOSUL_11 0.4526632088037794
    VDUIN_CR12_11 RESSPLIT_CR12_11 -1.0
    VDUIN_CR12_11 VDUY1_CR12_11 -0.45
    VDUIN_CR12_11 VDUY2_CR12_11 -0.55
    VDUIN_CR12_11 VDUCAP_11 1.0
    RESFO_CR12_11 RESSPLIT_CR12_11 -1.0
    RESFO_CR12_11 FOBAL_11 -1.0
    RESFO_CR12_11 FOSUL_11 1.9188179600993953
    VGO2_CR12_11 VDUY1_CR12_11 1.0
    VGO2_CR12_11 VGOBAL_CR12_11 1.0
    VR_CR12_11 VDUY2_CR12_11 1.0
    VR_CR12_11 FOBAL_11 -1.0
    VR_CR12_11 FOSUL_11 3.544463348129214
    VDUIN_CR13_11 RESSPLIT_CR13_11 -1.0
    VDUIN_CR13_11 VDUY1_CR13_11 -0.45
    VDUIN_CR13_11 VDUY2_CR13_11 -0.55
    VDUIN_CR13_11 VDUCAP_11 1.0
    RESFO_CR13_11 RESSPLIT_CR13_11 -1.0
    RESFO_CR13_11 FOBAL_11 -1.0
    RESFO_CR13_11 FOSUL_11 -2.8690046531087465
    VGO2_CR13_11 VDUY1_CR13_11 1.0
    VGO2_CR13_11 VGOBAL_CR13_11 1.0
    VR_CR13_11 VDUY2_CR13_11 1.0
    VR_CR13_11 FOBAL_11 -1.0
    VR_CR13_11 FOSUL_11 -2.6797060490413704
    VDUIN_CR14_11 RESSPLIT_CR14_11 -1.0
    VDUIN_CR14_11 VDUY1_CR14_11 -0.45
    VDUIN_CR14_11 VDUY2_CR14_11 -0.55
    VDUIN_CR14_11 VDUCAP_11 1.0
    RESFO_CR14_11 RESSPLIT_CR14_11 -1.0
    RESFO_CR14_11 FOBAL_11 -1.0
    RESFO_CR14_11 FOSUL_11 -0.9033459504788866
    VGO2_CR14_11 VDUY1_CR14_11 1.0
    VGO2_CR14_11 VGOBAL_CR14_11 1.0
    VR_CR14_11 VDUY2_CR14_11 1.0
    VR_CR14_11 FOBAL_11 -1.0
    VR_CR14_11 FOSUL_11 -0.12434973562255225
    VDUIN_CR15_11 RESSPLIT_CR15_11 -1.0
    VDUIN_CR15_11 VDUY1_CR15_11 -0.45
    VDUIN_CR15_11 VDUY2_CR15_11 -0.55
    VDUIN_CR15_11 VDUCAP_11 1.0
    RESFO_CR15_11 RESSPLIT_CR15_11 -1.0
    RESFO_CR15_11 FOBAL_11 -1.0
    RESFO_CR15_11 FOSUL_11 -3.189239970867669
    VGO2_CR15_11 VDUY1_CR15_11 1.0
    VGO2_CR15_11 VGOBAL_CR15_11 1.0
    VR_CR15_11 VDUY2_CR15_11 1.0
    VR_CR15_11 FOBAL_11 -1.0
    VR_CR15_11 FOSUL_11 -3.0960119621279696
    VDUIN_CR16_11 RESSPLIT_CR16_11 -1.0
    VDUIN_CR16_11 VDUY1_CR16_11 -0.45
    VDUIN_CR16_11 VDUY2_CR16_11 -0.55
    VDUIN_CR16_11 VDUCAP_11 1.0
    RESFO_CR16_11 RESSPLIT_CR16_11 -1.0
    RESFO_CR16_11 FOBAL_11 -1.0
    RESFO_CR16_11 FOSUL_11 -0.09708299491376327
    VGO2_CR16_11 VDUY1_CR16_11 1.0
    VGO2_CR16_11 VGOBAL_CR16_11 1.0
    VR_CR16_11 VDUY2_CR16_11 1.0
    VR_CR16_11 FOBAL_11 -1.0
    VR_CR16_11 FOSUL_11 0.9237921066121082
    VDUIN_CR17_11 RESSPLIT_CR17_11 -1.0
    VDUIN_CR17_11 VDUY1_CR17_11 -0.45
    VDUIN_CR17_11 VDUY2_CR17_11 -0.55
    VDUIN_CR17_11 VDUCAP_11 1.0
    RESFO_CR17_11 RESSPLIT_CR17_11 -1.0
    RESFO_CR17_11 FOBAL_11 -1.0
    RESFO_CR17_11 FOSUL_11 2.128312314257988
    VGO2_CR17_11 VDUY1_CR17_11 1.0
    VGO2_CR17_11 VGOBAL_CR17_11 1.0
    VR_CR17_11 VDUY2_CR17_11 1.0
    VR_CR17_11 FOBAL_11 -1.0
    VR_CR17_11 FOSUL_11 3.8168060085353845
    VDUIN_CR18_11 RESSPLIT_CR18_11 -1.0
    VDUIN_CR18_11 VDUY1_CR18_11 -0.45
    VDUIN_CR18_11 VDUY2_CR18_11 -0.55
    VDUIN_CR18_11 VDUCAP_11 1.0
    RESFO_CR18_11 RESSPLIT_CR18_11 -1.0
    RESFO_CR18_11 FOBAL_11 -1.0
    RESFO_CR18_11 FOSUL_11 -3.0649175102888004
    VGO2_CR18_11 VDUY1_CR18_11 1.0
    VGO2_CR18_11 VGOBAL_CR18_11 1.0
    VR_CR18_11 VDUY2_CR18_11 1.0
    VR_CR18_11 FOBAL_11 -1.0
    VR_CR18_11 FOSUL_11 -2.9343927633754405
    VDUIN_CR19_11 RESSPLIT_CR19_11 -1.0
    VDUIN_CR19_11 VDUY1_CR19_11 -0.45
    VDUIN_CR19_11 VDUY2_CR19_11 -0.55
    VDUIN_CR19_11 VDUCAP_11 1.0
    RESFO_CR19_11 RESSPLIT_CR19_11 -1.0
    RESFO_CR19_11 FOBAL_11 -1.0
    RESFO_CR19_11 FOSUL_11 -1.1490285157117452
    VGO2_CR19_11 VDUY1_CR19_11 1.0
    VGO2_CR19_11 VGOBAL_CR19_11 1.0
    VR_CR19_11 VDUY2_CR19_11 1.0
    VR_CR19_11 FOBAL_11 -1.0
    VR_CR19_11 FOSUL_11 -0.4437370704252688
    FCCIN_CR00_11 OBJ -2.5
    FCCIN_CR00_11 VGOBAL_CR00_11 -1.0
    FCCIN_CR00_11 FCCCAP_11 1.0
    FCCIN_CR00_11 FCCY_FCCG_11 -0.55
    FCCIN_CR00_11 FCCY_LCO_11 -0.2
    FCCIN_CR00_11 FCCY_FLPG_11 -0.15
    FCCIN_CR00_11 FCCY_SLURRY_11 -0.07
    FCCIN_CR01_11 OBJ -2.5
    FCCIN_CR01_11 VGOBAL_CR01_11 -1.0
    FCCIN_CR01_11 FCCCAP_11 1.0
    FCCIN_CR01_11 FCCY_FCCG_11 -0.55
    FCCIN_CR01_11 FCCY_LCO_11 -0.2
    FCCIN_CR01_11 FCCY_FLPG_11 -0.15
    FCCIN_CR01_11 FCCY_SLURRY_11 -0.07
    FCCIN_CR02_11 OBJ -2.5
    FCCIN_CR02_11 VGOBAL_CR02_11 -1.0
    FCCIN_CR02_11 FCCCAP_11 1.0
    FCCIN_CR02_11 FCCY_FCCG_11 -0.55
    FCCIN_CR02_11 FCCY_LCO_11 -0.2
    FCCIN_CR02_11 FCCY_FLPG_11 -0.15
    FCCIN_CR02_11 FCCY_SLURRY_11 -0.07
    FCCIN_CR03_11 OBJ -2.5
    FCCIN_CR03_11 VGOBAL_CR03_11 -1.0
    FCCIN_CR03_11 FCCCAP_11 1.0
    FCCIN_CR03_11 FCCY_FCCG_11 -0.55
    FCCIN_CR03_11 FCCY_LCO_11 -0.2
    FCCIN_CR03_11 FCCY_FLPG_11 -0.15
    FCCIN_CR03_11 FCCY_SLURRY_11 -0.07
    FCCIN_CR04_11 OBJ -2.5
    FCCIN_CR04_11 VGOBAL_CR04_11 -1.0
    FCCIN_CR04_11 FCCCAP_11 1.0
    FCCIN_CR04_11 FCCY_FCCG_11 -0.55
    FCCIN_CR04_11 FCCY_LCO_11 -0.2
    FCCIN_CR04_11 FCCY_FLPG_11 -0.15
    FCCIN_CR04_11 FCCY_SLURRY_11 -0.07
    FCCIN_CR05_11 OBJ -2.5
    FCCIN_CR05_11 VGOBAL_CR05_11 -1.0
    FCCIN_CR05_11 FCCCAP_11 1.0
    FCCIN_CR05_11 FCCY_FCCG_11 -0.55
    FCCIN_CR05_11 FCCY_LCO_11 -0.2
    FCCIN_CR05_11 FCCY_FLPG_11 -0.15
    FCCIN_CR05_11 FCCY_SLURRY_11 -0.07
    FCCIN_CR06_11 OBJ -2.5
    FCCIN_CR06_11 VGOBAL_CR06_11 -1.0
    FCCIN_CR06_11 FCCCAP_11 1.0
    FCCIN_CR06_11 FCCY_FCCG_11 -0.55
    FCCIN_CR06_11 FCCY_LCO_11 -0.2
    FCCIN_CR06_11 FCCY_FLPG_11 -0.15
    FCCIN_CR06_11 FCCY_SLURRY_11 -0.07
    FCCIN_CR07_11 OBJ -2.5
    FCCIN_CR07_11 VGOBAL_CR07_11 -1.0
    FCCIN_CR07_11 FCCCAP_11 1.0
    FCCIN_CR07_11 FCCY_FCCG_11 -0.55
    FCCIN_CR07_11 FCCY_LCO_11 -0.2
    FCCIN_CR07_11 FCCY_FLPG_11 -0.15
    FCCIN_CR07_11 FCCY_SLURRY_11 -0.07
    FCCIN_CR08_11 OBJ -2.5
    FCCIN_CR08_11 VGOBAL_CR08_11 -1.0
    FCCIN_CR08_11 FCCCAP_11 1.0
    FCCIN_CR08_11 FCCY_FCCG_11 -0.55
    FCCIN_CR08_11 FCCY_LCO_11 -0.2
    FCCIN_CR08_11 FCCY_FLPG_11 -0.15
    FCCIN_CR08_11 FCCY_SLURRY_11 -0.07
    FCCIN_CR09_11 OBJ -2.5
    FCCIN_CR09_11 VGOBAL_CR09_11 -1.0
    FCCIN_CR09_11 FCCCAP_11 1.0
    FCCIN_CR09_11 FCCY_FCCG_11 -0.55
    FCCIN_CR09_11 FCCY_LCO_11 -0.2
    FCCIN_CR09_11 FCCY_FLPG_11 -0.15
    FCCIN_CR09_11 FCCY_SLURRY_11 -0.07
    FCCIN_CR10_11 OBJ -2.5
    FCCIN_CR10_11 VGOBAL_CR10_11 -1.0
    FCCIN_CR10_11 FCCCAP_11 1.0
    FCCIN_CR10_11 FCCY_FCCG_11 -0.55
    FCCIN_CR10_11 FCCY_LCO_11 -0.2
    FCCIN_CR10_11 FCCY_FLPG_11 -0.15
    FCCIN_CR10_11 FCCY_SLURRY_11 -0.07
    FCCIN_CR11_11 OBJ -2.5
    FCCIN_CR11_11 VGOBAL_CR11_11 -1.0
    FCCIN_CR11_11 FCCCAP_11 1.0
    FCCIN_CR11_11 FCCY_FCCG_11 -0.55
    FCCIN_CR11_11 FCCY_LCO_11 -0.2
    FCCIN_CR11_11 FCCY_FLPG_11 -0.15
    FCCIN_CR11_11 FCCY_SLURRY_11 -0.07
    FCCIN_CR12_11 OBJ -2.5
    FCCIN_CR12_11 VGOBAL_CR12_11 -1.0
    FCCIN_CR12_11 FCCCAP_11 1.0
    FCCIN_CR12_11 FCCY_FCCG_11 -0.55
    FCCIN_CR12_11 FCCY_LCO_11 -0.2
    FCCIN_CR12_11 FCCY_FLPG_11 -0.15
    FCCIN_CR12_11 FCCY_SLURRY_11 -0.07
    FCCIN_CR13_11 OBJ -2.5
    FCCIN_CR13_11 VGOBAL_CR13_11 -1.0
    FCCIN_CR13_11 FCCCAP_11 1.0
    FCCIN_CR13_11 FCCY_FCCG_11 -0.55
    FCCIN_CR13_11 FCCY_LCO_11 -0.2
    FCCIN_CR13_11 FCCY_FLPG_11 -0.15
    FCCIN_CR13_11 FCCY_SLURRY_11 -0.07
    FCCIN_CR14_11 OBJ -2.5
    FCCIN_CR14_11 VGOBAL_CR14_11 -1.0
    FCCIN_CR14_11 FCCCAP_11 1.0
    FCCIN_CR14_11 FCCY_FCCG_11 -0.55
    FCCIN_CR14_11 FCCY_LCO_11 -0.2
    FCCIN_CR14_11 FCCY_FLPG_11 -0.15
    FCCIN_CR14_11 FCCY_SLURRY_11 -0.07
    FCCIN_CR15_11 OBJ -2.5
    FCCIN_CR15_11 VGOBAL_CR15_11 -1.0
    FCCIN_CR15_11 FCCCAP_11 1.0
    FCCIN_CR15_11 FCCY_FCCG_11 -0.55
    FCCIN_CR15_11 FCCY_LCO_11 -0.2
    FCCIN_CR15_11 FCCY_FLPG_11 -0.15
    FCCIN_CR15_11 FCCY_SLURRY_11 -0.07
    FCCIN_CR16_11 OBJ -2.5
    FCCIN_CR16_11 VGOBAL_CR16_11 -1.0
    FCCIN_CR16_11 FCCCAP_11 1.0
    FCCIN_CR16_11 FCCY_FCCG_11 -0.55
    FCCIN_CR16_11 FCCY_LCO_11 -0.2
    FCCIN_CR16_11 FCCY_FLPG_11 -0.15
    FCCIN_CR16_11 FCCY_SLURRY_11 -0.07
    FCCIN_CR17_11 OBJ -2.5
    FCCIN_CR17_11 VGOBAL_CR17_11 -1.0
    FCCIN_CR17_11 FCCCAP_11 1.0
    FCCIN_CR17_11 FCCY_FCCG_11 -0.55
    FCCIN_CR17_11 FCCY_LCO_11 -0.2
    FCCIN_CR17_11 FCCY_FLPG_11 -0.15
    FCCIN_CR17_11 FCCY_SLURRY_11 -0.07
    FCCIN_CR18_11 OBJ -2.5
    FCCIN_CR18_11 VGOBAL_CR18_11 -1.0
    FCCIN_CR18_11 FCCCAP_11 1.0
    FCCIN_CR18_11 FCCY_FCCG_11 -0.55
    FCCIN_CR18_11 FCCY_LCO_11 -0.2
    FCCIN_CR18_11 FCCY_FLPG_11 -0.15
    FCCIN_CR18_11 FCCY_SLURRY_11 -0.07
    FCCIN_CR19_11 OBJ -2.5
    FCCIN_CR19_11 VGOBAL_CR19_11 -1.0
    FCCIN_CR19_11 FCCCAP_11 1.0
    FCCIN_CR19_11 FCCY_FCCG_11 -0.55
    FCCIN_CR19_11 FCCY_LCO_11 -0.2
    FCCIN_CR19_11 FCCY_FLPG_11 -0.15
    FCCIN_CR19_11 FCCY_SLURRY_11 -0.07
    FCCG_11 FCCY_FCCG_11 1.0
    FCCG_11 GASBAL_11 -1.0
    FCCG_11 GASRON_11 1.0
    LCO_11 FCCY_LCO_11 1.0
    LCO_11 LCOBAL_11 1.0
    FLPG_11 FCCY_FLPG_11 1.0
    FLPG_11 LPGBAL_11 -1.0
    SLURRY_11 FCCY_SLURRY_11 1.0
    SLURRY_11 FOBAL_11 -1.0
    SLURRY_11 FOSUL_11 -1.5
    REFIN_CR00_11 OBJ -3.0
    REFIN_CR00_11 NAPBAL_CR00_11 -1.0
    REFIN_CR00_11 REFCAP_11 1.0
    REFIN_CR00_11 REFY_11 -0.85
    NAPGAS_CR00_11 NAPBAL_CR00_11 -1.0
    NAPGAS_CR00_11 GASBAL_11 -1.0
    NAPGAS_CR00_11 GASRON_11 -41.351908455631545
    REFIN_CR01_11 OBJ -3.0
    REFIN_CR01_11 NAPBAL_CR01_11 -1.0
    REFIN_CR01_11 REFCAP_11 1.0
    REFIN_CR01_11 REFY_11 -0.85
    NAPGAS_CR01_11 NAPBAL_CR01_11 -1.0
    NAPGAS_CR01_11 GASBAL_11 -1.0
    NAPGAS_CR01_11 GASRON_11 -33.623043958680114
    REFIN_CR02_11 OBJ -3.0
    REFIN_CR02_11 NAPBAL_CR02_11 -1.0
    REFIN_CR02_11 REFCAP_11 1.0
    REFIN_CR02_11 REFY_11 -0.85
    NAPGAS_CR02_11 NAPBAL_CR02_11 -1.0
    NAPGAS_CR02_11 GASBAL_11 -1.0
    NAPGAS_CR02_11 GASRON_11 -39.74522208078083
    REFIN_CR03_11 OBJ -3.0
    REFIN_CR03_11 NAPBAL_CR03_11 -1.0
    REFIN_CR03_11 REFCAP_11 1.0
    REFIN_CR03_11 REFY_11 -0.85
    NAPGAS_CR03_11 NAPBAL_CR03_11 -1.0
    NAPGAS_CR03_11 GASBAL_11 -1.0
    NAPGAS_CR03_11 GASRON_11 -39.32063345179839
    REFIN_CR04_11 OBJ -3.0
    REFIN_CR04_11 NAPBAL_CR04_11 -1.0
    REFIN_CR04_11 REFCAP_11 1.0
    REFIN_CR04_11 REFY_11 -0.85
    NAPGAS_CR04_11 NAPBAL_CR04_11 -1.0
    NAPGAS_CR04_11 GASBAL_11 -1.0
    NAPGAS_CR04_11 GASRON_11 -28.06018906757886
    REFIN_CR05_11 OBJ -3.0
    REFIN_CR05_11 NAPBAL_CR05_11 -1.0
    REFIN_CR05_11 REFCAP_11 1.0
    REFIN_CR05_11 REFY_11 -0.85
    NAPGAS_CR05_11 NAPBAL_CR05_11 -1.0
    NAPGAS_CR05_11 GASBAL_11 -1.0
    NAPGAS_CR05_11 GASRON_11 -37.177062383933254
    REFIN_CR06_11 OBJ -3.0
    REFIN_CR06_11 NAPBAL_CR06_11 -1.0
    REFIN_CR06_11 REFCAP_11 1.0
    REFIN_CR06_11 REFY_11 -0.85
    NAPGAS_CR06_11 NAPBAL_CR06_11 -1.0
    NAPGAS_CR06_11 GASBAL_11 -1.0
    NAPGAS_CR06_11 GASRON_11 -38.73738801284508
    REFIN_CR07_11 OBJ -3.0
    REFIN_CR07_11 NAPBAL_CR07_11 -1.0
    REFIN_CR07_11 REFCAP_11 1.0
    REFIN_CR07_11 REFY_11 -0.85
    NAPGAS_CR07_11 NAPBAL_CR07_11 -1.0
    NAPGAS_CR07_11 GASBAL_11 -1.0
    NAPGAS_CR07_11 GASRON_11 -31.720911449683953
    REFIN_CR08_11 OBJ -3.0
    REFIN_CR08_11 NAPBAL_CR08_11 -1.0
    REFIN_CR08_11 REFCAP_11 1.0
    REFIN_CR08_11 REFY_11 -0.85
    NAPGAS_CR08_11 NAPBAL_CR08_11 -1.0
    NAPGAS_CR08_11 GASBAL_11 -1.0
    NAPGAS_CR08_11 GASRON_11 -31.236267605063702
    REFIN_CR09_11 OBJ -3.0
    REFIN_CR09_11 NAPBAL_CR09_11 -1.0
    REFIN_CR09_11 REFCAP_11 1.0
    REFIN_CR09_11 REFY_11 -0.85
    NAPGAS_CR09_11 NAPBAL_CR09_11 -1.0
    NAPGAS_CR09_11 GASBAL_11 -1.0
    NAPGAS_CR09_11 GASRON_11 -29.9151768258086
    REFIN_CR10_11 OBJ -3.0
    REFIN_CR10_11 NAPBAL_CR10_11 -1.0
    REFIN_CR10_11 REFCAP_11 1.0
    REFIN_CR10_11 REFY_11 -0.85
    NAPGAS_CR10_11 NAPBAL_CR10_11 -1.0
    NAPGAS_CR10_11 GASBAL_11 -1.0
    NAPGAS_CR10_11 GASRON_11 -38.641707010486826
    REFIN_CR11_11 OBJ -3.0
    REFIN_CR11_11 NAPBAL_CR11_11 -1.0
    REFIN_CR11_11 REFCAP_11 1.0
    REFIN_CR11_11 REFY_11 -0.85
    NAPGAS_CR11_11 NAPBAL_CR11_11 -1.0
    NAPGAS_CR11_11 GASBAL_11 -1.0
    NAPGAS_CR11_11 GASRON_11 -31.364398664025877
    REFIN_CR12_11 OBJ -3.0
    REFIN_CR12_11 NAPBAL_CR12_11 -1.0
    REFIN_CR12_11 REFCAP_11 1.0
    REFIN_CR12_11 REFY_11 -0.85
    NAPGAS_CR12_11 NAPBAL_CR12_11 -1.0
    NAPGAS_CR12_11 GASBAL_11 -1.0
    NAPGAS_CR12_11 GASRON_11 -36.44295305412478
    REFIN_CR13_11 OBJ -3.0
    REFIN_CR13_11 NAPBAL_CR13_11 -1.0
    REFIN_CR13_11 REFCAP_11 1.0
    REFIN_CR13_11 REFY_11 -0.85
    NAPGAS_CR13_11 NAPBAL_CR13_11 -1.0
    NAPGAS_CR13_11 GASBAL_11 -1.0
    NAPGAS_CR13_11 GASRON_11 -36.368722409916884
    REFIN_CR14_11 OBJ -3.0
    REFIN_CR14_11 NAPBAL_CR14_11 -1.0
    REFIN_CR14_11 REFCAP_11 1.0
    REFIN_CR14_11 REFY_11 -0.85
    NAPGAS_CR14_11 NAPBAL_CR14_11 -1.0
    NAPGAS_CR14_11 GASBAL_11 -1.0
    NAPGAS_CR14_11 GASRON_11 -37.837781635780814
    REFIN_CR15_11 OBJ -3.0
    REFIN_CR15_11 NAPBAL_CR15_11 -1.0
    REFIN_CR15_11 REFCAP_11 1.0
    REFIN_CR15_11 REFY_11 -0.85
    NAPGAS_CR15_11 NAPBAL_CR15_11 -1.0
    NAPGAS_CR15_11 GASBAL_11 -1.0
    NAPGAS_CR15_11 GASRON_11 -36.91743369949054
    REFIN_CR16_11 OBJ -3.0
    REFIN_CR16_11 NAPBAL_CR16_11 -1.0
    REFIN_CR16_11 REFCAP_11 1.0
    REFIN_CR16_11 REFY_11 -0.85
    NAPGAS_CR16_11 NAPBAL_CR16_11 -1.0
    NAPGAS_CR16_11 GASBAL_11 -1.0
    NAPGAS_CR16_11 GASRON_11 -32.43244486749426
    REFIN_CR17_11 OBJ -3.0
    REFIN_CR17_11 NAPBAL_CR17_11 -1.0
    REFIN_CR17_11 REFCAP_11 1.0
    REFIN_CR17_11 REFY_11 -0.85
    NAPGAS_CR17_11 NAPBAL_CR17_11 -1.0
    NAPGAS_CR17_11 GASBAL_11 -1.0
    NAPGAS_CR17_11 GASRON_11 -32.30218201355821
    REFIN_CR18_11 OBJ -3.0
    REFIN_CR18_11 NAPBAL_CR18_11 -1.0
    REFIN_CR18_11 REFCAP_11 1.0
    REFIN_CR18_11 REFY_11 -0.85
    NAPGAS_CR18_11 NAPBAL_CR18_11 -1.0
    NAPGAS_CR18_11 GASBAL_11 -1.0
    NAPGAS_CR18_11 GASRON_11 -30.280860643235343
    REFIN_CR19_11 OBJ -3.0
    REFIN_CR19_11 NAPBAL_CR19_11 -1.0
    REFIN_CR19_11 REFCAP_11 1.0
    REFIN_CR19_11 REFY_11 -0.85
    NAPGAS_CR19_11 NAPBAL_CR19_11 -1.0
    NAPGAS_CR19_11 GASBAL_11 -1.0
    NAPGAS_CR19_11 GASRON_11 -35.8435432887995
    REFORMATE_11 REFY_11 1.0
    REFORMATE_11 GASBAL_11 -1.0
    REFORMATE_11 GASRON_11 7.0
    DHTIN_CR00_11 OBJ -2.0
    DHTIN_CR00_11 DSLBAL_CR00_11 -1.0
    DHTIN_CR00_11 DHTCAP_11 1.0
    DHTIN_CR00_11 DHTY_11 -0.98
    DSLDIR_CR00_11 DSLBAL_CR00_11 -1.0
    DSLDIR_CR00_11 DSLPB_11 -1.0
    DSLDIR_CR00_11 DSLSUL_11 1.5862267507032528
    DHTIN_CR01_11 OBJ -2.0
    DHTIN_CR01_11 DSLBAL_CR01_11 -1.0
    DHTIN_CR01_11 DHTCAP_11 1.0
    DHTIN_CR01_11 DHTY_11 -0.98
    DSLDIR_CR01_11 DSLBAL_CR01_11 -1.0
    DSLDIR_CR01_11 DSLPB_11 -1.0
    DSLDIR_CR01_11 DSLSUL_11 0.8149467463033994
    DHTIN_CR02_11 OBJ -2.0
    DHTIN_CR02_11 DSLBAL_CR02_11 -1.0
    DHTIN_CR02_11 DHTCAP_11 1.0
    DHTIN_CR02_11 DHTY_11 -0.98
    DSLDIR_CR02_11 DSLBAL_CR02_11 -1.0
    DSLDIR_CR02_11 DSLPB_11 -1.0
    DSLDIR_CR02_11 DSLSUL_11 1.0170271993959037
    DHTIN_CR03_11 OBJ -2.0
    DHTIN_CR03_11 DSLBAL_CR03_11 -1.0
    DHTIN_CR03_11 DHTCAP_11 1.0
    DHTIN_CR03_11 DHTY_11 -0.98
    DSLDIR_CR03_11 DSLBAL_CR03_11 -1.0
    DSLDIR_CR03_11 DSLPB_11 -1.0
    DSLDIR_CR03_11 DSLSUL_11 0.4394117672662308
    DHTIN_CR04_11 OBJ -2.0
    DHTIN_CR04_11 DSLBAL_CR04_11 -1.0
    DHTIN_CR04_11 DHTCAP_11 1.0
    DHTIN_CR04_11 DHTY_11 -0.98
    DSLDIR_CR04_11 DSLBAL_CR04_11 -1.0
    DSLDIR_CR04_11 DSLPB_11 -1.0
    DSLDIR_CR04_11 DSLSUL_11 1.6095005435592393
    DHTIN_CR05_11 OBJ -2.0
    DHTIN_CR05_11 DSLBAL_CR05_11 -1.0
    DHTIN_CR05_11 DHTCAP_11 1.0
    DHTIN_CR05_11 DHTY_11 -0.98
    DSLDIR_CR05_11 DSLBAL_CR05_11 -1.0
    DSLDIR_CR05_11 DSLPB_11 -1.0
    DSLDIR_CR05_11 DSLSUL_11 1.1028999274270206
    DHTIN_CR06_11 OBJ -2.0
    DHTIN_CR06_11 DSLBAL_CR06_11 -1.0
    DHTIN_CR06_11 DHTCAP_11 1.0
    DHTIN_CR06_11 DHTY_11 -0.98
    DSLDIR_CR06_11 DSLBAL_CR06_11 -1.0
    DSLDIR_CR06_11 DSLPB_11 -1.0
    DSLDIR_CR06_11 DSLSUL_11 1.0307656961819645
    DHTIN_CR07_11 OBJ -2.0
    DHTIN_CR07_11 DSLBAL_CR07_11 -1.0
    DHTIN_CR07_11 DHTCAP_11 1.0
    DHTIN_CR07_11 DHTY_11 -0.98
    DSLDIR_CR07_11 DSLBAL_CR07_11 -1.0
    DSLDIR_CR07_11 DSLPB_11 -1.0
    DSLDIR_CR07_11 DSLSUL_11 0.06500943297844713
    DHTIN_CR08_11 OBJ -2.0
    DHTIN_CR08_11 DSLBAL_CR08_11 -1.0
    DHTIN_CR08_11 DHTCAP_11 1.0
    DHTIN_CR08_11 DHTY_11 -0.98
    DSLDIR_CR08_11 DSLBAL_CR08_11 -1.0
    DSLDIR_CR08_11 DSLPB_11 -1.0
    DSLDIR_CR08_11 DSLSUL_11 1.0136884541165885
    DHTIN_CR09_11 OBJ -2.0
    DHTIN_CR09_11 DSLBAL_CR09_11 -1.0
    DHTIN_CR09_11 DHTCAP_11 1.0
    DHTIN_CR09_11 DHTY_11 -0.98
    DSLDIR_CR09_11 DSLBAL_CR09_11 -1.0
    DSLDIR_CR09_11 DSLPB_11 -1.0
    DSLDIR_CR09_11 DSLSUL_11 0.020618980777730833
    DHTIN_CR10_11 OBJ -2.0
    DHTIN_CR10_11 DSLBAL_CR10_11 -1.0
    DHTIN_CR10_11 DHTCAP_11 1.0
    DHTIN_CR10_11 DHTY_11 -0.98
    DSLDIR_CR10_11 DSLBAL_CR10_11 -1.0
    DSLDIR_CR10_11 DSLPB_11 -1.0
    DSLDIR_CR10_11 DSLSUL_11 1.62821888862855
    DHTIN_CR11_11 OBJ -2.0
    DHTIN_CR11_11 DSLBAL_CR11_11 -1.0
    DHTIN_CR11_11 DHTCAP_11 1.0
    DHTIN_CR11_11 DHTY_11 -0.98
    DSLDIR_CR11_11 DSLBAL_CR11_11 -1.0
    DSLDIR_CR11_11 DSLPB_11 -1.0
    DSLDIR_CR11_11 DSLSUL_11 0.8621530481854874
    DHTIN_CR12_11 OBJ -2.0
    DHTIN_CR12_11 DSLBAL_CR12_11 -1.0
    DHTIN_CR12_11 DHTCAP_11 1.0
    DHTIN_CR12_11 DHTY_11 -0.98
    DSLDIR_CR12_11 DSLBAL_CR12_11 -1.0
    DSLDIR_CR12_11 DSLPB_11 -1.0
    DSLDIR_CR12_11 DSLSUL_11 1.5756453880298185
    DHTIN_CR13_11 OBJ -2.0
    DHTIN_CR13_11 DSLBAL_CR13_11 -1.0
    DHTIN_CR13_11 DHTCAP_11 1.0
    DHTIN_CR13_11 DHTY_11 -0.98
    DSLDIR_CR13_11 DSLBAL_CR13_11 -1.0
    DSLDIR_CR13_11 DSLPB_11 -1.0
    DSLDIR_CR13_11 DSLSUL_11 0.13929860406737604
    DHTIN_CR14_11 OBJ -2.0
    DHTIN_CR14_11 DSLBAL_CR14_11 -1.0
    DHTIN_CR14_11 DHTCAP_11 1.0
    DHTIN_CR14_11 DHTY_11 -0.98
    DSLDIR_CR14_11 DSLBAL_CR14_11 -1.0
    DSLDIR_CR14_11 DSLPB_11 -1.0
    DSLDIR_CR14_11 DSLSUL_11 0.7289962148563339
    DHTIN_CR15_11 OBJ -2.0
    DHTIN_CR15_11 DSLBAL_CR15_11 -1.0
    DHTIN_CR15_11 DHTCAP_11 1.0
    DHTIN_CR15_11 DHTY_11 -0.98
    DSLDIR_CR15_11 DSLBAL_CR15_11 -1.0
    DSLDIR_CR15_11 DSLPB_11 -1.0
    DSLDIR_CR15_11 DSLSUL_11 0.0432280087396993
    DHTIN_CR16_11 OBJ -2.0
    DHTIN_CR16_11 DSLBAL_CR16_11 -1.0
    DHTIN_CR16_11 DHTCAP_11 1.0
    DHTIN_CR16_11 DHTY_11 -0.98
    DSLDIR_CR16_11 DSLBAL_CR16_11 -1.0
    DSLDIR_CR16_11 DSLPB_11 -1.0
    DSLDIR_CR16_11 DSLSUL_11 0.970875101525871
    DHTIN_CR17_11 OBJ -2.0
    DHTIN_CR17_11 DSLBAL_CR17_11 -1.0
    DHTIN_CR17_11 DHTCAP_11 1.0
    DHTIN_CR17_11 DHTY_11 -0.98
    DSLDIR_CR17_11 DSLBAL_CR17_11 -1.0
    DSLDIR_CR17_11 DSLPB_11 -1.0
    DSLDIR_CR17_11 DSLSUL_11 1.6384936942773962
    DHTIN_CR18_11 OBJ -2.0
    DHTIN_CR18_11 DSLBAL_CR18_11 -1.0
    DHTIN_CR18_11 DHTCAP_11 1.0
    DHTIN_CR18_11 DHTY_11 -0.98
    DSLDIR_CR18_11 DSLBAL_CR18_11 -1.0
    DSLDIR_CR18_11 DSLPB_11 -1.0
    DSLDIR_CR18_11 DSLSUL_11 0.08052474691335985
    DHTIN_CR19_11 OBJ -2.0
    DHTIN_CR19_11 DSLBAL_CR19_11 -1.0
    DHTIN_CR19_11 DHTCAP_11 1.0
    DHTIN_CR19_11 DHTY_11 -0.98
    DSLDIR_CR19_11 DSLBAL_CR19_11 -1.0
    DSLDIR_CR19_11 DSLPB_11 -1.0
    DSLDIR_CR19_11 DSLSUL_11 0.6552914452864763
    LCODHT_11 LCOBAL_11 -1.0
    LCODHT_11 DHTCAP_11 1.0
    LCODHT_11 DHTY_11 -0.95
    LCOFO_11 LCOBAL_11 -1.0
    LCOFO_11 FOBAL_11 -1.0
    LCOFO_11 FOSUL_11 -2.5
    ULSD_11 DHTY_11 1.0
    ULSD_11 DSLPB_11 -1.0
    ULSD_11 DSLSUL_11 -0.049
    SELL_LPG_11 OBJ 52.25
    SELL_LPG_11 PBAL_LPG_11 -1.0
    SELL_LPG_11 DMAX_LPG_11 1.0
    SELL_LPG_11 DMIN_LPG_11 1.0
    SELL_GAS_11 OBJ 99.75
    SELL_GAS_11 PBAL_GAS_11 -1.0
    SELL_GAS_11 DMAX_GAS_11 1.0
    SELL_GAS_11 DMIN_GAS_11 1.0
    SELL_JET_11 OBJ 95.0
    SELL_JET_11 PBAL_JET_11 -1.0
    SELL_JET_11 DMAX_JET_11 1.0
    SELL_JET_11 DMIN_JET_11 1.0
    SELL_DSL_11 OBJ 93.1
    SELL_DSL_11 PBAL_DSL_11 -1.0
    SELL_DSL_11 DMAX_DSL_11 1.0
    SELL_DSL_11 DMIN_DSL_11 1.0
    SELL_FO_11 OBJ 57.0
    SELL_FO_11 PBAL_FO_11 -1.0
    SELL_FO_11 DMAX_FO_11 1.0
    SELL_FO_11 DMIN_FO_11 1.0
    PINV_LPG_11 OBJ -0.5
    PINV_LPG_11 PBAL_LPG_11 -1.0
    PINV_GAS_11 OBJ -0.5
    PINV_GAS_11 PBAL_GAS_11 -1.0
    PINV_JET_11 OBJ -0.5
    PINV_JET_11 PBAL_JET_11 -1.0
    PINV_DSL_11 OBJ -0.5
    PINV_DSL_11 PBAL_DSL_11 -1.0
    PINV_FO_11 OBJ -0.5
    PINV_FO_11 PBAL_FO_11 -1.0
    SHORT_LPG_11 OBJ -400.0
    SHORT_LPG_11 DMIN_LPG_11 1.0
    SHORT_GAS_11 OBJ -400.0
    SHORT_GAS_11 DMIN_GAS_11 1.0
    SHORT_JET_11 OBJ -400.0
    SHORT_JET_11 DMIN_JET_11 1.0
    SHORT_DSL_11 OBJ -400.0
    SHORT_DSL_11 DMIN_DSL_11 1.0
    SHORT_FO_11 OBJ -400.0
    SHORT_FO_11 DMIN_FO_11 1.0
    GASPOOL_11 GASBAL_11 1.0
    GASPOOL_11 PBAL_GAS_11 1.0
    JETPOOL_11 JETBAL_11 1.0
    JETPOOL_11 PBAL_JET_11 1.0
    KERJET_CR00_11 KERBAL_CR00_11 -1.0
    KERJET_CR00_11 JETBAL_11 -1.0
    KERJET_CR00_11 JETSUL_11 0.10905668767581322
    KERDSL_CR00_11 KERBAL_CR00_11 -1.0
    KERDSL_CR00_11 DSLPB_11 -1.0
    KERDSL_CR00_11 DSLSUL_11 0.3590566876758132
    KERJET_CR01_11 KERBAL_CR01_11 -1.0
    KERJET_CR01_11 JETBAL_11 -1.0
    KERJET_CR01_11 JETSUL_11 -0.08376331342415014
    KERDSL_CR01_11 KERBAL_CR01_11 -1.0
    KERDSL_CR01_11 DSLPB_11 -1.0
    KERDSL_CR01_11 DSLSUL_11 0.16623668657584983
    KERJET_CR02_11 KERBAL_CR02_11 -1.0
    KERJET_CR02_11 JETBAL_11 -1.0
    KERJET_CR02_11 JETSUL_11 -0.033243200151024055
    KERDSL_CR02_11 KERBAL_CR02_11 -1.0
    KERDSL_CR02_11 DSLPB_11 -1.0
    KERDSL_CR02_11 DSLSUL_11 0.21675679984897595
    KERJET_CR03_11 KERBAL_CR03_11 -1.0
    KERJET_CR03_11 JETBAL_11 -1.0
    KERJET_CR03_11 JETSUL_11 -0.17764705818344229
    KERDSL_CR03_11 KERBAL_CR03_11 -1.0
    KERDSL_CR03_11 DSLPB_11 -1.0
    KERDSL_CR03_11 DSLSUL_11 0.0723529418165577
    KERJET_CR04_11 KERBAL_CR04_11 -1.0
    KERJET_CR04_11 JETBAL_11 -1.0
    KERJET_CR04_11 JETSUL_11 0.11487513588980985
    KERDSL_CR04_11 KERBAL_CR04_11 -1.0
    KERDSL_CR04_11 DSLPB_11 -1.0
    KERDSL_CR04_11 DSLSUL_11 0.36487513588980985
    KERJET_CR05_11 KERBAL_CR05_11 -1.0
    KERJET_CR05_11 JETBAL_11 -1.0
    KERJET_CR05_11 JETSUL_11 -0.011775018143244831
    KERDSL_CR05_11 KERBAL_CR05_11 -1.0
    KERDSL_CR05_11 DSLPB_11 -1.0
    KERDSL_CR05_11 DSLSUL_11 0.23822498185675517
    KERJET_CR06_11 KERBAL_CR06_11 -1.0
    KERJET_CR06_11 JETBAL_11 -1.0
    KERJET_CR06_11 JETSUL_11 -0.029808575954508865
    KERDSL_CR06_11 KERBAL_CR06_11 -1.0
    KERDSL_CR06_11 DSLPB_11 -1.0
    KERDSL_CR06_11 DSLSUL_11 0.22019142404549114
    KERJET_CR07_11 KERBAL_CR07_11 -1.0
    KERJET_CR07_11 JETBAL_11 -1.0
    KERJET_CR07_11 JETSUL_11 -0.2712476417553882
    KERDSL_CR07_11 KERBAL_CR07_11 -1.0
    KERDSL_CR07_11 DSLPB_11 -1.0
    KERDSL_CR07_11 DSLSUL_11 -0.02124764175538822
    KERJET_CR08_11 KERBAL_CR08_11 -1.0
    KERJET_CR08_11 JETBAL_11 -1.0
    KERJET_CR08_11 JETSUL_11 -0.03407788647085286
    KERDSL_CR08_11 KERBAL_CR08_11 -1.0
    KERDSL_CR08_11 DSLPB_11 -1.0
    KERDSL_CR08_11 DSLSUL_11 0.21592211352914714
    KERJET_CR09_11 KERBAL_CR09_11 -1.0
    KERJET_CR09_11 JETBAL_11 -1.0
    KERJET_CR09_11 JETSUL_11 -0.28234525480556727
    KERDSL_CR09_11 KERBAL_CR09_11 -1.0
    KERDSL_CR09_11 DSLPB_11 -1.0
    KERDSL_CR09_11 DSLSUL_11 -0.0323452548055673
    KERJET_CR10_11 KERBAL_CR10_11 -1.0
    KERJET_CR10_11 JETBAL_11 -1.0
    KERJET_CR10_11 JETSUL_11 0.11955472215713753
    KERDSL_CR10_11 KERBAL_CR10_11 -1.0
    KERDSL_CR10_11 DSLPB_11 -1.0
    KERDSL_CR10_11 DSLSUL_11 0.3695547221571375
    KERJET_CR11_11 KERBAL_CR11_11 -1.0
    KERJET_CR11_11 JETBAL_11 -1.0
    KERJET_CR11_11 JETSUL_11 -0.07196173795362812
    KERDSL_CR11_11 KERBAL_CR11_11 -1.0
    KERDSL_CR11_11 DSLPB_11 -1.0
    KERDSL_CR11_11 DSLSUL_11 0.17803826204637185
    KERJET_CR12_11 KERBAL_CR12_11 -1.0
    KERJET_CR12_11 JETBAL_11 -1.0
    KERJET_CR12_11 JETSUL_11 0.10641134700745464
    KERDSL_CR12_11 KERBAL_CR12_11 -1.0
    KERDSL_CR12_11 DSLPB_11 -1.0
    KERDSL_CR12_11 DSLSUL_11 0.35641134700745464
    KERJET_CR13_11 KERBAL_CR13_11 -1.0
    KERJET_CR13_11 JETBAL_11 -1.0
    KERJET_CR13_11 JETSUL_11 -0.25267534898315597
    KERDSL_CR13_11 KERBAL_CR13_11 -1.0
    KERDSL_CR13_11 DSLPB_11 -1.0
    KERDSL_CR13_11 DSLSUL_11 -0.002675348983155995
    KERJET_CR14_11 KERBAL_CR14_11 -1.0
    KERJET_CR14_11 JETBAL_11 -1.0
    KERJET_CR14_11 JETSUL_11 -0.1052509462859165
    KERDSL_CR14_11 KERBAL_CR14_11 -1.0
    KERDSL_CR14_11 DSLPB_11 -1.0
    KERDSL_CR14_11 DSLSUL_11 0.14474905371408348
    KERJET_CR15_11 KERBAL_CR15_11 -1.0
    KERJET_CR15_11 JETBAL_11 -1.0
    KERJET_CR15_11 JETSUL_11 -0.27669299781507517
    KERDSL_CR15_11 KERBAL_CR15_11 -1.0
    KERDSL_CR15_11 DSLPB_11 -1.0
    KERDSL_CR15_11 DSLSUL_11 -0.026692997815075177
    KERJET_CR16_11 KERBAL_CR16_11 -1.0
    KERJET_CR16_11 JETBAL_11 -1.0
    KERJET_CR16_11 JETSUL_11 -0.044781224618532234
    KERDSL_CR16_11 KERBAL_CR16_11 -1.0
    KERDSL_CR16_11 DSLPB_11 -1.0
    KERDSL_CR16_11 DSLSUL_11 0.20521877538146777
    KERJET_CR17_11 KERBAL_CR17_11 -1.0
    KERJET_CR17_11 JETBAL_11 -1.0
    KERJET_CR17_11 JETSUL_11 0.12212342356934908
    KERDSL_CR17_11 KERBAL_CR17_11 -1.0
    KERDSL_CR17_11 DSLPB_11 -1.0
    KERDSL_CR17_11 DSLSUL_11 0.3721234235693491
    KERJET_CR18_11 KERBAL_CR18_11 -1.0
    KERJET_CR18_11 JETBAL_11 -1.0
    KERJET_CR18_11 JETSUL_11 -0.26736881327166
    KERDSL_CR18_11 KERBAL_CR18_11 -1.0
    KERDSL_CR18_11 DSLPB_11 -1.0
    KERDSL_CR18_11 DSLSUL_11 -0.01736881327166004
    KERJET_CR19_11 KERBAL_CR19_11 -1.0
    KERJET_CR19_11 JETBAL_11 -1.0
    KERJET_CR19_11 JETSUL_11 -0.1236771386783809
    KERDSL_CR19_11 KERBAL_CR19_11 -1.0
    KERDSL_CR19_11 DSLPB_11 -1.0
    KERDSL_CR19_11 DSLSUL_11 0.12632286132161907
    DSLPOOL_11 DSLPB_11 1.0
    DSLPOOL_11 PBAL_DSL_11 1.0
    LPGPOOL_11 LPGBAL_11 1.0
    LPGPOOL_11 PBAL_LPG_11 1.0
    FOPOOL_11 FOBAL_11 1.0
    FOPOOL_11 PBAL_FO_11 1.0
RHS
    RHS CBAL_CR00_0 -22.5
    RHS CBAL_CR01_0 -22.5
    RHS CBAL_CR02_0 -22.5
    RHS CBAL_CR03_0 -22.5
    RHS CBAL_CR04_0 -22.5
    RHS CBAL_CR05_0 -22.5
    RHS CBAL_CR06_0 -22.5
    RHS CBAL_CR07_0 -22.5
    RHS CBAL_CR08_0 -22.5
    RHS CBAL_CR09_0 -22.5
    RHS CBAL_CR10_0 -22.5
    RHS CBAL_CR11_0 -22.5
    RHS CBAL_CR12_0 -22.5
    RHS CBAL_CR13_0 -22.5
    RHS CBAL_CR14_0 -22.5
    RHS CBAL_CR15_0 -22.5
    RHS CBAL_CR16_0 -22.5
    RHS CBAL_CR17_0 -22.5
    RHS CBAL_CR18_0 -22.5
    RHS CBAL_CR19_0 -22.5
    RHS CDUCAP_0 450.0
    RHS VDUCAP_0 112.5
    RHS FCCCAP_0 157.5
    RHS REFCAP_0 90.0
    RHS DHTCAP_0 135.0
    RHS DMAX_LPG_0 21.599999999999998
    RHS DMIN_LPG_0 9.0
    RHS DMAX_GAS_0 162.0
    RHS DMIN_GAS_0 67.5
    RHS DMAX_JET_0 54.0
    RHS DMIN_JET_0 22.5
    RHS DMAX_DSL_0 189.0
    RHS DMIN_DSL_0 78.75
    RHS DMAX_FO_0 108.0
    RHS DMIN_FO_0 45.0
    RHS CDUCAP_1 450.0
    RHS VDUCAP_1 112.5
    RHS FCCCAP_1 157.5
    RHS REFCAP_1 90.0
    RHS DHTCAP_1 135.0
    RHS DMAX_LPG_1 22.680000000000003
    RHS DMIN_LPG_1 9.450000000000001
    RHS DMAX_GAS_1 170.1
    RHS DMIN_GAS_1 70.875
    RHS DMAX_JET_1 56.699999999999996
    RHS DMIN_JET_1 23.625
    RHS DMAX_DSL_1 198.45
    RHS DMIN_DSL_1 82.6875
    RHS DMAX_FO_1 113.39999999999999
    RHS DMIN_FO_1 47.25
    RHS CDUCAP_2 450.0
    RHS VDUCAP_2 112.5
    RHS FCCCAP_2 157.5
    RHS REFCAP_2 90.0
    RHS DHTCAP_2 135.0
    RHS DMAX_LPG_2 23.470614872174384
    RHS DMIN_LPG_2 9.779422863405994
    RHS DMAX_GAS_2 176.0296115413079
    RHS DMIN_GAS_2 73.34567147554496
    RHS DMAX_JET_2 58.676537180435965
    RHS DMIN_JET_2 24.448557158514987
    RHS DMAX_DSL_2 205.36788013152588
    RHS DMIN_DSL_2 85.56995005480245
    RHS DMAX_FO_2 117.35307436087193
    RHS DMIN_FO_2 48.897114317029974
    RHS CDUCAP_3 450.0
    RHS VDUCAP_3 112.5
    RHS FCCCAP_3 157.5
    RHS REFCAP_3 90.0
    RHS DHTCAP_3 135.0
    RHS DMAX_LPG_3 23.76
    RHS DMIN_LPG_3 9.9
    RHS DMAX_GAS_3 178.2
    RHS DMIN_GAS_3 74.25
    RHS DMAX_JET_3 59.400000000000006
    RHS DMIN_JET_3 24.750000000000004
    RHS DMAX_DSL_3 207.9
    RHS DMIN_DSL_3 86.625
    RHS DMAX_FO_3 118.80000000000001
    RHS DMIN_FO_3 49.50000000000001
    RHS CDUCAP_4 450.0
    RHS VDUCAP_4 112.5
    RHS FCCCAP_4 157.5
    RHS REFCAP_4 90.0
    RHS DHTCAP_4 135.0
    RHS DMAX_LPG_4 23.470614872174384
    RHS DMIN_LPG_4 9.779422863405994
    RHS DMAX_GAS_4 176.0296115413079
    RHS DMIN_GAS_4 73.34567147554496
    RHS DMAX_JET_4 58.676537180435965
    RHS DMIN_JET_4 24.448557158514987
    RHS DMAX_DSL_4 205.36788013152588
    RHS DMIN_DSL_4 85.56995005480245
    RHS DMAX_FO_4 117.35307436087193
    RHS DMIN_FO_4 48.897114317029974
    RHS CDUCAP_5 450.0
    RHS VDUCAP_5 112.5
    RHS FCCCAP_5 157.5
    RHS REFCAP_5 90.0
    RHS DHTCAP_5 135.0
    RHS DMAX_LPG_5 22.680000000000003
    RHS DMIN_LPG_5 9.450000000000001
    RHS DMAX_GAS_5 170.1
    RHS DMIN_GAS_5 70.875
    RHS DMAX_JET_5 56.699999999999996
    RHS DMIN_JET_5 23.625
    RHS DMAX_DSL_5 198.45
    RHS DMIN_DSL_5 82.6875
    RHS DMAX_FO_5 113.39999999999999
    RHS DMIN_FO_5 47.25
    RHS CDUCAP_6 450.0
    RHS VDUCAP_6 112.5
    RHS FCCCAP_6 157.5
    RHS REFCAP_6 90.0
    RHS DHTCAP_6 135.0
    RHS DMAX_LPG_6 21.599999999999998
    RHS DMIN_LPG_6 9.0
    RHS DMAX_GAS_6 162.0
    RHS DMIN_GAS_6 67.5
    RHS DMAX_JET_6 54.0
    RHS DMIN_JET_6 22.5
    RHS DMAX_DSL_6 189.0
    RHS DMIN_DSL_6 78.75
    RHS DMAX_FO_6 108.0
    RHS DMIN_FO_6 45.0
    RHS CDUCAP_7 450.0
    RHS VDUCAP_7 112.5
    RHS FCCCAP_7 157.5
    RHS REFCAP_7 90.0
    RHS DHTCAP_7 135.0
    RHS DMAX_LPG_7 20.52
    RHS DMIN_LPG_7 8.55
    RHS DMAX_GAS_7 153.9
    RHS DMIN_GAS_7 64.125
    RHS DMAX_JET_7 51.3
    RHS DMIN_JET_7 21.375
    RHS DMAX_DSL_7 179.54999999999998
    RHS DMIN_DSL_7 74.8125
    RHS DMAX_FO_7 102.6
    RHS DMIN_FO_7 42.75
    RHS CDUCAP_8 450.0
    RHS VDUCAP_8 112.5
    RHS FCCCAP_8 157.5
    RHS REFCAP_8 90.0
    RHS DHTCAP_8 135.0
    RHS DMAX_LPG_8 19.729385127825612
    RHS DMIN_LPG_8 8.220577136594006
    RHS DMAX_GAS_8 147.9703884586921
    RHS DMIN_GAS_8 61.65432852445504
    RHS DMAX_JET_8 49.32346281956403
    RHS DMIN_JET_8 20.551442841485013
    RHS DMAX_DSL_8 172.63211986847412
    RHS DMIN_DSL_8 71.93004994519755
    RHS DMAX_FO_8 98.64692563912806
    RHS DMIN_FO_8 41.102885682970026
    RHS CDUCAP_9 450.0
    RHS VDUCAP_9 112.5
    RHS FCCCAP_9 157.5
    RHS REFCAP_9 90.0
    RHS DHTCAP_9 135.0
    RHS DMAX_LPG_9 19.439999999999998
    RHS DMIN_LPG_9 8.1
    RHS DMAX_GAS_9 145.79999999999998
    RHS DMIN_GAS_9 60.75
    RHS DMAX_JET_9 48.6
    RHS DMIN_JET_9 20.25
    RHS DMAX_DSL_9 170.1
    RHS DMIN_DSL_9 70.875
    RHS DMAX_FO_9 97.2
    RHS DMIN_FO_9 40.5
    RHS CDUCAP_10 450.0
    RHS VDUCAP_10 112.5
    RHS FCCCAP_10 157.5
    RHS REFCAP_10 90.0
    RHS DHTCAP_10 135.0
    RHS DMAX_LPG_10 19.729385127825612
    RHS DMIN_LPG_10 8.220577136594006
    RHS DMAX_GAS_10 147.9703884586921
    RHS DMIN_GAS_10 61.65432852445504
    RHS DMAX_JET_10 49.32346281956403
    RHS DMIN_JET_10 20.551442841485013
    RHS DMAX_DSL_10 172.63211986847412
    RHS DMIN_DSL_10 71.93004994519755
    RHS DMAX_FO_10 98.64692563912806
    RHS DMIN_FO_10 41.102885682970026
    RHS CDUCAP_11 450.0
    RHS VDUCAP_11 112.5
    RHS FCCCAP_11 157.5
    RHS REFCAP_11 90.0
    RHS DHTCAP_11 135.0
    RHS DMAX_LPG_11 20.519999999999996
    RHS DMIN_LPG_11 8.549999999999999
    RHS DMAX_GAS_11 153.9
    RHS DMIN_GAS_11 64.125
    RHS DMAX_JET_11 51.3
    RHS DMIN_JET_11 21.375
    RHS DMAX_DSL_11 179.54999999999998
    RHS DMIN_DSL_11 74.8125
    RHS DMAX_FO_11 102.6
    RHS DMIN_FO_11 42.75
BOUNDS
 UP BND BUY_CR00_0 133.38249511238925
 UP BND CINV_CR00_0 225.0
 UP BND BUY_CR01_0 249.68484960104317
 UP BND CINV_CR01_0 225.0
 UP BND BUY_CR02_0 108.17273481675377
 UP BND CINV_CR02_0 225.0
 UP BND BUY_CR03_0 267.37756788042526
 UP BND CINV_CR03_0 225.0
 UP BND BUY_CR04_0 136.16686868981407
 UP BND CINV_CR04_0 225.0
 UP BND BUY_CR05_0 204.07715161906202
 UP BND CINV_CR05_0 225.0
 UP BND BUY_CR06_0 256.2679630584595
 UP BND CINV_CR06_0 225.0
 UP BND BUY_CR07_0 246.18462349945887
 UP BND CINV_CR07_0 225.0
 UP BND BUY_CR08_0 165.61099132903
 UP BND CINV_CR08_0 225.0
 UP BND BUY_CR09_0 115.01468806138527
 UP BND CINV_CR09_0 225.0
 UP BND BUY_CR10_0 84.64774665933804
 UP BND CINV_CR10_0 225.0
 UP BND BUY_CR11_0 251.97502616038372
 UP BND CINV_CR11_0 225.0
 UP BND BUY_CR12_0 221.22102700007915
 UP BND CINV_CR12_0 225.0
 UP BND BUY_CR13_0 237.82926963043565
 UP BND CINV_CR13_0 225.0
 UP BND BUY_CR14_0 136.40776008790257
 UP BND CINV_CR14_0 225.0
 UP BND BUY_CR15_0 243.15251427634777
 UP BND CINV_CR15_0 225.0
 UP BND BUY_CR16_0 260.7472600773684
 UP BND CINV_CR16_0 225.0
 UP BND BUY_CR17_0 94.90756042257922
 UP BND CINV_CR17_0 225.0
 UP BND BUY_CR18_0 88.61568709795925
 UP BND CINV_CR18_0 225.0
 UP BND BUY_CR19_0 82.32166731355058
 UP BND CINV_CR19_0 225.0
 UP BND PINV_LPG_0 45.0
 UP BND PINV_GAS_0 45.0
 UP BND PINV_JET_0 45.0
 UP BND PINV_DSL_0 45.0
 UP BND PINV_FO_0 45.0
 UP BND BUY_CR00_1 227.09358086685833
 UP BND CINV_CR00_1 225.0
 UP BND BUY_CR01_1 136.53173648360814
 UP BND CINV_CR01_1 225.0
 UP BND BUY_CR02_1 225.8354793306328
 UP BND CINV_CR02_1 225.0
 UP BND BUY_CR03_1 183.08325893380223
 UP BND CINV_CR03_1 225.0
 UP BND BUY_CR04_1 84.05301062635972
 UP BND CINV_CR04_1 225.0
 UP BND BUY_CR05_1 247.8805458906993
 UP BND CINV_CR05_1 225.0
 UP BND BUY_CR06_1 254.82610842696582
 UP BND CINV_CR06_1 225.0
 UP BND BUY_CR07_1 123.62951013680892
 UP BND CINV_CR07_1 225.0
 UP BND BUY_CR08_1 235.12305172076026
 UP BND CINV_CR08_1 225.0
 UP BND BUY_CR09_1 203.25835690234604
 UP BND CINV_CR09_1 225.0
 UP BND BUY_CR10_1 90.80825593165527
 UP BND CINV_CR10_1 225.0
 UP BND BUY_CR11_1 75.60476622025834
 UP BND CINV_CR11_1 225.0
 UP BND BUY_CR12_1 267.6020959677216
 UP BND CINV_CR12_1 225.0
 UP BND BUY_CR13_1 90.90053156993534
 UP BND CINV_CR13_1 225.0
 UP BND BUY_CR14_1 116.38760773231321
 UP BND CINV_CR14_1 225.0
 UP BND BUY_CR15_1 88.32391456222773
 UP BND CINV_CR15_1 225.0
 UP BND BUY_CR16_1 144.10114728520577
 UP BND CINV_CR16_1 225.0
 UP BND BUY_CR17_1 251.61760245051897
 UP BND CINV_CR17_1 225.0
 UP BND BUY_CR18_1 118.81555254832814
 UP BND CINV_CR18_1 225.0
 UP BND BUY_CR19_1 87.77615164996654
 UP BND CINV_CR19_1 225.0
 UP BND PINV_LPG_1 45.0
 UP BND PINV_GAS_1 45.0
 UP BND PINV_JET_1 45.0
 UP BND PINV_DSL_1 45.0
 UP BND PINV_FO_1 45.0
 UP BND BUY_CR00_2 75.52309321627514
 UP BND CINV_CR00_2 225.0
 UP BND BUY_CR01_2 266.4731843764688
 UP BND CINV_CR01_2 225.0
 UP BND BUY_CR02_2 188.30555524565935
 UP BND CINV_CR02_2 225.0
 UP BND BUY_CR03_2 130.9393743664579
 UP BND CINV_CR03_2 225.0
 UP BND BUY_CR04_2 252.4618834761029
 UP BND CINV_CR04_2 225.0
 UP BND BUY_CR05_2 263.88379216053517
 UP BND CINV_CR05_2 225.0
 UP BND BUY_CR06_2 111.07663718230992
 UP BND CINV_CR06_2 225.0
 UP BND BUY_CR07_2 265.9404593927406
 UP BND CINV_CR07_2 225.0
 UP BND BUY_CR08_2 206.85843612966178
 UP BND CINV_CR08_2 225.0
 UP BND BUY_CR09_2 119.9649133503631
 UP BND CINV_CR09_2 225.0
 UP BND BUY_CR10_2 129.73252635703398
 UP BND CINV_CR10_2 225.0
 UP BND BUY_CR11_2 83.97717499021702
 UP BND CINV_CR11_2 225.0
 UP BND BUY_CR12_2 266.633785236929
 UP BND CINV_CR12_2 225.0
 UP BND BUY_CR13_2 199.53213323881576
 UP BND CINV_CR13_2 225.0
 UP BND BUY_CR14_2 257.9987407554225
 UP BND CINV_CR14_2 225.0
 UP BND BUY_CR15_2 129.6238197074315
 UP BND CINV_CR15_2 225.0
 UP BND BUY_CR16_2 131.63886724433442
 UP BND CINV_CR16_2 225.0
 UP BND BUY_CR17_2 248.43379971812416
 UP BND CINV_CR17_2 225.0
 UP BND BUY_CR18_2 135.20251464427926
 UP BND CINV_CR18_2 225.0
 UP BND BUY_CR19_2 184.74455085420945
 UP BND CINV_CR19_2 225.0
 UP BND PINV_LPG_2 45.0
 UP BND PINV_GAS_2 45.0
 UP BND PINV_JET_2 45.0
 UP BND PINV_DSL_2 45.0
 UP BND PINV_FO_2 45.0
 UP BND BUY_CR00_3 117.13234578878782
 UP BND CINV_CR00_3 225.0
 UP BND BUY_CR01_3 116.86125821515296
 UP BND CINV_CR01_3 225.0
 UP BND BUY_CR02_3 179.11896287038994
 UP BND CINV_CR02_3 225.0
 UP BND BUY_CR03_3 82.7137829315409
 UP BND CINV_CR03_3 225.0
 UP BND BUY_CR04_3 126.39136395992762
 UP BND CINV_CR04_3 225.0
 UP BND BUY_CR05_3 167.38536115690295
 UP BND CINV_CR05_3 225.0
 UP BND BUY_CR06_3 98.72136822297593
 UP BND CINV_CR06_3 225.0
 UP BND BUY_CR07_3 228.48415748356982
 UP BND CINV_CR07_3 225.0
 UP BND BUY_CR08_3 259.7186596670196
 UP BND CINV_CR08_3 225.0
 UP BND BUY_CR09_3 224.6823190546519
 UP BND CINV_CR09_3 225.0
 UP BND BUY_CR10_3 233.86390431056165
 UP BND CINV_CR10_3 225.0
 UP BND BUY_CR11_3 89.14274125276586
 UP BND CINV_CR11_3 225.0
 UP BND BUY_CR12_3 253.6697801901643
 UP BND CINV_CR12_3 225.0
 UP BND BUY_CR13_3 248.48615653339743
 UP BND CINV_CR13_3 225.0
 UP BND BUY_CR14_3 251.87253906452864
 UP BND CINV_CR14_3 225.0
 UP BND BUY_CR15_3 131.50390724657876
 UP BND CINV_CR15_3 225.0
 UP BND BUY_CR16_3 230.2808968992543
 UP BND CINV_CR16_3 225.0
 UP BND BUY_CR17_3 237.7455007549644
 UP BND CINV_CR17_3 225.0
 UP BND BUY_CR18_3 207.14302380830355
 UP BND CINV_CR18_3 225.0
 UP BND BUY_CR19_3 155.10919519768797
 UP BND CINV_CR19_3 225.0
 UP BND PINV_LPG_3 45.0
 UP BND PINV_GAS_3 45.0
 UP BND PINV_JET_3 45.0
 UP BND PINV_DSL_3 45.0
 UP BND PINV_FO_3 45.0
 UP BND BUY_CR00_4 212.25195152368426
 UP BND CINV_CR00_4 225.0
 UP BND BUY_CR01_4 118.64874757826138
 UP BND CINV_CR01_4 225.0
 UP BND BUY_CR02_4 262.585641372619
 UP BND CINV_CR02_4 225.0
 UP BND BUY_CR03_4 178.7271611069851
 UP BND CINV_CR03_4 225.0
 UP BND BUY_CR04_4 239.8867649321044
 UP BND CINV_CR04_4 225.0
 UP BND BUY_CR05_4 147.6313650559554
 UP BND CINV_CR05_4 225.0
 UP BND BUY_CR06_4 119.73874122553376
 UP BND CINV_CR06_4 225.0
 UP BND BUY_CR07_4 198.40386591001962
 UP BND CINV_CR07_4 225.0
 UP BND BUY_CR08_4 183.04723539448878
 UP BND CINV_CR08_4 225.0
 UP BND BUY_CR09_4 139.3760473464749
 UP BND CINV_CR09_4 225.0
 UP BND BUY_CR10_4 92.8386255953118
 UP BND CINV_CR10_4 225.0
 UP BND BUY_CR11_4 235.35921214949448
 UP BND CINV_CR11_4 225.0
 UP BND BUY_CR12_4 148.71913576398254
 UP BND CINV_CR12_4 225.0
 UP BND BUY_CR13_4 114.78975479240961
 UP BND CINV_CR13_4 225.0
 UP BND BUY_CR14_4 174.56210232705942
 UP BND CINV_CR14_4 225.0
 UP BND BUY_CR15_4 198.8900174490228
 UP BND CINV_CR15_4 225.0
 UP BND BUY_CR16_4 206.5189089582856
 UP BND CINV_CR16_4 225.0
 UP BND BUY_CR17_4 115.77087172030983
 UP BND CINV_CR17_4 225.0
 UP BND BUY_CR18_4 164.46244473531317
 UP BND CINV_CR18_4 225.0
 UP BND BUY_CR19_4 150.97984191576148
 UP BND CINV_CR19_4 225.0
 UP BND PINV_LPG_4 45.0
 UP BND PINV_GAS_4 45.0
 UP BND PINV_JET_4 45.0
 UP BND PINV_DSL_4 45.0
 UP BND PINV_FO_4 45.0
 UP BND BUY_CR00_5 251.15524966243427
 UP BND CINV_CR00_5 225.0
 UP BND BUY_CR01_5 123.2331361018243
 UP BND CINV_CR01_5 225.0
 UP BND BUY_CR02_5 77.25996203068426
 UP BND CINV_CR02_5 225.0
 UP BND BUY_CR03_5 171.11757111304183
 UP BND CINV_CR03_5 225.0
 UP BND BUY_CR04_5 99.79221547846078
 UP BND CINV_CR04_5 225.0
 UP BND BUY_CR05_5 246.30943779854812
 UP BND CINV_CR05_5 225.0
 UP BND BUY_CR06_5 207.74278533206993
 UP BND CINV_CR06_5 225.0
 UP BND BUY_CR07_5 142.75190197638187
 UP BND CINV_CR07_5 225.0
 UP BND BUY_CR08_5 216.6246686065019
 UP BND CINV_CR08_5 225.0
 UP BND BUY_CR09_5 240.89612062988346
 UP BND CINV_CR09_5 225.0
 UP BND BUY_CR10_5 261.91596043538397
 UP BND CINV_CR10_5 225.0
 UP BND BUY_CR11_5 103.19586877931125
 UP BND CINV_CR11_5 225.0
 UP BND BUY_CR12_5 111.56778442258307
 UP BND CINV_CR12_5 225.0
 UP BND BUY_CR13_5 220.94439821995343
 UP BND CINV_CR13_5 225.0
 UP BND BUY_CR14_5 205.5313822605123
 UP BND CINV_CR14_5 225.0
 UP BND BUY_CR15_5 137.96625536125356
 UP BND CINV_CR15_5 225.0
 UP BND BUY_CR16_5 100.8716257863129
 UP BND CINV_CR16_5 225.0
 UP BND BUY_CR17_5 75.74350918565115
 UP BND CINV_CR17_5 225.0
 UP BND BUY_CR18_5 231.10860602315321
 UP BND CINV_CR18_5 225.0
 UP BND BUY_CR19_5 121.67406454104011
 UP BND CINV_CR19_5 225.0
 UP BND PINV_LPG_5 45.0
 UP BND PINV_GAS_5 45.0
 UP BND PINV_JET_5 45.0
 UP BND PINV_DSL_5 45.0
 UP BND PINV_FO_5 45.0
 UP BND BUY_CR00_6 261.78636467010693
 UP BND CINV_CR00_6 225.0
 UP BND BUY_CR01_6 224.59084318893238
 UP BND CINV_CR01_6 225.0
 UP BND BUY_CR02_6 201.09276465358144
 UP BND CINV_CR02_6 225.0
 UP BND BUY_CR03_6 157.6243932531886
 UP BND CINV_CR03_6 225.0
 UP BND BUY_CR04_6 264.1695244597469
 UP BND CINV_CR04_6 225.0
 UP BND BUY_CR05_6 230.04908498707223
 UP BND CINV_CR05_6 225.0
 UP BND BUY_CR06_6 100.86272928336294
 UP BND CINV_CR06_6 225.0
 UP BND BUY_CR07_6 93.08184015405561
 UP BND CINV_CR07_6 225.0
 UP BND BUY_CR08_6 261.7833762089391
 UP BND CINV_CR08_6 225.0
 UP BND BUY_CR09_6 189.1375139403793
 UP BND CINV_CR09_6 225.0
 UP BND BUY_CR10_6 91.41323127786231
 UP BND CINV_CR10_6 225.0
 UP BND BUY_CR11_6 117.76381514383124
 UP BND CINV_CR11_6 225.0
 UP BND BUY_CR12_6 68.3118135806943
 UP BND CINV_CR12_6 225.0
 UP BND BUY_CR13_6 156.3515466992872
 UP BND CINV_CR13_6 225.0
 UP BND BUY_CR14_6 194.57413417883976
 UP BND CINV_CR14_6 225.0
 UP BND BUY_CR15_6 236.65480105377992
 UP BND CINV_CR15_6 225.0
 UP BND BUY_CR16_6 125.16827674622175
 UP BND CINV_CR16_6 225.0
 UP BND BUY_CR17_6 122.82820368561869
 UP BND CINV_CR17_6 225.0
 UP BND BUY_CR18_6 118.30365146362684
 UP BND CINV_CR18_6 225.0
 UP BND BUY_CR19_6 227.69587046952037
 UP BND CINV_CR19_6 225.0
 UP BND PINV_LPG_6 45.0
 UP BND PINV_GAS_6 45.0
 UP BND PINV_JET_6 45.0
 UP BND PINV_DSL_6 45.0
 UP BND PINV_FO_6 45.0
 UP BND BUY_CR00_7 264.657262183844
 UP BND CINV_CR00_7 225.0
 UP BND BUY_CR01_7 166.88887916537539
 UP BND CINV_CR01_7 225.0
 UP BND BUY_CR02_7 223.23614563652427
 UP BND CINV_CR02_7 225.0
 UP BND BUY_CR03_7 145.10941791516842
 UP BND CINV_CR03_7 225.0
 UP BND BUY_CR04_7 89.39818976866903
 UP BND CINV_CR04_7 225.0
 UP BND BUY_CR05_7 91.40948493245976
 UP BND CINV_CR05_7 225.0
 UP BND BUY_CR06_7 177.92063567804954
 UP BND CINV_CR06_7 225.0
 UP BND BUY_CR07_7 221.61579612027066
 UP BND CINV_CR07_7 225.0
 UP BND BUY_CR08_7 95.16028762031102
 UP BND CINV_CR08_7 225.0
 UP BND BUY_CR09_7 183.44710315100454
 UP BND CINV_CR09_7 225.0
 UP BND BUY_CR10_7 169.36407886181576
 UP BND CINV_CR10_7 225.0
 UP BND BUY_CR11_7 174.49977919866728
 UP BND CINV_CR11_7 225.0
 UP BND BUY_CR12_7 157.06865225276684
 UP BND CINV_CR12_7 225.0
 UP BND BUY_CR13_7 129.22183561479528
 UP BND CINV_CR13_7 225.0
 UP BND BUY_CR14_7 226.07518051232813
 UP BND CINV_CR14_7 225.0
 UP BND BUY_CR15_7 167.19057441057123
 UP BND CINV_CR15_7 225.0
 UP BND BUY_CR16_7 143.95553789983012
 UP BND CINV_CR16_7 225.0
 UP BND BUY_CR17_7 68.28482072020503
 UP BND CINV_CR17_7 225.0
 UP BND BUY_CR18_7 188.62825023951635
 UP BND CINV_CR18_7 225.0
 UP BND BUY_CR19_7 235.45780312267732
 UP BND CINV_CR19_7 225.0
 UP BND PINV_LPG_7 45.0
 UP BND PINV_GAS_7 45.0
 UP BND PINV_JET_7 45.0
 UP BND PINV_DSL_7 45.0
 UP BND PINV_FO_7 45.0
 UP BND BUY_CR00_8 267.37117437250896
 UP BND CINV_CR00_8 225.0
 UP BND BUY_CR01_8 236.50518094878473
 UP BND CINV_CR01_8 225.0
 UP BND BUY_CR02_8 218.28770009209313
 UP BND CINV_CR02_8 225.0
 UP BND BUY_CR03_8 129.33065995451517
 UP BND CINV_CR03_8 225.0
 UP BND BUY_CR04_8 193.05682601735134
 UP BND CINV_CR04_8 225.0
 UP BND BUY_CR05_8 140.28296147699368
 UP BND CINV_CR05_8 225.0
 UP BND BUY_CR06_8 146.30543492598537
 UP BND CINV_CR06_8 225.0
 UP BND BUY_CR07_8 149.56354452700958
 UP BND CINV_CR07_8 225.0
 UP BND BUY_CR08_8 185.8466754841317
 UP BND CINV_CR08_8 225.0
 UP BND BUY_CR09_8 249.32660725651482
 UP BND CINV_CR09_8 225.0
 UP BND BUY_CR10_8 167.272165510772
 UP BND CINV_CR10_8 225.0
 UP BND BUY_CR11_8 197.1719686002909
 UP BND CINV_CR11_8 225.0
 UP BND BUY_CR12_8 195.0092601344526
 UP BND CINV_CR12_8 225.0
 UP BND BUY_CR13_8 194.92556133573655
 UP BND CINV_CR13_8 225.0
 UP BND BUY_CR14_8 257.26638680664297
 UP BND CINV_CR14_8 225.0
 UP BND BUY_CR15_8 238.86928348672083
 UP BND CINV_CR15_8 225.0
 UP BND BUY_CR16_8 232.60348705318333
 UP BND CINV_CR16_8 225.0
 UP BND BUY_CR17_8 138.26364289830343
 UP BND CINV_CR17_8 225.0
 UP BND BUY_CR18_8 210.874055480628
 UP BND CINV_CR18_8 225.0
 UP BND BUY_CR19_8 177.7099684550832
 UP BND CINV_CR19_8 225.0
 UP BND PINV_LPG_8 45.0
 UP BND PINV_GAS_8 45.0
 UP BND PINV_JET_8 45.0
 UP BND PINV_DSL_8 45.0
 UP BND PINV_FO_8 45.0
 UP BND BUY_CR00_9 236.17749525247922
 UP BND CINV_CR00_9 225.0
 UP BND BUY_CR01_9 162.0882822263323
 UP BND CINV_CR01_9 225.0
 UP BND BUY_CR02_9 170.83188686499437
 UP BND CINV_CR02_9 225.0
 UP BND BUY_CR03_9 153.07605675701234
 UP BND CINV_CR03_9 225.0
 UP BND BUY_CR04_9 200.5108166270175
 UP BND CINV_CR04_9 225.0
 UP BND BUY_CR05_9 170.20062838736487
 UP BND CINV_CR05_9 225.0
 UP BND BUY_CR06_9 207.31563736754148
 UP BND CINV_CR06_9 225.0
 UP BND BUY_CR07_9 207.00391784942596
 UP BND CINV_CR07_9 225.0
 UP BND BUY_CR08_9 109.80010177521994
 UP BND CINV_CR08_9 225.0
 UP BND BUY_CR09_9 246.92012116405326
 UP BND CINV_CR09_9 225.0
 UP BND BUY_CR10_9 82.66416744580114
 UP BND CINV_CR10_9 225.0
 UP BND BUY_CR11_9 173.44754793423377
 UP BND CINV_CR11_9 225.0
 UP BND BUY_CR12_9 171.08258173185817
 UP BND CINV_CR12_9 225.0
 UP BND BUY_CR13_9 101.63210559723855
 UP BND CINV_CR13_9 225.0
 UP BND BUY_CR14_9 211.9709921759678
 UP BND CINV_CR14_9 225.0
 UP BND BUY_CR15_9 122.126528319418
 UP BND CINV_CR15_9 225.0
 UP BND BUY_CR16_9 114.50306037063318
 UP BND CINV_CR16_9 225.0
 UP BND BUY_CR17_9 102.40350181560112
 UP BND CINV_CR17_9 225.0
 UP BND BUY_CR18_9 243.01036759172615
 UP BND CINV_CR18_9 225.0
 UP BND BUY_CR19_9 112.51950876713114
 UP BND CINV_CR19_9 225.0
 UP BND PINV_LPG_9 45.0
 UP BND PINV_GAS_9 45.0
 UP BND PINV_JET_9 45.0
 UP BND PINV_DSL_9 45.0
 UP BND PINV_FO_9 45.0
 UP BND BUY_CR00_10 210.60478843343301
 UP BND CINV_CR00_10 225.0
 UP BND BUY_CR01_10 73.68323117482548
 UP BND CINV_CR01_10 225.0
 UP BND BUY_CR02_10 193.5465423317714
 UP BND CINV_CR02_10 225.0
 UP BND BUY_CR03_10 154.93253863571263
 UP BND CINV_CR03_10 225.0
 UP BND BUY_CR04_10 226.54592107602224
 UP BND CINV_CR04_10 225.0
 UP BND BUY_CR05_10 194.24201733094097
 UP BND CINV_CR05_10 225.0
 UP BND BUY_CR06_10 264.54259082508963
 UP BND CINV_CR06_10 225.0
 UP BND BUY_CR07_10 252.411863553665
 UP BND CINV_CR07_10 225.0
 UP BND BUY_CR08_10 190.26763064011067
 UP BND CINV_CR08_10 225.0
 UP BND BUY_CR09_10 174.13494538823883
 UP BND CINV_CR09_10 225.0
 UP BND BUY_CR10_10 95.46484363085565
 UP BND CINV_CR10_10 225.0
 UP BND BUY_CR11_10 140.6206780875234
 UP BND CINV_CR11_10 225.0
 UP BND BUY_CR12_10 116.19995479253666
 UP BND CINV_CR12_10 225.0
 UP BND BUY_CR13_10 212.99157759534737
 UP BND CINV_CR13_10 225.0
 UP BND BUY_CR14_10 89.04305036062738
 UP BND CINV_CR14_10 225.0
 UP BND BUY_CR15_10 167.20320381628557
 UP BND CINV_CR15_10 225.0
 UP BND BUY_CR16_10 105.31915522447663
 UP BND CINV_CR16_10 225.0
 UP BND BUY_CR17_10 188.4964982398964
 UP BND CINV_CR17_10 225.0
 UP BND BUY_CR18_10 111.3529526693234
 UP BND CINV_CR18_10 225.0
 UP BND BUY_CR19_10 210.0445278698845
 UP BND CINV_CR19_10 225.0
 UP BND PINV_LPG_10 45.0
 UP BND PINV_GAS_10 45.0
 UP BND PINV_JET_10 45.0
 UP BND PINV_DSL_10 45.0
 UP BND PINV_FO_10 45.0
 UP BND BUY_CR00_11 262.73462131361265
 UP BND CINV_CR00_11 225.0
 UP BND BUY_CR01_11 136.84474104450902
 UP BND CINV_CR01_11 225.0
 UP BND BUY_CR02_11 91.40858880565725
 UP BND CINV_CR02_11 225.0
 UP BND BUY_CR03_11 86.78424697345638
 UP BND CINV_CR03_11 225.0
 UP BND BUY_CR04_11 167.7421334839412
 UP BND CINV_CR04_11 225.0
 UP BND BUY_CR05_11 101.64100970790713
 UP BND CINV_CR05_11 225.0
 UP BND BUY_CR06_11 233.58037449372858
 UP BND CINV_CR06_11 225.0
 UP BND BUY_CR07_11 184.93638080651075
 UP BND CINV_CR07_11 225.0
 UP BND BUY_CR08_11 212.27434940427298
 UP BND CINV_CR08_11 225.0
 UP BND BUY_CR09_11 187.70776396592328
 UP BND CINV_CR09_11 225.0
 UP BND BUY_CR10_11 268.8646652994126
 UP BND CINV_CR10_11 225.0
 UP BND BUY_CR11_11 228.98214916555992
 UP BND CINV_CR11_11 225.0
 UP BND BUY_CR12_11 132.21382353445912
 UP BND CINV_CR12_11 225.0
 UP BND BUY_CR13_11 185.00138633445744
 UP BND CINV_CR13_11 225.0
 UP BND BUY_CR14_11 148.48554015095348
 UP BND CINV_CR14_11 225.0
 UP BND BUY_CR15_11 221.10850696134554
 UP BND CINV_CR15_11 225.0
 UP BND BUY_CR16_11 252.52018387367946
 UP BND CINV_CR16_11 225.0
 UP BND BUY_CR17_11 96.89859563449214
 UP BND CINV_CR17_11 225.0
 UP BND BUY_CR18_11 79.06673654437571
 UP BND CINV_CR18_11 225.0
 UP BND BUY_CR19_11 93.82071885170403
 UP BND CINV_CR19_11 225.0
 UP BND PINV_LPG_11 45.0
 UP BND PINV_GAS_11 45.0
 UP BND PINV_JET_11 45.0
 UP BND PINV_DSL_11 45.0
 UP BND PINV_FO_11 45.0
ENDATA
