NAME REFPLAN_10x6_MIP
OBJSENSE
    MAX
ROWS
 N  OBJ
 E  PARCEL_CR00_0
 E  CBAL_CR00_0
 E  PARCEL_CR01_0
 E  CBAL_CR01_0
 E  PARCEL_CR02_0
 E  CBAL_CR02_0
 E  PARCEL_CR03_0
 E  CBAL_CR03_0
 E  PARCEL_CR04_0
 E  CBAL_CR04_0
 E  PARCEL_CR05_0
 E  CBAL_CR05_0
 E  PARCEL_CR06_0
 E  CBAL_CR06_0
 E  PARCEL_CR07_0
 E  CBAL_CR07_0
 E  PARCEL_CR08_0
 E  CBAL_CR08_0
 E  PARCEL_CR09_0
 E  CBAL_CR09_0
 L  CDUCAP_0
 G  CDUMIN_0
 E  YLPG_CR00_0
 E  YNAP_CR00_0
 E  YKER_CR00_0
 E  YDSL_CR00_0
 E  YVGO_CR00_0
 E  YRES_CR00_0
 E  YLPG_CR01_0
 E  YNAP_CR01_0
 E  YKER_CR01_0
 E  YDSL_CR01_0
 E  YVGO_CR01_0
 E  YRES_CR01_0
 E  YLPG_CR02_0
 E  YNAP_CR02_0
 E  YKER_CR02_0
 E  YDSL_CR02_0
 E  YVGO_CR02_0
 E  YRES_CR02_0
 E  YLPG_CR03_0
 E  YNAP_CR03_0
 E  YKER_CR03_0
 E  YDSL_CR03_0
 E  YVGO_CR03_0
 E  YRES_CR03_0
 E  YLPG_CR04_0
 E  YNAP_CR04_0
 E  YKER_CR04_0
 E  YDSL_CR04_0
 E  YVGO_CR04_0
 E  YRES_CR04_0
 E  YLPG_CR05_0
 E  YNAP_CR05_0
 E  YKER_CR05_0
 E  YDSL_CR05_0
 E  YVGO_CR05_0
 E  YRES_CR05_0
 E  YLPG_CR06_0
 E  YNAP_CR06_0
 E  YKER_CR06_0
 E  YDSL_CR06_0
 E  YVGO_CR06_0
 E  YRES_CR06_0
 E  YLPG_CR07_0
 E  YNAP_CR07_0
 E  YKER_CR07_0
 E  YDSL_CR07_0
 E  YVGO_CR07_0
 E  YRES_CR07_0
 E  YLPG_CR08_0
 E  YNAP_CR08_0
 E  YKER_CR08_0
 E  YDSL_CR08_0
 E  YVGO_CR08_0
 E  YRES_CR08_0
 E  YLPG_CR09_0
 E  YNAP_CR09_0
 E  YKER_CR09_0
 E  YDSL_CR09_0
 E  YVGO_CR09_0
 E  YRES_CR09_0
 E  RESSPLIT_CR00_0
 E  VDUY1_CR00_0
 E  VDUY2_CR00_0
 E  RESSPLIT_CR01_0
 E  VDUY1_CR01_0
 E  VDUY2_CR01_0
 E  RESSPLIT_CR02_0
 E  VDUY1_CR02_0
 E  VDUY2_CR02_0
 E  RESSPLIT_CR03_0
 E  VDUY1_CR03_0
 E  VDUY2_CR03_0
 E  RESSPLIT_CR04_0
 E  VDUY1_CR04_0
 E  VDUY2_CR04_0
 E  RESSPLIT_CR05_0
 E  VDUY1_CR05_0
 E  VDUY2_CR05_0
 E  RESSPLIT_CR06_0
 E  VDUY1_CR06_0
 E  VDUY2_CR06_0
 E  RESSPLIT_CR07_0
 E  VDUY1_CR07_0
 E  VDUY2_CR07_0
 E  RESSPLIT_CR08_0
 E  VDUY1_CR08_0
 E  VDUY2_CR08_0
 E  RESSPLIT_CR09_0
 E  VDUY1_CR09_0
 E  VDUY2_CR09_0
 L  VDUCAP_0
 E  VGOBAL_CR00_0
 E  VGOBAL_CR01_0
 E  VGOBAL_CR02_0
 E  VGOBAL_CR03_0
 E  VGOBAL_CR04_0
 E  VGOBAL_CR05_0
 E  VGOBAL_CR06_0
 E  VGOBAL_CR07_0
 E  VGOBAL_CR08_0
 E  VGOBAL_CR09_0
 L  FCCCAP_0
 E  FCCY_FCCG_0
 E  FCCY_LCO_0
 E  FCCY_FLPG_0
 E  FCCY_SLURRY_0
 E  NAPBAL_CR00_0
 E  NAPBAL_CR01_0
 E  NAPBAL_CR02_0
 E  NAPBAL_CR03_0
 E  NAPBAL_CR04_0
 E  NAPBAL_CR05_0
 E  NAPBAL_CR06_0
 E  NAPBAL_CR07_0
 E  NAPBAL_CR08_0
 E  NAPBAL_CR09_0
 L  REFCAP_0
 E  REFY_0
 E  DSLBAL_CR00_0
 E  DSLBAL_CR01_0
 E  DSLBAL_CR02_0
 E  DSLBAL_CR03_0
 E  DSLBAL_CR04_0
 E  DSLBAL_CR05_0
 E  DSLBAL_CR06_0
 E  DSLBAL_CR07_0
 E  DSLBAL_CR08_0
 E  DSLBAL_CR09_0
 E  LCOBAL_0
 L  DHTCAP_0
 E  DHTY_0
 E  GASBAL_0
 G  GASRON_0
 E  KERBAL_CR00_0
 E  KERBAL_CR01_0
 E  KERBAL_CR02_0
 E  KERBAL_CR03_0
 E  KERBAL_CR04_0
 E  KERBAL_CR05_0
 E  KERBAL_CR06_0
 E  KERBAL_CR07_0
 E  KERBAL_CR08_0
 E  KERBAL_CR09_0
 E  JETBAL_0
 L  JETSUL_0
 E  DSLPB_0
 L  DSLSUL_0
 E  LPGBAL_0
 E  FOBAL_0
 L  FOSUL_0
 E  PBAL_LPG_0
 L  DMAX_LPG_0
 G  DMIN_LPG_0
 E  PBAL_GAS_0
 L  DMAX_GAS_0
 G  DMIN_GAS_0
 E  PBAL_JET_0
 L  DMAX_JET_0
 G  DMIN_JET_0
 E  PBAL_DSL_0
 L  DMAX_DSL_0
 G  DMIN_DSL_0
 E  PBAL_FO_0
 L  DMAX_FO_0
 G  DMIN_FO_0
 E  PARCEL_CR00_1
 E  CBAL_CR00_1
 E  PARCEL_CR01_1
 E  CBAL_CR01_1
 E  PARCEL_CR02_1
 E  CBAL_CR02_1
 E  PARCEL_CR03_1
 E  CBAL_CR03_1
 E  PARCEL_CR04_1
 E  CBAL_CR04_1
 E  PARCEL_CR05_1
 E  CBAL_CR05_1
 E  PARCEL_CR06_1
 E  CBAL_CR06_1
 E  PARCEL_CR07_1
 E  CBAL_CR07_1
 E  PARCEL_CR08_1
 E  CBAL_CR08_1
 E  PARCEL_CR09_1
 E  CBAL_CR09_1
 L  CDUCAP_1
 G  CDUMIN_1
 E  YLPG_CR00_1
 E  YNAP_CR00_1
 E  YKER_CR00_1
 E  YDSL_CR00_1
 E  YVGO_CR00_1
 E  YRES_CR00_1
 E  YLPG_CR01_1
 E  YNAP_CR01_1
 E  YKER_CR01_1
 E  YDSL_CR01_1
 E  YVGO_CR01_1
 E  YRES_CR01_1
 E  YLPG_CR02_1
 E  YNAP_CR02_1
 E  YKER_CR02_1
 E  YDSL_CR02_1
 E  YVGO_CR02_1
 E  YRES_CR02_1
 E  YLPG_CR03_1
 E  YNAP_CR03_1
 E  YKER_CR03_1
 E  YDSL_CR03_1
 E  YVGO_CR03_1
 E  YRES_CR03_1
 E  YLPG_CR04_1
 E  YNAP_CR04_1
 E  YKER_CR04_1
 E  YDSL_CR04_1
 E  YVGO_CR04_1
 E  YRES_CR04_1
 E  YLPG_CR05_1
 E  YNAP_CR05_1
 E  YKER_CR05_1
 E  YDSL_CR05_1
 E  YVGO_CR05_1
 E  YRES_CR05_1
 E  YLPG_CR06_1
 E  YNAP_CR06_1
 E  YKER_CR06_1
 E  YDSL_CR06_1
 E  YVGO_CR06_1
 E  YRES_CR06_1
 E  YLPG_CR07_1
 E  YNAP_CR07_1
 E  YKER_CR07_1
 E  YDSL_CR07_1
 E  YVGO_CR07_1
 E  YRES_CR07_1
 E  YLPG_CR08_1
 E  YNAP_CR08_1
 E  YKER_CR08_1
 E  YDSL_CR08_1
 E  YVGO_CR08_1
 E  YRES_CR08_1
 E  YLPG_CR09_1
 E  YNAP_CR09_1
 E  YKER_CR09_1
 E  YDSL_CR09_1
 E  YVGO_CR09_1
 E  YRES_CR09_1
 E  RESSPLIT_CR00_1
 E  VDUY1_CR00_1
 E  VDUY2_CR00_1
 E  RESSPLIT_CR01_1
 E  VDUY1_CR01_1
 E  VDUY2_CR01_1
 E  RESSPLIT_CR02_1
 E  VDUY1_CR02_1
 E  VDUY2_CR02_1
 E  RESSPLIT_CR03_1
 E  VDUY1_CR03_1
 E  VDUY2_CR03_1
 E  RESSPLIT_CR04_1
 E  VDUY1_CR04_1
 E  VDUY2_CR04_1
 E  RESSPLIT_CR05_1
 E  VDUY1_CR05_1
 E  VDUY2_CR05_1
 E  RESSPLIT_CR06_1
 E  VDUY1_CR06_1
 E  VDUY2_CR06_1
 E  RESSPLIT_CR07_1
 E  VDUY1_CR07_1
 E  VDUY2_CR07_1
 E  RESSPLIT_CR08_1
 E  VDUY1_CR08_1
 E  VDUY2_CR08_1
 E  RESSPLIT_CR09_1
 E  VDUY1_CR09_1
 E  VDUY2_CR09_1
 L  VDUCAP_1
 E  VGOBAL_CR00_1
 E  VGOBAL_CR01_1
 E  VGOBAL_CR02_1
 E  VGOBAL_CR03_1
 E  VGOBAL_CR04_1
 E  VGOBAL_CR05_1
 E  VGOBAL_CR06_1
 E  VGOBAL_CR07_1
 E  VGOBAL_CR08_1
 E  VGOBAL_CR09_1
 L  FCCCAP_1
 E  FCCY_FCCG_1
 E  FCCY_LCO_1
 E  FCCY_FLPG_1
 E  FCCY_SLURRY_1
 E  NAPBAL_CR00_1
 E  NAPBAL_CR01_1
 E  NAPBAL_CR02_1
 E  NAPBAL_CR03_1
 E  NAPBAL_CR04_1
 E  NAPBAL_CR05_1
 E  NAPBAL_CR06_1
 E  NAPBAL_CR07_1
 E  NAPBAL_CR08_1
 E  NAPBAL_CR09_1
 L  REFCAP_1
 E  REFY_1
 E  DSLBAL_CR00_1
 E  DSLBAL_CR01_1
 E  DSLBAL_CR02_1
 E  DSLBAL_CR03_1
 E  DSLBAL_CR04_1
 E  DSLBAL_CR05_1
 E  DSLBAL_CR06_1
 E  DSLBAL_CR07_1
 E  DSLBAL_CR08_1
 E  DSLBAL_CR09_1
 E  LCOBAL_1
 L  DHTCAP_1
 E  DHTY_1
 E  GASBAL_1
 G  GASRON_1
 E  KERBAL_CR00_1
 E  KERBAL_CR01_1
 E  KERBAL_CR02_1
 E  KERBAL_CR03_1
 E  KERBAL_CR04_1
 E  KERBAL_CR05_1
 E  KERBAL_CR06_1
 E  KERBAL_CR07_1
 E  KERBAL_CR08_1
 E  KERBAL_CR09_1
 E  JETBAL_1
 L  JETSUL_1
 E  DSLPB_1
 L  DSLSUL_1
 E  LPGBAL_1
 E  FOBAL_1
 L  FOSUL_1
 E  PBAL_LPG_1
 L  DMAX_LPG_1
 G  DMIN_LPG_1
 E  PBAL_GAS_1
 L  DMAX_GAS_1
 G  DMIN_GAS_1
 E  PBAL_JET_1
 L  DMAX_JET_1
 G  DMIN_JET_1
 E  PBAL_DSL_1
 L  DMAX_DSL_1
 G  DMIN_DSL_1
 E  PBAL_FO_1
 L  DMAX_FO_1
 G  DMIN_FO_1
 E  PARCEL_CR00_2
 E  CBAL_CR00_2
 E  PARCEL_CR01_2
 E  CBAL_CR01_2
 E  PARCEL_CR02_2
 E  CBAL_CR02_2
 E  PARCEL_CR03_2
 E  CBAL_CR03_2
 E  PARCEL_CR04_2
 E  CBAL_CR04_2
 E  PARCEL_CR05_2
 E  CBAL_CR05_2
 E  PARCEL_CR06_2
 E  CBAL_CR06_2
 E  PARCEL_CR07_2
 E  CBAL_CR07_2
 E  PARCEL_CR08_2
 E  CBAL_CR08_2
 E  PARCEL_CR09_2
 E  CBAL_CR09_2
 L  CDUCAP_2
 G  CDUMIN_2
 E  YLPG_CR00_2
 E  YNAP_CR00_2
 E  YKER_CR00_2
 E  YDSL_CR00_2
 E  YVGO_CR00_2
 E  YRES_CR00_2
 E  YLPG_CR01_2
 E  YNAP_CR01_2
 E  YKER_CR01_2
 E  YDSL_CR01_2
 E  YVGO_CR01_2
 E  YRES_CR01_2
 E  YLPG_CR02_2
 E  YNAP_CR02_2
 E  YKER_CR02_2
 E  YDSL_CR02_2
 E  YVGO_CR02_2
 E  YRES_CR02_2
 E  YLPG_CR03_2
 E  YNAP_CR03_2
 E  YKER_CR03_2
 E  YDSL_CR03_2
 E  YVGO_CR03_2
 E  YRES_CR03_2
 E  YLPG_CR04_2
 E  YNAP_CR04_2
 E  YKER_CR04_2
 E  YDSL_CR04_2
 E  YVGO_CR04_2
 E  YRES_CR04_2
 E  YLPG_CR05_2
 E  YNAP_CR05_2
 E  YKER_CR05_2
 E  YDSL_CR05_2
 E  YVGO_CR05_2
 E  YRES_CR05_2
 E  YLPG_CR06_2
 E  YNAP_CR06_2
 E  YKER_CR06_2
 E  YDSL_CR06_2
 E  YVGO_CR06_2
 E  YRES_CR06_2
 E  YLPG_CR07_2
 E  YNAP_CR07_2
 E  YKER_CR07_2
 E  YDSL_CR07_2
 E  YVGO_CR07_2
 E  YRES_CR07_2
 E  YLPG_CR08_2
 E  YNAP_CR08_2
 E  YKER_CR08_2
 E  YDSL_CR08_2
 E  YVGO_CR08_2
 E  YRES_CR08_2
 E  YLPG_CR09_2
 E  YNAP_CR09_2
 E  YKER_CR09_2
 E  YDSL_CR09_2
 E  YVGO_CR09_2
 E  YRES_CR09_2
 E  RESSPLIT_CR00_2
 E  VDUY1_CR00_2
 E  VDUY2_CR00_2
 E  RESSPLIT_CR01_2
 E  VDUY1_CR01_2
 E  VDUY2_CR01_2
 E  RESSPLIT_CR02_2
 E  VDUY1_CR02_2
 E  VDUY2_CR02_2
 E  RESSPLIT_CR03_2
 E  VDUY1_CR03_2
 E  VDUY2_CR03_2
 E  RESSPLIT_CR04_2
 E  VDUY1_CR04_2
 E  VDUY2_CR04_2
 E  RESSPLIT_CR05_2
 E  VDUY1_CR05_2
 E  VDUY2_CR05_2
 E  RESSPLIT_CR06_2
 E  VDUY1_CR06_2
 E  VDUY2_CR06_2
 E  RESSPLIT_CR07_2
 E  VDUY1_CR07_2
 E  VDUY2_CR07_2
 E  RESSPLIT_CR08_2
 E  VDUY1_CR08_2
 E  VDUY2_CR08_2
 E  RESSPLIT_CR09_2
 E  VDUY1_CR09_2
 E  VDUY2_CR09_2
 L  VDUCAP_2
 E  VGOBAL_CR00_2
 E  VGOBAL_CR01_2
 E  VGOBAL_CR02_2
 E  VGOBAL_CR03_2
 E  VGOBAL_CR04_2
 E  VGOBAL_CR05_2
 E  VGOBAL_CR06_2
 E  VGOBAL_CR07_2
 E  VGOBAL_CR08_2
 E  VGOBAL_CR09_2
 L  FCCCAP_2
 E  FCCY_FCCG_2
 E  FCCY_LCO_2
 E  FCCY_FLPG_2
 E  FCCY_SLURRY_2
 E  NAPBAL_CR00_2
 E  NAPBAL_CR01_2
 E  NAPBAL_CR02_2
 E  NAPBAL_CR03_2
 E  NAPBAL_CR04_2
 E  NAPBAL_CR05_2
 E  NAPBAL_CR06_2
 E  NAPBAL_CR07_2
 E  NAPBAL_CR08_2
 E  NAPBAL_CR09_2
 L  REFCAP_2
 E  REFY_2
 E  DSLBAL_CR00_2
 E  DSLBAL_CR01_2
 E  DSLBAL_CR02_2
 E  DSLBAL_CR03_2
 E  DSLBAL_CR04_2
 E  DSLBAL_CR05_2
 E  DSLBAL_CR06_2
 E  DSLBAL_CR07_2
 E  DSLBAL_CR08_2
 E  DSLBAL_CR09_2
 E  LCOBAL_2
 L  DHTCAP_2
 E  DHTY_2
 E  GASBAL_2
 G  GASRON_2
 E  KERBAL_CR00_2
 E  KERBAL_CR01_2
 E  KERBAL_CR02_2
 E  KERBAL_CR03_2
 E  KERBAL_CR04_2
 E  KERBAL_CR05_2
 E  KERBAL_CR06_2
 E  KERBAL_CR07_2
 E  KERBAL_CR08_2
 E  KERBAL_CR09_2
 E  JETBAL_2
 L  JETSUL_2
 E  DSLPB_2
 L  DSLSUL_2
 E  LPGBAL_2
 E  FOBAL_2
 L  FOSUL_2
 E  PBAL_LPG_2
 L  DMAX_LPG_2
 G  DMIN_LPG_2
 E  PBAL_GAS_2
 L  DMAX_GAS_2
 G  DMIN_GAS_2
 E  PBAL_JET_2
 L  DMAX_JET_2
 G  DMIN_JET_2
 E  PBAL_DSL_2
 L  DMAX_DSL_2
 G  DMIN_DSL_2
 E  PBAL_FO_2
 L  DMAX_FO_2
 G  DMIN_FO_2
 E  PARCEL_CR00_3
 E  CBAL_CR00_3
 E  PARCEL_CR01_3
 E  CBAL_CR01_3
 E  PARCEL_CR02_3
 E  CBAL_CR02_3
 E  PARCEL_CR03_3
 E  CBAL_CR03_3
 E  PARCEL_CR04_3
 E  CBAL_CR04_3
 E  PARCEL_CR05_3
 E  CBAL_CR05_3
 E  PARCEL_CR06_3
 E  CBAL_CR06_3
 E  PARCEL_CR07_3
 E  CBAL_CR07_3
 E  PARCEL_CR08_3
 E  CBAL_CR08_3
 E  PARCEL_CR09_3
 E  CBAL_CR09_3
 L  CDUCAP_3
 G  CDUMIN_3
 E  YLPG_CR00_3
 E  YNAP_CR00_3
 E  YKER_CR00_3
 E  YDSL_CR00_3
 E  YVGO_CR00_3
 E  YRES_CR00_3
 E  YLPG_CR01_3
 E  YNAP_CR01_3
 E  YKER_CR01_3
 E  YDSL_CR01_3
 E  YVGO_CR01_3
 E  YRES_CR01_3
 E  YLPG_CR02_3
 E  YNAP_CR02_3
 E  YKER_CR02_3
 E  YDSL_CR02_3
 E  YVGO_CR02_3
 E  YRES_CR02_3
 E  YLPG_CR03_3
 E  YNAP_CR03_3
 E  YKER_CR03_3
 E  YDSL_CR03_3
 E  YVGO_CR03_3
 E  YRES_CR03_3
 E  YLPG_CR04_3
 E  YNAP_CR04_3
 E  YKER_CR04_3
 E  YDSL_CR04_3
 E  YVGO_CR04_3
 E  YRES_CR04_3
 E  YLPG_CR05_3
 E  YNAP_CR05_3
 E  YKER_CR05_3
 E  YDSL_CR05_3
 E  YVGO_CR05_3
 E  YRES_CR05_3
 E  YLPG_CR06_3
 E  YNAP_CR06_3
 E  YKER_CR06_3
 E  YDSL_CR06_3
 E  YVGO_CR06_3
 E  YRES_CR06_3
 E  YLPG_CR07_3
 E  YNAP_CR07_3
 E  YKER_CR07_3
 E  YDSL_CR07_3
 E  YVGO_CR07_3
 E  YRES_CR07_3
 E  YLPG_CR08_3
 E  YNAP_CR08_3
 E  YKER_CR08_3
 E  YDSL_CR08_3
 E  YVGO_CR08_3
 E  YRES_CR08_3
 E  YLPG_CR09_3
 E  YNAP_CR09_3
 E  YKER_CR09_3
 E  YDSL_CR09_3
 E  YVGO_CR09_3
 E  YRES_CR09_3
 E  RESSPLIT_CR00_3
 E  VDUY1_CR00_3
 E  VDUY2_CR00_3
 E  RESSPLIT_CR01_3
 E  VDUY1_CR01_3
 E  VDUY2_CR01_3
 E  RESSPLIT_CR02_3
 E  VDUY1_CR02_3
 E  VDUY2_CR02_3
 E  RESSPLIT_CR03_3
 E  VDUY1_CR03_3
 E  VDUY2_CR03_3
 E  RESSPLIT_CR04_3
 E  VDUY1_CR04_3
 E  VDUY2_CR04_3
 E  RESSPLIT_CR05_3
 E  VDUY1_CR05_3
 E  VDUY2_CR05_3
 E  RESSPLIT_CR06_3
 E  VDUY1_CR06_3
 E  VDUY2_CR06_3
 E  RESSPLIT_CR07_3
 E  VDUY1_CR07_3
 E  VDUY2_CR07_3
 E  RESSPLIT_CR08_3
 E  VDUY1_CR08_3
 E  VDUY2_CR08_3
 E  RESSPLIT_CR09_3
 E  VDUY1_CR09_3
 E  VDUY2_CR09_3
 L  VDUCAP_3
 E  VGOBAL_CR00_3
 E  VGOBAL_CR01_3
 E  VGOBAL_CR02_3
 E  VGOBAL_CR03_3
 E  VGOBAL_CR04_3
 E  VGOBAL_CR05_3
 E  VGOBAL_CR06_3
 E  VGOBAL_CR07_3
 E  VGOBAL_CR08_3
 E  VGOBAL_CR09_3
 L  FCCCAP_3
 E  FCCY_FCCG_3
 E  FCCY_LCO_3
 E  FCCY_FLPG_3
 E  FCCY_SLURRY_3
 E  NAPBAL_CR00_3
 E  NAPBAL_CR01_3
 E  NAPBAL_CR02_3
 E  NAPBAL_CR03_3
 E  NAPBAL_CR04_3
 E  NAPBAL_CR05_3
 E  NAPBAL_CR06_3
 E  NAPBAL_CR07_3
 E  NAPBAL_CR08_3
 E  NAPBAL_CR09_3
 L  REFCAP_3
 E  REFY_3
 E  DSLBAL_CR00_3
 E  DSLBAL_CR01_3
 E  DSLBAL_CR02_3
 E  DSLBAL_CR03_3
 E  DSLBAL_CR04_3
 E  DSLBAL_CR05_3
 E  DSLBAL_CR06_3
 E  DSLBAL_CR07_3
 E  DSLBAL_CR08_3
 E  DSLBAL_CR09_3
 E  LCOBAL_3
 L  DHTCAP_3
 E  DHTY_3
 E  GASBAL_3
 G  GASRON_3
 E  KERBAL_CR00_3
 E  KERBAL_CR01_3
 E  KERBAL_CR02_3
 E  KERBAL_CR03_3
 E  KERBAL_CR04_3
 E  KERBAL_CR05_3
 E  KERBAL_CR06_3
 E  KERBAL_CR07_3
 E  KERBAL_CR08_3
 E  KERBAL_CR09_3
 E  JETBAL_3
 L  JETSUL_3
 E  DSLPB_3
 L  DSLSUL_3
 E  LPGBAL_3
 E  FOBAL_3
 L  FOSUL_3
 E  PBAL_LPG_3
 L  DMAX_LPG_3
 G  DMIN_LPG_3
 E  PBAL_GAS_3
 L  DMAX_GAS_3
 G  DMIN_GAS_3
 E  PBAL_JET_3
 L  DMAX_JET_3
 G  DMIN_JET_3
 E  PBAL_DSL_3
 L  DMAX_DSL_3
 G  DMIN_DSL_3
 E  PBAL_FO_3
 L  DMAX_FO_3
 G  DMIN_FO_3
 E  PARCEL_CR00_4
 E  CBAL_CR00_4
 E  PARCEL_CR01_4
 E  CBAL_CR01_4
 E  PARCEL_CR02_4
 E  CBAL_CR02_4
 E  PARCEL_CR03_4
 E  CBAL_CR03_4
 E  PARCEL_CR04_4
 E  CBAL_CR04_4
 E  PARCEL_CR05_4
 E  CBAL_CR05_4
 E  PARCEL_CR06_4
 E  CBAL_CR06_4
 E  PARCEL_CR07_4
 E  CBAL_CR07_4
 E  PARCEL_CR08_4
 E  CBAL_CR08_4
 E  PARCEL_CR09_4
 E  CBAL_CR09_4
 L  CDUCAP_4
 G  CDUMIN_4
 E  YLPG_CR00_4
 E  YNAP_CR00_4
 E  YKER_CR00_4
 E  YDSL_CR00_4
 E  YVGO_CR00_4
 E  YRES_CR00_4
 E  YLPG_CR01_4
 E  YNAP_CR01_4
 E  YKER_CR01_4
 E  YDSL_CR01_4
 E  YVGO_CR01_4
 E  YRES_CR01_4
 E  YLPG_CR02_4
 E  YNAP_CR02_4
 E  YKER_CR02_4
 E  YDSL_CR02_4
 E  YVGO_CR02_4
 E  YRES_CR02_4
 E  YLPG_CR03_4
 E  YNAP_CR03_4
 E  YKER_CR03_4
 E  YDSL_CR03_4
 E  YVGO_CR03_4
 E  YRES_CR03_4
 E  YLPG_CR04_4
 E  YNAP_CR04_4
 E  YKER_CR04_4
 E  YDSL_CR04_4
 E  YVGO_CR04_4
 E  YRES_CR04_4
 E  YLPG_CR05_4
 E  YNAP_CR05_4
 E  YKER_CR05_4
 E  YDSL_CR05_4
 E  YVGO_CR05_4
 E  YRES_CR05_4
 E  YLPG_CR06_4
 E  YNAP_CR06_4
 E  YKER_CR06_4
 E  YDSL_CR06_4
 E  YVGO_CR06_4
 E  YRES_CR06_4
 E  YLPG_CR07_4
 E  YNAP_CR07_4
 E  YKER_CR07_4
 E  YDSL_CR07_4
 E  YVGO_CR07_4
 E  YRES_CR07_4
 E  YLPG_CR08_4
 E  YNAP_CR08_4
 E  YKER_CR08_4
 E  YDSL_CR08_4
 E  YVGO_CR08_4
 E  YRES_CR08_4
 E  YLPG_CR09_4
 E  YNAP_CR09_4
 E  YKER_CR09_4
 E  YDSL_CR09_4
 E  YVGO_CR09_4
 E  YRES_CR09_4
 E  RESSPLIT_CR00_4
 E  VDUY1_CR00_4
 E  VDUY2_CR00_4
 E  RESSPLIT_CR01_4
 E  VDUY1_CR01_4
 E  VDUY2_CR01_4
 E  RESSPLIT_CR02_4
 E  VDUY1_CR02_4
 E  VDUY2_CR02_4
 E  RESSPLIT_CR03_4
 E  VDUY1_CR03_4
 E  VDUY2_CR03_4
 E  RESSPLIT_CR04_4
 E  VDUY1_CR04_4
 E  VDUY2_CR04_4
 E  RESSPLIT_CR05_4
 E  VDUY1_CR05_4
 E  VDUY2_CR05_4
 E  RESSPLIT_CR06_4
 E  VDUY1_CR06_4
 E  VDUY2_CR06_4
 E  RESSPLIT_CR07_4
 E  VDUY1_CR07_4
 E  VDUY2_CR07_4
 E  RESSPLIT_CR08_4
 E  VDUY1_CR08_4
 E  VDUY2_CR08_4
 E  RESSPLIT_CR09_4
 E  VDUY1_CR09_4
 E  VDUY2_CR09_4
 L  VDUCAP_4
 E  VGOBAL_CR00_4
 E  VGOBAL_CR01_4
 E  VGOBAL_CR02_4
 E  VGOBAL_CR03_4
 E  VGOBAL_CR04_4
 E  VGOBAL_CR05_4
 E  VGOBAL_CR06_4
 E  VGOBAL_CR07_4
 E  VGOBAL_CR08_4
 E  VGOBAL_CR09_4
 L  FCCCAP_4
 E  FCCY_FCCG_4
 E  FCCY_LCO_4
 E  FCCY_FLPG_4
 E  FCCY_SLURRY_4
 E  NAPBAL_CR00_4
 E  NAPBAL_CR01_4
 E  NAPBAL_CR02_4
 E  NAPBAL_CR03_4
 E  NAPBAL_CR04_4
 E  NAPBAL_CR05_4
 E  NAPBAL_CR06_4
 E  NAPBAL_CR07_4
 E  NAPBAL_CR08_4
 E  NAPBAL_CR09_4
 L  REFCAP_4
 E  REFY_4
 E  DSLBAL_CR00_4
 E  DSLBAL_CR01_4
 E  DSLBAL_CR02_4
 E  DSLBAL_CR03_4
 E  DSLBAL_CR04_4
 E  DSLBAL_CR05_4
 E  DSLBAL_CR06_4
 E  DSLBAL_CR07_4
 E  DSLBAL_CR08_4
 E  DSLBAL_CR09_4
 E  LCOBAL_4
 L  DHTCAP_4
 E  DHTY_4
 E  GASBAL_4
 G  GASRON_4
 E  KERBAL_CR00_4
 E  KERBAL_CR01_4
 E  KERBAL_CR02_4
 E  KERBAL_CR03_4
 E  KERBAL_CR04_4
 E  KERBAL_CR05_4
 E  KERBAL_CR06_4
 E  KERBAL_CR07_4
 E  KERBAL_CR08_4
 E  KERBAL_CR09_4
 E  JETBAL_4
 L  JETSUL_4
 E  DSLPB_4
 L  DSLSUL_4
 E  LPGBAL_4
 E  FOBAL_4
 L  FOSUL_4
 E  PBAL_LPG_4
 L  DMAX_LPG_4
 G  DMIN_LPG_4
 E  PBAL_GAS_4
 L  DMAX_GAS_4
 G  DMIN_GAS_4
 E  PBAL_JET_4
 L  DMAX_JET_4
 G  DMIN_JET_4
 E  PBAL_DSL_4
 L  DMAX_DSL_4
 G  DMIN_DSL_4
 E  PBAL_FO_4
 L  DMAX_FO_4
 G  DMIN_FO_4
 E  PARCEL_CR00_5
 E  CBAL_CR00_5
 E  PARCEL_CR01_5
 E  CBAL_CR01_5
 E  PARCEL_CR02_5
 E  CBAL_CR02_5
 E  PARCEL_CR03_5
 E  CBAL_CR03_5
 E  PARCEL_CR04_5
 E  CBAL_CR04_5
 E  PARCEL_CR05_5
 E  CBAL_CR05_5
 E  PARCEL_CR06_5
 E  CBAL_CR06_5
 E  PARCEL_CR07_5
 E  CBAL_CR07_5
 E  PARCEL_CR08_5
 E  CBAL_CR08_5
 E  PARCEL_CR09_5
 E  CBAL_CR09_5
 L  CDUCAP_5
 G  CDUMIN_5
 E  YLPG_CR00_5
 E  YNAP_CR00_5
 E  YKER_CR00_5
 E  YDSL_CR00_5
 E  YVGO_CR00_5
 E  YRES_CR00_5
 E  YLPG_CR01_5
 E  YNAP_CR01_5
 E  YKER_CR01_5
 E  YDSL_CR01_5
 E  YVGO_CR01_5
 E  YRES_CR01_5
 E  YLPG_CR02_5
 E  YNAP_CR02_5
 E  YKER_CR02_5
 E  YDSL_CR02_5
 E  YVGO_CR02_5
 E  YRES_CR02_5
 E  YLPG_CR03_5
 E  YNAP_CR03_5
 E  YKER_CR03_5
 E  YDSL_CR03_5
 E  YVGO_CR03_5
 E  YRES_CR03_5
 E  YLPG_CR04_5
 E  YNAP_CR04_5
 E  YKER_CR04_5
 E  YDSL_CR04_5
 E  YVGO_CR04_5
 E  YRES_CR04_5
 E  YLPG_CR05_5
 E  YNAP_CR05_5
 E  YKER_CR05_5
 E  YDSL_CR05_5
 E  YVGO_CR05_5
 E  YRES_CR05_5
 E  YLPG_CR06_5
 E  YNAP_CR06_5
 E  YKER_CR06_5
 E  YDSL_CR06_5
 E  YVGO_CR06_5
 E  YRES_CR06_5
 E  YLPG_CR07_5
 E  YNAP_CR07_5
 E  YKER_CR07_5
 E  YDSL_CR07_5
 E  YVGO_CR07_5
 E  YRES_CR07_5
 E  YLPG_CR08_5
 E  YNAP_CR08_5
 E  YKER_CR08_5
 E  YDSL_CR08_5
 E  YVGO_CR08_5
 E  YRES_CR08_5
 E  YLPG_CR09_5
 E  YNAP_CR09_5
 E  YKER_CR09_5
 E  YDSL_CR09_5
 E  YVGO_CR09_5
 E  YRES_CR09_5
 E  RESSPLIT_CR00_5
 E  VDUY1_CR00_5
 E  VDUY2_CR00_5
 E  RESSPLIT_CR01_5
 E  VDUY1_CR01_5
 E  VDUY2_CR01_5
 E  RESSPLIT_CR02_5
 E  VDUY1_CR02_5
 E  VDUY2_CR02_5
 E  RESSPLIT_CR03_5
 E  VDUY1_CR03_5
 E  VDUY2_CR03_5
 E  RESSPLIT_CR04_5
 E  VDUY1_CR04_5
 E  VDUY2_CR04_5
 E  RESSPLIT_CR05_5
 E  VDUY1_CR05_5
 E  VDUY2_CR05_5
 E  RESSPLIT_CR06_5
 E  VDUY1_CR06_5
 E  VDUY2_CR06_5
 E  RESSPLIT_CR07_5
 E  VDUY1_CR07_5
 E  VDUY2_CR07_5
 E  RESSPLIT_CR08_5
 E  VDUY1_CR08_5
 E  VDUY2_CR08_5
 E  RESSPLIT_CR09_5
 E  VDUY1_CR09_5
 E  VDUY2_CR09_5
 L  VDUCAP_5
 E  VGOBAL_CR00_5
 E  VGOBAL_CR01_5
 E  VGOBAL_CR02_5
 E  VGOBAL_CR03_5
 E  VGOBAL_CR04_5
 E  VGOBAL_CR05_5
 E  VGOBAL_CR06_5
 E  VGOBAL_CR07_5
 E  VGOBAL_CR08_5
 E  VGOBAL_CR09_5
 L  FCCCAP_5
 E  FCCY_FCCG_5
 E  FCCY_LCO_5
 E  FCCY_FLPG_5
 E  FCCY_SLURRY_5
 E  NAPBAL_CR00_5
 E  NAPBAL_CR01_5
 E  NAPBAL_CR02_5
 E  NAPBAL_CR03_5
 E  NAPBAL_CR04_5
 E  NAPBAL_CR05_5
 E  NAPBAL_CR06_5
 E  NAPBAL_CR07_5
 E  NAPBAL_CR08_5
 E  NAPBAL_CR09_5
 L  REFCAP_5
 E  REFY_5
 E  DSLBAL_CR00_5
 E  DSLBAL_CR01_5
 E  DSLBAL_CR02_5
 E  DSLBAL_CR03_5
 E  DSLBAL_CR04_5
 E  DSLBAL_CR05_5
 E  DSLBAL_CR06_5
 E  DSLBAL_CR07_5
 E  DSLBAL_CR08_5
 E  DSLBAL_CR09_5
 E  LCOBAL_5
 L  DHTCAP_5
 E  DHTY_5
 E  GASBAL_5
 G  GASRON_5
 E  KERBAL_CR00_5
 E  KERBAL_CR01_5
 E  KERBAL_CR02_5
 E  KERBAL_CR03_5
 E  KERBAL_CR04_5
 E  KERBAL_CR05_5
 E  KERBAL_CR06_5
 E  KERBAL_CR07_5
 E  KERBAL_CR08_5
 E  KERBAL_CR09_5
 E  JETBAL_5
 L  JETSUL_5
 E  DSLPB_5
 L  DSLSUL_5
 E  LPGBAL_5
 E  FOBAL_5
 L  FOSUL_5
 E  PBAL_LPG_5
 L  DMAX_LPG_5
 G  DMIN_LPG_5
 E  PBAL_GAS_5
 L  DMAX_GAS_5
 G  DMIN_GAS_5
 E  PBAL_JET_5
 L  DMAX_JET_5
 G  DMIN_JET_5
 E  PBAL_DSL_5
 L  DMAX_DSL_5
 G  DMIN_DSL_5
 E  PBAL_FO_5
 L  DMAX_FO_5
 G  DMIN_FO_5
COLUMNS
    M1128 'MARKER' 'INTORG'
    NPAR_CR00_0 PARCEL_CR00_0 -20.0
    M1130 'MARKER' 'INTEND'
    BUY_CR00_0 OBJ -58.42544646569215
    BUY_CR00_0 PARCEL_CR00_0 1.0
    BUY_CR00_0 CBAL_CR00_0 1.0
    CINV_CR00_0 OBJ -0.3
    CINV_CR00_0 CBAL_CR00_0 -1.0
    CINV_CR00_0 CBAL_CR00_1 1.0
    CDU_CR00_0 CBAL_CR00_0 -1.0
    CDU_CR00_0 CDUCAP_0 1.0
    CDU_CR00_0 CDUMIN_0 1.0
    CDU_CR00_0 YLPG_CR00_0 -0.013786055933968056
    CDU_CR00_0 YNAP_CR00_0 -0.1214444916358349
    CDU_CR00_0 YKER_CR00_0 -0.10646372452567733
    CDU_CR00_0 YDSL_CR00_0 -0.20292085263352289
    CDU_CR00_0 YVGO_CR00_0 -0.27390944719057636
    CDU_CR00_0 YRES_CR00_0 -0.28147542808042036
    M1146 'MARKER' 'INTORG'
    NPAR_CR01_0 PARCEL_CR01_0 -20.0
    M1148 'MARKER' 'INTEND'
    BUY_CR01_0 OBJ -73.89697855599655
    BUY_CR01_0 PARCEL_CR01_0 1.0
    BUY_CR01_0 CBAL_CR01_0 1.0
    CINV_CR01_0 OBJ -0.3
    CINV_CR01_0 CBAL_CR01_0 -1.0
    CINV_CR01_0 CBAL_CR01_1 1.0
    CDU_CR01_0 CBAL_CR01_0 -1.0
    CDU_CR01_0 CDUCAP_0 1.0
    CDU_CR01_0 CDUMIN_0 1.0
    CDU_CR01_0 YLPG_CR01_0 -0.025127543584387436
    CDU_CR01_0 YNAP_CR01_0 -0.2025917905849106
    CDU_CR01_0 YKER_CR01_0 -0.13410952106049506
    CDU_CR01_0 YDSL_CR01_0 -0.24728591651278542
    CDU_CR01_0 YVGO_CR01_0 -0.22897185950088417
    CDU_CR01_0 YRES_CR01_0 -0.16191336875653717
    M1164 'MARKER' 'INTORG'
    NPAR_CR02_0 PARCEL_CR02_0 -20.0
    M1166 'MARKER' 'INTEND'
    BUY_CR02_0 OBJ -60.70526112798834
    BUY_CR02_0 PARCEL_CR02_0 1.0
    BUY_CR02_0 CBAL_CR02_0 1.0
    CINV_CR02_0 OBJ -0.3
    CINV_CR02_0 CBAL_CR02_0 -1.0
    CINV_CR02_0 CBAL_CR02_1 1.0
    CDU_CR02_0 CBAL_CR02_0 -1.0
    CDU_CR02_0 CDUCAP_0 1.0
    CDU_CR02_0 CDUMIN_0 1.0
    CDU_CR02_0 YLPG_CR02_0 -0.013444753666275039
    CDU_CR02_0 YNAP_CR02_0 -0.11889710072836579
    CDU_CR02_0 YKER_CR02_0 -0.103840437143255
    CDU_CR02_0 YDSL_CR02_0 -0.21229612809407214
    CDU_CR02_0 YVGO_CR02_0 -0.2628713956905896
    CDU_CR02_0 YRES_CR02_0 -0.28865018467744247
    M1182 'MARKER' 'INTORG'
    NPAR_CR03_0 PARCEL_CR03_0 -20.0
    M1184 'MARKER' 'INTEND'
    BUY_CR03_0 OBJ -66.99713974569379
    BUY_CR03_0 PARCEL_CR03_0 1.0
    BUY_CR03_0 CBAL_CR03_0 1.0
    CINV_CR03_0 OBJ -0.3
    CINV_CR03_0 CBAL_CR03_0 -1.0
    CINV_CR03_0 CBAL_CR03_1 1.0
    CDU_CR03_0 CBAL_CR03_0 -1.0
    CDU_CR03_0 CDUCAP_0 1.0
    CDU_CR03_0 CDUMIN_0 1.0
    CDU_CR03_0 YLPG_CR03_0 -0.01400858068810675
    CDU_CR03_0 YNAP_CR03_0 -0.1424923117986131
    CDU_CR03_0 YKER_CR03_0 -0.10784088582669263
    CDU_CR03_0 YDSL_CR03_0 -0.19279120630762445
    CDU_CR03_0 YVGO_CR03_0 -0.28544626211923063
    CDU_CR03_0 YRES_CR03_0 -0.2574207532597324
    M1200 'MARKER' 'INTORG'
    NPAR_CR04_0 PARCEL_CR04_0 -20.0
    M1202 'MARKER' 'INTEND'
    BUY_CR04_0 OBJ -72.467862682423
    BUY_CR04_0 PARCEL_CR04_0 1.0
    BUY_CR04_0 CBAL_CR04_0 1.0
    CINV_CR04_0 OBJ -0.3
    CINV_CR04_0 CBAL_CR04_0 -1.0
    CINV_CR04_0 CBAL_CR04_1 1.0
    CDU_CR04_0 CBAL_CR04_0 -1.0
    CDU_CR04_0 CDUCAP_0 1.0
    CDU_CR04_0 CDUMIN_0 1.0
    CDU_CR04_0 YLPG_CR04_0 -0.02335213093765316
    CDU_CR04_0 YNAP_CR04_0 -0.2292355396921612
    CDU_CR04_0 YKER_CR04_0 -0.14240695851543803
    CDU_CR04_0 YDSL_CR04_0 -0.24384363627499198
    CDU_CR04_0 YVGO_CR04_0 -0.2465326974706559
    CDU_CR04_0 YRES_CR04_0 -0.1146290371090997
    M1218 'MARKER' 'INTORG'
    NPAR_CR05_0 PARCEL_CR05_0 -20.0
    M1220 'MARKER' 'INTEND'
    BUY_CR05_0 OBJ -65.3973521144469
    BUY_CR05_0 PARCEL_CR05_0 1.0
    BUY_CR05_0 CBAL_CR05_0 1.0
    CINV_CR05_0 OBJ -0.3
    CINV_CR05_0 CBAL_CR05_0 -1.0
    CINV_CR05_0 CBAL_CR05_1 1.0
    CDU_CR05_0 CBAL_CR05_0 -1.0
    CDU_CR05_0 CDUCAP_0 1.0
    CDU_CR05_0 CDUMIN_0 1.0
    CDU_CR05_0 YLPG_CR05_0 -0.01735729802728813
    CDU_CR05_0 YNAP_CR05_0 -0.16608619710065003
    CDU_CR05_0 YKER_CR05_0 -0.1170544437563835
    CDU_CR05_0 YDSL_CR05_0 -0.22299235889970878
    CDU_CR05_0 YVGO_CR05_0 -0.2433490540516293
    CDU_CR05_0 YRES_CR05_0 -0.23316064816434035
    M1236 'MARKER' 'INTORG'
    NPAR_CR06_0 PARCEL_CR06_0 -20.0
    M1238 'MARKER' 'INTEND'
    BUY_CR06_0 OBJ -62.53639180729032
    BUY_CR06_0 PARCEL_CR06_0 1.0
    BUY_CR06_0 CBAL_CR06_0 1.0
    CINV_CR06_0 OBJ -0.3
    CINV_CR06_0 CBAL_CR06_0 -1.0
    CINV_CR06_0 CBAL_CR06_1 1.0
    CDU_CR06_0 CBAL_CR06_0 -1.0
    CDU_CR06_0 CDUCAP_0 1.0
    CDU_CR06_0 CDUMIN_0 1.0
    CDU_CR06_0 YLPG_CR06_0 -0.014219474855875663
    CDU_CR06_0 YNAP_CR06_0 -0.13746806025500902
    CDU_CR06_0 YKER_CR06_0 -0.10533897185985656
    CDU_CR06_0 YDSL_CR06_0 -0.20403840195434858
    CDU_CR06_0 YVGO_CR06_0 -0.26484358994429863
    CDU_CR06_0 YRES_CR06_0 -0.27409150113061165
    M1254 'MARKER' 'INTORG'
    NPAR_CR07_0 PARCEL_CR07_0 -20.0
    M1256 'MARKER' 'INTEND'
    BUY_CR07_0 OBJ -72.1688399097745
    BUY_CR07_0 PARCEL_CR07_0 1.0
    BUY_CR07_0 CBAL_CR07_0 1.0
    CINV_CR07_0 OBJ -0.3
    CINV_CR07_0 CBAL_CR07_0 -1.0
    CINV_CR07_0 CBAL_CR07_1 1.0
    CDU_CR07_0 CBAL_CR07_0 -1.0
    CDU_CR07_0 CDUCAP_0 1.0
    CDU_CR07_0 CDUMIN_0 1.0
    CDU_CR07_0 YLPG_CR07_0 -0.01678766142162217
    CDU_CR07_0 YNAP_CR07_0 -0.18341674311422207
    CDU_CR07_0 YKER_CR07_0 -0.13271469159016522
    CDU_CR07_0 YDSL_CR07_0 -0.2249127244045356
    CDU_CR07_0 YVGO_CR07_0 -0.24848613807316539
    CDU_CR07_0 YRES_CR07_0 -0.19368204139628944
    M1272 'MARKER' 'INTORG'
    NPAR_CR08_0 PARCEL_CR08_0 -20.0
    M1274 'MARKER' 'INTEND'
    BUY_CR08_0 OBJ -70.53287633779287
    BUY_CR08_0 PARCEL_CR08_0 1.0
    BUY_CR08_0 CBAL_CR08_0 1.0
    CINV_CR08_0 OBJ -0.3
    CINV_CR08_0 CBAL_CR08_0 -1.0
    CINV_CR08_0 CBAL_CR08_1 1.0
    CDU_CR08_0 CBAL_CR08_0 -1.0
    CDU_CR08_0 CDUCAP_0 1.0
    CDU_CR08_0 CDUMIN_0 1.0
    CDU_CR08_0 YLPG_CR08_0 -0.023930881960770135
    CDU_CR08_0 YNAP_CR08_0 -0.199474063989656
    CDU_CR08_0 YKER_CR08_0 -0.13012967624359006
    CDU_CR08_0 YDSL_CR08_0 -0.24906213509239003
    CDU_CR08_0 YVGO_CR08_0 -0.24247509330512357
    CDU_CR08_0 YRES_CR08_0 -0.15492814940847022
    M1290 'MARKER' 'INTORG'
    NPAR_CR09_0 PARCEL_CR09_0 -20.0
    M1292 'MARKER' 'INTEND'
    BUY_CR09_0 OBJ -79.33747486007482
    BUY_CR09_0 PARCEL_CR09_0 1.0
    BUY_CR09_0 CBAL_CR09_0 1.0
    CINV_CR09_0 OBJ -0.3
    CINV_CR09_0 CBAL_CR09_0 -1.0
    CINV_CR09_0 CBAL_CR09_1 1.0
    CDU_CR09_0 CBAL_CR09_0 -1.0
    CDU_CR09_0 CDUCAP_0 1.0
    CDU_CR09_0 CDUMIN_0 1.0
    CDU_CR09_0 YLPG_CR09_0 -0.0254414593142613
    CDU_CR09_0 YNAP_CR09_0 -0.2406668892422991
    CDU_CR09_0 YKER_CR09_0 -0.14150533274546892
    CDU_CR09_0 YDSL_CR09_0 -0.23713673044274025
    CDU_CR09_0 YVGO_CR09_0 -0.23566730460149374
    CDU_CR09_0 YRES_CR09_0 -0.11958228365373665
    M1308 'MARKER' 'INTORG'
    CDUMODE_0 OBJ -150.0
    CDUMODE_0 CDUCAP_0 -150.0
    CDUMODE_0 CDUMIN_0 -90.0
    M1312 'MARKER' 'INTEND'
    LPG_CR00_0 YLPG_CR00_0 1.0
    LPG_CR00_0 LPGBAL_0 -1.0
    NAP_CR00_0 YNAP_CR00_0 1.0
    NAP_CR00_0 NAPBAL_CR00_0 1.0
    KER_CR00_0 YKER_CR00_0 1.0
    KER_CR00_0 KERBAL_CR00_0 1.0
    DSL_CR00_0 YDSL_CR00_0 1.0
    DSL_CR00_0 DSLBAL_CR00_0 1.0
    VGO_CR00_0 YVGO_CR00_0 1.0
    VGO_CR00_0 VGOBAL_CR00_0 1.0
    RES_CR00_0 YRES_CR00_0 1.0
    RES_CR00_0 RESSPLIT_CR00_0 1.0
    LPG_CR01_0 YLPG_CR01_0 1.0
    LPG_CR01_0 LPGBAL_0 -1.0
    NAP_CR01_0 YNAP_CR01_0 1.0
    NAP_CR01_0 NAPBAL_CR01_0 1.0
    KER_CR01_0 YKER_CR01_0 1.0
    KER_CR01_0 KERBAL_CR01_0 1.0
    DSL_CR01_0 YDSL_CR01_0 1.0
    DSL_CR01_0 DSLBAL_CR01_0 1.0
    VGO_CR01_0 YVGO_CR01_0 1.0
    VGO_CR01_0 VGOBAL_CR01_0 1.0
    RES_CR01_0 YRES_CR01_0 1.0
    RES_CR01_0 RESSPLIT_CR01_0 1.0
    LPG_CR02_0 YLPG_CR02_0 1.0
    LPG_CR02_0 LPGBAL_0 -1.0
    NAP_CR02_0 YNAP_CR02_0 1.0
    NAP_CR02_0 NAPBAL_CR02_0 1.0
    KER_CR02_0 YKER_CR02_0 1.0
    KER_CR02_0 KERBAL_CR02_0 1.0
    DSL_CR02_0 YDSL_CR02_0 1.0
    DSL_CR02_0 DSLBAL_CR02_0 1.0
    VGO_CR02_0 YVGO_CR02_0 1.0
    VGO_CR02_0 VGOBAL_CR02_0 1.0
    RES_CR02_0 YRES_CR02_0 1.0
    RES_CR02_0 RESSPLIT_CR02_0 1.0
    LPG_CR03_0 YLPG_CR03_0 1.0
    LPG_CR03_0 LPGBAL_0 -1.0
    NAP_CR03_0 YNAP_CR03_0 1.0
    NAP_CR03_0 NAPBAL_CR03_0 1.0
    KER_CR03_0 YKER_CR03_0 1.0
    KER_CR03_0 KERBAL_CR03_0 1.0
    DSL_CR03_0 YDSL_CR03_0 1.0
    DSL_CR03_0 DSLBAL_CR03_0 1.0
    VGO_CR03_0 YVGO_CR03_0 1.0
    VGO_CR03_0 VGOBAL_CR03_0 1.0
    RES_CR03_0 YRES_CR03_0 1.0
    RES_CR03_0 RESSPLIT_CR03_0 1.0
    LPG_CR04_0 YLPG_CR04_0 1.0
    LPG_CR04_0 LPGBAL_0 -1.0
    NAP_CR04_0 YNAP_CR04_0 1.0
    NAP_CR04_0 NAPBAL_CR04_0 1.0
    KER_CR04_0 YKER_CR04_0 1.0
    KER_CR04_0 KERBAL_CR04_0 1.0
    DSL_CR04_0 YDSL_CR04_0 1.0
    DSL_CR04_0 DSLBAL_CR04_0 1.0
    VGO_CR04_0 YVGO_CR04_0 1.0
    VGO_CR04_0 VGOBAL_CR04_0 1.0
    RES_CR04_0 YRES_CR04_0 1.0
    RES_CR04_0 RESSPLIT_CR04_0 1.0
    LPG_CR05_0 YLPG_CR05_0 1.0
    LPG_CR05_0 LPGBAL_0 -1.0
    NAP_CR05_0 YNAP_CR05_0 1.0
    NAP_CR05_0 NAPBAL_CR05_0 1.0
    KER_CR05_0 YKER_CR05_0 1.0
    KER_CR05_0 KERBAL_CR05_0 1.0
    DSL_CR05_0 YDSL_CR05_0 1.0
    DSL_CR05_0 DSLBAL_CR05_0 1.0
    VGO_CR05_0 YVGO_CR05_0 1.0
    VGO_CR05_0 VGOBAL_CR05_0 1.0
    RES_CR05_0 YRES_CR05_0 1.0
    RES_CR05_0 RESSPLIT_CR05_0 1.0
    LPG_CR06_0 YLPG_CR06_0 1.0
    LPG_CR06_0 LPGBAL_0 -1.0
    NAP_CR06_0 YNAP_CR06_0 1.0
    NAP_CR06_0 NAPBAL_CR06_0 1.0
    KER_CR06_0 YKER_CR06_0 1.0
    KER_CR06_0 KERBAL_CR06_0 1.0
    DSL_CR06_0 YDSL_CR06_0 1.0
    DSL_CR06_0 DSLBAL_CR06_0 1.0
    VGO_CR06_0 YVGO_CR06_0 1.0
    VGO_CR06_0 VGOBAL_CR06_0 1.0
    RES_CR06_0 YRES_CR06_0 1.0
    RES_CR06_0 RESSPLIT_CR06_0 1.0
    LPG_CR07_0 YLPG_CR07_0 1.0
    LPG_CR07_0 LPGBAL_0 -1.0
    NAP_CR07_0 YNAP_CR07_0 1.0
    NAP_CR07_0 NAPBAL_CR07_0 1.0
    KER_CR07_0 YKER_CR07_0 1.0
    KER_CR07_0 KERBAL_CR07_0 1.0
    DSL_CR07_0 YDSL_CR07_0 1.0
    DSL_CR07_0 DSLBAL_CR07_0 1.0
    VGO_CR07_0 YVGO_CR07_0 1.0
    VGO_CR07_0 VGOBAL_CR07_0 1.0
    RES_CR07_0 YRES_CR07_0 1.0
    RES_CR07_0 RESSPLIT_CR07_0 1.0
    LPG_CR08_0 YLPG_CR08_0 1.0
    LPG_CR08_0 LPGBAL_0 -1.0
    NAP_CR08_0 YNAP_CR08_0 1.0
    NAP_CR08_0 NAPBAL_CR08_0 1.0
    KER_CR08_0 YKER_CR08_0 1.0
    KER_CR08_0 KERBAL_CR08_0 1.0
    DSL_CR08_0 YDSL_CR08_0 1.0
    DSL_CR08_0 DSLBAL_CR08_0 1.0
    VGO_CR08_0 YVGO_CR08_0 1.0
    VGO_CR08_0 VGOBAL_CR08_0 1.0
    RES_CR08_0 YRES_CR08_0 1.0
    RES_CR08_0 RESSPLIT_CR08_0 1.0
    LPG_CR09_0 YLPG_CR09_0 1.0
    LPG_CR09_0 LPGBAL_0 -1.0
    NAP_CR09_0 YNAP_CR09_0 1.0
    NAP_CR09_0 NAPBAL_CR09_0 1.0
    KER_CR09_0 YKER_CR09_0 1.0
    KER_CR09_0 KERBAL_CR09_0 1.0
    DSL_CR09_0 YDSL_CR09_0 1.0
    DSL_CR09_0 DSLBAL_CR09_0 1.0
    VGO_CR09_0 YVGO_CR09_0 1.0
    VGO_CR09_0 VGOBAL_CR09_0 1.0
    RES_CR09_0 YRES_CR09_0 1.0
    RES_CR09_0 RESSPLIT_CR09_0 1.0
    VDUIN_CR00_0 RESSPLIT_CR00_0 -1.0
    VDUIN_CR00_0 VDUY1_CR00_0 -0.45
    VDUIN_CR00_0 VDUY2_CR00_0 -0.55
    VDUIN_CR00_0 VDUCAP_0 1.0
    RESFO_CR00_0 RESSPLIT_CR00_0 -1.0
    RESFO_CR00_0 FOBAL_0 -1.0
    RESFO_CR00_0 FOSUL_0 1.9540891690108433
    VGO2_CR00_0 VDUY1_CR00_0 1.0
    VGO2_CR00_0 VGOBAL_CR00_0 1.0
    VR_CR00_0 VDUY2_CR00_0 1.0
    VR_CR00_0 FOBAL_0 -1.0
    VR_CR00_0 FOSUL_0 3.5903159197140964
    VDUIN_CR01_0 RESSPLIT_CR01_0 -1.0
    VDUIN_CR01_0 VDUY1_CR01_0 -0.45
    VDUIN_CR01_0 VDUY2_CR01_0 -0.55
    VDUIN_CR01_0 VDUCAP_0 1.0
    RESFO_CR01_0 RESSPLIT_CR01_0 -1.0
    RESFO_CR01_0 FOBAL_0 -1.0
    RESFO_CR01_0 FOSUL_0 -0.6168441789886687
    VGO2_CR01_0 VDUY1_CR01_0 1.0
    VGO2_CR01_0 VGOBAL_CR01_0 1.0
    VR_CR01_0 VDUY2_CR01_0 1.0
    VR_CR01_0 FOBAL_0 -1.0
    VR_CR01_0 FOSUL_0 0.24810256731473057
    VDUIN_CR02_0 RESSPLIT_CR02_0 -1.0
    VDUIN_CR02_0 VDUY1_CR02_0 -0.45
    VDUIN_CR02_0 VDUY2_CR02_0 -0.55
    VDUIN_CR02_0 VDUCAP_0 1.0
    RESFO_CR02_0 RESSPLIT_CR02_0 -1.0
    RESFO_CR02_0 FOBAL_0 -1.0
    RESFO_CR02_0 FOSUL_0 0.05675733131967897
    VGO2_CR02_0 VDUY1_CR02_0 1.0
    VGO2_CR02_0 VGOBAL_CR02_0 1.0
    VR_CR02_0 VDUY2_CR02_0 1.0
    VR_CR02_0 FOBAL_0 -1.0
    VR_CR02_0 FOSUL_0 1.1237845307155832
    VDUIN_CR03_0 RESSPLIT_CR03_0 -1.0
    VDUIN_CR03_0 VDUY1_CR03_0 -0.45
    VDUIN_CR03_0 VDUY2_CR03_0 -0.55
    VDUIN_CR03_0 VDUCAP_0 1.0
    RESFO_CR03_0 RESSPLIT_CR03_0 -1.0
    RESFO_CR03_0 FOBAL_0 -1.0
    RESFO_CR03_0 FOSUL_0 -1.8686274424458973
    VGO2_CR03_0 VDUY1_CR03_0 1.0
    VGO2_CR03_0 VGOBAL_CR03_0 1.0
    VR_CR03_0 VDUY2_CR03_0 1.0
    VR_CR03_0 FOBAL_0 -1.0
    VR_CR03_0 FOSUL_0 -1.3792156751796663
    VDUIN_CR04_0 RESSPLIT_CR04_0 -1.0
    VDUIN_CR04_0 VDUY1_CR04_0 -0.45
    VDUIN_CR04_0 VDUY2_CR04_0 -0.55
    VDUIN_CR04_0 VDUCAP_0 1.0
    RESFO_CR04_0 RESSPLIT_CR04_0 -1.0
    RESFO_CR04_0 FOBAL_0 -1.0
    RESFO_CR04_0 FOSUL_0 2.031668478530798
    VGO2_CR04_0 VDUY1_CR04_0 1.0
    VGO2_CR04_0 VGOBAL_CR04_0 1.0
    VR_CR04_0 VDUY2_CR04_0 1.0
    VR_CR04_0 FOBAL_0 -1.0
    VR_CR04_0 FOSUL_0 3.6911690220900377
    VDUIN_CR05_0 RESSPLIT_CR05_0 -1.0
    VDUIN_CR05_0 VDUY1_CR05_0 -0.45
    VDUIN_CR05_0 VDUY2_CR05_0 -0.55
    VDUIN_CR05_0 VDUCAP_0 1.0
    RESFO_CR05_0 RESSPLIT_CR05_0 -1.0
    RESFO_CR05_0 FOBAL_0 -1.0
    RESFO_CR05_0 FOSUL_0 0.3429997580900688
    VGO2_CR05_0 VDUY1_CR05_0 1.0
    VGO2_CR05_0 VGOBAL_CR05_0 1.0
    VR_CR05_0 VDUY2_CR05_0 1.0
    VR_CR05_0 FOBAL_0 -1.0
    VR_CR05_0 FOSUL_0 1.4958996855170898
    VDUIN_CR06_0 RESSPLIT_CR06_0 -1.0
    VDUIN_CR06_0 VDUY1_CR06_0 -0.45
    VDUIN_CR06_0 VDUY2_CR06_0 -0.55
    VDUIN_CR06_0 VDUCAP_0 1.0
    RESFO_CR06_0 RESSPLIT_CR06_0 -1.0
    RESFO_CR06_0 FOBAL_0 -1.0
    RESFO_CR06_0 FOSUL_0 0.10255232060654862
    VGO2_CR06_0 VDUY1_CR06_0 1.0
    VGO2_CR06_0 VGOBAL_CR06_0 1.0
    VR_CR06_0 VDUY2_CR06_0 1.0
    VR_CR06_0 FOBAL_0 -1.0
    VR_CR06_0 FOSUL_0 1.1833180167885136
    VDUIN_CR07_0 RESSPLIT_CR07_0 -1.0
    VDUIN_CR07_0 VDUY1_CR07_0 -0.45
    VDUIN_CR07_0 VDUY2_CR07_0 -0.55
    VDUIN_CR07_0 VDUCAP_0 1.0
    RESFO_CR07_0 RESSPLIT_CR07_0 -1.0
    RESFO_CR07_0 FOBAL_0 -1.0
    RESFO_CR07_0 FOSUL_0 -3.116635223405176
    VGO2_CR07_0 VDUY1_CR07_0 1.0
    VGO2_CR07_0 VGOBAL_CR07_0 1.0
    VR_CR07_0 VDUY2_CR07_0 1.0
    VR_CR07_0 FOBAL_0 -1.0
    VR_CR07_0 FOSUL_0 -3.001625790426729
    VDUIN_CR08_0 RESSPLIT_CR08_0 -1.0
    VDUIN_CR08_0 VDUY1_CR08_0 -0.45
    VDUIN_CR08_0 VDUY2_CR08_0 -0.55
    VDUIN_CR08_0 VDUCAP_0 1.0
    RESFO_CR08_0 RESSPLIT_CR08_0 -1.0
    RESFO_CR08_0 FOBAL_0 -1.0
    RESFO_CR08_0 FOSUL_0 0.0456281803886287
    VGO2_CR08_0 VDUY1_CR08_0 1.0
    VGO2_CR08_0 VGOBAL_CR08_0 1.0
    VR_CR08_0 VDUY2_CR08_0 1.0
    VR_CR08_0 FOBAL_0 -1.0
    VR_CR08_0 FOSUL_0 1.109316634505218
    VDUIN_CR09_0 RESSPLIT_CR09_0 -1.0
    VDUIN_CR09_0 VDUY1_CR09_0 -0.45
    VDUIN_CR09_0 VDUY2_CR09_0 -0.55
    VDUIN_CR09_0 VDUCAP_0 1.0
    RESFO_CR09_0 RESSPLIT_CR09_0 -1.0
    RESFO_CR09_0 FOBAL_0 -1.0
    RESFO_CR09_0 FOSUL_0 -3.264603397407564
    VGO2_CR09_0 VDUY1_CR09_0 1.0
    VGO2_CR09_0 VGOBAL_CR09_0 1.0
    VR_CR09_0 VDUY2_CR09_0 1.0
    VR_CR09_0 FOBAL_0 -1.0
    VR_CR09_0 FOSUL_0 -3.1939844166298332
    FCCIN_CR00_0 OBJ -2.5
    FCCIN_CR00_0 VGOBAL_CR00_0 -1.0
    FCCIN_CR00_0 FCCCAP_0 1.0
    FCCIN_CR00_0 FCCY_FCCG_0 -0.55
    FCCIN_CR00_0 FCCY_LCO_0 -0.2
    FCCIN_CR00_0 FCCY_FLPG_0 -0.15
    FCCIN_CR00_0 FCCY_SLURRY_0 -0.07
    FCCIN_CR01_0 OBJ -2.5
    FCCIN_CR01_0 VGOBAL_CR01_0 -1.0
    FCCIN_CR01_0 FCCCAP_0 1.0
    FCCIN_CR01_0 FCCY_FCCG_0 -0.55
    FCCIN_CR01_0 FCCY_LCO_0 -0.2
    FCCIN_CR01_0 FCCY_FLPG_0 -0.15
    FCCIN_CR01_0 FCCY_SLURRY_0 -0.07
    FCCIN_CR02_0 OBJ -2.5
    FCCIN_CR02_0 VGOBAL_CR02_0 -1.0
    FCCIN_CR02_0 FCCCAP_0 1.0
    FCCIN_CR02_0 FCCY_FCCG_0 -0.55
    FCCIN_CR02_0 FCCY_LCO_0 -0.2
    FCCIN_CR02_0 FCCY_FLPG_0 -0.15
    FCCIN_CR02_0 FCCY_SLURRY_0 -0.07
    FCCIN_CR03_0 OBJ -2.5
    FCCIN_CR03_0 VGOBAL_CR03_0 -1.0
    FCCIN_CR03_0 FCCCAP_0 1.0
    FCCIN_CR03_0 FCCY_FCCG_0 -0.55
    FCCIN_CR03_0 FCCY_LCO_0 -0.2
    FCCIN_CR03_0 FCCY_FLPG_0 -0.15
    FCCIN_CR03_0 FCCY_SLURRY_0 -0.07
    FCCIN_CR04_0 OBJ -2.5
    FCCIN_CR04_0 VGOBAL_CR04_0 -1.0
    FCCIN_CR04_0 FCCCAP_0 1.0
    FCCIN_CR04_0 FCCY_FCCG_0 -0.55
    FCCIN_CR04_0 FCCY_LCO_0 -0.2
    FCCIN_CR04_0 FCCY_FLPG_0 -0.15
    FCCIN_CR04_0 FCCY_SLURRY_0 -0.07
    FCCIN_CR05_0 OBJ -2.5
    FCCIN_CR05_0 VGOBAL_CR05_0 -1.0
    FCCIN_CR05_0 FCCCAP_0 1.0
    FCCIN_CR05_0 FCCY_FCCG_0 -0.55
    FCCIN_CR05_0 FCCY_LCO_0 -0.2
    FCCIN_CR05_0 FCCY_FLPG_0 -0.15
    FCCIN_CR05_0 FCCY_SLURRY_0 -0.07
    FCCIN_CR06_0 OBJ -2.5
    FCCIN_CR06_0 VGOBAL_CR06_0 -1.0
    FCCIN_CR06_0 FCCCAP_0 1.0
    FCCIN_CR06_0 FCCY_FCCG_0 -0.55
    FCCIN_CR06_0 FCCY_LCO_0 -0.2
    FCCIN_CR06_0 FCCY_FLPG_0 -0.15
    FCCIN_CR06_0 FCCY_SLURRY_0 -0.07
    FCCIN_CR07_0 OBJ -2.5
    FCCIN_CR07_0 VGOBAL_CR07_0 -1.0
    FCCIN_CR07_0 FCCCAP_0 1.0
    FCCIN_CR07_0 FCCY_FCCG_0 -0.55
    FCCIN_CR07_0 FCCY_LCO_0 -0.2
    FCCIN_CR07_0 FCCY_FLPG_0 -0.15
    FCCIN_CR07_0 FCCY_SLURRY_0 -0.07
    FCCIN_CR08_0 OBJ -2.5
    FCCIN_CR08_0 VGOBAL_CR08_0 -1.0
    FCCIN_CR08_0 FCCCAP_0 1.0
    FCCIN_CR08_0 FCCY_FCCG_0 -0.55
    FCCIN_CR08_0 FCCY_LCO_0 -0.2
    FCCIN_CR08_0 FCCY_FLPG_0 -0.15
    FCCIN_CR08_0 FCCY_SLURRY_0 -0.07
    FCCIN_CR09_0 OBJ -2.5
    FCCIN_CR09_0 VGOBAL_CR09_0 -1.0
    FCCIN_CR09_0 FCCCAP_0 1.0
    FCCIN_CR09_0 FCCY_FCCG_0 -0.55
    FCCIN_CR09_0 FCCY_LCO_0 -0.2
    FCCIN_CR09_0 FCCY_FLPG_0 -0.15
    FCCIN_CR09_0 FCCY_SLURRY_0 -0.07
    FCCG_0 FCCY_FCCG_0 1.0
    FCCG_0 GASBAL_0 -1.0
    FCCG_0 GASRON_0 1.0
    LCO_0 FCCY_LCO_0 1.0
    LCO_0 LCOBAL_0 1.0
    FLPG_0 FCCY_FLPG_0 1.0
    FLPG_0 LPGBAL_0 -1.0
    SLURRY_0 FCCY_SLURRY_0 1.0
    SLURRY_0 FOBAL_0 -1.0
    SLURRY_0 FOSUL_0 -1.5
    REFIN_CR00_0 OBJ -3.0
    REFIN_CR00_0 NAPBAL_CR00_0 -1.0
    REFIN_CR00_0 REFCAP_0 1.0
    REFIN_CR00_0 REFY_0 -0.85
    NAPGAS_CR00_0 NAPBAL_CR00_0 -1.0
    NAPGAS_CR00_0 GASBAL_0 -1.0
    NAPGAS_CR00_0 GASRON_0 -41.351908455631545
    REFIN_CR01_0 OBJ -3.0
    REFIN_CR01_0 NAPBAL_CR01_0 -1.0
    REFIN_CR01_0 REFCAP_0 1.0
    REFIN_CR01_0 REFY_0 -0.85
    NAPGAS_CR01_0 NAPBAL_CR01_0 -1.0
    NAPGAS_CR01_0 GASBAL_0 -1.0
    NAPGAS_CR01_0 GASRON_0 -33.623043958680114
    REFIN_CR02_0 OBJ -3.0
    REFIN_CR02_0 NAPBAL_CR02_0 -1.0
    REFIN_CR02_0 REFCAP_0 1.0
    REFIN_CR02_0 REFY_0 -0.85
    NAPGAS_CR02_0 NAPBAL_CR02_0 -1.0
    NAPGAS_CR02_0 GASBAL_0 -1.0
    NAPGAS_CR02_0 GASRON_0 -39.74522208078083
    REFIN_CR03_0 OBJ -3.0
    REFIN_CR03_0 NAPBAL_CR03_0 -1.0
    REFIN_CR03_0 REFCAP_0 1.0
    REFIN_CR03_0 REFY_0 -0.85
    NAPGAS_CR03_0 NAPBAL_CR03_0 -1.0
    NAPGAS_CR03_0 GASBAL_0 -1.0
    NAPGAS_CR03_0 GASRON_0 -39.32063345179839
    REFIN_CR04_0 OBJ -3.0
    REFIN_CR04_0 NAPBAL_CR04_0 -1.0
    REFIN_CR04_0 REFCAP_0 1.0
    REFIN_CR04_0 REFY_0 -0.85
    NAPGAS_CR04_0 NAPBAL_CR04_0 -1.0
    NAPGAS_CR04_0 GASBAL_0 -1.0
    NAPGAS_CR04_0 GASRON_0 -28.06018906757886
    REFIN_CR05_0 OBJ -3.0
    REFIN_CR05_0 NAPBAL_CR05_0 -1.0
    REFIN_CR05_0 REFCAP_0 1.0
    REFIN_CR05_0 REFY_0 -0.85
    NAPGAS_CR05_0 NAPBAL_CR05_0 -1.0
    NAPGAS_CR05_0 GASBAL_0 -1.0
    NAPGAS_CR05_0 GASRON_0 -37.177062383933254
    REFIN_CR06_0 OBJ -3.0
    REFIN_CR06_0 NAPBAL_CR06_0 -1.0
    REFIN_CR06_0 REFCAP_0 1.0
    REFIN_CR06_0 REFY_0 -0.85
    NAPGAS_CR06_0 NAPBAL_CR06_0 -1.0
    NAPGAS_CR06_0 GASBAL_0 -1.0
    NAPGAS_CR06_0 GASRON_0 -38.73738801284508
    REFIN_CR07_0 OBJ -3.0
    REFIN_CR07_0 NAPBAL_CR07_0 -1.0
    REFIN_CR07_0 REFCAP_0 1.0
    REFIN_CR07_0 REFY_0 -0.85
    NAPGAS_CR07_0 NAPBAL_CR07_0 -1.0
    NAPGAS_CR07_0 GASBAL_0 -1.0
    NAPGAS_CR07_0 GASRON_0 -31.720911449683953
    REFIN_CR08_0 OBJ -3.0
    REFIN_CR08_0 NAPBAL_CR08_0 -1.0
    REFIN_CR08_0 REFCAP_0 1.0
    REFIN_CR08_0 REFY_0 -0.85
    NAPGAS_CR08_0 NAPBAL_CR08_0 -1.0
    NAPGAS_CR08_0 GASBAL_0 -1.0
    NAPGAS_CR08_0 GASRON_0 -31.236267605063702
    REFIN_CR09_0 OBJ -3.0
    REFIN_CR09_0 NAPBAL_CR09_0 -1.0
    REFIN_CR09_0 REFCAP_0 1.0
    REFIN_CR09_0 REFY_0 -0.85
    NAPGAS_CR09_0 NAPBAL_CR09_0 -1.0
    NAPGAS_CR09_0 GASBAL_0 -1.0
    NAPGAS_CR09_0 GASRON_0 -29.9151768258086
    REFORMATE_0 REFY_0 1.0
    REFORMATE_0 GASBAL_0 -1.0
    REFORMATE_0 GASRON_0 7.0
    DHTIN_CR00_0 OBJ -2.0
    DHTIN_CR00_0 DSLBAL_CR00_0 -1.0
    DHTIN_CR00_0 DHTCAP_0 1.0
    DHTIN_CR00_0 DHTY_0 -0.98
    DSLDIR_CR00_0 DSLBAL_CR00_0 -1.0
    DSLDIR_CR00_0 DSLPB_0 -1.0
    DSLDIR_CR00_0 DSLSUL_0 1.5862267507032528
    DHTIN_CR01_0 OBJ -2.0
    DHTIN_CR01_0 DSLBAL_CR01_0 -1.0
    DHTIN_CR01_0 DHTCAP_0 1.0
    DHTIN_CR01_0 DHTY_0 -0.98
    DSLDIR_CR01_0 DSLBAL_CR01_0 -1.0
    DSLDIR_CR01_0 DSLPB_0 -1.0
    DSLDIR_CR01_0 DSLSUL_0 0.8149467463033994
    DHTIN_CR02_0 OBJ -2.0
    DHTIN_CR02_0 DSLBAL_CR02_0 -1.0
    DHTIN_CR02_0 DHTCAP_0 1.0
    DHTIN_CR02_0 DHTY_0 -0.98
    DSLDIR_CR02_0 DSLBAL_CR02_0 -1.0
    DSLDIR_CR02_0 DSLPB_0 -1.0
    DSLDIR_CR02_0 DSLSUL_0 1.0170271993959037
    DHTIN_CR03_0 OBJ -2.0
    DHTIN_CR03_0 DSLBAL_CR03_0 -1.0
    DHTIN_CR03_0 DHTCAP_0 1.0
    DHTIN_CR03_0 DHTY_0 -0.98
    DSLDIR_CR03_0 DSLBAL_CR03_0 -1.0
    DSLDIR_CR03_0 DSLPB_0 -1.0
    DSLDIR_CR03_0 DSLSUL_0 0.4394117672662308
    DHTIN_CR04_0 OBJ -2.0
    DHTIN_CR04_0 DSLBAL_CR04_0 -1.0
    DHTIN_CR04_0 DHTCAP_0 1.0
    DHTIN_CR04_0 DHTY_0 -0.98
    DSLDIR_CR04_0 DSLBAL_CR04_0 -1.0
    DSLDIR_CR04_0 DSLPB_0 -1.0
    DSLDIR_CR04_0 DSLSUL_0 1.6095005435592393
    DHTIN_CR05_0 OBJ -2.0
    DHTIN_CR05_0 DSLBAL_CR05_0 -1.0
    DHTIN_CR05_0 DHTCAP_0 1.0
    DHTIN_CR05_0 DHTY_0 -0.98
    DSLDIR_CR05_0 DSLBAL_CR05_0 -1.0
    DSLDIR_CR05_0 DSLPB_0 -1.0
    DSLDIR_CR05_0 DSLSUL_0 1.1028999274270206
    DHTIN_CR06_0 OBJ -2.0
    DHTIN_CR06_0 DSLBAL_CR06_0 -1.0
    DHTIN_CR06_0 DHTCAP_0 1.0
    DHTIN_CR06_0 DHTY_0 -0.98
    DSLDIR_CR06_0 DSLBAL_CR06_0 -1.0
    DSLDIR_CR06_0 DSLPB_0 -1.0
    DSLDIR_CR06_0 DSLSUL_0 1.0307656961819645
    DHTIN_CR07_0 OBJ -2.0
    DHTIN_CR07_0 DSLBAL_CR07_0 -1.0
    DHTIN_CR07_0 DHTCAP_0 1.0
    DHTIN_CR07_0 DHTY_0 -0.98
    DSLDIR_CR07_0 DSLBAL_CR07_0 -1.0
    DSLDIR_CR07_0 DSLPB_0 -1.0
    DSLDIR_CR07_0 DSLSUL_0 0.06500943297844713
    DHTIN_CR08_0 OBJ -2.0
    DHTIN_CR08_0 DSLBAL_CR08_0 -1.0
    DHTIN_CR08_0 DHTCAP_0 1.0
    DHTIN_CR08_0 DHTY_0 -0.98
    DSLDIR_CR08_0 DSLBAL_CR08_0 -1.0
    DSLDIR_CR08_0 DSLPB_0 -1.0
    DSLDIR_CR08_0 DSLSUL_0 1.0136884541165885
    DHTIN_CR09_0 OBJ -2.0
    DHTIN_CR09_0 DSLBAL_CR09_0 -1.0
    DHTIN_CR09_0 DHTCAP_0 1.0
    DHTIN_CR09_0 DHTY_0 -0.98
    DSLDIR_CR09_0 DSLBAL_CR09_0 -1.0
    DSLDIR_CR09_0 DSLPB_0 -1.0
    DSLDIR_CR09_0 DSLSUL_0 0.020618980777730833
    LCODHT_0 LCOBAL_0 -1.0
    LCODHT_0 DHTCAP_0 1.0
    LCODHT_0 DHTY_0 -0.95
    LCOFO_0 LCOBAL_0 -1.0
    LCOFO_0 FOBAL_0 -1.0
    LCOFO_0 FOSUL_0 -2.5
    ULSD_0 DHTY_0 1.0
    ULSD_0 DSLPB_0 -1.0
    ULSD_0 DSLSUL_0 -0.049
    SELL_LPG_0 OBJ 55.0
    SELL_LPG_0 PBAL_LPG_0 -1.0
    SELL_LPG_0 DMAX_LPG_0 1.0
    SELL_LPG_0 DMIN_LPG_0 1.0
    SELL_GAS_0 OBJ 105.0
    SELL_GAS_0 PBAL_GAS_0 -1.0
    SELL_GAS_0 DMAX_GAS_0 1.0
    SELL_GAS_0 DMIN_GAS_0 1.0
    SELL_JET_0 OBJ 100.0
    SELL_JET_0 PBAL_JET_0 -1.0
    SELL_JET_0 DMAX_JET_0 1.0
    SELL_JET_0 DMIN_JET_0 1.0
    SELL_DSL_0 OBJ 98.0
    SELL_DSL_0 PBAL_DSL_0 -1.0
    SELL_DSL_0 DMAX_DSL_0 1.0
    SELL_DSL_0 DMIN_DSL_0 1.0
    SELL_FO_0 OBJ 60.0
    SELL_FO_0 PBAL_FO_0 -1.0
    SELL_FO_0 DMAX_FO_0 1.0
    SELL_FO_0 DMIN_FO_0 1.0
    PINV_LPG_0 OBJ -0.5
    PINV_LPG_0 PBAL_LPG_0 -1.0
    PINV_LPG_0 PBAL_LPG_1 1.0
    PINV_GAS_0 OBJ -0.5
    PINV_GAS_0 PBAL_GAS_0 -1.0
    PINV_GAS_0 PBAL_GAS_1 1.0
    PINV_JET_0 OBJ -0.5
    PINV_JET_0 PBAL_JET_0 -1.0
    PINV_JET_0 PBAL_JET_1 1.0
    PINV_DSL_0 OBJ -0.5
    PINV_DSL_0 PBAL_DSL_0 -1.0
    PINV_DSL_0 PBAL_DSL_1 1.0
    PINV_FO_0 OBJ -0.5
    PINV_FO_0 PBAL_FO_0 -1.0
    PINV_FO_0 PBAL_FO_1 1.0
    SHORT_LPG_0 OBJ -400.0
    SHORT_LPG_0 DMIN_LPG_0 1.0
    SHORT_GAS_0 OBJ -400.0
    SHORT_GAS_0 DMIN_GAS_0 1.0
    SHORT_JET_0 OBJ -400.0
    SHORT_JET_0 DMIN_JET_0 1.0
    SHORT_DSL_0 OBJ -400.0
    SHORT_DSL_0 DMIN_DSL_0 1.0
    SHORT_FO_0 OBJ -400.0
    SHORT_FO_0 DMIN_FO_0 1.0
    GASPOOL_0 GASBAL_0 1.0
    GASPOOL_0 PBAL_GAS_0 1.0
    JETPOOL_0 JETBAL_0 1.0
    JETPOOL_0 PBAL_JET_0 1.0
    KERJET_CR00_0 KERBAL_CR00_0 -1.0
    KERJET_CR00_0 JETBAL_0 -1.0
    KERJET_CR00_0 JETSUL_0 0.10905668767581322
    KERDSL_CR00_0 KERBAL_CR00_0 -1.0
    KERDSL_CR00_0 DSLPB_0 -1.0
    KERDSL_CR00_0 DSLSUL_0 0.3590566876758132
    KERJET_CR01_0 KERBAL_CR01_0 -1.0
    KERJET_CR01_0 JETBAL_0 -1.0
    KERJET_CR01_0 JETSUL_0 -0.08376331342415014
    KERDSL_CR01_0 KERBAL_CR01_0 -1.0
    KERDSL_CR01_0 DSLPB_0 -1.0
    KERDSL_CR01_0 DSLSUL_0 0.16623668657584983
    KERJET_CR02_0 KERBAL_CR02_0 -1.0
    KERJET_CR02_0 JETBAL_0 -1.0
    KERJET_CR02_0 JETSUL_0 -0.033243200151024055
    KERDSL_CR02_0 KERBAL_CR02_0 -1.0
    KERDSL_CR02_0 DSLPB_0 -1.0
    KERDSL_CR02_0 DSLSUL_0 0.21675679984897595
    KERJET_CR03_0 KERBAL_CR03_0 -1.0
    KERJET_CR03_0 JETBAL_0 -1.0
    KERJET_CR03_0 JETSUL_0 -0.17764705818344229
    KERDSL_CR03_0 KERBAL_CR03_0 -1.0
    KERDSL_CR03_0 DSLPB_0 -1.0
    KERDSL_CR03_0 DSLSUL_0 0.0723529418165577
    KERJET_CR04_0 KERBAL_CR04_0 -1.0
    KERJET_CR04_0 JETBAL_0 -1.0
    KERJET_CR04_0 JETSUL_0 0.11487513588980985
    KERDSL_CR04_0 KERBAL_CR04_0 -1.0
    KERDSL_CR04_0 DSLPB_0 -1.0
    KERDSL_CR04_0 DSLSUL_0 0.36487513588980985
    KERJET_CR05_0 KERBAL_CR05_0 -1.0
    KERJET_CR05_0 JETBAL_0 -1.0
    KERJET_CR05_0 JETSUL_0 -0.011775018143244831
    KERDSL_CR05_0 KERBAL_CR05_0 -1.0
    KERDSL_CR05_0 DSLPB_0 -1.0
    KERDSL_CR05_0 DSLSUL_0 0.23822498185675517
    KERJET_CR06_0 KERBAL_CR06_0 -1.0
    KERJET_CR06_0 JETBAL_0 -1.0
    KERJET_CR06_0 JETSUL_0 -0.029808575954508865
    KERDSL_CR06_0 KERBAL_CR06_0 -1.0
    KERDSL_CR06_0 DSLPB_0 -1.0
    KERDSL_CR06_0 DSLSUL_0 0.22019142404549114
    KERJET_CR07_0 KERBAL_CR07_0 -1.0
    KERJET_CR07_0 JETBAL_0 -1.0
    KERJET_CR07_0 JETSUL_0 -0.2712476417553882
    KERDSL_CR07_0 KERBAL_CR07_0 -1.0
    KERDSL_CR07_0 DSLPB_0 -1.0
    KERDSL_CR07_0 DSLSUL_0 -0.02124764175538822
    KERJET_CR08_0 KERBAL_CR08_0 -1.0
    KERJET_CR08_0 JETBAL_0 -1.0
    KERJET_CR08_0 JETSUL_0 -0.03407788647085286
    KERDSL_CR08_0 KERBAL_CR08_0 -1.0
    KERDSL_CR08_0 DSLPB_0 -1.0
    KERDSL_CR08_0 DSLSUL_0 0.21592211352914714
    KERJET_CR09_0 KERBAL_CR09_0 -1.0
    KERJET_CR09_0 JETBAL_0 -1.0
    KERJET_CR09_0 JETSUL_0 -0.28234525480556727
    KERDSL_CR09_0 KERBAL_CR09_0 -1.0
    KERDSL_CR09_0 DSLPB_0 -1.0
    KERDSL_CR09_0 DSLSUL_0 -0.0323452548055673
    DSLPOOL_0 DSLPB_0 1.0
    DSLPOOL_0 PBAL_DSL_0 1.0
    LPGPOOL_0 LPGBAL_0 1.0
    LPGPOOL_0 PBAL_LPG_0 1.0
    FOPOOL_0 FOBAL_0 1.0
    FOPOOL_0 PBAL_FO_0 1.0
    M1900 'MARKER' 'INTORG'
    NPAR_CR00_1 PARCEL_CR00_1 -20.0
    M1902 'MARKER' 'INTEND'
    BUY_CR00_1 OBJ -59.516571313433516
    BUY_CR00_1 PARCEL_CR00_1 1.0
    BUY_CR00_1 CBAL_CR00_1 1.0
    CINV_CR00_1 OBJ -0.3
    CINV_CR00_1 CBAL_CR00_1 -1.0
    CINV_CR00_1 CBAL_CR00_2 1.0
    CDU_CR00_1 CBAL_CR00_1 -1.0
    CDU_CR00_1 CDUCAP_1 1.0
    CDU_CR00_1 CDUMIN_1 1.0
    CDU_CR00_1 YLPG_CR00_1 -0.013786055933968056
    CDU_CR00_1 YNAP_CR00_1 -0.1214444916358349
    CDU_CR00_1 YKER_CR00_1 -0.10646372452567733
    CDU_CR00_1 YDSL_CR00_1 -0.20292085263352289
    CDU_CR00_1 YVGO_CR00_1 -0.27390944719057636
    CDU_CR00_1 YRES_CR00_1 -0.28147542808042036
    M1918 'MARKER' 'INTORG'
    NPAR_CR01_1 PARCEL_CR01_1 -20.0
    M1920 'MARKER' 'INTEND'
    BUY_CR01_1 OBJ -75.48784179033004
    BUY_CR01_1 PARCEL_CR01_1 1.0
    BUY_CR01_1 CBAL_CR01_1 1.0
    CINV_CR01_1 OBJ -0.3
    CINV_CR01_1 CBAL_CR01_1 -1.0
    CINV_CR01_1 CBAL_CR01_2 1.0
    CDU_CR01_1 CBAL_CR01_1 -1.0
    CDU_CR01_1 CDUCAP_1 1.0
    CDU_CR01_1 CDUMIN_1 1.0
    CDU_CR01_1 YLPG_CR01_1 -0.025127543584387436
    CDU_CR01_1 YNAP_CR01_1 -0.2025917905849106
    CDU_CR01_1 YKER_CR01_1 -0.13410952106049506
    CDU_CR01_1 YDSL_CR01_1 -0.24728591651278542
    CDU_CR01_1 YVGO_CR01_1 -0.22897185950088417
    CDU_CR01_1 YRES_CR01_1 -0.16191336875653717
    M1936 'MARKER' 'INTORG'
    NPAR_CR02_1 PARCEL_CR02_1 -20.0
    M1938 'MARKER' 'INTEND'
    BUY_CR02_1 OBJ -61.47085439874937
    BUY_CR02_1 PARCEL_CR02_1 1.0
    BUY_CR02_1 CBAL_CR02_1 1.0
    CINV_CR02_1 OBJ -0.3
    CINV_CR02_1 CBAL_CR02_1 -1.0
    CINV_CR02_1 CBAL_CR02_2 1.0
    CDU_CR02_1 CBAL_CR02_1 -1.0
    CDU_CR02_1 CDUCAP_1 1.0
    CDU_CR02_1 CDUMIN_1 1.0
    CDU_CR02_1 YLPG_CR02_1 -0.013444753666275039
    CDU_CR02_1 YNAP_CR02_1 -0.11889710072836579
    CDU_CR02_1 YKER_CR02_1 -0.103840437143255
    CDU_CR02_1 YDSL_CR02_1 -0.21229612809407214
    CDU_CR02_1 YVGO_CR02_1 -0.2628713956905896
    CDU_CR02_1 YRES_CR02_1 -0.28865018467744247
    M1954 'MARKER' 'INTORG'
    NPAR_CR03_1 PARCEL_CR03_1 -20.0
    M1956 'MARKER' 'INTEND'
    BUY_CR03_1 OBJ -68.41927786711894
    BUY_CR03_1 PARCEL_CR03_1 1.0
    BUY_CR03_1 CBAL_CR03_1 1.0
    CINV_CR03_1 OBJ -0.3
    CINV_CR03_1 CBAL_CR03_1 -1.0
    CINV_CR03_1 CBAL_CR03_2 1.0
    CDU_CR03_1 CBAL_CR03_1 -1.0
    CDU_CR03_1 CDUCAP_1 1.0
    CDU_CR03_1 CDUMIN_1 1.0
    CDU_CR03_1 YLPG_CR03_1 -0.01400858068810675
    CDU_CR03_1 YNAP_CR03_1 -0.1424923117986131
    CDU_CR03_1 YKER_CR03_1 -0.10784088582669263
    CDU_CR03_1 YDSL_CR03_1 -0.19279120630762445
    CDU_CR03_1 YVGO_CR03_1 -0.28544626211923063
    CDU_CR03_1 YRES_CR03_1 -0.2574207532597324
    M1972 'MARKER' 'INTORG'
    NPAR_CR04_1 PARCEL_CR04_1 -20.0
    M1974 'MARKER' 'INTEND'
    BUY_CR04_1 OBJ -74.00518854523607
    BUY_CR04_1 PARCEL_CR04_1 1.0
    BUY_CR04_1 CBAL_CR04_1 1.0
    CINV_CR04_1 OBJ -0.3
    CINV_CR04_1 CBAL_CR04_1 -1.0
    CINV_CR04_1 CBAL_CR04_2 1.0
    CDU_CR04_1 CBAL_CR04_1 -1.0
    CDU_CR04_1 CDUCAP_1 1.0
    CDU_CR04_1 CDUMIN_1 1.0
    CDU_CR04_1 YLPG_CR04_1 -0.02335213093765316
    CDU_CR04_1 YNAP_CR04_1 -0.2292355396921612
    CDU_CR04_1 YKER_CR04_1 -0.14240695851543803
    CDU_CR04_1 YDSL_CR04_1 -0.24384363627499198
    CDU_CR04_1 YVGO_CR04_1 -0.2465326974706559
    CDU_CR04_1 YRES_CR04_1 -0.1146290371090997
    M1990 'MARKER' 'INTORG'
    NPAR_CR05_1 PARCEL_CR05_1 -20.0
    M1992 'MARKER' 'INTEND'
    BUY_CR05_1 OBJ -66.34609041555056
    BUY_CR05_1 PARCEL_CR05_1 1.0
    BUY_CR05_1 CBAL_CR05_1 1.0
    CINV_CR05_1 OBJ -0.3
    CINV_CR05_1 CBAL_CR05_1 -1.0
    CINV_CR05_1 CBAL_CR05_2 1.0
    CDU_CR05_1 CBAL_CR05_1 -1.0
    CDU_CR05_1 CDUCAP_1 1.0
    CDU_CR05_1 CDUMIN_1 1.0
    CDU_CR05_1 YLPG_CR05_1 -0.01735729802728813
    CDU_CR05_1 YNAP_CR05_1 -0.16608619710065003
    CDU_CR05_1 YKER_CR05_1 -0.1170544437563835
    CDU_CR05_1 YDSL_CR05_1 -0.22299235889970878
    CDU_CR05_1 YVGO_CR05_1 -0.2433490540516293
    CDU_CR05_1 YRES_CR05_1 -0.23316064816434035
    M2008 'MARKER' 'INTORG'
    NPAR_CR06_1 PARCEL_CR06_1 -20.0
    M2010 'MARKER' 'INTEND'
    BUY_CR06_1 OBJ -64.39272056443887
    BUY_CR06_1 PARCEL_CR06_1 1.0
    BUY_CR06_1 CBAL_CR06_1 1.0
    CINV_CR06_1 OBJ -0.3
    CINV_CR06_1 CBAL_CR06_1 -1.0
    CINV_CR06_1 CBAL_CR06_2 1.0
    CDU_CR06_1 CBAL_CR06_1 -1.0
    CDU_CR06_1 CDUCAP_1 1.0
    CDU_CR06_1 CDUMIN_1 1.0
    CDU_CR06_1 YLPG_CR06_1 -0.014219474855875663
    CDU_CR06_1 YNAP_CR06_1 -0.13746806025500902
    CDU_CR06_1 YKER_CR06_1 -0.10533897185985656
    CDU_CR06_1 YDSL_CR06_1 -0.20403840195434858
    CDU_CR06_1 YVGO_CR06_1 -0.26484358994429863
    CDU_CR06_1 YRES_CR06_1 -0.27409150113061165
    M2026 'MARKER' 'INTORG'
    NPAR_CR07_1 PARCEL_CR07_1 -20.0
    M2028 'MARKER' 'INTEND'
    BUY_CR07_1 OBJ -73.2956244706561
    BUY_CR07_1 PARCEL_CR07_1 1.0
    BUY_CR07_1 CBAL_CR07_1 1.0
    CINV_CR07_1 OBJ -0.3
    CINV_CR07_1 CBAL_CR07_1 -1.0
    CINV_CR07_1 CBAL_CR07_2 1.0
    CDU_CR07_1 CBAL_CR07_1 -1.0
    CDU_CR07_1 CDUCAP_1 1.0
    CDU_CR07_1 CDUMIN_1 1.0
    CDU_CR07_1 YLPG_CR07_1 -0.01678766142162217
    CDU_CR07_1 YNAP_CR07_1 -0.18341674311422207
    CDU_CR07_1 YKER_CR07_1 -0.13271469159016522
    CDU_CR07_1 YDSL_CR07_1 -0.2249127244045356
    CDU_CR07_1 YVGO_CR07_1 -0.24848613807316539
    CDU_CR07_1 YRES_CR07_1 -0.19368204139628944
    M2044 'MARKER' 'INTORG'
    NPAR_CR08_1 PARCEL_CR08_1 -20.0
    M2046 'MARKER' 'INTEND'
    BUY_CR08_1 OBJ -71.5150292876999
    BUY_CR08_1 PARCEL_CR08_1 1.0
    BUY_CR08_1 CBAL_CR08_1 1.0
    CINV_CR08_1 OBJ -0.3
    CINV_CR08_1 CBAL_CR08_1 -1.0
    CINV_CR08_1 CBAL_CR08_2 1.0
    CDU_CR08_1 CBAL_CR08_1 -1.0
    CDU_CR08_1 CDUCAP_1 1.0
    CDU_CR08_1 CDUMIN_1 1.0
    CDU_CR08_1 YLPG_CR08_1 -0.023930881960770135
    CDU_CR08_1 YNAP_CR08_1 -0.199474063989656
    CDU_CR08_1 YKER_CR08_1 -0.13012967624359006
    CDU_CR08_1 YDSL_CR08_1 -0.24906213509239003
    CDU_CR08_1 YVGO_CR08_1 -0.24247509330512357
    CDU_CR08_1 YRES_CR08_1 -0.15492814940847022
    M2062 'MARKER' 'INTORG'
    NPAR_CR09_1 PARCEL_CR09_1 -20.0
    M2064 'MARKER' 'INTEND'
    BUY_CR09_1 OBJ -80.43631209876388
    BUY_CR09_1 PARCEL_CR09_1 1.0
    BUY_CR09_1 CBAL_CR09_1 1.0
    CINV_CR09_1 OBJ -0.3
    CINV_CR09_1 CBAL_CR09_1 -1.0
    CINV_CR09_1 CBAL_CR09_2 1.0
    CDU_CR09_1 CBAL_CR09_1 -1.0
    CDU_CR09_1 CDUCAP_1 1.0
    CDU_CR09_1 CDUMIN_1 1.0
    CDU_CR09_1 YLPG_CR09_1 -0.0254414593142613
    CDU_CR09_1 YNAP_CR09_1 -0.2406668892422991
    CDU_CR09_1 YKER_CR09_1 -0.14150533274546892
    CDU_CR09_1 YDSL_CR09_1 -0.23713673044274025
    CDU_CR09_1 YVGO_CR09_1 -0.23566730460149374
    CDU_CR09_1 YRES_CR09_1 -0.11958228365373665
    M2080 'MARKER' 'INTORG'
    CDUMODE_1 OBJ -150.0
    CDUMODE_1 CDUCAP_1 -150.0
    CDUMODE_1 CDUMIN_1 -90.0
    M2084 'MARKER' 'INTEND'
    LPG_CR00_1 YLPG_CR00_1 1.0
    LPG_CR00_1 LPGBAL_1 -1.0
    NAP_CR00_1 YNAP_CR00_1 1.0
    NAP_CR00_1 NAPBAL_CR00_1 1.0
    KER_CR00_1 YKER_CR00_1 1.0
    KER_CR00_1 KERBAL_CR00_1 1.0
    DSL_CR00_1 YDSL_CR00_1 1.0
    DSL_CR00_1 DSLBAL_CR00_1 1.0
    VGO_CR00_1 YVGO_CR00_1 1.0
    VGO_CR00_1 VGOBAL_CR00_1 1.0
    RES_CR00_1 YRES_CR00_1 1.0
    RES_CR00_1 RESSPLIT_CR00_1 1.0
    LPG_CR01_1 YLPG_CR01_1 1.0
    LPG_CR01_1 LPGBAL_1 -1.0
    NAP_CR01_1 YNAP_CR01_1 1.0
    NAP_CR01_1 NAPBAL_CR01_1 1.0
    KER_CR01_1 YKER_CR01_1 1.0
    KER_CR01_1 KERBAL_CR01_1 1.0
    DSL_CR01_1 YDSL_CR01_1 1.0
    DSL_CR01_1 DSLBAL_CR01_1 1.0
    VGO_CR01_1 YVGO_CR01_1 1.0
    VGO_CR01_1 VGOBAL_CR01_1 1.0
    RES_CR01_1 YRES_CR01_1 1.0
    RES_CR01_1 RESSPLIT_CR01_1 1.0
    LPG_CR02_1 YLPG_CR02_1 1.0
    LPG_CR02_1 LPGBAL_1 -1.0
    NAP_CR02_1 YNAP_CR02_1 1.0
    NAP_CR02_1 NAPBAL_CR02_1 1.0
    KER_CR02_1 YKER_CR02_1 1.0
    KER_CR02_1 KERBAL_CR02_1 1.0
    DSL_CR02_1 YDSL_CR02_1 1.0
    DSL_CR02_1 DSLBAL_CR02_1 1.0
    VGO_CR02_1 YVGO_CR02_1 1.0
    VGO_CR02_1 VGOBAL_CR02_1 1.0
    RES_CR02_1 YRES_CR02_1 1.0
    RES_CR02_1 RESSPLIT_CR02_1 1.0
    LPG_CR03_1 YLPG_CR03_1 1.0
    LPG_CR03_1 LPGBAL_1 -1.0
    NAP_CR03_1 YNAP_CR03_1 1.0
    NAP_CR03_1 NAPBAL_CR03_1 1.0
    KER_CR03_1 YKER_CR03_1 1.0
    KER_CR03_1 KERBAL_CR03_1 1.0
    DSL_CR03_1 YDSL_CR03_1 1.0
    DSL_CR03_1 DSLBAL_CR03_1 1.0
    VGO_CR03_1 YVGO_CR03_1 1.0
    VGO_CR03_1 VGOBAL_CR03_1 1.0
    RES_CR03_1 YRES_CR03_1 1.0
    RES_CR03_1 RESSPLIT_CR03_1 1.0
    LPG_CR04_1 YLPG_CR04_1 1.0
    LPG_CR04_1 LPGBAL_1 -1.0
    NAP_CR04_1 YNAP_CR04_1 1.0
    NAP_CR04_1 NAPBAL_CR04_1 1.0
    KER_CR04_1 YKER_CR04_1 1.0
    KER_CR04_1 KERBAL_CR04_1 1.0
    DSL_CR04_1 YDSL_CR04_1 1.0
    DSL_CR04_1 DSLBAL_CR04_1 1.0
    VGO_CR04_1 YVGO_CR04_1 1.0
    VGO_CR04_1 VGOBAL_CR04_1 1.0
    RES_CR04_1 YRES_CR04_1 1.0
    RES_CR04_1 RESSPLIT_CR04_1 1.0
    LPG_CR05_1 YLPG_CR05_1 1.0
    LPG_CR05_1 LPGBAL_1 -1.0
    NAP_CR05_1 YNAP_CR05_1 1.0
    NAP_CR05_1 NAPBAL_CR05_1 1.0
    KER_CR05_1 YKER_CR05_1 1.0
    KER_CR05_1 KERBAL_CR05_1 1.0
    DSL_CR05_1 YDSL_CR05_1 1.0
    DSL_CR05_1 DSLBAL_CR05_1 1.0
    VGO_CR05_1 YVGO_CR05_1 1.0
    VGO_CR05_1 VGOBAL_CR05_1 1.0
    RES_CR05_1 YRES_CR05_1 1.0
    RES_CR05_1 RESSPLIT_CR05_1 1.0
    LPG_CR06_1 YLPG_CR06_1 1.0
    LPG_CR06_1 LPGBAL_1 -1.0
    NAP_CR06_1 YNAP_CR06_1 1.0
    NAP_CR06_1 NAPBAL_CR06_1 1.0
    KER_CR06_1 YKER_CR06_1 1.0
    KER_CR06_1 KERBAL_CR06_1 1.0
    DSL_CR06_1 YDSL_CR06_1 1.0
    DSL_CR06_1 DSLBAL_CR06_1 1.0
    VGO_CR06_1 YVGO_CR06_1 1.0
    VGO_CR06_1 VGOBAL_CR06_1 1.0
    RES_CR06_1 YRES_CR06_1 1.0
    RES_CR06_1 RESSPLIT_CR06_1 1.0
    LPG_CR07_1 YLPG_CR07_1 1.0
    LPG_CR07_1 LPGBAL_1 -1.0
    NAP_CR07_1 YNAP_CR07_1 1.0
    NAP_CR07_1 NAPBAL_CR07_1 1.0
    KER_CR07_1 YKER_CR07_1 1.0
    KER_CR07_1 KERBAL_CR07_1 1.0
    DSL_CR07_1 YDSL_CR07_1 1.0
    DSL_CR07_1 DSLBAL_CR07_1 1.0
    VGO_CR07_1 YVGO_CR07_1 1.0
    VGO_CR07_1 VGOBAL_CR07_1 1.0
    RES_CR07_1 YRES_CR07_1 1.0
    RES_CR07_1 RESSPLIT_CR07_1 1.0
    LPG_CR08_1 YLPG_CR08_1 1.0
    LPG_CR08_1 LPGBAL_1 -1.0
    NAP_CR08_1 YNAP_CR08_1 1.0
    NAP_CR08_1 NAPBAL_CR08_1 1.0
    KER_CR08_1 YKER_CR08_1 1.0
    KER_CR08_1 KERBAL_CR08_1 1.0
    DSL_CR08_1 YDSL_CR08_1 1.0
    DSL_CR08_1 DSLBAL_CR08_1 1.0
    VGO_CR08_1 YVGO_CR08_1 1.0
    VGO_CR08_1 VGOBAL_CR08_1 1.0
    RES_CR08_1 YRES_CR08_1 1.0
    RES_CR08_1 RESSPLIT_CR08_1 1.0
    LPG_CR09_1 YLPG_CR09_1 1.0
    LPG_CR09_1 LPGBAL_1 -1.0
    NAP_CR09_1 YNAP_CR09_1 1.0
    NAP_CR09_1 NAPBAL_CR09_1 1.0
    KER_CR09_1 YKER_CR09_1 1.0
    KER_CR09_1 KERBAL_CR09_1 1.0
    DSL_CR09_1 YDSL_CR09_1 1.0
    DSL_CR09_1 DSLBAL_CR09_1 1.0
    VGO_CR09_1 YVGO_CR09_1 1.0
    VGO_CR09_1 VGOBAL_CR09_1 1.0
    RES_CR09_1 YRES_CR09_1 1.0
    RES_CR09_1 RESSPLIT_CR09_1 1.0
    VDUIN_CR00_1 RESSPLIT_CR00_1 -1.0
    VDUIN_CR00_1 VDUY1_CR00_1 -0.45
    VDUIN_CR00_1 VDUY2_CR00_1 -0.55
    VDUIN_CR00_1 VDUCAP_1 1.0
    RESFO_CR00_1 RESSPLIT_CR00_1 -1.0
    RESFO_CR00_1 FOBAL_1 -1.0
    RESFO_CR00_1 FOSUL_1 1.9540891690108433
    VGO2_CR00_1 VDUY1_CR00_1 1.0
    VGO2_CR00_1 VGOBAL_CR00_1 1.0
    VR_CR00_1 VDUY2_CR00_1 1.0
    VR_CR00_1 FOBAL_1 -1.0
    VR_CR00_1 FOSUL_1 3.5903159197140964
    VDUIN_CR01_1 RESSPLIT_CR01_1 -1.0
    VDUIN_CR01_1 VDUY1_CR01_1 -0.45
    VDUIN_CR01_1 VDUY2_CR01_1 -0.55
    VDUIN_CR01_1 VDUCAP_1 1.0
    RESFO_CR01_1 RESSPLIT_CR01_1 -1.0
    RESFO_CR01_1 FOBAL_1 -1.0
    RESFO_CR01_1 FOSUL_1 -0.6168441789886687
    VGO2_CR01_1 VDUY1_CR01_1 1.0
    VGO2_CR01_1 VGOBAL_CR01_1 1.0
    VR_CR01_1 VDUY2_CR01_1 1.0
    VR_CR01_1 FOBAL_1 -1.0
    VR_CR01_1 FOSUL_1 0.24810256731473057
    VDUIN_CR02_1 RESSPLIT_CR02_1 -1.0
    VDUIN_CR02_1 VDUY1_CR02_1 -0.45
    VDUIN_CR02_1 VDUY2_CR02_1 -0.55
    VDUIN_CR02_1 VDUCAP_1 1.0
    RESFO_CR02_1 RESSPLIT_CR02_1 -1.0
    RESFO_CR02_1 FOBAL_1 -1.0
    RESFO_CR02_1 FOSUL_1 0.05675733131967897
    VGO2_CR02_1 VDUY1_CR02_1 1.0
    VGO2_CR02_1 VGOBAL_CR02_1 1.0
    VR_CR02_1 VDUY2_CR02_1 1.0
    VR_CR02_1 FOBAL_1 -1.0
    VR_CR02_1 FOSUL_1 1.1237845307155832
    VDUIN_CR03_1 RESSPLIT_CR03_1 -1.0
    VDUIN_CR03_1 VDUY1_CR03_1 -0.45
    VDUIN_CR03_1 VDUY2_CR03_1 -0.55
    VDUIN_CR03_1 VDUCAP_1 1.0
    RESFO_CR03_1 RESSPLIT_CR03_1 -1.0
    RESFO_CR03_1 FOBAL_1 -1.0
    RESFO_CR03_1 FOSUL_1 -1.8686274424458973
    VGO2_CR03_1 VDUY1_CR03_1 1.0
    VGO2_CR03_1 VGOBAL_CR03_1 1.0
    VR_CR03_1 VDUY2_CR03_1 1.0
    VR_CR03_1 FOBAL_1 -1.0
    VR_CR03_1 FOSUL_1 -1.3792156751796663
    VDUIN_CR04_1 RESSPLIT_CR04_1 -1.0
    VDUIN_CR04_1 VDUY1_CR04_1 -0.45
    VDUIN_CR04_1 VDUY2_CR04_1 -0.55
    VDUIN_CR04_1 VDUCAP_1 1.0
    RESFO_CR04_1 RESSPLIT_CR04_1 -1.0
    RESFO_CR04_1 FOBAL_1 -1.0
    RESFO_CR04_1 FOSUL_1 2.031668478530798
    VGO2_CR04_1 VDUY1_CR04_1 1.0
    VGO2_CR04_1 VGOBAL_CR04_1 1.0
    VR_CR04_1 VDUY2_CR04_1 1.0
    VR_CR04_1 FOBAL_1 -1.0
    VR_CR04_1 FOSUL_1 3.6911690220900377
    VDUIN_CR05_1 RESSPLIT_CR05_1 -1.0
    VDUIN_CR05_1 VDUY1_CR05_1 -0.45
    VDUIN_CR05_1 VDUY2_CR05_1 -0.55
    VDUIN_CR05_1 VDUCAP_1 1.0
    RESFO_CR05_1 RESSPLIT_CR05_1 -1.0
    RESFO_CR05_1 FOBAL_1 -1.0
    RESFO_CR05_1 FOSUL_1 0.3429997580900688
    VGO2_CR05_1 VDUY1_CR05_1 1.0
    VGO2_CR05_1 VGOBAL_CR05_1 1.0
    VR_CR05_1 VDUY2_CR05_1 1.0
    VR_CR05_1 FOBAL_1 -1.0
    VR_CR05_1 FOSUL_1 1.4958996855170898
    VDUIN_CR06_1 RESSPLIT_CR06_1 -1.0
    VDUIN_CR06_1 VDUY1_CR06_1 -0.45
    VDUIN_CR06_1 VDUY2_CR06_1 -0.55
    VDUIN_CR06_1 VDUCAP_1 1.0
    RESFO_CR06_1 RESSPLIT_CR06_1 -1.0
    RESFO_CR06_1 FOBAL_1 -1.0
    RESFO_CR06_1 FOSUL_1 0.10255232060654862
    VGO2_CR06_1 VDUY1_CR06_1 1.0
    VGO2_CR06_1 VGOBAL_CR06_1 1.0
    VR_CR06_1 VDUY2_CR06_1 1.0
    VR_CR06_1 FOBAL_1 -1.0
    VR_CR06_1 FOSUL_1 1.1833180167885136
    VDUIN_CR07_1 RESSPLIT_CR07_1 -1.0
    VDUIN_CR07_1 VDUY1_CR07_1 -0.45
    VDUIN_CR07_1 VDUY2_CR07_1 -0.55
    VDUIN_CR07_1 VDUCAP_1 1.0
    RESFO_CR07_1 RESSPLIT_CR07_1 -1.0
    RESFO_CR07_1 FOBAL_1 -1.0
    RESFO_CR07_1 FOSUL_1 -3.116635223405176
    VGO2_CR07_1 VDUY1_CR07_1 1.0
    VGO2_CR07_1 VGOBAL_CR07_1 1.0
    VR_CR07_1 VDUY2_CR07_1 1.0
    VR_CR07_1 FOBAL_1 -1.0
    VR_CR07_1 FOSUL_1 -3.001625790426729
    VDUIN_CR08_1 RESSPLIT_CR08_1 -1.0
    VDUIN_CR08_1 VDUY1_CR08_1 -0.45
    VDUIN_CR08_1 VDUY2_CR08_1 -0.55
    VDUIN_CR08_1 VDUCAP_1 1.0
    RESFO_CR08_1 RESSPLIT_CR08_1 -1.0
    RESFO_CR08_1 FOBAL_1 -1.0
    RESFO_CR08_1 FOSUL_1 0.0456281803886287
    VGO2_CR08_1 VDUY1_CR08_1 1.0
    VGO2_CR08_1 VGOBAL_CR08_1 1.0
    VR_CR08_1 VDUY2_CR08_1 1.0
    VR_CR08_1 FOBAL_1 -1.0
    VR_CR08_1 FOSUL_1 1.109316634505218
    VDUIN_CR09_1 RESSPLIT_CR09_1 -1.0
    VDUIN_CR09_1 VDUY1_CR09_1 -0.45
    VDUIN_CR09_1 VDUY2_CR09_1 -0.55
    VDUIN_CR09_1 VDUCAP_1 1.0
    RESFO_CR09_1 RESSPLIT_CR09_1 -1.0
    RESFO_CR09_1 FOBAL_1 -1.0
    RESFO_CR09_1 FOSUL_1 -3.264603397407564
    VGO2_CR09_1 VDUY1_CR09_1 1.0
    VGO2_CR09_1 VGOBAL_CR09_1 1.0
    VR_CR09_1 VDUY2_CR09_1 1.0
    VR_CR09_1 FOBAL_1 -1.0
    VR_CR09_1 FOSUL_1 -3.1939844166298332
    FCCIN_CR00_1 OBJ -2.5
    FCCIN_CR00_1 VGOBAL_CR00_1 -1.0
    FCCIN_CR00_1 FCCCAP_1 1.0
    FCCIN_CR00_1 FCCY_FCCG_1 -0.55
    FCCIN_CR00_1 FCCY_LCO_1 -0.2
    FCCIN_CR00_1 FCCY_FLPG_1 -0.15
    FCCIN_CR00_1 FCCY_SLURRY_1 -0.07
    FCCIN_CR01_1 OBJ -2.5
    FCCIN_CR01_1 VGOBAL_CR01_1 -1.0
    FCCIN_CR01_1 FCCCAP_1 1.0
    FCCIN_CR01_1 FCCY_FCCG_1 -0.55
    FCCIN_CR01_1 FCCY_LCO_1 -0.2
    FCCIN_CR01_1 FCCY_FLPG_1 -0.15
    FCCIN_CR01_1 FCCY_SLURRY_1 -0.07
    FCCIN_CR02_1 OBJ -2.5
    FCCIN_CR02_1 VGOBAL_CR02_1 -1.0
    FCCIN_CR02_1 FCCCAP_1 1.0
    FCCIN_CR02_1 FCCY_FCCG_1 -0.55
    FCCIN_CR02_1 FCCY_LCO_1 -0.2
    FCCIN_CR02_1 FCCY_FLPG_1 -0.15
    FCCIN_CR02_1 FCCY_SLURRY_1 -0.07
    FCCIN_CR03_1 OBJ -2.5
    FCCIN_CR03_1 VGOBAL_CR03_1 -1.0
    FCCIN_CR03_1 FCCCAP_1 1.0
    FCCIN_CR03_1 FCCY_FCCG_1 -0.55
    FCCIN_CR03_1 FCCY_LCO_1 -0.2
    FCCIN_CR03_1 FCCY_FLPG_1 -0.15
    FCCIN_CR03_1 FCCY_SLURRY_1 -0.07
    FCCIN_CR04_1 OBJ -2.5
    FCCIN_CR04_1 VGOBAL_CR04_1 -1.0
    FCCIN_CR04_1 FCCCAP_1 1.0
    FCCIN_CR04_1 FCCY_FCCG_1 -0.55
    FCCIN_CR04_1 FCCY_LCO_1 -0.2
    FCCIN_CR04_1 FCCY_FLPG_1 -0.15
    FCCIN_CR04_1 FCCY_SLURRY_1 -0.07
    FCCIN_CR05_1 OBJ -2.5
    FCCIN_CR05_1 VGOBAL_CR05_1 -1.0
    FCCIN_CR05_1 FCCCAP_1 1.0
    FCCIN_CR05_1 FCCY_FCCG_1 -0.55
    FCCIN_CR05_1 FCCY_LCO_1 -0.2
    FCCIN_CR05_1 FCCY_FLPG_1 -0.15
    FCCIN_CR05_1 FCCY_SLURRY_1 -0.07
    FCCIN_CR06_1 OBJ -2.5
    FCCIN_CR06_1 VGOBAL_CR06_1 -1.0
    FCCIN_CR06_1 FCCCAP_1 1.0
    FCCIN_CR06_1 FCCY_FCCG_1 -0.55
    FCCIN_CR06_1 FCCY_LCO_1 -0.2
    FCCIN_CR06_1 FCCY_FLPG_1 -0.15
    FCCIN_CR06_1 FCCY_SLURRY_1 -0.07
    FCCIN_CR07_1 OBJ -2.5
    FCCIN_CR07_1 VGOBAL_CR07_1 -1.0
    FCCIN_CR07_1 FCCCAP_1 1.0
    FCCIN_CR07_1 FCCY_FCCG_1 -0.55
    FCCIN_CR07_1 FCCY_LCO_1 -0.2
    FCCIN_CR07_1 FCCY_FLPG_1 -0.15
    FCCIN_CR07_1 FCCY_SLURRY_1 -0.07
    FCCIN_CR08_1 OBJ -2.5
    FCCIN_CR08_1 VGOBAL_CR08_1 -1.0
    FCCIN_CR08_1 FCCCAP_1 1.0
    FCCIN_CR08_1 FCCY_FCCG_1 -0.55
    FCCIN_CR08_1 FCCY_LCO_1 -0.2
    FCCIN_CR08_1 FCCY_FLPG_1 -0.15
    FCCIN_CR08_1 FCCY_SLURRY_1 -0.07
    FCCIN_CR09_1 OBJ -2.5
    FCCIN_CR09_1 VGOBAL_CR09_1 -1.0
    FCCIN_CR09_1 FCCCAP_1 1.0
    FCCIN_CR09_1 FCCY_FCCG_1 -0.55
    FCCIN_CR09_1 FCCY_LCO_1 -0.2
    FCCIN_CR09_1 FCCY_FLPG_1 -0.15
    FCCIN_CR09_1 FCCY_SLURRY_1 -0.07
    FCCG_1 FCCY_FCCG_1 1.0
    FCCG_1 GASBAL_1 -1.0
    FCCG_1 GASRON_1 1.0
    LCO_1 FCCY_LCO_1 1.0
    LCO_1 LCOBAL_1 1.0
    FLPG_1 FCCY_FLPG_1 1.0
    FLPG_1 LPGBAL_1 -1.0
    SLURRY_1 FCCY_SLURRY_1 1.0
    SLURRY_1 FOBAL_1 -1.0
    SLURRY_1 FOSUL_1 -1.5
    REFIN_CR00_1 OBJ -3.0
    REFIN_CR00_1 NAPBAL_CR00_1 -1.0
    REFIN_CR00_1 REFCAP_1 1.0
    REFIN_CR00_1 REFY_1 -0.85
    NAPGAS_CR00_1 NAPBAL_CR00_1 -1.0
    NAPGAS_CR00_1 GASBAL_1 -1.0
    NAPGAS_CR00_1 GASRON_1 -41.351908455631545
    REFIN_CR01_1 OBJ -3.0
    REFIN_CR01_1 NAPBAL_CR01_1 -1.0
    REFIN_CR01_1 REFCAP_1 1.0
    REFIN_CR01_1 REFY_1 -0.85
    NAPGAS_CR01_1 NAPBAL_CR01_1 -1.0
    NAPGAS_CR01_1 GASBAL_1 -1.0
    NAPGAS_CR01_1 GASRON_1 -33.623043958680114
    REFIN_CR02_1 OBJ -3.0
    REFIN_CR02_1 NAPBAL_CR02_1 -1.0
    REFIN_CR02_1 REFCAP_1 1.0
    REFIN_CR02_1 REFY_1 -0.85
    NAPGAS_CR02_1 NAPBAL_CR02_1 -1.0
    NAPGAS_CR02_1 GASBAL_1 -1.0
    NAPGAS_CR02_1 GASRON_1 -39.74522208078083
    REFIN_CR03_1 OBJ -3.0
    REFIN_CR03_1 NAPBAL_CR03_1 -1.0
    REFIN_CR03_1 REFCAP_1 1.0
    REFIN_CR03_1 REFY_1 -0.85
    NAPGAS_CR03_1 NAPBAL_CR03_1 -1.0
    NAPGAS_CR03_1 GASBAL_1 -1.0
    NAPGAS_CR03_1 GASRON_1 -39.32063345179839
    REFIN_CR04_1 OBJ -3.0
    REFIN_CR04_1 NAPBAL_CR04_1 -1.0
    REFIN_CR04_1 REFCAP_1 1.0
    REFIN_CR04_1 REFY_1 -0.85
    NAPGAS_CR04_1 NAPBAL_CR04_1 -1.0
    NAPGAS_CR04_1 GASBAL_1 -1.0
    NAPGAS_CR04_1 GASRON_1 -28.06018906757886
    REFIN_CR05_1 OBJ -3.0
    REFIN_CR05_1 NAPBAL_CR05_1 -1.0
    REFIN_CR05_1 REFCAP_1 1.0
    REFIN_CR05_1 REFY_1 -0.85
    NAPGAS_CR05_1 NAPBAL_CR05_1 -1.0
    NAPGAS_CR05_1 GASBAL_1 -1.0
    NAPGAS_CR05_1 GASRON_1 -37.177062383933254
    REFIN_CR06_1 OBJ -3.0
    REFIN_CR06_1 NAPBAL_CR06_1 -1.0
    REFIN_CR06_1 REFCAP_1 1.0
    REFIN_CR06_1 REFY_1 -0.85
    NAPGAS_CR06_1 NAPBAL_CR06_1 -1.0
    NAPGAS_CR06_1 GASBAL_1 -1.0
    NAPGAS_CR06_1 GASRON_1 -38.73738801284508
    REFIN_CR07_1 OBJ -3.0
    REFIN_CR07_1 NAPBAL_CR07_1 -1.0
    REFIN_CR07_1 REFCAP_1 1.0
    REFIN_CR07_1 REFY_1 -0.85
    NAPGAS_CR07_1 NAPBAL_CR07_1 -1.0
    NAPGAS_CR07_1 GASBAL_1 -1.0
    NAPGAS_CR07_1 GASRON_1 -31.720911449683953
    REFIN_CR08_1 OBJ -3.0
    REFIN_CR08_1 NAPBAL_CR08_1 -1.0
    REFIN_CR08_1 REFCAP_1 1.0
    REFIN_CR08_1 REFY_1 -0.85
    NAPGAS_CR08_1 NAPBAL_CR08_1 -1.0
    NAPGAS_CR08_1 GASBAL_1 -1.0
    NAPGAS_CR08_1 GASRON_1 -31.236267605063702
    REFIN_CR09_1 OBJ -3.0
    REFIN_CR09_1 NAPBAL_CR09_1 -1.0
    REFIN_CR09_1 REFCAP_1 1.0
    REFIN_CR09_1 REFY_1 -0.85
    NAPGAS_CR09_1 NAPBAL_CR09_1 -1.0
    NAPGAS_CR09_1 GASBAL_1 -1.0
    NAPGAS_CR09_1 GASRON_1 -29.9151768258086
    REFORMATE_1 REFY_1 1.0
    REFORMATE_1 GASBAL_1 -1.0
    REFORMATE_1 GASRON_1 7.0
    DHTIN_CR00_1 OBJ -2.0
    DHTIN_CR00_1 DSLBAL_CR00_1 -1.0
    DHTIN_CR00_1 DHTCAP_1 1.0
    DHTIN_CR00_1 DHTY_1 -0.98
    DSLDIR_CR00_1 DSLBAL_CR00_1 -1.0
    DSLDIR_CR00_1 DSLPB_1 -1.0
    DSLDIR_CR00_1 DSLSUL_1 1.5862267507032528
    DHTIN_CR01_1 OBJ -2.0
    DHTIN_CR01_1 DSLBAL_CR01_1 -1.0
    DHTIN_CR01_1 DHTCAP_1 1.0
    DHTIN_CR01_1 DHTY_1 -0.98
    DSLDIR_CR01_1 DSLBAL_CR01_1 -1.0
    DSLDIR_CR01_1 DSLPB_1 -1.0
    DSLDIR_CR01_1 DSLSUL_1 0.8149467463033994
    DHTIN_CR02_1 OBJ -2.0
    DHTIN_CR02_1 DSLBAL_CR02_1 -1.0
    DHTIN_CR02_1 DHTCAP_1 1.0
    DHTIN_CR02_1 DHTY_1 -0.98
    DSLDIR_CR02_1 DSLBAL_CR02_1 -1.0
    DSLDIR_CR02_1 DSLPB_1 -1.0
    DSLDIR_CR02_1 DSLSUL_1 1.0170271993959037
    DHTIN_CR03_1 OBJ -2.0
    DHTIN_CR03_1 DSLBAL_CR03_1 -1.0
    DHTIN_CR03_1 DHTCAP_1 1.0
    DHTIN_CR03_1 DHTY_1 -0.98
    DSLDIR_CR03_1 DSLBAL_CR03_1 -1.0
    DSLDIR_CR03_1 DSLPB_1 -1.0
    DSLDIR_CR03_1 DSLSUL_1 0.4394117672662308
    DHTIN_CR04_1 OBJ -2.0
    DHTIN_CR04_1 DSLBAL_CR04_1 -1.0
    DHTIN_CR04_1 DHTCAP_1 1.0
    DHTIN_CR04_1 DHTY_1 -0.98
    DSLDIR_CR04_1 DSLBAL_CR04_1 -1.0
    DSLDIR_CR04_1 DSLPB_1 -1.0
    DSLDIR_CR04_1 DSLSUL_1 1.6095005435592393
    DHTIN_CR05_1 OBJ -2.0
    DHTIN_CR05_1 DSLBAL_CR05_1 -1.0
    DHTIN_CR05_1 DHTCAP_1 1.0
    DHTIN_CR05_1 DHTY_1 -0.98
    DSLDIR_CR05_1 DSLBAL_CR05_1 -1.0
    DSLDIR_CR05_1 DSLPB_1 -1.0
    DSLDIR_CR05_1 DSLSUL_1 1.1028999274270206
    DHTIN_CR06_1 OBJ -2.0
    DHTIN_CR06_1 DSLBAL_CR06_1 -1.0
    DHTIN_CR06_1 DHTCAP_1 1.0
    DHTIN_CR06_1 DHTY_1 -0.98
    DSLDIR_CR06_1 DSLBAL_CR06_1 -1.0
    DSLDIR_CR06_1 DSLPB_1 -1.0
    DSLDIR_CR06_1 DSLSUL_1 1.0307656961819645
    DHTIN_CR07_1 OBJ -2.0
    DHTIN_CR07_1 DSLBAL_CR07_1 -1.0
    DHTIN_CR07_1 DHTCAP_1 1.0
    DHTIN_CR07_1 DHTY_1 -0.98
    DSLDIR_CR07_1 DSLBAL_CR07_1 -1.0
    DSLDIR_CR07_1 DSLPB_1 -1.0
    DSLDIR_CR07_1 DSLSUL_1 0.06500943297844713
    DHTIN_CR08_1 OBJ -2.0
    DHTIN_CR08_1 DSLBAL_CR08_1 -1.0
    DHTIN_CR08_1 DHTCAP_1 1.0
    DHTIN_CR08_1 DHTY_1 -0.98
    DSLDIR_CR08_1 DSLBAL_CR08_1 -1.0
    DSLDIR_CR08_1 DSLPB_1 -1.0
    DSLDIR_CR08_1 DSLSUL_1 1.0136884541165885
    DHTIN_CR09_1 OBJ -2.0
    DHTIN_CR09_1 DSLBAL_CR09_1 -1.0
    DHTIN_CR09_1 DHTCAP_1 1.0
    DHTIN_CR09_1 DHTY_1 -0.98
    DSLDIR_CR09_1 DSLBAL_CR09_1 -1.0
    DSLDIR_CR09_1 DSLPB_1 -1.0
    DSLDIR_CR09_1 DSLSUL_1 0.020618980777730833
    LCODHT_1 LCOBAL_1 -1.0
    LCODHT_1 DHTCAP_1 1.0
    LCODHT_1 DHTY_1 -0.95
    LCOFO_1 LCOBAL_1 -1.0
    LCOFO_1 FOBAL_1 -1.0
    LCOFO_1 FOSUL_1 -2.5
    ULSD_1 DHTY_1 1.0
    ULSD_1 DSLPB_1 -1.0
    ULSD_1 DSLSUL_1 -0.049
    SELL_LPG_1 OBJ 59.76313972081441
    SELL_LPG_1 PBAL_LPG_1 -1.0
    SELL_LPG_1 DMAX_LPG_1 1.0
    SELL_LPG_1 DMIN_LPG_1 1.0
    SELL_GAS_1 OBJ 114.0932667397366
    SELL_GAS_1 PBAL_GAS_1 -1.0
    SELL_GAS_1 DMAX_GAS_1 1.0
    SELL_GAS_1 DMIN_GAS_1 1.0
    SELL_JET_1 OBJ 108.66025403784438
    SELL_JET_1 PBAL_JET_1 -1.0
    SELL_JET_1 DMAX_JET_1 1.0
    SELL_JET_1 DMIN_JET_1 1.0
    SELL_DSL_1 OBJ 106.4870489570875
    SELL_DSL_1 PBAL_DSL_1 -1.0
    SELL_DSL_1 DMAX_DSL_1 1.0
    SELL_DSL_1 DMIN_DSL_1 1.0
    SELL_FO_1 OBJ 65.19615242270663
    SELL_FO_1 PBAL_FO_1 -1.0
    SELL_FO_1 DMAX_FO_1 1.0
    SELL_FO_1 DMIN_FO_1 1.0
    PINV_LPG_1 OBJ -0.5
    PINV_LPG_1 PBAL_LPG_1 -1.0
    PINV_LPG_1 PBAL_LPG_2 1.0
    PINV_GAS_1 OBJ -0.5
    PINV_GAS_1 PBAL_GAS_1 -1.0
    PINV_GAS_1 PBAL_GAS_2 1.0
    PINV_JET_1 OBJ -0.5
    PINV_JET_1 PBAL_JET_1 -1.0
    PINV_JET_1 PBAL_JET_2 1.0
    PINV_DSL_1 OBJ -0.5
    PINV_DSL_1 PBAL_DSL_1 -1.0
    PINV_DSL_1 PBAL_DSL_2 1.0
    PINV_FO_1 OBJ -0.5
    PINV_FO_1 PBAL_FO_1 -1.0
    PINV_FO_1 PBAL_FO_2 1.0
    SHORT_LPG_1 OBJ -400.0
    SHORT_LPG_1 DMIN_LPG_1 1.0
    SHORT_GAS_1 OBJ -400.0
    SHORT_GAS_1 DMIN_GAS_1 1.0
    SHORT_JET_1 OBJ -400.0
    SHORT_JET_1 DMIN_JET_1 1.0
    SHORT_DSL_1 OBJ -400.0
    SHORT_DSL_1 DMIN_DSL_1 1.0
    SHORT_FO_1 OBJ -400.0
    SHORT_FO_1 DMIN_FO_1 1.0
    GASPOOL_1 GASBAL_1 1.0
    GASPOOL_1 PBAL_GAS_1 1.0
    JETPOOL_1 JETBAL_1 1.0
    JETPOOL_1 PBAL_JET_1 1.0
    KERJET_CR00_1 KERBAL_CR00_1 -1.0
    KERJET_CR00_1 JETBAL_1 -1.0
    KERJET_CR00_1 JETSUL_1 0.10905668767581322
    KERDSL_CR00_1 KERBAL_CR00_1 -1.0
    KERDSL_CR00_1 DSLPB_1 -1.0
    KERDSL_CR00_1 DSLSUL_1 0.3590566876758132
    KERJET_CR01_1 KERBAL_CR01_1 -1.0
    KERJET_CR01_1 JETBAL_1 -1.0
    KERJET_CR01_1 JETSUL_1 -0.08376331342415014
    KERDSL_CR01_1 KERBAL_CR01_1 -1.0
    KERDSL_CR01_1 DSLPB_1 -1.0
    KERDSL_CR01_1 DSLSUL_1 0.16623668657584983
    KERJET_CR02_1 KERBAL_CR02_1 -1.0
    KERJET_CR02_1 JETBAL_1 -1.0
    KERJET_CR02_1 JETSUL_1 -0.033243200151024055
    KERDSL_CR02_1 KERBAL_CR02_1 -1.0
    KERDSL_CR02_1 DSLPB_1 -1.0
    KERDSL_CR02_1 DSLSUL_1 0.21675679984897595
    KERJET_CR03_1 KERBAL_CR03_1 -1.0
    KERJET_CR03_1 JETBAL_1 -1.0
    KERJET_CR03_1 JETSUL_1 -0.17764705818344229
    KERDSL_CR03_1 KERBAL_CR03_1 -1.0
    KERDSL_CR03_1 DSLPB_1 -1.0
    KERDSL_CR03_1 DSLSUL_1 0.0723529418165577
    KERJET_CR04_1 KERBAL_CR04_1 -1.0
    KERJET_CR04_1 JETBAL_1 -1.0
    KERJET_CR04_1 JETSUL_1 0.11487513588980985
    KERDSL_CR04_1 KERBAL_CR04_1 -1.0
    KERDSL_CR04_1 DSLPB_1 -1.0
    KERDSL_CR04_1 DSLSUL_1 0.36487513588980985
    KERJET_CR05_1 KERBAL_CR05_1 -1.0
    KERJET_CR05_1 JETBAL_1 -1.0
    KERJET_CR05_1 JETSUL_1 -0.011775018143244831
    KERDSL_CR05_1 KERBAL_CR05_1 -1.0
    KERDSL_CR05_1 DSLPB_1 -1.0
    KERDSL_CR05_1 DSLSUL_1 0.23822498185675517
    KERJET_CR06_1 KERBAL_CR06_1 -1.0
    KERJET_CR06_1 JETBAL_1 -1.0
    KERJET_CR06_1 JETSUL_1 -0.029808575954508865
    KERDSL_CR06_1 KERBAL_CR06_1 -1.0
    KERDSL_CR06_1 DSLPB_1 -1.0
    KERDSL_CR06_1 DSLSUL_1 0.22019142404549114
    KERJET_CR07_1 KERBAL_CR07_1 -1.0
    KERJET_CR07_1 JETBAL_1 -1.0
    KERJET_CR07_1 JETSUL_1 -0.2712476417553882
    KERDSL_CR07_1 KERBAL_CR07_1 -1.0
    KERDSL_CR07_1 DSLPB_1 -1.0
    KERDSL_CR07_1 DSLSUL_1 -0.02124764175538822
    KERJET_CR08_1 KERBAL_CR08_1 -1.0
    KERJET_CR08_1 JETBAL_1 -1.0
    KERJET_CR08_1 JETSUL_1 -0.03407788647085286
    KERDSL_CR08_1 KERBAL_CR08_1 -1.0
    KERDSL_CR08_1 DSLPB_1 -1.0
    KERDSL_CR08_1 DSLSUL_1 0.21592211352914714
    KERJET_CR09_1 KERBAL_CR09_1 -1.0
    KERJET_CR09_1 JETBAL_1 -1.0
    KERJET_CR09_1 JETSUL_1 -0.28234525480556727
    KERDSL_CR09_1 KERBAL_CR09_1 -1.0
    KERDSL_CR09_1 DSLPB_1 -1.0
    KERDSL_CR09_1 DSLSUL_1 -0.0323452548055673
    DSLPOOL_1 DSLPB_1 1.0
    DSLPOOL_1 PBAL_DSL_1 1.0
    LPGPOOL_1 LPGBAL_1 1.0
    LPGPOOL_1 PBAL_LPG_1 1.0
    FOPOOL_1 FOBAL_1 1.0
    FOPOOL_1 PBAL_FO_1 1.0
    M2672 'MARKER' 'INTORG'
    NPAR_CR00_2 PARCEL_CR00_2 -20.0
    M2674 'MARKER' 'INTEND'
    BUY_CR00_2 OBJ -59.880123898354434
    BUY_CR00_2 PARCEL_CR00_2 1.0
    BUY_CR00_2 CBAL_CR00_2 1.0
    CINV_CR00_2 OBJ -0.3
    CINV_CR00_2 CBAL_CR00_2 -1.0
    CINV_CR00_2 CBAL_CR00_3 1.0
    CDU_CR00_2 CBAL_CR00_2 -1.0
    CDU_CR00_2 CDUCAP_2 1.0
    CDU_CR00_2 CDUMIN_2 1.0
    CDU_CR00_2 YLPG_CR00_2 -0.013786055933968056
    CDU_CR00_2 YNAP_CR00_2 -0.1214444916358349
    CDU_CR00_2 YKER_CR00_2 -0.10646372452567733
    CDU_CR00_2 YDSL_CR00_2 -0.20292085263352289
    CDU_CR00_2 YVGO_CR00_2 -0.27390944719057636
    CDU_CR00_2 YRES_CR00_2 -0.28147542808042036
    M2690 'MARKER' 'INTORG'
    NPAR_CR01_2 PARCEL_CR01_2 -20.0
    M2692 'MARKER' 'INTEND'
    BUY_CR01_2 OBJ -76.86152375284598
    BUY_CR01_2 PARCEL_CR01_2 1.0
    BUY_CR01_2 CBAL_CR01_2 1.0
    CINV_CR01_2 OBJ -0.3
    CINV_CR01_2 CBAL_CR01_2 -1.0
    CINV_CR01_2 CBAL_CR01_3 1.0
    CDU_CR01_2 CBAL_CR01_2 -1.0
    CDU_CR01_2 CDUCAP_2 1.0
    CDU_CR01_2 CDUMIN_2 1.0
    CDU_CR01_2 YLPG_CR01_2 -0.025127543584387436
    CDU_CR01_2 YNAP_CR01_2 -0.2025917905849106
    CDU_CR01_2 YKER_CR01_2 -0.13410952106049506
    CDU_CR01_2 YDSL_CR01_2 -0.24728591651278542
    CDU_CR01_2 YVGO_CR01_2 -0.22897185950088417
    CDU_CR01_2 YRES_CR01_2 -0.16191336875653717
    M2708 'MARKER' 'INTORG'
    NPAR_CR02_2 PARCEL_CR02_2 -20.0
    M2710 'MARKER' 'INTEND'
    BUY_CR02_2 OBJ -62.94579168013145
    BUY_CR02_2 PARCEL_CR02_2 1.0
    BUY_CR02_2 CBAL_CR02_2 1.0
    CINV_CR02_2 OBJ -0.3
    CINV_CR02_2 CBAL_CR02_2 -1.0
    CINV_CR02_2 CBAL_CR02_3 1.0
    CDU_CR02_2 CBAL_CR02_2 -1.0
    CDU_CR02_2 CDUCAP_2 1.0
    CDU_CR02_2 CDUMIN_2 1.0
    CDU_CR02_2 YLPG_CR02_2 -0.013444753666275039
    CDU_CR02_2 YNAP_CR02_2 -0.11889710072836579
    CDU_CR02_2 YKER_CR02_2 -0.103840437143255
    CDU_CR02_2 YDSL_CR02_2 -0.21229612809407214
    CDU_CR02_2 YVGO_CR02_2 -0.2628713956905896
    CDU_CR02_2 YRES_CR02_2 -0.28865018467744247
    M2726 'MARKER' 'INTORG'
    NPAR_CR03_2 PARCEL_CR03_2 -20.0
    M2728 'MARKER' 'INTEND'
    BUY_CR03_2 OBJ -69.43814427675055
    BUY_CR03_2 PARCEL_CR03_2 1.0
    BUY_CR03_2 CBAL_CR03_2 1.0
    CINV_CR03_2 OBJ -0.3
    CINV_CR03_2 CBAL_CR03_2 -1.0
    CINV_CR03_2 CBAL_CR03_3 1.0
    CDU_CR03_2 CBAL_CR03_2 -1.0
    CDU_CR03_2 CDUCAP_2 1.0
    CDU_CR03_2 CDUMIN_2 1.0
    CDU_CR03_2 YLPG_CR03_2 -0.01400858068810675
    CDU_CR03_2 YNAP_CR03_2 -0.1424923117986131
    CDU_CR03_2 YKER_CR03_2 -0.10784088582669263
    CDU_CR03_2 YDSL_CR03_2 -0.19279120630762445
    CDU_CR03_2 YVGO_CR03_2 -0.28544626211923063
    CDU_CR03_2 YRES_CR03_2 -0.2574207532597324
    M2744 'MARKER' 'INTORG'
    NPAR_CR04_2 PARCEL_CR04_2 -20.0
    M2746 'MARKER' 'INTEND'
    BUY_CR04_2 OBJ -74.87407231253704
    BUY_CR04_2 PARCEL_CR04_2 1.0
    BUY_CR04_2 CBAL_CR04_2 1.0
    CINV_CR04_2 OBJ -0.3
    CINV_CR04_2 CBAL_CR04_2 -1.0
    CINV_CR04_2 CBAL_CR04_3 1.0
    CDU_CR04_2 CBAL_CR04_2 -1.0
    CDU_CR04_2 CDUCAP_2 1.0
    CDU_CR04_2 CDUMIN_2 1.0
    CDU_CR04_2 YLPG_CR04_2 -0.02335213093765316
    CDU_CR04_2 YNAP_CR04_2 -0.2292355396921612
    CDU_CR04_2 YKER_CR04_2 -0.14240695851543803
    CDU_CR04_2 YDSL_CR04_2 -0.24384363627499198
    CDU_CR04_2 YVGO_CR04_2 -0.2465326974706559
    CDU_CR04_2 YRES_CR04_2 -0.1146290371090997
    M2762 'MARKER' 'INTORG'
    NPAR_CR05_2 PARCEL_CR05_2 -20.0
    M2764 'MARKER' 'INTEND'
    BUY_CR05_2 OBJ -67.44311540000527
    BUY_CR05_2 PARCEL_CR05_2 1.0
    BUY_CR05_2 CBAL_CR05_2 1.0
    CINV_CR05_2 OBJ -0.3
    CINV_CR05_2 CBAL_CR05_2 -1.0
    CINV_CR05_2 CBAL_CR05_3 1.0
    CDU_CR05_2 CBAL_CR05_2 -1.0
    CDU_CR05_2 CDUCAP_2 1.0
    CDU_CR05_2 CDUMIN_2 1.0
    CDU_CR05_2 YLPG_CR05_2 -0.01735729802728813
    CDU_CR05_2 YNAP_CR05_2 -0.16608619710065003
    CDU_CR05_2 YKER_CR05_2 -0.1170544437563835
    CDU_CR05_2 YDSL_CR05_2 -0.22299235889970878
    CDU_CR05_2 YVGO_CR05_2 -0.2433490540516293
    CDU_CR05_2 YRES_CR05_2 -0.23316064816434035
    M2780 'MARKER' 'INTORG'
    NPAR_CR06_2 PARCEL_CR06_2 -20.0
    M2782 'MARKER' 'INTEND'
    BUY_CR06_2 OBJ -65.23818307465109
    BUY_CR06_2 PARCEL_CR06_2 1.0
    BUY_CR06_2 CBAL_CR06_2 1.0
    CINV_CR06_2 OBJ -0.3
    CINV_CR06_2 CBAL_CR06_2 -1.0
    CINV_CR06_2 CBAL_CR06_3 1.0
    CDU_CR06_2 CBAL_CR06_2 -1.0
    CDU_CR06_2 CDUCAP_2 1.0
    CDU_CR06_2 CDUMIN_2 1.0
    CDU_CR06_2 YLPG_CR06_2 -0.014219474855875663
    CDU_CR06_2 YNAP_CR06_2 -0.13746806025500902
    CDU_CR06_2 YKER_CR06_2 -0.10533897185985656
    CDU_CR06_2 YDSL_CR06_2 -0.20403840195434858
    CDU_CR06_2 YVGO_CR06_2 -0.26484358994429863
    CDU_CR06_2 YRES_CR06_2 -0.27409150113061165
    M2798 'MARKER' 'INTORG'
    NPAR_CR07_2 PARCEL_CR07_2 -20.0
    M2800 'MARKER' 'INTEND'
    BUY_CR07_2 OBJ -74.61031882718494
    BUY_CR07_2 PARCEL_CR07_2 1.0
    BUY_CR07_2 CBAL_CR07_2 1.0
    CINV_CR07_2 OBJ -0.3
    CINV_CR07_2 CBAL_CR07_2 -1.0
    CINV_CR07_2 CBAL_CR07_3 1.0
    CDU_CR07_2 CBAL_CR07_2 -1.0
    CDU_CR07_2 CDUCAP_2 1.0
    CDU_CR07_2 CDUMIN_2 1.0
    CDU_CR07_2 YLPG_CR07_2 -0.01678766142162217
    CDU_CR07_2 YNAP_CR07_2 -0.18341674311422207
    CDU_CR07_2 YKER_CR07_2 -0.13271469159016522
    CDU_CR07_2 YDSL_CR07_2 -0.2249127244045356
    CDU_CR07_2 YVGO_CR07_2 -0.24848613807316539
    CDU_CR07_2 YRES_CR07_2 -0.19368204139628944
    M2816 'MARKER' 'INTORG'
    NPAR_CR08_2 PARCEL_CR08_2 -20.0
    M2818 'MARKER' 'INTEND'
    BUY_CR08_2 OBJ -72.48830612975584
    BUY_CR08_2 PARCEL_CR08_2 1.0
    BUY_CR08_2 CBAL_CR08_2 1.0
    CINV_CR08_2 OBJ -0.3
    CINV_CR08_2 CBAL_CR08_2 -1.0
    CINV_CR08_2 CBAL_CR08_3 1.0
    CDU_CR08_2 CBAL_CR08_2 -1.0
    CDU_CR08_2 CDUCAP_2 1.0
    CDU_CR08_2 CDUMIN_2 1.0
    CDU_CR08_2 YLPG_CR08_2 -0.023930881960770135
    CDU_CR08_2 YNAP_CR08_2 -0.199474063989656
    CDU_CR08_2 YKER_CR08_2 -0.13012967624359006
    CDU_CR08_2 YDSL_CR08_2 -0.24906213509239003
    CDU_CR08_2 YVGO_CR08_2 -0.24247509330512357
    CDU_CR08_2 YRES_CR08_2 -0.15492814940847022
    M2834 'MARKER' 'INTORG'
    NPAR_CR09_2 PARCEL_CR09_2 -20.0
    M2836 'MARKER' 'INTEND'
    BUY_CR09_2 OBJ -81.61226774118173
    BUY_CR09_2 PARCEL_CR09_2 1.0
    BUY_CR09_2 CBAL_CR09_2 1.0
    CINV_CR09_2 OBJ -0.3
    CINV_CR09_2 CBAL_CR09_2 -1.0
    CINV_CR09_2 CBAL_CR09_3 1.0
    CDU_CR09_2 CBAL_CR09_2 -1.0
    CDU_CR09_2 CDUCAP_2 1.0
    CDU_CR09_2 CDUMIN_2 1.0
    CDU_CR09_2 YLPG_CR09_2 -0.0254414593142613
    CDU_CR09_2 YNAP_CR09_2 -0.2406668892422991
    CDU_CR09_2 YKER_CR09_2 -0.14150533274546892
    CDU_CR09_2 YDSL_CR09_2 -0.23713673044274025
    CDU_CR09_2 YVGO_CR09_2 -0.23566730460149374
    CDU_CR09_2 YRES_CR09_2 -0.11958228365373665
    M2852 'MARKER' 'INTORG'
    CDUMODE_2 OBJ -150.0
    CDUMODE_2 CDUCAP_2 -150.0
    CDUMODE_2 CDUMIN_2 -90.0
    M2856 'MARKER' 'INTEND'
    LPG_CR00_2 YLPG_CR00_2 1.0
    LPG_CR00_2 LPGBAL_2 -1.0
    NAP_CR00_2 YNAP_CR00_2 1.0
    NAP_CR00_2 NAPBAL_CR00_2 1.0
    KER_CR00_2 YKER_CR00_2 1.0
    KER_CR00_2 KERBAL_CR00_2 1.0
    DSL_CR00_2 YDSL_CR00_2 1.0
    DSL_CR00_2 DSLBAL_CR00_2 1.0
    VGO_CR00_2 YVGO_CR00_2 1.0
    VGO_CR00_2 VGOBAL_CR00_2 1.0
    RES_CR00_2 YRES_CR00_2 1.0
    RES_CR00_2 RESSPLIT_CR00_2 1.0
    LPG_CR01_2 YLPG_CR01_2 1.0
    LPG_CR01_2 LPGBAL_2 -1.0
    NAP_CR01_2 YNAP_CR01_2 1.0
    NAP_CR01_2 NAPBAL_CR01_2 1.0
    KER_CR01_2 YKER_CR01_2 1.0
    KER_CR01_2 KERBAL_CR01_2 1.0
    DSL_CR01_2 YDSL_CR01_2 1.0
    DSL_CR01_2 DSLBAL_CR01_2 1.0
    VGO_CR01_2 YVGO_CR01_2 1.0
    VGO_CR01_2 VGOBAL_CR01_2 1.0
    RES_CR01_2 YRES_CR01_2 1.0
    RES_CR01_2 RESSPLIT_CR01_2 1.0
    LPG_CR02_2 YLPG_CR02_2 1.0
    LPG_CR02_2 LPGBAL_2 -1.0
    NAP_CR02_2 YNAP_CR02_2 1.0
    NAP_CR02_2 NAPBAL_CR02_2 1.0
    KER_CR02_2 YKER_CR02_2 1.0
    KER_CR02_2 KERBAL_CR02_2 1.0
    DSL_CR02_2 YDSL_CR02_2 1.0
    DSL_CR02_2 DSLBAL_CR02_2 1.0
    VGO_CR02_2 YVGO_CR02_2 1.0
    VGO_CR02_2 VGOBAL_CR02_2 1.0
    RES_CR02_2 YRES_CR02_2 1.0
    RES_CR02_2 RESSPLIT_CR02_2 1.0
    LPG_CR03_2 YLPG_CR03_2 1.0
    LPG_CR03_2 LPGBAL_2 -1.0
    NAP_CR03_2 YNAP_CR03_2 1.0
    NAP_CR03_2 NAPBAL_CR03_2 1.0
    KER_CR03_2 YKER_CR03_2 1.0
    KER_CR03_2 KERBAL_CR03_2 1.0
    DSL_CR03_2 YDSL_CR03_2 1.0
    DSL_CR03_2 DSLBAL_CR03_2 1.0
    VGO_CR03_2 YVGO_CR03_2 1.0
    VGO_CR03_2 VGOBAL_CR03_2 1.0
    RES_CR03_2 YRES_CR03_2 1.0
    RES_CR03_2 RESSPLIT_CR03_2 1.0
    LPG_CR04_2 YLPG_CR04_2 1.0
    LPG_CR04_2 LPGBAL_2 -1.0
    NAP_CR04_2 YNAP_CR04_2 1.0
    NAP_CR04_2 NAPBAL_CR04_2 1.0
    KER_CR04_2 YKER_CR04_2 1.0
    KER_CR04_2 KERBAL_CR04_2 1.0
    DSL_CR04_2 YDSL_CR04_2 1.0
    DSL_CR04_2 DSLBAL_CR04_2 1.0
    VGO_CR04_2 YVGO_CR04_2 1.0
    VGO_CR04_2 VGOBAL_CR04_2 1.0
    RES_CR04_2 YRES_CR04_2 1.0
    RES_CR04_2 RESSPLIT_CR04_2 1.0
    LPG_CR05_2 YLPG_CR05_2 1.0
    LPG_CR05_2 LPGBAL_2 -1.0
    NAP_CR05_2 YNAP_CR05_2 1.0
    NAP_CR05_2 NAPBAL_CR05_2 1.0
    KER_CR05_2 YKER_CR05_2 1.0
    KER_CR05_2 KERBAL_CR05_2 1.0
    DSL_CR05_2 YDSL_CR05_2 1.0
    DSL_CR05_2 DSLBAL_CR05_2 1.0
    VGO_CR05_2 YVGO_CR05_2 1.0
    VGO_CR05_2 VGOBAL_CR05_2 1.0
    RES_CR05_2 YRES_CR05_2 1.0
    RES_CR05_2 RESSPLIT_CR05_2 1.0
    LPG_CR06_2 YLPG_CR06_2 1.0
    LPG_CR06_2 LPGBAL_2 -1.0
    NAP_CR06_2 YNAP_CR06_2 1.0
    NAP_CR06_2 NAPBAL_CR06_2 1.0
    KER_CR06_2 YKER_CR06_2 1.0
    KER_CR06_2 KERBAL_CR06_2 1.0
    DSL_CR06_2 YDSL_CR06_2 1.0
    DSL_CR06_2 DSLBAL_CR06_2 1.0
    VGO_CR06_2 YVGO_CR06_2 1.0
    VGO_CR06_2 VGOBAL_CR06_2 1.0
    RES_CR06_2 YRES_CR06_2 1.0
    RES_CR06_2 RESSPLIT_CR06_2 1.0
    LPG_CR07_2 YLPG_CR07_2 1.0
    LPG_CR07_2 LPGBAL_2 -1.0
    NAP_CR07_2 YNAP_CR07_2 1.0
    NAP_CR07_2 NAPBAL_CR07_2 1.0
    KER_CR07_2 YKER_CR07_2 1.0
    KER_CR07_2 KERBAL_CR07_2 1.0
    DSL_CR07_2 YDSL_CR07_2 1.0
    DSL_CR07_2 DSLBAL_CR07_2 1.0
    VGO_CR07_2 YVGO_CR07_2 1.0
    VGO_CR07_2 VGOBAL_CR07_2 1.0
    RES_CR07_2 YRES_CR07_2 1.0
    RES_CR07_2 RESSPLIT_CR07_2 1.0
    LPG_CR08_2 YLPG_CR08_2 1.0
    LPG_CR08_2 LPGBAL_2 -1.0
    NAP_CR08_2 YNAP_CR08_2 1.0
    NAP_CR08_2 NAPBAL_CR08_2 1.0
    KER_CR08_2 YKER_CR08_2 1.0
    KER_CR08_2 KERBAL_CR08_2 1.0
    DSL_CR08_2 YDSL_CR08_2 1.0
    DSL_CR08_2 DSLBAL_CR08_2 1.0
    VGO_CR08_2 YVGO_CR08_2 1.0
    VGO_CR08_2 VGOBAL_CR08_2 1.0
    RES_CR08_2 YRES_CR08_2 1.0
    RES_CR08_2 RESSPLIT_CR08_2 1.0
    LPG_CR09_2 YLPG_CR09_2 1.0
    LPG_CR09_2 LPGBAL_2 -1.0
    NAP_CR09_2 YNAP_CR09_2 1.0
    NAP_CR09_2 NAPBAL_CR09_2 1.0
    KER_CR09_2 YKER_CR09_2 1.0
    KER_CR09_2 KERBAL_CR09_2 1.0
    DSL_CR09_2 YDSL_CR09_2 1.0
    DSL_CR09_2 DSLBAL_CR09_2 1.0
    VGO_CR09_2 YVGO_CR09_2 1.0
    VGO_CR09_2 VGOBAL_CR09_2 1.0
    RES_CR09_2 YRES_CR09_2 1.0
    RES_CR09_2 RESSPLIT_CR09_2 1.0
    VDUIN_CR00_2 RESSPLIT_CR00_2 -1.0
    VDUIN_CR00_2 VDUY1_CR00_2 -0.45
    VDUIN_CR00_2 VDUY2_CR00_2 -0.55
    VDUIN_CR00_2 VDUCAP_2 1.0
    RESFO_CR00_2 RESSPLIT_CR00_2 -1.0
    RESFO_CR00_2 FOBAL_2 -1.0
    RESFO_CR00_2 FOSUL_2 1.9540891690108433
    VGO2_CR00_2 VDUY1_CR00_2 1.0
    VGO2_CR00_2 VGOBAL_CR00_2 1.0
    VR_CR00_2 VDUY2_CR00_2 1.0
    VR_CR00_2 FOBAL_2 -1.0
    VR_CR00_2 FOSUL_2 3.5903159197140964
    VDUIN_CR01_2 RESSPLIT_CR01_2 -1.0
    VDUIN_CR01_2 VDUY1_CR01_2 -0.45
    VDUIN_CR01_2 VDUY2_CR01_2 -0.55
    VDUIN_CR01_2 VDUCAP_2 1.0
    RESFO_CR01_2 RESSPLIT_CR01_2 -1.0
    RESFO_CR01_2 FOBAL_2 -1.0
    RESFO_CR01_2 FOSUL_2 -0.6168441789886687
    VGO2_CR01_2 VDUY1_CR01_2 1.0
    VGO2_CR01_2 VGOBAL_CR01_2 1.0
    VR_CR01_2 VDUY2_CR01_2 1.0
    VR_CR01_2 FOBAL_2 -1.0
    VR_CR01_2 FOSUL_2 0.24810256731473057
    VDUIN_CR02_2 RESSPLIT_CR02_2 -1.0
    VDUIN_CR02_2 VDUY1_CR02_2 -0.45
    VDUIN_CR02_2 VDUY2_CR02_2 -0.55
    VDUIN_CR02_2 VDUCAP_2 1.0
    RESFO_CR02_2 RESSPLIT_CR02_2 -1.0
    RESFO_CR02_2 FOBAL_2 -1.0
    RESFO_CR02_2 FOSUL_2 0.05675733131967897
    VGO2_CR02_2 VDUY1_CR02_2 1.0
    VGO2_CR02_2 VGOBAL_CR02_2 1.0
    VR_CR02_2 VDUY2_CR02_2 1.0
    VR_CR02_2 FOBAL_2 -1.0
    VR_CR02_2 FOSUL_2 1.1237845307155832
    VDUIN_CR03_2 RESSPLIT_CR03_2 -1.0
    VDUIN_CR03_2 VDUY1_CR03_2 -0.45
    VDUIN_CR03_2 VDUY2_CR03_2 -0.55
    VDUIN_CR03_2 VDUCAP_2 1.0
    RESFO_CR03_2 RESSPLIT_CR03_2 -1.0
    RESFO_CR03_2 FOBAL_2 -1.0
    RESFO_CR03_2 FOSUL_2 -1.8686274424458973
    VGO2_CR03_2 VDUY1_CR03_2 1.0
    VGO2_CR03_2 VGOBAL_CR03_2 1.0
    VR_CR03_2 VDUY2_CR03_2 1.0
    VR_CR03_2 FOBAL_2 -1.0
    VR_CR03_2 FOSUL_2 -1.3792156751796663
    VDUIN_CR04_2 RESSPLIT_CR04_2 -1.0
    VDUIN_CR04_2 VDUY1_CR04_2 -0.45
    VDUIN_CR04_2 VDUY2_CR04_2 -0.55
    VDUIN_CR04_2 VDUCAP_2 1.0
    RESFO_CR04_2 RESSPLIT_CR04_2 -1.0
    RESFO_CR04_2 FOBAL_2 -1.0
    RESFO_CR04_2 FOSUL_2 2.031668478530798
    VGO2_CR04_2 VDUY1_CR04_2 1.0
    VGO2_CR04_2 VGOBAL_CR04_2 1.0
    VR_CR04_2 VDUY2_CR04_2 1.0
    VR_CR04_2 FOBAL_2 -1.0
    VR_CR04_2 FOSUL_2 3.6911690220900377
    VDUIN_CR05_2 RESSPLIT_CR05_2 -1.0
    VDUIN_CR05_2 VDUY1_CR05_2 -0.45
    VDUIN_CR05_2 VDUY2_CR05_2 -0.55
    VDUIN_CR05_2 VDUCAP_2 1.0
    RESFO_CR05_2 RESSPLIT_CR05_2 -1.0
    RESFO_CR05_2 FOBAL_2 -1.0
    RESFO_CR05_2 FOSUL_2 0.3429997580900688
    VGO2_CR05_2 VDUY1_CR05_2 1.0
    VGO2_CR05_2 VGOBAL_CR05_2 1.0
    VR_CR05_2 VDUY2_CR05_2 1.0
    VR_CR05_2 FOBAL_2 -1.0
    VR_CR05_2 FOSUL_2 1.4958996855170898
    VDUIN_CR06_2 RESSPLIT_CR06_2 -1.0
    VDUIN_CR06_2 VDUY1_CR06_2 -0.45
    VDUIN_CR06_2 VDUY2_CR06_2 -0.55
    VDUIN_CR06_2 VDUCAP_2 1.0
    RESFO_CR06_2 RESSPLIT_CR06_2 -1.0
    RESFO_CR06_2 FOBAL_2 -1.0
    RESFO_CR06_2 FOSUL_2 0.10255232060654862
    VGO2_CR06_2 VDUY1_CR06_2 1.0
    VGO2_CR06_2 VGOBAL_CR06_2 1.0
    VR_CR06_2 VDUY2_CR06_2 1.0
    VR_CR06_2 FOBAL_2 -1.0
    VR_CR06_2 FOSUL_2 1.1833180167885136
    VDUIN_CR07_2 RESSPLIT_CR07_2 -1.0
    VDUIN_CR07_2 VDUY1_CR07_2 -0.45
    VDUIN_CR07_2 VDUY2_CR07_2 -0.55
    VDUIN_CR07_2 VDUCAP_2 1.0
    RESFO_CR07_2 RESSPLIT_CR07_2 -1.0
    RESFO_CR07_2 FOBAL_2 -1.0
    RESFO_CR07_2 FOSUL_2 -3.116635223405176
    VGO2_CR07_2 VDUY1_CR07_2 1.0
    VGO2_CR07_2 VGOBAL_CR07_2 1.0
    VR_CR07_2 VDUY2_CR07_2 1.0
    VR_CR07_2 FOBAL_2 -1.0
    VR_CR07_2 FOSUL_2 -3.001625790426729
    VDUIN_CR08_2 RESSPLIT_CR08_2 -1.0
    VDUIN_CR08_2 VDUY1_CR08_2 -0.45
    VDUIN_CR08_2 VDUY2_CR08_2 -0.55
    VDUIN_CR08_2 VDUCAP_2 1.0
    RESFO_CR08_2 RESSPLIT_CR08_2 -1.0
    RESFO_CR08_2 FOBAL_2 -1.0
    RESFO_CR08_2 FOSUL_2 0.0456281803886287
    VGO2_CR08_2 VDUY1_CR08_2 1.0
    VGO2_CR08_2 VGOBAL_CR08_2 1.0
    VR_CR08_2 VDUY2_CR08_2 1.0
    VR_CR08_2 FOBAL_2 -1.0
    VR_CR08_2 FOSUL_2 1.109316634505218
    VDUIN_CR09_2 RESSPLIT_CR09_2 -1.0
    VDUIN_CR09_2 VDUY1_CR09_2 -0.45
    VDUIN_CR09_2 VDUY2_CR09_2 -0.55
    VDUIN_CR09_2 VDUCAP_2 1.0
    RESFO_CR09_2 RESSPLIT_CR09_2 -1.0
    RESFO_CR09_2 FOBAL_2 -1.0
    RESFO_CR09_2 FOSUL_2 -3.264603397407564
    VGO2_CR09_2 VDUY1_CR09_2 1.0
    VGO2_CR09_2 VGOBAL_CR09_2 1.0
    VR_CR09_2 VDUY2_CR09_2 1.0
    VR_CR09_2 FOBAL_2 -1.0
    VR_CR09_2 FOSUL_2 -3.1939844166298332
    FCCIN_CR00_2 OBJ -2.5
    FCCIN_CR00_2 VGOBAL_CR00_2 -1.0
    FCCIN_CR00_2 FCCCAP_2 1.0
    FCCIN_CR00_2 FCCY_FCCG_2 -0.55
    FCCIN_CR00_2 FCCY_LCO_2 -0.2
    FCCIN_CR00_2 FCCY_FLPG_2 -0.15
    FCCIN_CR00_2 FCCY_SLURRY_2 -0.07
    FCCIN_CR01_2 OBJ -2.5
    FCCIN_CR01_2 VGOBAL_CR01_2 -1.0
    FCCIN_CR01_2 FCCCAP_2 1.0
    FCCIN_CR01_2 FCCY_FCCG_2 -0.55
    FCCIN_CR01_2 FCCY_LCO_2 -0.2
    FCCIN_CR01_2 FCCY_FLPG_2 -0.15
    FCCIN_CR01_2 FCCY_SLURRY_2 -0.07
    FCCIN_CR02_2 OBJ -2.5
    FCCIN_CR02_2 VGOBAL_CR02_2 -1.0
    FCCIN_CR02_2 FCCCAP_2 1.0
    FCCIN_CR02_2 FCCY_FCCG_2 -0.55
    FCCIN_CR02_2 FCCY_LCO_2 -0.2
    FCCIN_CR02_2 FCCY_FLPG_2 -0.15
    FCCIN_CR02_2 FCCY_SLURRY_2 -0.07
    FCCIN_CR03_2 OBJ -2.5
    FCCIN_CR03_2 VGOBAL_CR03_2 -1.0
    FCCIN_CR03_2 FCCCAP_2 1.0
    FCCIN_CR03_2 FCCY_FCCG_2 -0.55
    FCCIN_CR03_2 FCCY_LCO_2 -0.2
    FCCIN_CR03_2 FCCY_FLPG_2 -0.15
    FCCIN_CR03_2 FCCY_SLURRY_2 -0.07
    FCCIN_CR04_2 OBJ -2.5
    FCCIN_CR04_2 VGOBAL_CR04_2 -1.0
    FCCIN_CR04_2 FCCCAP_2 1.0
    FCCIN_CR04_2 FCCY_FCCG_2 -0.55
    FCCIN_CR04_2 FCCY_LCO_2 -0.2
    FCCIN_CR04_2 FCCY_FLPG_2 -0.15
    FCCIN_CR04_2 FCCY_SLURRY_2 -0.07
    FCCIN_CR05_2 OBJ -2.5
    FCCIN_CR05_2 VGOBAL_CR05_2 -1.0
    FCCIN_CR05_2 FCCCAP_2 1.0
    FCCIN_CR05_2 FCCY_FCCG_2 -0.55
    FCCIN_CR05_2 FCCY_LCO_2 -0.2
    FCCIN_CR05_2 FCCY_FLPG_2 -0.15
    FCCIN_CR05_2 FCCY_SLURRY_2 -0.07
    FCCIN_CR06_2 OBJ -2.5
    FCCIN_CR06_2 VGOBAL_CR06_2 -1.0
    FCCIN_CR06_2 FCCCAP_2 1.0
    FCCIN_CR06_2 FCCY_FCCG_2 -0.55
    FCCIN_CR06_2 FCCY_LCO_2 -0.2
    FCCIN_CR06_2 FCCY_FLPG_2 -0.15
    FCCIN_CR06_2 FCCY_SLURRY_2 -0.07
    FCCIN_CR07_2 OBJ -2.5
    FCCIN_CR07_2 VGOBAL_CR07_2 -1.0
    FCCIN_CR07_2 FCCCAP_2 1.0
    FCCIN_CR07_2 FCCY_FCCG_2 -0.55
    FCCIN_CR07_2 FCCY_LCO_2 -0.2
    FCCIN_CR07_2 FCCY_FLPG_2 -0.15
    FCCIN_CR07_2 FCCY_SLURRY_2 -0.07
    FCCIN_CR08_2 OBJ -2.5
    FCCIN_CR08_2 VGOBAL_CR08_2 -1.0
    FCCIN_CR08_2 FCCCAP_2 1.0
    FCCIN_CR08_2 FCCY_FCCG_2 -0.55
    FCCIN_CR08_2 FCCY_LCO_2 -0.2
    FCCIN_CR08_2 FCCY_FLPG_2 -0.15
    FCCIN_CR08_2 FCCY_SLURRY_2 -0.07
    FCCIN_CR09_2 OBJ -2.5
    FCCIN_CR09_2 VGOBAL_CR09_2 -1.0
    FCCIN_CR09_2 FCCCAP_2 1.0
    FCCIN_CR09_2 FCCY_FCCG_2 -0.55
    FCCIN_CR09_2 FCCY_LCO_2 -0.2
    FCCIN_CR09_2 FCCY_FLPG_2 -0.15
    FCCIN_CR09_2 FCCY_SLURRY_2 -0.07
    FCCG_2 FCCY_FCCG_2 1.0
    FCCG_2 GASBAL_2 -1.0
    FCCG_2 GASRON_2 1.0
    LCO_2 FCCY_LCO_2 1.0
    LCO_2 LCOBAL_2 1.0
    FLPG_2 FCCY_FLPG_2 1.0
    FLPG_2 LPGBAL_2 -1.0
    SLURRY_2 FCCY_SLURRY_2 1.0
    SLURRY_2 FOBAL_2 -1.0
    SLURRY_2 FOSUL_2 -1.5
    REFIN_CR00_2 OBJ -3.0
    REFIN_CR00_2 NAPBAL_CR00_2 -1.0
    REFIN_CR00_2 REFCAP_2 1.0
    REFIN_CR00_2 REFY_2 -0.85
    NAPGAS_CR00_2 NAPBAL_CR00_2 -1.0
    NAPGAS_CR00_2 GASBAL_2 -1.0
    NAPGAS_CR00_2 GASRON_2 -41.351908455631545
    REFIN_CR01_2 OBJ -3.0
    REFIN_CR01_2 NAPBAL_CR01_2 -1.0
    REFIN_CR01_2 REFCAP_2 1.0
    REFIN_CR01_2 REFY_2 -0.85
    NAPGAS_CR01_2 NAPBAL_CR01_2 -1.0
    NAPGAS_CR01_2 GASBAL_2 -1.0
    NAPGAS_CR01_2 GASRON_2 -33.623043958680114
    REFIN_CR02_2 OBJ -3.0
    REFIN_CR02_2 NAPBAL_CR02_2 -1.0
    REFIN_CR02_2 REFCAP_2 1.0
    REFIN_CR02_2 REFY_2 -0.85
    NAPGAS_CR02_2 NAPBAL_CR02_2 -1.0
    NAPGAS_CR02_2 GASBAL_2 -1.0
    NAPGAS_CR02_2 GASRON_2 -39.74522208078083
    REFIN_CR03_2 OBJ -3.0
    REFIN_CR03_2 NAPBAL_CR03_2 -1.0
    REFIN_CR03_2 REFCAP_2 1.0
    REFIN_CR03_2 REFY_2 -0.85
    NAPGAS_CR03_2 NAPBAL_CR03_2 -1.0
    NAPGAS_CR03_2 GASBAL_2 -1.0
    NAPGAS_CR03_2 GASRON_2 -39.32063345179839
    REFIN_CR04_2 OBJ -3.0
    REFIN_CR04_2 NAPBAL_CR04_2 -1.0
    REFIN_CR04_2 REFCAP_2 1.0
    REFIN_CR04_2 REFY_2 -0.85
    NAPGAS_CR04_2 NAPBAL_CR04_2 -1.0
    NAPGAS_CR04_2 GASBAL_2 -1.0
    NAPGAS_CR04_2 GASRON_2 -28.06018906757886
    REFIN_CR05_2 OBJ -3.0
    REFIN_CR05_2 NAPBAL_CR05_2 -1.0
    REFIN_CR05_2 REFCAP_2 1.0
    REFIN_CR05_2 REFY_2 -0.85
    NAPGAS_CR05_2 NAPBAL_CR05_2 -1.0
    NAPGAS_CR05_2 GASBAL_2 -1.0
    NAPGAS_CR05_2 GASRON_2 -37.177062383933254
    REFIN_CR06_2 OBJ -3.0
    REFIN_CR06_2 NAPBAL_CR06_2 -1.0
    REFIN_CR06_2 REFCAP_2 1.0
    REFIN_CR06_2 REFY_2 -0.85
    NAPGAS_CR06_2 NAPBAL_CR06_2 -1.0
    NAPGAS_CR06_2 GASBAL_2 -1.0
    NAPGAS_CR06_2 GASRON_2 -38.73738801284508
    REFIN_CR07_2 OBJ -3.0
    REFIN_CR07_2 NAPBAL_CR07_2 -1.0
    REFIN_CR07_2 REFCAP_2 1.0
    REFIN_CR07_2 REFY_2 -0.85
    NAPGAS_CR07_2 NAPBAL_CR07_2 -1.0
    NAPGAS_CR07_2 GASBAL_2 -1.0
    NAPGAS_CR07_2 GASRON_2 -31.720911449683953
    REFIN_CR08_2 OBJ -3.0
    REFIN_CR08_2 NAPBAL_CR08_2 -1.0
    REFIN_CR08_2 REFCAP_2 1.0
    REFIN_CR08_2 REFY_2 -0.85
    NAPGAS_CR08_2 NAPBAL_CR08_2 -1.0
    NAPGAS_CR08_2 GASBAL_2 -1.0
    NAPGAS_CR08_2 GASRON_2 -31.236267605063702
    REFIN_CR09_2 OBJ -3.0
    REFIN_CR09_2 NAPBAL_CR09_2 -1.0
    REFIN_CR09_2 REFCAP_2 1.0
    REFIN_CR09_2 REFY_2 -0.85
    NAPGAS_CR09_2 NAPBAL_CR09_2 -1.0
    NAPGAS_CR09_2 GASBAL_2 -1.0
    NAPGAS_CR09_2 GASRON_2 -29.9151768258086
    REFORMATE_2 REFY_2 1.0
    REFORMATE_2 GASBAL_2 -1.0
    REFORMATE_2 GASRON_2 7.0
    DHTIN_CR00_2 OBJ -2.0
    DHTIN_CR00_2 DSLBAL_CR00_2 -1.0
    DHTIN_CR00_2 DHTCAP_2 1.0
    DHTIN_CR00_2 DHTY_2 -0.98
    DSLDIR_CR00_2 DSLBAL_CR00_2 -1.0
    DSLDIR_CR00_2 DSLPB_2 -1.0
    DSLDIR_CR00_2 DSLSUL_2 1.5862267507032528
    DHTIN_CR01_2 OBJ -2.0
    DHTIN_CR01_2 DSLBAL_CR01_2 -1.0
    DHTIN_CR01_2 DHTCAP_2 1.0
    DHTIN_CR01_2 DHTY_2 -0.98
    DSLDIR_CR01_2 DSLBAL_CR01_2 -1.0
    DSLDIR_CR01_2 DSLPB_2 -1.0
    DSLDIR_CR01_2 DSLSUL_2 0.8149467463033994
    DHTIN_CR02_2 OBJ -2.0
    DHTIN_CR02_2 DSLBAL_CR02_2 -1.0
    DHTIN_CR02_2 DHTCAP_2 1.0
    DHTIN_CR02_2 DHTY_2 -0.98
    DSLDIR_CR02_2 DSLBAL_CR02_2 -1.0
    DSLDIR_CR02_2 DSLPB_2 -1.0
    DSLDIR_CR02_2 DSLSUL_2 1.0170271993959037
    DHTIN_CR03_2 OBJ -2.0
    DHTIN_CR03_2 DSLBAL_CR03_2 -1.0
    DHTIN_CR03_2 DHTCAP_2 1.0
    DHTIN_CR03_2 DHTY_2 -0.98
    DSLDIR_CR03_2 DSLBAL_CR03_2 -1.0
    DSLDIR_CR03_2 DSLPB_2 -1.0
    DSLDIR_CR03_2 DSLSUL_2 0.4394117672662308
    DHTIN_CR04_2 OBJ -2.0
    DHTIN_CR04_2 DSLBAL_CR04_2 -1.0
    DHTIN_CR04_2 DHTCAP_2 1.0
    DHTIN_CR04_2 DHTY_2 -0.98
    DSLDIR_CR04_2 DSLBAL_CR04_2 -1.0
    DSLDIR_CR04_2 DSLPB_2 -1.0
    DSLDIR_CR04_2 DSLSUL_2 1.6095005435592393
    DHTIN_CR05_2 OBJ -2.0
    DHTIN_CR05_2 DSLBAL_CR05_2 -1.0
    DHTIN_CR05_2 DHTCAP_2 1.0
    DHTIN_CR05_2 DHTY_2 -0.98
    DSLDIR_CR05_2 DSLBAL_CR05_2 -1.0
    DSLDIR_CR05_2 DSLPB_2 -1.0
    DSLDIR_CR05_2 DSLSUL_2 1.1028999274270206
    DHTIN_CR06_2 OBJ -2.0
    DHTIN_CR06_2 DSLBAL_CR06_2 -1.0
    DHTIN_CR06_2 DHTCAP_2 1.0
    DHTIN_CR06_2 DHTY_2 -0.98
    DSLDIR_CR06_2 DSLBAL_CR06_2 -1.0
    DSLDIR_CR06_2 DSLPB_2 -1.0
    DSLDIR_CR06_2 DSLSUL_2 1.0307656961819645
    DHTIN_CR07_2 OBJ -2.0
    DHTIN_CR07_2 DSLBAL_CR07_2 -1.0
    DHTIN_CR07_2 DHTCAP_2 1.0
    DHTIN_CR07_2 DHTY_2 -0.98
    DSLDIR_CR07_2 DSLBAL_CR07_2 -1.0
    DSLDIR_CR07_2 DSLPB_2 -1.0
    DSLDIR_CR07_2 DSLSUL_2 0.06500943297844713
    DHTIN_CR08_2 OBJ -2.0
    DHTIN_CR08_2 DSLBAL_CR08_2 -1.0
    DHTIN_CR08_2 DHTCAP_2 1.0
    DHTIN_CR08_2 DHTY_2 -0.98
    DSLDIR_CR08_2 DSLBAL_CR08_2 -1.0
    DSLDIR_CR08_2 DSLPB_2 -1.0
    DSLDIR_CR08_2 DSLSUL_2 1.0136884541165885
    DHTIN_CR09_2 OBJ -2.0
    DHTIN_CR09_2 DSLBAL_CR09_2 -1.0
    DHTIN_CR09_2 DHTCAP_2 1.0
    DHTIN_CR09_2 DHTY_2 -0.98
    DSLDIR_CR09_2 DSLBAL_CR09_2 -1.0
    DSLDIR_CR09_2 DSLPB_2 -1.0
    DSLDIR_CR09_2 DSLSUL_2 0.020618980777730833
    LCODHT_2 LCOBAL_2 -1.0
    LCODHT_2 DHTCAP_2 1.0
    LCODHT_2 DHTY_2 -0.95
    LCOFO_2 LCOBAL_2 -1.0
    LCOFO_2 FOBAL_2 -1.0
    LCOFO_2 FOSUL_2 -2.5
    ULSD_2 DHTY_2 1.0
    ULSD_2 DSLPB_2 -1.0
    ULSD_2 DSLSUL_2 -0.049
    SELL_LPG_2 OBJ 59.76313972081441
    SELL_LPG_2 PBAL_LPG_2 -1.0
    SELL_LPG_2 DMAX_LPG_2 1.0
    SELL_LPG_2 DMIN_LPG_2 1.0
    SELL_GAS_2 OBJ 114.0932667397366
    SELL_GAS_2 PBAL_GAS_2 -1.0
    SELL_GAS_2 DMAX_GAS_2 1.0
    SELL_GAS_2 DMIN_GAS_2 1.0
    SELL_JET_2 OBJ 108.66025403784438
    SELL_JET_2 PBAL_JET_2 -1.0
    SELL_JET_2 DMAX_JET_2 1.0
    SELL_JET_2 DMIN_JET_2 1.0
    SELL_DSL_2 OBJ 106.4870489570875
    SELL_DSL_2 PBAL_DSL_2 -1.0
    SELL_DSL_2 DMAX_DSL_2 1.0
    SELL_DSL_2 DMIN_DSL_2 1.0
    SELL_FO_2 OBJ 65.19615242270663
    SELL_FO_2 PBAL_FO_2 -1.0
    SELL_FO_2 DMAX_FO_2 1.0
    SELL_FO_2 DMIN_FO_2 1.0
    PINV_LPG_2 OBJ -0.5
    PINV_LPG_2 PBAL_LPG_2 -1.0
    PINV_LPG_2 PBAL_LPG_3 1.0
    PINV_GAS_2 OBJ -0.5
    PINV_GAS_2 PBAL_GAS_2 -1.0
    PINV_GAS_2 PBAL_GAS_3 1.0
    PINV_JET_2 OBJ -0.5
    PINV_JET_2 PBAL_JET_2 -1.0
    PINV_JET_2 PBAL_JET_3 1.0
    PINV_DSL_2 OBJ -0.5
    PINV_DSL_2 PBAL_DSL_2 -1.0
    PINV_DSL_2 PBAL_DSL_3 1.0
    PINV_FO_2 OBJ -0.5
    PINV_FO_2 PBAL_FO_2 -1.0
    PINV_FO_2 PBAL_FO_3 1.0
    SHORT_LPG_2 OBJ -400.0
    SHORT_LPG_2 DMIN_LPG_2 1.0
    SHORT_GAS_2 OBJ -400.0
    SHORT_GAS_2 DMIN_GAS_2 1.0
    SHORT_JET_2 OBJ -400.0
    SHORT_JET_2 DMIN_JET_2 1.0
    SHORT_DSL_2 OBJ -400.0
    SHORT_DSL_2 DMIN_DSL_2 1.0
    SHORT_FO_2 OBJ -400.0
    SHORT_FO_2 DMIN_FO_2 1.0
    GASPOOL_2 GASBAL_2 1.0
    GASPOOL_2 PBAL_GAS_2 1.0
    JETPOOL_2 JETBAL_2 1.0
    JETPOOL_2 PBAL_JET_2 1.0
    KERJET_CR00_2 KERBAL_CR00_2 -1.0
    KERJET_CR00_2 JETBAL_2 -1.0
    KERJET_CR00_2 JETSUL_2 0.10905668767581322
    KERDSL_CR00_2 KERBAL_CR00_2 -1.0
    KERDSL_CR00_2 DSLPB_2 -1.0
    KERDSL_CR00_2 DSLSUL_2 0.3590566876758132
    KERJET_CR01_2 KERBAL_CR01_2 -1.0
    KERJET_CR01_2 JETBAL_2 -1.0
    KERJET_CR01_2 JETSUL_2 -0.08376331342415014
    KERDSL_CR01_2 KERBAL_CR01_2 -1.0
    KERDSL_CR01_2 DSLPB_2 -1.0
    KERDSL_CR01_2 DSLSUL_2 0.16623668657584983
    KERJET_CR02_2 KERBAL_CR02_2 -1.0
    KERJET_CR02_2 JETBAL_2 -1.0
    KERJET_CR02_2 JETSUL_2 -0.033243200151024055
    KERDSL_CR02_2 KERBAL_CR02_2 -1.0
    KERDSL_CR02_2 DSLPB_2 -1.0
    KERDSL_CR02_2 DSLSUL_2 0.21675679984897595
    KERJET_CR03_2 KERBAL_CR03_2 -1.0
    KERJET_CR03_2 JETBAL_2 -1.0
    KERJET_CR03_2 JETSUL_2 -0.17764705818344229
    KERDSL_CR03_2 KERBAL_CR03_2 -1.0
    KERDSL_CR03_2 DSLPB_2 -1.0
    KERDSL_CR03_2 DSLSUL_2 0.0723529418165577
    KERJET_CR04_2 KERBAL_CR04_2 -1.0
    KERJET_CR04_2 JETBAL_2 -1.0
    KERJET_CR04_2 JETSUL_2 0.11487513588980985
    KERDSL_CR04_2 KERBAL_CR04_2 -1.0
    KERDSL_CR04_2 DSLPB_2 -1.0
    KERDSL_CR04_2 DSLSUL_2 0.36487513588980985
    KERJET_CR05_2 KERBAL_CR05_2 -1.0
    KERJET_CR05_2 JETBAL_2 -1.0
    KERJET_CR05_2 JETSUL_2 -0.011775018143244831
    KERDSL_CR05_2 KERBAL_CR05_2 -1.0
    KERDSL_CR05_2 DSLPB_2 -1.0
    KERDSL_CR05_2 DSLSUL_2 0.23822498185675517
    KERJET_CR06_2 KERBAL_CR06_2 -1.0
    KERJET_CR06_2 JETBAL_2 -1.0
    KERJET_CR06_2 JETSUL_2 -0.029808575954508865
    KERDSL_CR06_2 KERBAL_CR06_2 -1.0
    KERDSL_CR06_2 DSLPB_2 -1.0
    KERDSL_CR06_2 DSLSUL_2 0.22019142404549114
    KERJET_CR07_2 KERBAL_CR07_2 -1.0
    KERJET_CR07_2 JETBAL_2 -1.0
    KERJET_CR07_2 JETSUL_2 -0.2712476417553882
    KERDSL_CR07_2 KERBAL_CR07_2 -1.0
    KERDSL_CR07_2 DSLPB_2 -1.0
    KERDSL_CR07_2 DSLSUL_2 -0.02124764175538822
    KERJET_CR08_2 KERBAL_CR08_2 -1.0
    KERJET_CR08_2 JETBAL_2 -1.0
    KERJET_CR08_2 JETSUL_2 -0.03407788647085286
    KERDSL_CR08_2 KERBAL_CR08_2 -1.0
    KERDSL_CR08_2 DSLPB_2 -1.0
    KERDSL_CR08_2 DSLSUL_2 0.21592211352914714
    KERJET_CR09_2 KERBAL_CR09_2 -1.0
    KERJET_CR09_2 JETBAL_2 -1.0
    KERJET_CR09_2 JETSUL_2 -0.28234525480556727
    KERDSL_CR09_2 KERBAL_CR09_2 -1.0
    KERDSL_CR09_2 DSLPB_2 -1.0
    KERDSL_CR09_2 DSLSUL_2 -0.0323452548055673
    DSLPOOL_2 DSLPB_2 1.0
    DSLPOOL_2 PBAL_DSL_2 1.0
    LPGPOOL_2 LPGBAL_2 1.0
    LPGPOOL_2 PBAL_LPG_2 1.0
    FOPOOL_2 FOBAL_2 1.0
    FOPOOL_2 PBAL_FO_2 1.0
    M3444 'MARKER' 'INTORG'
    NPAR_CR00_3 PARCEL_CR00_3 -20.0
    M3446 'MARKER' 'INTEND'
    BUY_CR00_3 OBJ -59.922376548713096
    BUY_CR00_3 PARCEL_CR00_3 1.0
    BUY_CR00_3 CBAL_CR00_3 1.0
    CINV_CR00_3 OBJ -0.3
    CINV_CR00_3 CBAL_CR00_3 -1.0
    CINV_CR00_3 CBAL_CR00_4 1.0
    CDU_CR00_3 CBAL_CR00_3 -1.0
    CDU_CR00_3 CDUCAP_3 1.0
    CDU_CR00_3 CDUMIN_3 1.0
    CDU_CR00_3 YLPG_CR00_3 -0.013786055933968056
    CDU_CR00_3 YNAP_CR00_3 -0.1214444916358349
    CDU_CR00_3 YKER_CR00_3 -0.10646372452567733
    CDU_CR00_3 YDSL_CR00_3 -0.20292085263352289
    CDU_CR00_3 YVGO_CR00_3 -0.27390944719057636
    CDU_CR00_3 YRES_CR00_3 -0.28147542808042036
    M3462 'MARKER' 'INTORG'
    NPAR_CR01_3 PARCEL_CR01_3 -20.0
    M3464 'MARKER' 'INTEND'
    BUY_CR01_3 OBJ -76.97885769258421
    BUY_CR01_3 PARCEL_CR01_3 1.0
    BUY_CR01_3 CBAL_CR01_3 1.0
    CINV_CR01_3 OBJ -0.3
    CINV_CR01_3 CBAL_CR01_3 -1.0
    CINV_CR01_3 CBAL_CR01_4 1.0
    CDU_CR01_3 CBAL_CR01_3 -1.0
    CDU_CR01_3 CDUCAP_3 1.0
    CDU_CR01_3 CDUMIN_3 1.0
    CDU_CR01_3 YLPG_CR01_3 -0.025127543584387436
    CDU_CR01_3 YNAP_CR01_3 -0.2025917905849106
    CDU_CR01_3 YKER_CR01_3 -0.13410952106049506
    CDU_CR01_3 YDSL_CR01_3 -0.24728591651278542
    CDU_CR01_3 YVGO_CR01_3 -0.22897185950088417
    CDU_CR01_3 YRES_CR01_3 -0.16191336875653717
    M3480 'MARKER' 'INTORG'
    NPAR_CR02_3 PARCEL_CR02_3 -20.0
    M3482 'MARKER' 'INTEND'
    BUY_CR02_3 OBJ -62.814687818809716
    BUY_CR02_3 PARCEL_CR02_3 1.0
    BUY_CR02_3 CBAL_CR02_3 1.0
    CINV_CR02_3 OBJ -0.3
    CINV_CR02_3 CBAL_CR02_3 -1.0
    CINV_CR02_3 CBAL_CR02_4 1.0
    CDU_CR02_3 CBAL_CR02_3 -1.0
    CDU_CR02_3 CDUCAP_3 1.0
    CDU_CR02_3 CDUMIN_3 1.0
    CDU_CR02_3 YLPG_CR02_3 -0.013444753666275039
    CDU_CR02_3 YNAP_CR02_3 -0.11889710072836579
    CDU_CR02_3 YKER_CR02_3 -0.103840437143255
    CDU_CR02_3 YDSL_CR02_3 -0.21229612809407214
    CDU_CR02_3 YVGO_CR02_3 -0.2628713956905896
    CDU_CR02_3 YRES_CR02_3 -0.28865018467744247
    M3498 'MARKER' 'INTORG'
    NPAR_CR03_3 PARCEL_CR03_3 -20.0
    M3500 'MARKER' 'INTEND'
    BUY_CR03_3 OBJ -69.5392474627313
    BUY_CR03_3 PARCEL_CR03_3 1.0
    BUY_CR03_3 CBAL_CR03_3 1.0
    CINV_CR03_3 OBJ -0.3
    CINV_CR03_3 CBAL_CR03_3 -1.0
    CINV_CR03_3 CBAL_CR03_4 1.0
    CDU_CR03_3 CBAL_CR03_3 -1.0
    CDU_CR03_3 CDUCAP_3 1.0
    CDU_CR03_3 CDUMIN_3 1.0
    CDU_CR03_3 YLPG_CR03_3 -0.01400858068810675
    CDU_CR03_3 YNAP_CR03_3 -0.1424923117986131
    CDU_CR03_3 YKER_CR03_3 -0.10784088582669263
    CDU_CR03_3 YDSL_CR03_3 -0.19279120630762445
    CDU_CR03_3 YVGO_CR03_3 -0.28544626211923063
    CDU_CR03_3 YRES_CR03_3 -0.2574207532597324
    M3516 'MARKER' 'INTORG'
    NPAR_CR04_3 PARCEL_CR04_3 -20.0
    M3518 'MARKER' 'INTEND'
    BUY_CR04_3 OBJ -74.84692404973171
    BUY_CR04_3 PARCEL_CR04_3 1.0
    BUY_CR04_3 CBAL_CR04_3 1.0
    CINV_CR04_3 OBJ -0.3
    CINV_CR04_3 CBAL_CR04_3 -1.0
    CINV_CR04_3 CBAL_CR04_4 1.0
    CDU_CR04_3 CBAL_CR04_3 -1.0
    CDU_CR04_3 CDUCAP_3 1.0
    CDU_CR04_3 CDUMIN_3 1.0
    CDU_CR04_3 YLPG_CR04_3 -0.02335213093765316
    CDU_CR04_3 YNAP_CR04_3 -0.2292355396921612
    CDU_CR04_3 YKER_CR04_3 -0.14240695851543803
    CDU_CR04_3 YDSL_CR04_3 -0.24384363627499198
    CDU_CR04_3 YVGO_CR04_3 -0.2465326974706559
    CDU_CR04_3 YRES_CR04_3 -0.1146290371090997
    M3534 'MARKER' 'INTORG'
    NPAR_CR05_3 PARCEL_CR05_3 -20.0
    M3536 'MARKER' 'INTEND'
    BUY_CR05_3 OBJ -67.52740728743005
    BUY_CR05_3 PARCEL_CR05_3 1.0
    BUY_CR05_3 CBAL_CR05_3 1.0
    CINV_CR05_3 OBJ -0.3
    CINV_CR05_3 CBAL_CR05_3 -1.0
    CINV_CR05_3 CBAL_CR05_4 1.0
    CDU_CR05_3 CBAL_CR05_3 -1.0
    CDU_CR05_3 CDUCAP_3 1.0
    CDU_CR05_3 CDUMIN_3 1.0
    CDU_CR05_3 YLPG_CR05_3 -0.01735729802728813
    CDU_CR05_3 YNAP_CR05_3 -0.16608619710065003
    CDU_CR05_3 YKER_CR05_3 -0.1170544437563835
    CDU_CR05_3 YDSL_CR05_3 -0.22299235889970878
    CDU_CR05_3 YVGO_CR05_3 -0.2433490540516293
    CDU_CR05_3 YRES_CR05_3 -0.23316064816434035
    M3552 'MARKER' 'INTORG'
    NPAR_CR06_3 PARCEL_CR06_3 -20.0
    M3554 'MARKER' 'INTEND'
    BUY_CR06_3 OBJ -64.96302813747116
    BUY_CR06_3 PARCEL_CR06_3 1.0
    BUY_CR06_3 CBAL_CR06_3 1.0
    CINV_CR06_3 OBJ -0.3
    CINV_CR06_3 CBAL_CR06_3 -1.0
    CINV_CR06_3 CBAL_CR06_4 1.0
    CDU_CR06_3 CBAL_CR06_3 -1.0
    CDU_CR06_3 CDUCAP_3 1.0
    CDU_CR06_3 CDUMIN_3 1.0
    CDU_CR06_3 YLPG_CR06_3 -0.014219474855875663
    CDU_CR06_3 YNAP_CR06_3 -0.13746806025500902
    CDU_CR06_3 YKER_CR06_3 -0.10533897185985656
    CDU_CR06_3 YDSL_CR06_3 -0.20403840195434858
    CDU_CR06_3 YVGO_CR06_3 -0.26484358994429863
    CDU_CR06_3 YRES_CR06_3 -0.27409150113061165
    M3570 'MARKER' 'INTORG'
    NPAR_CR07_3 PARCEL_CR07_3 -20.0
    M3572 'MARKER' 'INTEND'
    BUY_CR07_3 OBJ -74.2314267403159
    BUY_CR07_3 PARCEL_CR07_3 1.0
    BUY_CR07_3 CBAL_CR07_3 1.0
    CINV_CR07_3 OBJ -0.3
    CINV_CR07_3 CBAL_CR07_3 -1.0
    CINV_CR07_3 CBAL_CR07_4 1.0
    CDU_CR07_3 CBAL_CR07_3 -1.0
    CDU_CR07_3 CDUCAP_3 1.0
    CDU_CR07_3 CDUMIN_3 1.0
    CDU_CR07_3 YLPG_CR07_3 -0.01678766142162217
    CDU_CR07_3 YNAP_CR07_3 -0.18341674311422207
    CDU_CR07_3 YKER_CR07_3 -0.13271469159016522
    CDU_CR07_3 YDSL_CR07_3 -0.2249127244045356
    CDU_CR07_3 YVGO_CR07_3 -0.24848613807316539
    CDU_CR07_3 YRES_CR07_3 -0.19368204139628944
    M3588 'MARKER' 'INTORG'
    NPAR_CR08_3 PARCEL_CR08_3 -20.0
    M3590 'MARKER' 'INTEND'
    BUY_CR08_3 OBJ -72.50432133625587
    BUY_CR08_3 PARCEL_CR08_3 1.0
    BUY_CR08_3 CBAL_CR08_3 1.0
    CINV_CR08_3 OBJ -0.3
    CINV_CR08_3 CBAL_CR08_3 -1.0
    CINV_CR08_3 CBAL_CR08_4 1.0
    CDU_CR08_3 CBAL_CR08_3 -1.0
    CDU_CR08_3 CDUCAP_3 1.0
    CDU_CR08_3 CDUMIN_3 1.0
    CDU_CR08_3 YLPG_CR08_3 -0.023930881960770135
    CDU_CR08_3 YNAP_CR08_3 -0.199474063989656
    CDU_CR08_3 YKER_CR08_3 -0.13012967624359006
    CDU_CR08_3 YDSL_CR08_3 -0.24906213509239003
    CDU_CR08_3 YVGO_CR08_3 -0.24247509330512357
    CDU_CR08_3 YRES_CR08_3 -0.15492814940847022
    M3606 'MARKER' 'INTORG'
    NPAR_CR09_3 PARCEL_CR09_3 -20.0
    M3608 'MARKER' 'INTEND'
    BUY_CR09_3 OBJ -81.61254673307121
    BUY_CR09_3 PARCEL_CR09_3 1.0
    BUY_CR09_3 CBAL_CR09_3 1.0
    CINV_CR09_3 OBJ -0.3
    CINV_CR09_3 CBAL_CR09_3 -1.0
    CINV_CR09_3 CBAL_CR09_4 1.0
    CDU_CR09_3 CBAL_CR09_3 -1.0
    CDU_CR09_3 CDUCAP_3 1.0
    CDU_CR09_3 CDUMIN_3 1.0
    CDU_CR09_3 YLPG_CR09_3 -0.0254414593142613
    CDU_CR09_3 YNAP_CR09_3 -0.2406668892422991
    CDU_CR09_3 YKER_CR09_3 -0.14150533274546892
    CDU_CR09_3 YDSL_CR09_3 -0.23713673044274025
    CDU_CR09_3 YVGO_CR09_3 -0.23566730460149374
    CDU_CR09_3 YRES_CR09_3 -0.11958228365373665
    M3624 'MARKER' 'INTORG'
    CDUMODE_3 OBJ -150.0
    CDUMODE_3 CDUCAP_3 -150.0
    CDUMODE_3 CDUMIN_3 -90.0
    M3628 'MARKER' 'INTEND'
    LPG_CR00_3 YLPG_CR00_3 1.0
    LPG_CR00_3 LPGBAL_3 -1.0
    NAP_CR00_3 YNAP_CR00_3 1.0
    NAP_CR00_3 NAPBAL_CR00_3 1.0
    KER_CR00_3 YKER_CR00_3 1.0
    KER_CR00_3 KERBAL_CR00_3 1.0
    DSL_CR00_3 YDSL_CR00_3 1.0
    DSL_CR00_3 DSLBAL_CR00_3 1.0
    VGO_CR00_3 YVGO_CR00_3 1.0
    VGO_CR00_3 VGOBAL_CR00_3 1.0
    RES_CR00_3 YRES_CR00_3 1.0
    RES_CR00_3 RESSPLIT_CR00_3 1.0
    LPG_CR01_3 YLPG_CR01_3 1.0
    LPG_CR01_3 LPGBAL_3 -1.0
    NAP_CR01_3 YNAP_CR01_3 1.0
    NAP_CR01_3 NAPBAL_CR01_3 1.0
    KER_CR01_3 YKER_CR01_3 1.0
    KER_CR01_3 KERBAL_CR01_3 1.0
    DSL_CR01_3 YDSL_CR01_3 1.0
    DSL_CR01_3 DSLBAL_CR01_3 1.0
    VGO_CR01_3 YVGO_CR01_3 1.0
    VGO_CR01_3 VGOBAL_CR01_3 1.0
    RES_CR01_3 YRES_CR01_3 1.0
    RES_CR01_3 RESSPLIT_CR01_3 1.0
    LPG_CR02_3 YLPG_CR02_3 1.0
    LPG_CR02_3 LPGBAL_3 -1.0
    NAP_CR02_3 YNAP_CR02_3 1.0
    NAP_CR02_3 NAPBAL_CR02_3 1.0
    KER_CR02_3 YKER_CR02_3 1.0
    KER_CR02_3 KERBAL_CR02_3 1.0
    DSL_CR02_3 YDSL_CR02_3 1.0
    DSL_CR02_3 DSLBAL_CR02_3 1.0
    VGO_CR02_3 YVGO_CR02_3 1.0
    VGO_CR02_3 VGOBAL_CR02_3 1.0
    RES_CR02_3 YRES_CR02_3 1.0
    RES_CR02_3 RESSPLIT_CR02_3 1.0
    LPG_CR03_3 YLPG_CR03_3 1.0
    LPG_CR03_3 LPGBAL_3 -1.0
    NAP_CR03_3 YNAP_CR03_3 1.0
    NAP_CR03_3 NAPBAL_CR03_3 1.0
    KER_CR03_3 YKER_CR03_3 1.0
    KER_CR03_3 KERBAL_CR03_3 1.0
    DSL_CR03_3 YDSL_CR03_3 1.0
    DSL_CR03_3 DSLBAL_CR03_3 1.0
    VGO_CR03_3 YVGO_CR03_3 1.0
    VGO_CR03_3 VGOBAL_CR03_3 1.0
    RES_CR03_3 YRES_CR03_3 1.0
    RES_CR03_3 RESSPLIT_CR03_3 1.0
    LPG_CR04_3 YLPG_CR04_3 1.0
    LPG_CR04_3 LPGBAL_3 -1.0
    NAP_CR04_3 YNAP_CR04_3 1.0
    NAP_CR04_3 NAPBAL_CR04_3 1.0
    KER_CR04_3 YKER_CR04_3 1.0
    KER_CR04_3 KERBAL_CR04_3 1.0
    DSL_CR04_3 YDSL_CR04_3 1.0
    DSL_CR04_3 DSLBAL_CR04_3 1.0
    VGO_CR04_3 YVGO_CR04_3 1.0
    VGO_CR04_3 VGOBAL_CR04_3 1.0
    RES_CR04_3 YRES_CR04_3 1.0
    RES_CR04_3 RESSPLIT_CR04_3 1.0
    LPG_CR05_3 YLPG_CR05_3 1.0
    LPG_CR05_3 LPGBAL_3 -1.0
    NAP_CR05_3 YNAP_CR05_3 1.0
    NAP_CR05_3 NAPBAL_CR05_3 1.0
    KER_CR05_3 YKER_CR05_3 1.0
    KER_CR05_3 KERBAL_CR05_3 1.0
    DSL_CR05_3 YDSL_CR05_3 1.0
    DSL_CR05_3 DSLBAL_CR05_3 1.0
    VGO_CR05_3 YVGO_CR05_3 1.0
    VGO_CR05_3 VGOBAL_CR05_3 1.0
    RES_CR05_3 YRES_CR05_3 1.0
    RES_CR05_3 RESSPLIT_CR05_3 1.0
    LPG_CR06_3 YLPG_CR06_3 1.0
    LPG_CR06_3 LPGBAL_3 -1.0
    NAP_CR06_3 YNAP_CR06_3 1.0
    NAP_CR06_3 NAPBAL_CR06_3 1.0
    KER_CR06_3 YKER_CR06_3 1.0
    KER_CR06_3 KERBAL_CR06_3 1.0
    DSL_CR06_3 YDSL_CR06_3 1.0
    DSL_CR06_3 DSLBAL_CR06_3 1.0
    VGO_CR06_3 YVGO_CR06_3 1.0
    VGO_CR06_3 VGOBAL_CR06_3 1.0
    RES_CR06_3 YRES_CR06_3 1.0
    RES_CR06_3 RESSPLIT_CR06_3 1.0
    LPG_CR07_3 YLPG_CR07_3 1.0
    LPG_CR07_3 LPGBAL_3 -1.0
    NAP_CR07_3 YNAP_CR07_3 1.0
    NAP_CR07_3 NAPBAL_CR07_3 1.0
    KER_CR07_3 YKER_CR07_3 1.0
    KER_CR07_3 KERBAL_CR07_3 1.0
    DSL_CR07_3 YDSL_CR07_3 1.0
    DSL_CR07_3 DSLBAL_CR07_3 1.0
    VGO_CR07_3 YVGO_CR07_3 1.0
    VGO_CR07_3 VGOBAL_CR07_3 1.0
    RES_CR07_3 YRES_CR07_3 1.0
    RES_CR07_3 RESSPLIT_CR07_3 1.0
    LPG_CR08_3 YLPG_CR08_3 1.0
    LPG_CR08_3 LPGBAL_3 -1.0
    NAP_CR08_3 YNAP_CR08_3 1.0
    NAP_CR08_3 NAPBAL_CR08_3 1.0
    KER_CR08_3 YKER_CR08_3 1.0
    KER_CR08_3 KERBAL_CR08_3 1.0
    DSL_CR08_3 YDSL_CR08_3 1.0
    DSL_CR08_3 DSLBAL_CR08_3 1.0
    VGO_CR08_3 YVGO_CR08_3 1.0
    VGO_CR08_3 VGOBAL_CR08_3 1.0
    RES_CR08_3 YRES_CR08_3 1.0
    RES_CR08_3 RESSPLIT_CR08_3 1.0
    LPG_CR09_3 YLPG_CR09_3 1.0
    LPG_CR09_3 LPGBAL_3 -1.0
    NAP_CR09_3 YNAP_CR09_3 1.0
    NAP_CR09_3 NAPBAL_CR09_3 1.0
    KER_CR09_3 YKER_CR09_3 1.0
    KER_CR09_3 KERBAL_CR09_3 1.0
    DSL_CR09_3 YDSL_CR09_3 1.0
    DSL_CR09_3 DSLBAL_CR09_3 1.0
    VGO_CR09_3 YVGO_CR09_3 1.0
    VGO_CR09_3 VGOBAL_CR09_3 1.0
    RES_CR09_3 YRES_CR09_3 1.0
    RES_CR09_3 RESSPLIT_CR09_3 1.0
    VDUIN_CR00_3 RESSPLIT_CR00_3 -1.0
    VDUIN_CR00_3 VDUY1_CR00_3 -0.45
    VDUIN_CR00_3 VDUY2_CR00_3 -0.55
    VDUIN_CR00_3 VDUCAP_3 1.0
    RESFO_CR00_3 RESSPLIT_CR00_3 -1.0
    RESFO_CR00_3 FOBAL_3 -1.0
    RESFO_CR00_3 FOSUL_3 1.9540891690108433
    VGO2_CR00_3 VDUY1_CR00_3 1.0
    VGO2_CR00_3 VGOBAL_CR00_3 1.0
    VR_CR00_3 VDUY2_CR00_3 1.0
    VR_CR00_3 FOBAL_3 -1.0
    VR_CR00_3 FOSUL_3 3.5903159197140964
    VDUIN_CR01_3 RESSPLIT_CR01_3 -1.0
    VDUIN_CR01_3 VDUY1_CR01_3 -0.45
    VDUIN_CR01_3 VDUY2_CR01_3 -0.55
    VDUIN_CR01_3 VDUCAP_3 1.0
    RESFO_CR01_3 RESSPLIT_CR01_3 -1.0
    RESFO_CR01_3 FOBAL_3 -1.0
    RESFO_CR01_3 FOSUL_3 -0.6168441789886687
    VGO2_CR01_3 VDUY1_CR01_3 1.0
    VGO2_CR01_3 VGOBAL_CR01_3 1.0
    VR_CR01_3 VDUY2_CR01_3 1.0
    VR_CR01_3 FOBAL_3 -1.0
    VR_CR01_3 FOSUL_3 0.24810256731473057
    VDUIN_CR02_3 RESSPLIT_CR02_3 -1.0
    VDUIN_CR02_3 VDUY1_CR02_3 -0.45
    VDUIN_CR02_3 VDUY2_CR02_3 -0.55
    VDUIN_CR02_3 VDUCAP_3 1.0
    RESFO_CR02_3 RESSPLIT_CR02_3 -1.0
    RESFO_CR02_3 FOBAL_3 -1.0
    RESFO_CR02_3 FOSUL_3 0.05675733131967897
    VGO2_CR02_3 VDUY1_CR02_3 1.0
    VGO2_CR02_3 VGOBAL_CR02_3 1.0
    VR_CR02_3 VDUY2_CR02_3 1.0
    VR_CR02_3 FOBAL_3 -1.0
    VR_CR02_3 FOSUL_3 1.1237845307155832
    VDUIN_CR03_3 RESSPLIT_CR03_3 -1.0
    VDUIN_CR03_3 VDUY1_CR03_3 -0.45
    VDUIN_CR03_3 VDUY2_CR03_3 -0.55
    VDUIN_CR03_3 VDUCAP_3 1.0
    RESFO_CR03_3 RESSPLIT_CR03_3 -1.0
    RESFO_CR03_3 FOBAL_3 -1.0
    RESFO_CR03_3 FOSUL_3 -1.8686274424458973
    VGO2_CR03_3 VDUY1_CR03_3 1.0
    VGO2_CR03_3 VGOBAL_CR03_3 1.0
    VR_CR03_3 VDUY2_CR03_3 1.0
    VR_CR03_3 FOBAL_3 -1.0
    VR_CR03_3 FOSUL_3 -1.3792156751796663
    VDUIN_CR04_3 RESSPLIT_CR04_3 -1.0
    VDUIN_CR04_3 VDUY1_CR04_3 -0.45
    VDUIN_CR04_3 VDUY2_CR04_3 -0.55
    VDUIN_CR04_3 VDUCAP_3 1.0
    RESFO_CR04_3 RESSPLIT_CR04_3 -1.0
    RESFO_CR04_3 FOBAL_3 -1.0
    RESFO_CR04_3 FOSUL_3 2.031668478530798
    VGO2_CR04_3 VDUY1_CR04_3 1.0
    VGO2_CR04_3 VGOBAL_CR04_3 1.0
    VR_CR04_3 VDUY2_CR04_3 1.0
    VR_CR04_3 FOBAL_3 -1.0
    VR_CR04_3 FOSUL_3 3.6911690220900377
    VDUIN_CR05_3 RESSPLIT_CR05_3 -1.0
    VDUIN_CR05_3 VDUY1_CR05_3 -0.45
    VDUIN_CR05_3 VDUY2_CR05_3 -0.55
    VDUIN_CR05_3 VDUCAP_3 1.0
    RESFO_CR05_3 RESSPLIT_CR05_3 -1.0
    RESFO_CR05_3 FOBAL_3 -1.0
    RESFO_CR05_3 FOSUL_3 0.3429997580900688
    VGO2_CR05_3 VDUY1_CR05_3 1.0
    VGO2_CR05_3 VGOBAL_CR05_3 1.0
    VR_CR05_3 VDUY2_CR05_3 1.0
    VR_CR05_3 FOBAL_3 -1.0
    VR_CR05_3 FOSUL_3 1.4958996855170898
    VDUIN_CR06_3 RESSPLIT_CR06_3 -1.0
    VDUIN_CR06_3 VDUY1_CR06_3 -0.45
    VDUIN_CR06_3 VDUY2_CR06_3 -0.55
    VDUIN_CR06_3 VDUCAP_3 1.0
    RESFO_CR06_3 RESSPLIT_CR06_3 -1.0
    RESFO_CR06_3 FOBAL_3 -1.0
    RESFO_CR06_3 FOSUL_3 0.10255232060654862
    VGO2_CR06_3 VDUY1_CR06_3 1.0
    VGO2_CR06_3 VGOBAL_CR06_3 1.0
    VR_CR06_3 VDUY2_CR06_3 1.0
    VR_CR06_3 FOBAL_3 -1.0
    VR_CR06_3 FOSUL_3 1.1833180167885136
    VDUIN_CR07_3 RESSPLIT_CR07_3 -1.0
    VDUIN_CR07_3 VDUY1_CR07_3 -0.45
    VDUIN_CR07_3 VDUY2_CR07_3 -0.55
    VDUIN_CR07_3 VDUCAP_3 1.0
    RESFO_CR07_3 RESSPLIT_CR07_3 -1.0
    RESFO_CR07_3 FOBAL_3 -1.0
    RESFO_CR07_3 FOSUL_3 -3.116635223405176
    VGO2_CR07_3 VDUY1_CR07_3 1.0
    VGO2_CR07_3 VGOBAL_CR07_3 1.0
    VR_CR07_3 VDUY2_CR07_3 1.0
    VR_CR07_3 FOBAL_3 -1.0
    VR_CR07_3 FOSUL_3 -3.001625790426729
    VDUIN_CR08_3 RESSPLIT_CR08_3 -1.0
    VDUIN_CR08_3 VDUY1_CR08_3 -0.45
    VDUIN_CR08_3 VDUY2_CR08_3 -0.55
    VDUIN_CR08_3 VDUCAP_3 1.0
    RESFO_CR08_3 RESSPLIT_CR08_3 -1.0
    RESFO_CR08_3 FOBAL_3 -1.0
    RESFO_CR08_3 FOSUL_3 0.0456281803886287
    VGO2_CR08_3 VDUY1_CR08_3 1.0
    VGO2_CR08_3 VGOBAL_CR08_3 1.0
    VR_CR08_3 VDUY2_CR08_3 1.0
    VR_CR08_3 FOBAL_3 -1.0
    VR_CR08_3 FOSUL_3 1.109316634505218
    VDUIN_CR09_3 RESSPLIT_CR09_3 -1.0
    VDUIN_CR09_3 VDUY1_CR09_3 -0.45
    VDUIN_CR09_3 VDUY2_CR09_3 -0.55
    VDUIN_CR09_3 VDUCAP_3 1.0
    RESFO_CR09_3 RESSPLIT_CR09_3 -1.0
    RESFO_CR09_3 FOBAL_3 -1.0
    RESFO_CR09_3 FOSUL_3 -3.264603397407564
    VGO2_CR09_3 VDUY1_CR09_3 1.0
    VGO2_CR09_3 VGOBAL_CR09_3 1.0
    VR_CR09_3 VDUY2_CR09_3 1.0
    VR_CR09_3 FOBAL_3 -1.0
    VR_CR09_3 FOSUL_3 -3.1939844166298332
    FCCIN_CR00_3 OBJ -2.5
    FCCIN_CR00_3 VGOBAL_CR00_3 -1.0
    FCCIN_CR00_3 FCCCAP_3 1.0
    FCCIN_CR00_3 FCCY_FCCG_3 -0.55
    FCCIN_CR00_3 FCCY_LCO_3 -0.2
    FCCIN_CR00_3 FCCY_FLPG_3 -0.15
    FCCIN_CR00_3 FCCY_SLURRY_3 -0.07
    FCCIN_CR01_3 OBJ -2.5
    FCCIN_CR01_3 VGOBAL_CR01_3 -1.0
    FCCIN_CR01_3 FCCCAP_3 1.0
    FCCIN_CR01_3 FCCY_FCCG_3 -0.55
    FCCIN_CR01_3 FCCY_LCO_3 -0.2
    FCCIN_CR01_3 FCCY_FLPG_3 -0.15
    FCCIN_CR01_3 FCCY_SLURRY_3 -0.07
    FCCIN_CR02_3 OBJ -2.5
    FCCIN_CR02_3 VGOBAL_CR02_3 -1.0
    FCCIN_CR02_3 FCCCAP_3 1.0
    FCCIN_CR02_3 FCCY_FCCG_3 -0.55
    FCCIN_CR02_3 FCCY_LCO_3 -0.2
    FCCIN_CR02_3 FCCY_FLPG_3 -0.15
    FCCIN_CR02_3 FCCY_SLURRY_3 -0.07
    FCCIN_CR03_3 OBJ -2.5
    FCCIN_CR03_3 VGOBAL_CR03_3 -1.0
    FCCIN_CR03_3 FCCCAP_3 1.0
    FCCIN_CR03_3 FCCY_FCCG_3 -0.55
    FCCIN_CR03_3 FCCY_LCO_3 -0.2
    FCCIN_CR03_3 FCCY_FLPG_3 -0.15
    FCCIN_CR03_3 FCCY_SLURRY_3 -0.07
    FCCIN_CR04_3 OBJ -2.5
    FCCIN_CR04_3 VGOBAL_CR04_3 -1.0
    FCCIN_CR04_3 FCCCAP_3 1.0
    FCCIN_CR04_3 FCCY_FCCG_3 -0.55
    FCCIN_CR04_3 FCCY_LCO_3 -0.2
    FCCIN_CR04_3 FCCY_FLPG_3 -0.15
    FCCIN_CR04_3 FCCY_SLURRY_3 -0.07
    FCCIN_CR05_3 OBJ -2.5
    FCCIN_CR05_3 VGOBAL_CR05_3 -1.0
    FCCIN_CR05_3 FCCCAP_3 1.0
    FCCIN_CR05_3 FCCY_FCCG_3 -0.55
    FCCIN_CR05_3 FCCY_LCO_3 -0.2
    FCCIN_CR05_3 FCCY_FLPG_3 -0.15
    FCCIN_CR05_3 FCCY_SLURRY_3 -0.07
    FCCIN_CR06_3 OBJ -2.5
    FCCIN_CR06_3 VGOBAL_CR06_3 -1.0
    FCCIN_CR06_3 FCCCAP_3 1.0
    FCCIN_CR06_3 FCCY_FCCG_3 -0.55
    FCCIN_CR06_3 FCCY_LCO_3 -0.2
    FCCIN_CR06_3 FCCY_FLPG_3 -0.15
    FCCIN_CR06_3 FCCY_SLURRY_3 -0.07
    FCCIN_CR07_3 OBJ -2.5
    FCCIN_CR07_3 VGOBAL_CR07_3 -1.0
    FCCIN_CR07_3 FCCCAP_3 1.0
    FCCIN_CR07_3 FCCY_FCCG_3 -0.55
    FCCIN_CR07_3 FCCY_LCO_3 -0.2
    FCCIN_CR07_3 FCCY_FLPG_3 -0.15
    FCCIN_CR07_3 FCCY_SLURRY_3 -0.07
    FCCIN_CR08_3 OBJ -2.5
    FCCIN_CR08_3 VGOBAL_CR08_3 -1.0
    FCCIN_CR08_3 FCCCAP_3 1.0
    FCCIN_CR08_3 FCCY_FCCG_3 -0.55
    FCCIN_CR08_3 FCCY_LCO_3 -0.2
    FCCIN_CR08_3 FCCY_FLPG_3 -0.15
    FCCIN_CR08_3 FCCY_SLURRY_3 -0.07
    FCCIN_CR09_3 OBJ -2.5
    FCCIN_CR09_3 VGOBAL_CR09_3 -1.0
    FCCIN_CR09_3 FCCCAP_3 1.0
    FCCIN_CR09_3 FCCY_FCCG_3 -0.55
    FCCIN_CR09_3 FCCY_LCO_3 -0.2
    FCCIN_CR09_3 FCCY_FLPG_3 -0.15
    FCCIN_CR09_3 FCCY_SLURRY_3 -0.07
    FCCG_3 FCCY_FCCG_3 1.0
    FCCG_3 GASBAL_3 -1.0
    FCCG_3 GASRON_3 1.0
    LCO_3 FCCY_LCO_3 1.0
    LCO_3 LCOBAL_3 1.0
    FLPG_3 FCCY_FLPG_3 1.0
    FLPG_3 LPGBAL_3 -1.0
    SLURRY_3 FCCY_SLURRY_3 1.0
    SLURRY_3 FOBAL_3 -1.0
    SLURRY_3 FOSUL_3 -1.5
    REFIN_CR00_3 OBJ -3.0
    REFIN_CR00_3 NAPBAL_CR00_3 -1.0
    REFIN_CR00_3 REFCAP_3 1.0
    REFIN_CR00_3 REFY_3 -0.85
    NAPGAS_CR00_3 NAPBAL_CR00_3 -1.0
    NAPGAS_CR00_3 GASBAL_3 -1.0
    NAPGAS_CR00_3 GASRON_3 -41.351908455631545
    REFIN_CR01_3 OBJ -3.0
    REFIN_CR01_3 NAPBAL_CR01_3 -1.0
    REFIN_CR01_3 REFCAP_3 1.0
    REFIN_CR01_3 REFY_3 -0.85
    NAPGAS_CR01_3 NAPBAL_CR01_3 -1.0
    NAPGAS_CR01_3 GASBAL_3 -1.0
    NAPGAS_CR01_3 GASRON_3 -33.623043958680114
    REFIN_CR02_3 OBJ -3.0
    REFIN_CR02_3 NAPBAL_CR02_3 -1.0
    REFIN_CR02_3 REFCAP_3 1.0
    REFIN_CR02_3 REFY_3 -0.85
    NAPGAS_CR02_3 NAPBAL_CR02_3 -1.0
    NAPGAS_CR02_3 GASBAL_3 -1.0
    NAPGAS_CR02_3 GASRON_3 -39.74522208078083
    REFIN_CR03_3 OBJ -3.0
    REFIN_CR03_3 NAPBAL_CR03_3 -1.0
    REFIN_CR03_3 REFCAP_3 1.0
    REFIN_CR03_3 REFY_3 -0.85
    NAPGAS_CR03_3 NAPBAL_CR03_3 -1.0
    NAPGAS_CR03_3 GASBAL_3 -1.0
    NAPGAS_CR03_3 GASRON_3 -39.32063345179839
    REFIN_CR04_3 OBJ -3.0
    REFIN_CR04_3 NAPBAL_CR04_3 -1.0
    REFIN_CR04_3 REFCAP_3 1.0
    REFIN_CR04_3 REFY_3 -0.85
    NAPGAS_CR04_3 NAPBAL_CR04_3 -1.0
    NAPGAS_CR04_3 GASBAL_3 -1.0
    NAPGAS_CR04_3 GASRON_3 -28.06018906757886
    REFIN_CR05_3 OBJ -3.0
    REFIN_CR05_3 NAPBAL_CR05_3 -1.0
    REFIN_CR05_3 REFCAP_3 1.0
    REFIN_CR05_3 REFY_3 -0.85
    NAPGAS_CR05_3 NAPBAL_CR05_3 -1.0
    NAPGAS_CR05_3 GASBAL_3 -1.0
    NAPGAS_CR05_3 GASRON_3 -37.177062383933254
    REFIN_CR06_3 OBJ -3.0
    REFIN_CR06_3 NAPBAL_CR06_3 -1.0
    REFIN_CR06_3 REFCAP_3 1.0
    REFIN_CR06_3 REFY_3 -0.85
    NAPGAS_CR06_3 NAPBAL_CR06_3 -1.0
    NAPGAS_CR06_3 GASBAL_3 -1.0
    NAPGAS_CR06_3 GASRON_3 -38.73738801284508
    REFIN_CR07_3 OBJ -3.0
    REFIN_CR07_3 NAPBAL_CR07_3 -1.0
    REFIN_CR07_3 REFCAP_3 1.0
    REFIN_CR07_3 REFY_3 -0.85
    NAPGAS_CR07_3 NAPBAL_CR07_3 -1.0
    NAPGAS_CR07_3 GASBAL_3 -1.0
    NAPGAS_CR07_3 GASRON_3 -31.720911449683953
    REFIN_CR08_3 OBJ -3.0
    REFIN_CR08_3 NAPBAL_CR08_3 -1.0
    REFIN_CR08_3 REFCAP_3 1.0
    REFIN_CR08_3 REFY_3 -0.85
    NAPGAS_CR08_3 NAPBAL_CR08_3 -1.0
    NAPGAS_CR08_3 GASBAL_3 -1.0
    NAPGAS_CR08_3 GASRON_3 -31.236267605063702
    REFIN_CR09_3 OBJ -3.0
    REFIN_CR09_3 NAPBAL_CR09_3 -1.0
    REFIN_CR09_3 REFCAP_3 1.0
    REFIN_CR09_3 REFY_3 -0.85
    NAPGAS_CR09_3 NAPBAL_CR09_3 -1.0
    NAPGAS_CR09_3 GASBAL_3 -1.0
    NAPGAS_CR09_3 GASRON_3 -29.9151768258086
    REFORMATE_3 REFY_3 1.0
    REFORMATE_3 GASBAL_3 -1.0
    REFORMATE_3 GASRON_3 7.0
    DHTIN_CR00_3 OBJ -2.0
    DHTIN_CR00_3 DSLBAL_CR00_3 -1.0
    DHTIN_CR00_3 DHTCAP_3 1.0
    DHTIN_CR00_3 DHTY_3 -0.98
    DSLDIR_CR00_3 DSLBAL_CR00_3 -1.0
    DSLDIR_CR00_3 DSLPB_3 -1.0
    DSLDIR_CR00_3 DSLSUL_3 1.5862267507032528
    DHTIN_CR01_3 OBJ -2.0
    DHTIN_CR01_3 DSLBAL_CR01_3 -1.0
    DHTIN_CR01_3 DHTCAP_3 1.0
    DHTIN_CR01_3 DHTY_3 -0.98
    DSLDIR_CR01_3 DSLBAL_CR01_3 -1.0
    DSLDIR_CR01_3 DSLPB_3 -1.0
    DSLDIR_CR01_3 DSLSUL_3 0.8149467463033994
    DHTIN_CR02_3 OBJ -2.0
    DHTIN_CR02_3 DSLBAL_CR02_3 -1.0
    DHTIN_CR02_3 DHTCAP_3 1.0
    DHTIN_CR02_3 DHTY_3 -0.98
    DSLDIR_CR02_3 DSLBAL_CR02_3 -1.0
    DSLDIR_CR02_3 DSLPB_3 -1.0
    DSLDIR_CR02_3 DSLSUL_3 1.0170271993959037
    DHTIN_CR03_3 OBJ -2.0
    DHTIN_CR03_3 DSLBAL_CR03_3 -1.0
    DHTIN_CR03_3 DHTCAP_3 1.0
    DHTIN_CR03_3 DHTY_3 -0.98
    DSLDIR_CR03_3 DSLBAL_CR03_3 -1.0
    DSLDIR_CR03_3 DSLPB_3 -1.0
    DSLDIR_CR03_3 DSLSUL_3 0.4394117672662308
    DHTIN_CR04_3 OBJ -2.0
    DHTIN_CR04_3 DSLBAL_CR04_3 -1.0
    DHTIN_CR04_3 DHTCAP_3 1.0
    DHTIN_CR04_3 DHTY_3 -0.98
    DSLDIR_CR04_3 DSLBAL_CR04_3 -1.0
    DSLDIR_CR04_3 DSLPB_3 -1.0
    DSLDIR_CR04_3 DSLSUL_3 1.6095005435592393
    DHTIN_CR05_3 OBJ -2.0
    DHTIN_CR05_3 DSLBAL_CR05_3 -1.0
    DHTIN_CR05_3 DHTCAP_3 1.0
    DHTIN_CR05_3 DHTY_3 -0.98
    DSLDIR_CR05_3 DSLBAL_CR05_3 -1.0
    DSLDIR_CR05_3 DSLPB_3 -1.0
    DSLDIR_CR05_3 DSLSUL_3 1.1028999274270206
    DHTIN_CR06_3 OBJ -2.0
    DHTIN_CR06_3 DSLBAL_CR06_3 -1.0
    DHTIN_CR06_3 DHTCAP_3 1.0
    DHTIN_CR06_3 DHTY_3 -0.98
    DSLDIR_CR06_3 DSLBAL_CR06_3 -1.0
    DSLDIR_CR06_3 DSLPB_3 -1.0
    DSLDIR_CR06_3 DSLSUL_3 1.0307656961819645
    DHTIN_CR07_3 OBJ -2.0
    DHTIN_CR07_3 DSLBAL_CR07_3 -1.0
    DHTIN_CR07_3 DHTCAP_3 1.0
    DHTIN_CR07_3 DHTY_3 -0.98
    DSLDIR_CR07_3 DSLBAL_CR07_3 -1.0
    DSLDIR_CR07_3 DSLPB_3 -1.0
    DSLDIR_CR07_3 DSLSUL_3 0.06500943297844713
    DHTIN_CR08_3 OBJ -2.0
    DHTIN_CR08_3 DSLBAL_CR08_3 -1.0
    DHTIN_CR08_3 DHTCAP_3 1.0
    DHTIN_CR08_3 DHTY_3 -0.98
    DSLDIR_CR08_3 DSLBAL_CR08_3 -1.0
    DSLDIR_CR08_3 DSLPB_3 -1.0
    DSLDIR_CR08_3 DSLSUL_3 1.0136884541165885
    DHTIN_CR09_3 OBJ -2.0
    DHTIN_CR09_3 DSLBAL_CR09_3 -1.0
    DHTIN_CR09_3 DHTCAP_3 1.0
    DHTIN_CR09_3 DHTY_3 -0.98
    DSLDIR_CR09_3 DSLBAL_CR09_3 -1.0
    DSLDIR_CR09_3 DSLPB_3 -1.0
    DSLDIR_CR09_3 DSLSUL_3 0.020618980777730833
    LCODHT_3 LCOBAL_3 -1.0
    LCODHT_3 DHTCAP_3 1.0
    LCODHT_3 DHTY_3 -0.95
    LCOFO_3 LCOBAL_3 -1.0
    LCOFO_3 FOBAL_3 -1.0
    LCOFO_3 FOSUL_3 -2.5
    ULSD_3 DHTY_3 1.0
    ULSD_3 DSLPB_3 -1.0
    ULSD_3 DSLSUL_3 -0.049
    SELL_LPG_3 OBJ 55.0
    SELL_LPG_3 PBAL_LPG_3 -1.0
    SELL_LPG_3 DMAX_LPG_3 1.0
    SELL_LPG_3 DMIN_LPG_3 1.0
    SELL_GAS_3 OBJ 105.0
    SELL_GAS_3 PBAL_GAS_3 -1.0
    SELL_GAS_3 DMAX_GAS_3 1.0
    SELL_GAS_3 DMIN_GAS_3 1.0
    SELL_JET_3 OBJ 100.0
    SELL_JET_3 PBAL_JET_3 -1.0
    SELL_JET_3 DMAX_JET_3 1.0
    SELL_JET_3 DMIN_JET_3 1.0
    SELL_DSL_3 OBJ 98.0
    SELL_DSL_3 PBAL_DSL_3 -1.0
    SELL_DSL_3 DMAX_DSL_3 1.0
    SELL_DSL_3 DMIN_DSL_3 1.0
    SELL_FO_3 OBJ 60.0
    SELL_FO_3 PBAL_FO_3 -1.0
    SELL_FO_3 DMAX_FO_3 1.0
    SELL_FO_3 DMIN_FO_3 1.0
    PINV_LPG_3 OBJ -0.5
    PINV_LPG_3 PBAL_LPG_3 -1.0
    PINV_LPG_3 PBAL_LPG_4 1.0
    PINV_GAS_3 OBJ -0.5
    PINV_GAS_3 PBAL_GAS_3 -1.0
    PINV_GAS_3 PBAL_GAS_4 1.0
    PINV_JET_3 OBJ -0.5
    PINV_JET_3 PBAL_JET_3 -1.0
    PINV_JET_3 PBAL_JET_4 1.0
    PINV_DSL_3 OBJ -0.5
    PINV_DSL_3 PBAL_DSL_3 -1.0
    PINV_DSL_3 PBAL_DSL_4 1.0
    PINV_FO_3 OBJ -0.5
    PINV_FO_3 PBAL_FO_3 -1.0
    PINV_FO_3 PBAL_FO_4 1.0
    SHORT_LPG_3 OBJ -400.0
    SHORT_LPG_3 DMIN_LPG_3 1.0
    SHORT_GAS_3 OBJ -400.0
    SHORT_GAS_3 DMIN_GAS_3 1.0
    SHORT_JET_3 OBJ -400.0
    SHORT_JET_3 DMIN_JET_3 1.0
    SHORT_DSL_3 OBJ -400.0
    SHORT_DSL_3 DMIN_DSL_3 1.0
    SHORT_FO_3 OBJ -400.0
    SHORT_FO_3 DMIN_FO_3 1.0
    GASPOOL_3 GASBAL_3 1.0
    GASPOOL_3 PBAL_GAS_3 1.0
    JETPOOL_3 JETBAL_3 1.0
    JETPOOL_3 PBAL_JET_3 1.0
    KERJET_CR00_3 KERBAL_CR00_3 -1.0
    KERJET_CR00_3 JETBAL_3 -1.0
    KERJET_CR00_3 JETSUL_3 0.10905668767581322
    KERDSL_CR00_3 KERBAL_CR00_3 -1.0
    KERDSL_CR00_3 DSLPB_3 -1.0
    KERDSL_CR00_3 DSLSUL_3 0.3590566876758132
    KERJET_CR01_3 KERBAL_CR01_3 -1.0
    KERJET_CR01_3 JETBAL_3 -1.0
    KERJET_CR01_3 JETSUL_3 -0.08376331342415014
    KERDSL_CR01_3 KERBAL_CR01_3 -1.0
    KERDSL_CR01_3 DSLPB_3 -1.0
    KERDSL_CR01_3 DSLSUL_3 0.16623668657584983
    KERJET_CR02_3 KERBAL_CR02_3 -1.0
    KERJET_CR02_3 JETBAL_3 -1.0
    KERJET_CR02_3 JETSUL_3 -0.033243200151024055
    KERDSL_CR02_3 KERBAL_CR02_3 -1.0
    KERDSL_CR02_3 DSLPB_3 -1.0
    KERDSL_CR02_3 DSLSUL_3 0.21675679984897595
    KERJET_CR03_3 KERBAL_CR03_3 -1.0
    KERJET_CR03_3 JETBAL_3 -1.0
    KERJET_CR03_3 JETSUL_3 -0.17764705818344229
    KERDSL_CR03_3 KERBAL_CR03_3 -1.0
    KERDSL_CR03_3 DSLPB_3 -1.0
    KERDSL_CR03_3 DSLSUL_3 0.0723529418165577
    KERJET_CR04_3 KERBAL_CR04_3 -1.0
    KERJET_CR04_3 JETBAL_3 -1.0
    KERJET_CR04_3 JETSUL_3 0.11487513588980985
    KERDSL_CR04_3 KERBAL_CR04_3 -1.0
    KERDSL_CR04_3 DSLPB_3 -1.0
    KERDSL_CR04_3 DSLSUL_3 0.36487513588980985
    KERJET_CR05_3 KERBAL_CR05_3 -1.0
    KERJET_CR05_3 JETBAL_3 -1.0
    KERJET_CR05_3 JETSUL_3 -0.011775018143244831
    KERDSL_CR05_3 KERBAL_CR05_3 -1.0
    KERDSL_CR05_3 DSLPB_3 -1.0
    KERDSL_CR05_3 DSLSUL_3 0.23822498185675517
    KERJET_CR06_3 KERBAL_CR06_3 -1.0
    KERJET_CR06_3 JETBAL_3 -1.0
    KERJET_CR06_3 JETSUL_3 -0.029808575954508865
    KERDSL_CR06_3 KERBAL_CR06_3 -1.0
    KERDSL_CR06_3 DSLPB_3 -1.0
    KERDSL_CR06_3 DSLSUL_3 0.22019142404549114
    KERJET_CR07_3 KERBAL_CR07_3 -1.0
    KERJET_CR07_3 JETBAL_3 -1.0
    KERJET_CR07_3 JETSUL_3 -0.2712476417553882
    KERDSL_CR07_3 KERBAL_CR07_3 -1.0
    KERDSL_CR07_3 DSLPB_3 -1.0
    KERDSL_CR07_3 DSLSUL_3 -0.02124764175538822
    KERJET_CR08_3 KERBAL_CR08_3 -1.0
    KERJET_CR08_3 JETBAL_3 -1.0
    KERJET_CR08_3 JETSUL_3 -0.03407788647085286
    KERDSL_CR08_3 KERBAL_CR08_3 -1.0
    KERDSL_CR08_3 DSLPB_3 -1.0
    KERDSL_CR08_3 DSLSUL_3 0.21592211352914714
    KERJET_CR09_3 KERBAL_CR09_3 -1.0
    KERJET_CR09_3 JETBAL_3 -1.0
    KERJET_CR09_3 JETSUL_3 -0.28234525480556727
    KERDSL_CR09_3 KERBAL_CR09_3 -1.0
    KERDSL_CR09_3 DSLPB_3 -1.0
    KERDSL_CR09_3 DSLSUL_3 -0.0323452548055673
    DSLPOOL_3 DSLPB_3 1.0
    DSLPOOL_3 PBAL_DSL_3 1.0
    LPGPOOL_3 LPGBAL_3 1.0
    LPGPOOL_3 PBAL_LPG_3 1.0
    FOPOOL_3 FOBAL_3 1.0
    FOPOOL_3 PBAL_FO_3 1.0
    M4216 'MARKER' 'INTORG'
    NPAR_CR00_4 PARCEL_CR00_4 -20.0
    M4218 'MARKER' 'INTEND'
    BUY_CR00_4 OBJ -59.614495951833234
    BUY_CR00_4 PARCEL_CR00_4 1.0
    BUY_CR00_4 CBAL_CR00_4 1.0
    CINV_CR00_4 OBJ -0.3
    CINV_CR00_4 CBAL_CR00_4 -1.0
    CINV_CR00_4 CBAL_CR00_5 1.0
    CDU_CR00_4 CBAL_CR00_4 -1.0
    CDU_CR00_4 CDUCAP_4 1.0
    CDU_CR00_4 CDUMIN_4 1.0
    CDU_CR00_4 YLPG_CR00_4 -0.013786055933968056
    CDU_CR00_4 YNAP_CR00_4 -0.1214444916358349
    CDU_CR00_4 YKER_CR00_4 -0.10646372452567733
    CDU_CR00_4 YDSL_CR00_4 -0.20292085263352289
    CDU_CR00_4 YVGO_CR00_4 -0.27390944719057636
    CDU_CR00_4 YRES_CR00_4 -0.28147542808042036
    M4234 'MARKER' 'INTORG'
    NPAR_CR01_4 PARCEL_CR01_4 -20.0
    M4236 'MARKER' 'INTEND'
    BUY_CR01_4 OBJ -75.41353863205957
    BUY_CR01_4 PARCEL_CR01_4 1.0
    BUY_CR01_4 CBAL_CR01_4 1.0
    CINV_CR01_4 OBJ -0.3
    CINV_CR01_4 CBAL_CR01_4 -1.0
    CINV_CR01_4 CBAL_CR01_5 1.0
    CDU_CR01_4 CBAL_CR01_4 -1.0
    CDU_CR01_4 CDUCAP_4 1.0
    CDU_CR01_4 CDUMIN_4 1.0
    CDU_CR01_4 YLPG_CR01_4 -0.025127543584387436
    CDU_CR01_4 YNAP_CR01_4 -0.2025917905849106
    CDU_CR01_4 YKER_CR01_4 -0.13410952106049506
    CDU_CR01_4 YDSL_CR01_4 -0.24728591651278542
    CDU_CR01_4 YVGO_CR01_4 -0.22897185950088417
    CDU_CR01_4 YRES_CR01_4 -0.16191336875653717
    M4252 'MARKER' 'INTORG'
    NPAR_CR02_4 PARCEL_CR02_4 -20.0
    M4254 'MARKER' 'INTEND'
    BUY_CR02_4 OBJ -62.403427648323266
    BUY_CR02_4 PARCEL_CR02_4 1.0
    BUY_CR02_4 CBAL_CR02_4 1.0
    CINV_CR02_4 OBJ -0.3
    CINV_CR02_4 CBAL_CR02_4 -1.0
    CINV_CR02_4 CBAL_CR02_5 1.0
    CDU_CR02_4 CBAL_CR02_4 -1.0
    CDU_CR02_4 CDUCAP_4 1.0
    CDU_CR02_4 CDUMIN_4 1.0
    CDU_CR02_4 YLPG_CR02_4 -0.013444753666275039
    CDU_CR02_4 YNAP_CR02_4 -0.11889710072836579
    CDU_CR02_4 YKER_CR02_4 -0.103840437143255
    CDU_CR02_4 YDSL_CR02_4 -0.21229612809407214
    CDU_CR02_4 YVGO_CR02_4 -0.2628713956905896
    CDU_CR02_4 YRES_CR02_4 -0.28865018467744247
    M4270 'MARKER' 'INTORG'
    NPAR_CR03_4 PARCEL_CR03_4 -20.0
    M4272 'MARKER' 'INTEND'
    BUY_CR03_4 OBJ -68.09812593119086
    BUY_CR03_4 PARCEL_CR03_4 1.0
    BUY_CR03_4 CBAL_CR03_4 1.0
    CINV_CR03_4 OBJ -0.3
    CINV_CR03_4 CBAL_CR03_4 -1.0
    CINV_CR03_4 CBAL_CR03_5 1.0
    CDU_CR03_4 CBAL_CR03_4 -1.0
    CDU_CR03_4 CDUCAP_4 1.0
    CDU_CR03_4 CDUMIN_4 1.0
    CDU_CR03_4 YLPG_CR03_4 -0.01400858068810675
    CDU_CR03_4 YNAP_CR03_4 -0.1424923117986131
    CDU_CR03_4 YKER_CR03_4 -0.10784088582669263
    CDU_CR03_4 YDSL_CR03_4 -0.19279120630762445
    CDU_CR03_4 YVGO_CR03_4 -0.28544626211923063
    CDU_CR03_4 YRES_CR03_4 -0.2574207532597324
    M4288 'MARKER' 'INTORG'
    NPAR_CR04_4 PARCEL_CR04_4 -20.0
    M4290 'MARKER' 'INTEND'
    BUY_CR04_4 OBJ -73.83416116391847
    BUY_CR04_4 PARCEL_CR04_4 1.0
    BUY_CR04_4 CBAL_CR04_4 1.0
    CINV_CR04_4 OBJ -0.3
    CINV_CR04_4 CBAL_CR04_4 -1.0
    CINV_CR04_4 CBAL_CR04_5 1.0
    CDU_CR04_4 CBAL_CR04_4 -1.0
    CDU_CR04_4 CDUCAP_4 1.0
    CDU_CR04_4 CDUMIN_4 1.0
    CDU_CR04_4 YLPG_CR04_4 -0.02335213093765316
    CDU_CR04_4 YNAP_CR04_4 -0.2292355396921612
    CDU_CR04_4 YKER_CR04_4 -0.14240695851543803
    CDU_CR04_4 YDSL_CR04_4 -0.24384363627499198
    CDU_CR04_4 YVGO_CR04_4 -0.2465326974706559
    CDU_CR04_4 YRES_CR04_4 -0.1146290371090997
    M4306 'MARKER' 'INTORG'
    NPAR_CR05_4 PARCEL_CR05_4 -20.0
    M4308 'MARKER' 'INTEND'
    BUY_CR05_4 OBJ -67.09018704090704
    BUY_CR05_4 PARCEL_CR05_4 1.0
    BUY_CR05_4 CBAL_CR05_4 1.0
    CINV_CR05_4 OBJ -0.3
    CINV_CR05_4 CBAL_CR05_4 -1.0
    CINV_CR05_4 CBAL_CR05_5 1.0
    CDU_CR05_4 CBAL_CR05_4 -1.0
    CDU_CR05_4 CDUCAP_4 1.0
    CDU_CR05_4 CDUMIN_4 1.0
    CDU_CR05_4 YLPG_CR05_4 -0.01735729802728813
    CDU_CR05_4 YNAP_CR05_4 -0.16608619710065003
    CDU_CR05_4 YKER_CR05_4 -0.1170544437563835
    CDU_CR05_4 YDSL_CR05_4 -0.22299235889970878
    CDU_CR05_4 YVGO_CR05_4 -0.2433490540516293
    CDU_CR05_4 YRES_CR05_4 -0.23316064816434035
    M4324 'MARKER' 'INTORG'
    NPAR_CR06_4 PARCEL_CR06_4 -20.0
    M4326 'MARKER' 'INTEND'
    BUY_CR06_4 OBJ -64.15217472962985
    BUY_CR06_4 PARCEL_CR06_4 1.0
    BUY_CR06_4 CBAL_CR06_4 1.0
    CINV_CR06_4 OBJ -0.3
    CINV_CR06_4 CBAL_CR06_4 -1.0
    CINV_CR06_4 CBAL_CR06_5 1.0
    CDU_CR06_4 CBAL_CR06_4 -1.0
    CDU_CR06_4 CDUCAP_4 1.0
    CDU_CR06_4 CDUMIN_4 1.0
    CDU_CR06_4 YLPG_CR06_4 -0.014219474855875663
    CDU_CR06_4 YNAP_CR06_4 -0.13746806025500902
    CDU_CR06_4 YKER_CR06_4 -0.10533897185985656
    CDU_CR06_4 YDSL_CR06_4 -0.20403840195434858
    CDU_CR06_4 YVGO_CR06_4 -0.26484358994429863
    CDU_CR06_4 YRES_CR06_4 -0.27409150113061165
    M4342 'MARKER' 'INTORG'
    NPAR_CR07_4 PARCEL_CR07_4 -20.0
    M4344 'MARKER' 'INTEND'
    BUY_CR07_4 OBJ -73.98025140003912
    BUY_CR07_4 PARCEL_CR07_4 1.0
    BUY_CR07_4 CBAL_CR07_4 1.0
    CINV_CR07_4 OBJ -0.3
    CINV_CR07_4 CBAL_CR07_4 -1.0
    CINV_CR07_4 CBAL_CR07_5 1.0
    CDU_CR07_4 CBAL_CR07_4 -1.0
    CDU_CR07_4 CDUCAP_4 1.0
    CDU_CR07_4 CDUMIN_4 1.0
    CDU_CR07_4 YLPG_CR07_4 -0.01678766142162217
    CDU_CR07_4 YNAP_CR07_4 -0.18341674311422207
    CDU_CR07_4 YKER_CR07_4 -0.13271469159016522
    CDU_CR07_4 YDSL_CR07_4 -0.2249127244045356
    CDU_CR07_4 YVGO_CR07_4 -0.24848613807316539
    CDU_CR07_4 YRES_CR07_4 -0.19368204139628944
    M4360 'MARKER' 'INTORG'
    NPAR_CR08_4 PARCEL_CR08_4 -20.0
    M4362 'MARKER' 'INTEND'
    BUY_CR08_4 OBJ -71.35234598584573
    BUY_CR08_4 PARCEL_CR08_4 1.0
    BUY_CR08_4 CBAL_CR08_4 1.0
    CINV_CR08_4 OBJ -0.3
    CINV_CR08_4 CBAL_CR08_4 -1.0
    CINV_CR08_4 CBAL_CR08_5 1.0
    CDU_CR08_4 CBAL_CR08_4 -1.0
    CDU_CR08_4 CDUCAP_4 1.0
    CDU_CR08_4 CDUMIN_4 1.0
    CDU_CR08_4 YLPG_CR08_4 -0.023930881960770135
    CDU_CR08_4 YNAP_CR08_4 -0.199474063989656
    CDU_CR08_4 YKER_CR08_4 -0.13012967624359006
    CDU_CR08_4 YDSL_CR08_4 -0.24906213509239003
    CDU_CR08_4 YVGO_CR08_4 -0.24247509330512357
    CDU_CR08_4 YRES_CR08_4 -0.15492814940847022
    M4378 'MARKER' 'INTORG'
    NPAR_CR09_4 PARCEL_CR09_4 -20.0
    M4380 'MARKER' 'INTEND'
    BUY_CR09_4 OBJ -80.47459802290555
    BUY_CR09_4 PARCEL_CR09_4 1.0
    BUY_CR09_4 CBAL_CR09_4 1.0
    CINV_CR09_4 OBJ -0.3
    CINV_CR09_4 CBAL_CR09_4 -1.0
    CINV_CR09_4 CBAL_CR09_5 1.0
    CDU_CR09_4 CBAL_CR09_4 -1.0
    CDU_CR09_4 CDUCAP_4 1.0
    CDU_CR09_4 CDUMIN_4 1.0
    CDU_CR09_4 YLPG_CR09_4 -0.0254414593142613
    CDU_CR09_4 YNAP_CR09_4 -0.2406668892422991
    CDU_CR09_4 YKER_CR09_4 -0.14150533274546892
    CDU_CR09_4 YDSL_CR09_4 -0.23713673044274025
    CDU_CR09_4 YVGO_CR09_4 -0.23566730460149374
    CDU_CR09_4 YRES_CR09_4 -0.11958228365373665
    M4396 'MARKER' 'INTORG'
    CDUMODE_4 OBJ -150.0
    CDUMODE_4 CDUCAP_4 -150.0
    CDUMODE_4 CDUMIN_4 -90.0
    M4400 'MARKER' 'INTEND'
    LPG_CR00_4 YLPG_CR00_4 1.0
    LPG_CR00_4 LPGBAL_4 -1.0
    NAP_CR00_4 YNAP_CR00_4 1.0
    NAP_CR00_4 NAPBAL_CR00_4 1.0
    KER_CR00_4 YKER_CR00_4 1.0
    KER_CR00_4 KERBAL_CR00_4 1.0
    DSL_CR00_4 YDSL_CR00_4 1.0
    DSL_CR00_4 DSLBAL_CR00_4 1.0
    VGO_CR00_4 YVGO_CR00_4 1.0
    VGO_CR00_4 VGOBAL_CR00_4 1.0
    RES_CR00_4 YRES_CR00_4 1.0
    RES_CR00_4 RESSPLIT_CR00_4 1.0
    LPG_CR01_4 YLPG_CR01_4 1.0
    LPG_CR01_4 LPGBAL_4 -1.0
    NAP_CR01_4 YNAP_CR01_4 1.0
    NAP_CR01_4 NAPBAL_CR01_4 1.0
    KER_CR01_4 YKER_CR01_4 1.0
    KER_CR01_4 KERBAL_CR01_4 1.0
    DSL_CR01_4 YDSL_CR01_4 1.0
    DSL_CR01_4 DSLBAL_CR01_4 1.0
    VGO_CR01_4 YVGO_CR01_4 1.0
    VGO_CR01_4 VGOBAL_CR01_4 1.0
    RES_CR01_4 YRES_CR01_4 1.0
    RES_CR01_4 RESSPLIT_CR01_4 1.0
    LPG_CR02_4 YLPG_CR02_4 1.0
    LPG_CR02_4 LPGBAL_4 -1.0
    NAP_CR02_4 YNAP_CR02_4 1.0
    NAP_CR02_4 NAPBAL_CR02_4 1.0
    KER_CR02_4 YKER_CR02_4 1.0
    KER_CR02_4 KERBAL_CR02_4 1.0
    DSL_CR02_4 YDSL_CR02_4 1.0
    DSL_CR02_4 DSLBAL_CR02_4 1.0
    VGO_CR02_4 YVGO_CR02_4 1.0
    VGO_CR02_4 VGOBAL_CR02_4 1.0
    RES_CR02_4 YRES_CR02_4 1.0
    RES_CR02_4 RESSPLIT_CR02_4 1.0
    LPG_CR03_4 YLPG_CR03_4 1.0
    LPG_CR03_4 LPGBAL_4 -1.0
    NAP_CR03_4 YNAP_CR03_4 1.0
    NAP_CR03_4 NAPBAL_CR03_4 1.0
    KER_CR03_4 YKER_CR03_4 1.0
    KER_CR03_4 KERBAL_CR03_4 1.0
    DSL_CR03_4 YDSL_CR03_4 1.0
    DSL_CR03_4 DSLBAL_CR03_4 1.0
    VGO_CR03_4 YVGO_CR03_4 1.0
    VGO_CR03_4 VGOBAL_CR03_4 1.0
    RES_CR03_4 YRES_CR03_4 1.0
    RES_CR03_4 RESSPLIT_CR03_4 1.0
    LPG_CR04_4 YLPG_CR04_4 1.0
    LPG_CR04_4 LPGBAL_4 -1.0
    NAP_CR04_4 YNAP_CR04_4 1.0
    NAP_CR04_4 NAPBAL_CR04_4 1.0
    KER_CR04_4 YKER_CR04_4 1.0
    KER_CR04_4 KERBAL_CR04_4 1.0
    DSL_CR04_4 YDSL_CR04_4 1.0
    DSL_CR04_4 DSLBAL_CR04_4 1.0
    VGO_CR04_4 YVGO_CR04_4 1.0
    VGO_CR04_4 VGOBAL_CR04_4 1.0
    RES_CR04_4 YRES_CR04_4 1.0
    RES_CR04_4 RESSPLIT_CR04_4 1.0
    LPG_CR05_4 YLPG_CR05_4 1.0
    LPG_CR05_4 LPGBAL_4 -1.0
    NAP_CR05_4 YNAP_CR05_4 1.0
    NAP_CR05_4 NAPBAL_CR05_4 1.0
    KER_CR05_4 YKER_CR05_4 1.0
    KER_CR05_4 KERBAL_CR05_4 1.0
    DSL_CR05_4 YDSL_CR05_4 1.0
    DSL_CR05_4 DSLBAL_CR05_4 1.0
    VGO_CR05_4 YVGO_CR05_4 1.0
    VGO_CR05_4 VGOBAL_CR05_4 1.0
    RES_CR05_4 YRES_CR05_4 1.0
    RES_CR05_4 RESSPLIT_CR05_4 1.0
    LPG_CR06_4 YLPG_CR06_4 1.0
    LPG_CR06_4 LPGBAL_4 -1.0
    NAP_CR06_4 YNAP_CR06_4 1.0
    NAP_CR06_4 NAPBAL_CR06_4 1.0
    KER_CR06_4 YKER_CR06_4 1.0
    KER_CR06_4 KERBAL_CR06_4 1.0
    DSL_CR06_4 YDSL_CR06_4 1.0
    DSL_CR06_4 DSLBAL_CR06_4 1.0
    VGO_CR06_4 YVGO_CR06_4 1.0
    VGO_CR06_4 VGOBAL_CR06_4 1.0
    RES_CR06_4 YRES_CR06_4 1.0
    RES_CR06_4 RESSPLIT_CR06_4 1.0
    LPG_CR07_4 YLPG_CR07_4 1.0
    LPG_CR07_4 LPGBAL_4 -1.0
    NAP_CR07_4 YNAP_CR07_4 1.0
    NAP_CR07_4 NAPBAL_CR07_4 1.0
    KER_CR07_4 YKER_CR07_4 1.0
    KER_CR07_4 KERBAL_CR07_4 1.0
    DSL_CR07_4 YDSL_CR07_4 1.0
    DSL_CR07_4 DSLBAL_CR07_4 1.0
    VGO_CR07_4 YVGO_CR07_4 1.0
    VGO_CR07_4 VGOBAL_CR07_4 1.0
    RES_CR07_4 YRES_CR07_4 1.0
    RES_CR07_4 RESSPLIT_CR07_4 1.0
    LPG_CR08_4 YLPG_CR08_4 1.0
    LPG_CR08_4 LPGBAL_4 -1.0
    NAP_CR08_4 YNAP_CR08_4 1.0
    NAP_CR08_4 NAPBAL_CR08_4 1.0
    KER_CR08_4 YKER_CR08_4 1.0
    KER_CR08_4 KERBAL_CR08_4 1.0
    DSL_CR08_4 YDSL_CR08_4 1.0
    DSL_CR08_4 DSLBAL_CR08_4 1.0
    VGO_CR08_4 YVGO_CR08_4 1.0
    VGO_CR08_4 VGOBAL_CR08_4 1.0
    RES_CR08_4 YRES_CR08_4 1.0
    RES_CR08_4 RESSPLIT_CR08_4 1.0
    LPG_CR09_4 YLPG_CR09_4 1.0
    LPG_CR09_4 LPGBAL_4 -1.0
    NAP_CR09_4 YNAP_CR09_4 1.0
    NAP_CR09_4 NAPBAL_CR09_4 1.0
    KER_CR09_4 YKER_CR09_4 1.0
    KER_CR09_4 KERBAL_CR09_4 1.0
    DSL_CR09_4 YDSL_CR09_4 1.0
    DSL_CR09_4 DSLBAL_CR09_4 1.0
    VGO_CR09_4 YVGO_CR09_4 1.0
    VGO_CR09_4 VGOBAL_CR09_4 1.0
    RES_CR09_4 YRES_CR09_4 1.0
    RES_CR09_4 RESSPLIT_CR09_4 1.0
    VDUIN_CR00_4 RESSPLIT_CR00_4 -1.0
    VDUIN_CR00_4 VDUY1_CR00_4 -0.45
    VDUIN_CR00_4 VDUY2_CR00_4 -0.55
    VDUIN_CR00_4 VDUCAP_4 1.0
    RESFO_CR00_4 RESSPLIT_CR00_4 -1.0
    RESFO_CR00_4 FOBAL_4 -1.0
    RESFO_CR00_4 FOSUL_4 1.9540891690108433
    VGO2_CR00_4 VDUY1_CR00_4 1.0
    VGO2_CR00_4 VGOBAL_CR00_4 1.0
    VR_CR00_4 VDUY2_CR00_4 1.0
    VR_CR00_4 FOBAL_4 -1.0
    VR_CR00_4 FOSUL_4 3.5903159197140964
    VDUIN_CR01_4 RESSPLIT_CR01_4 -1.0
    VDUIN_CR01_4 VDUY1_CR01_4 -0.45
    VDUIN_CR01_4 VDUY2_CR01_4 -0.55
    VDUIN_CR01_4 VDUCAP_4 1.0
    RESFO_CR01_4 RESSPLIT_CR01_4 -1.0
    RESFO_CR01_4 FOBAL_4 -1.0
    RESFO_CR01_4 FOSUL_4 -0.6168441789886687
    VGO2_CR01_4 VDUY1_CR01_4 1.0
    VGO2_CR01_4 VGOBAL_CR01_4 1.0
    VR_CR01_4 VDUY2_CR01_4 1.0
    VR_CR01_4 FOBAL_4 -1.0
    VR_CR01_4 FOSUL_4 0.24810256731473057
    VDUIN_CR02_4 RESSPLIT_CR02_4 -1.0
    VDUIN_CR02_4 VDUY1_CR02_4 -0.45
    VDUIN_CR02_4 VDUY2_CR02_4 -0.55
    VDUIN_CR02_4 VDUCAP_4 1.0
    RESFO_CR02_4 RESSPLIT_CR02_4 -1.0
    RESFO_CR02_4 FOBAL_4 -1.0
    RESFO_CR02_4 FOSUL_4 0.05675733131967897
    VGO2_CR02_4 VDUY1_CR02_4 1.0
    VGO2_CR02_4 VGOBAL_CR02_4 1.0
    VR_CR02_4 VDUY2_CR02_4 1.0
    VR_CR02_4 FOBAL_4 -1.0
    VR_CR02_4 FOSUL_4 1.1237845307155832
    VDUIN_CR03_4 RESSPLIT_CR03_4 -1.0
    VDUIN_CR03_4 VDUY1_CR03_4 -0.45
    VDUIN_CR03_4 VDUY2_CR03_4 -0.55
    VDUIN_CR03_4 VDUCAP_4 1.0
    RESFO_CR03_4 RESSPLIT_CR03_4 -1.0
    RESFO_CR03_4 FOBAL_4 -1.0
    RESFO_CR03_4 FOSUL_4 -1.8686274424458973
    VGO2_CR03_4 VDUY1_CR03_4 1.0
    VGO2_CR03_4 VGOBAL_CR03_4 1.0
    VR_CR03_4 VDUY2_CR03_4 1.0
    VR_CR03_4 FOBAL_4 -1.0
    VR_CR03_4 FOSUL_4 -1.3792156751796663
    VDUIN_CR04_4 RESSPLIT_CR04_4 -1.0
    VDUIN_CR04_4 VDUY1_CR04_4 -0.45
    VDUIN_CR04_4 VDUY2_CR04_4 -0.55
    VDUIN_CR04_4 VDUCAP_4 1.0
    RESFO_CR04_4 RESSPLIT_CR04_4 -1.0
    RESFO_CR04_4 FOBAL_4 -1.0
    RESFO_CR04_4 FOSUL_4 2.031668478530798
    VGO2_CR04_4 VDUY1_CR04_4 1.0
    VGO2_CR04_4 VGOBAL_CR04_4 1.0
    VR_CR04_4 VDUY2_CR04_4 1.0
    VR_CR04_4 FOBAL_4 -1.0
    VR_CR04_4 FOSUL_4 3.6911690220900377
    VDUIN_CR05_4 RESSPLIT_CR05_4 -1.0
    VDUIN_CR05_4 VDUY1_CR05_4 -0.45
    VDUIN_CR05_4 VDUY2_CR05_4 -0.55
    VDUIN_CR05_4 VDUCAP_4 1.0
    RESFO_CR05_4 RESSPLIT_CR05_4 -1.0
    RESFO_CR05_4 FOBAL_4 -1.0
    RESFO_CR05_4 FOSUL_4 0.3429997580900688
    VGO2_CR05_4 VDUY1_CR05_4 1.0
    VGO2_CR05_4 VGOBAL_CR05_4 1.0
    VR_CR05_4 VDUY2_CR05_4 1.0
    VR_CR05_4 FOBAL_4 -1.0
    VR_CR05_4 FOSUL_4 1.4958996855170898
    VDUIN_CR06_4 RESSPLIT_CR06_4 -1.0
    VDUIN_CR06_4 VDUY1_CR06_4 -0.45
    VDUIN_CR06_4 VDUY2_CR06_4 -0.55
    VDUIN_CR06_4 VDUCAP_4 1.0
    RESFO_CR06_4 RESSPLIT_CR06_4 -1.0
    RESFO_CR06_4 FOBAL_4 -1.0
    RESFO_CR06_4 FOSUL_4 0.10255232060654862
    VGO2_CR06_4 VDUY1_CR06_4 1.0
    VGO2_CR06_4 VGOBAL_CR06_4 1.0
    VR_CR06_4 VDUY2_CR06_4 1.0
    VR_CR06_4 FOBAL_4 -1.0
    VR_CR06_4 FOSUL_4 1.1833180167885136
    VDUIN_CR07_4 RESSPLIT_CR07_4 -1.0
    VDUIN_CR07_4 VDUY1_CR07_4 -0.45
    VDUIN_CR07_4 VDUY2_CR07_4 -0.55
    VDUIN_CR07_4 VDUCAP_4 1.0
    RESFO_CR07_4 RESSPLIT_CR07_4 -1.0
    RESFO_CR07_4 FOBAL_4 -1.0
    RESFO_CR07_4 FOSUL_4 -3.116635223405176
    VGO2_CR07_4 VDUY1_CR07_4 1.0
    VGO2_CR07_4 VGOBAL_CR07_4 1.0
    VR_CR07_4 VDUY2_CR07_4 1.0
    VR_CR07_4 FOBAL_4 -1.0
    VR_CR07_4 FOSUL_4 -3.001625790426729
    VDUIN_CR08_4 RESSPLIT_CR08_4 -1.0
    VDUIN_CR08_4 VDUY1_CR08_4 -0.45
    VDUIN_CR08_4 VDUY2_CR08_4 -0.55
    VDUIN_CR08_4 VDUCAP_4 1.0
    RESFO_CR08_4 RESSPLIT_CR08_4 -1.0
    RESFO_CR08_4 FOBAL_4 -1.0
    RESFO_CR08_4 FOSUL_4 0.0456281803886287
    VGO2_CR08_4 VDUY1_CR08_4 1.0
    VGO2_CR08_4 VGOBAL_CR08_4 1.0
    VR_CR08_4 VDUY2_CR08_4 1.0
    VR_CR08_4 FOBAL_4 -1.0
    VR_CR08_4 FOSUL_4 1.109316634505218
    VDUIN_CR09_4 RESSPLIT_CR09_4 -1.0
    VDUIN_CR09_4 VDUY1_CR09_4 -0.45
    VDUIN_CR09_4 VDUY2_CR09_4 -0.55
    VDUIN_CR09_4 VDUCAP_4 1.0
    RESFO_CR09_4 RESSPLIT_CR09_4 -1.0
    RESFO_CR09_4 FOBAL_4 -1.0
    RESFO_CR09_4 FOSUL_4 -3.264603397407564
    VGO2_CR09_4 VDUY1_CR09_4 1.0
    VGO2_CR09_4 VGOBAL_CR09_4 1.0
    VR_CR09_4 VDUY2_CR09_4 1.0
    VR_CR09_4 FOBAL_4 -1.0
    VR_CR09_4 FOSUL_4 -3.1939844166298332
    FCCIN_CR00_4 OBJ -2.5
    FCCIN_CR00_4 VGOBAL_CR00_4 -1.0
    FCCIN_CR00_4 FCCCAP_4 1.0
    FCCIN_CR00_4 FCCY_FCCG_4 -0.55
    FCCIN_CR00_4 FCCY_LCO_4 -0.2
    FCCIN_CR00_4 FCCY_FLPG_4 -0.15
    FCCIN_CR00_4 FCCY_SLURRY_4 -0.07
    FCCIN_CR01_4 OBJ -2.5
    FCCIN_CR01_4 VGOBAL_CR01_4 -1.0
    FCCIN_CR01_4 FCCCAP_4 1.0
    FCCIN_CR01_4 FCCY_FCCG_4 -0.55
    FCCIN_CR01_4 FCCY_LCO_4 -0.2
    FCCIN_CR01_4 FCCY_FLPG_4 -0.15
    FCCIN_CR01_4 FCCY_SLURRY_4 -0.07
    FCCIN_CR02_4 OBJ -2.5
    FCCIN_CR02_4 VGOBAL_CR02_4 -1.0
    FCCIN_CR02_4 FCCCAP_4 1.0
    FCCIN_CR02_4 FCCY_FCCG_4 -0.55
    FCCIN_CR02_4 FCCY_LCO_4 -0.2
    FCCIN_CR02_4 FCCY_FLPG_4 -0.15
    FCCIN_CR02_4 FCCY_SLURRY_4 -0.07
    FCCIN_CR03_4 OBJ -2.5
    FCCIN_CR03_4 VGOBAL_CR03_4 -1.0
    FCCIN_CR03_4 FCCCAP_4 1.0
    FCCIN_CR03_4 FCCY_FCCG_4 -0.55
    FCCIN_CR03_4 FCCY_LCO_4 -0.2
    FCCIN_CR03_4 FCCY_FLPG_4 -0.15
    FCCIN_CR03_4 FCCY_SLURRY_4 -0.07
    FCCIN_CR04_4 OBJ -2.5
    FCCIN_CR04_4 VGOBAL_CR04_4 -1.0
    FCCIN_CR04_4 FCCCAP_4 1.0
    FCCIN_CR04_4 FCCY_FCCG_4 -0.55
    FCCIN_CR04_4 FCCY_LCO_4 -0.2
    FCCIN_CR04_4 FCCY_FLPG_4 -0.15
    FCCIN_CR04_4 FCCY_SLURRY_4 -0.07
    FCCIN_CR05_4 OBJ -2.5
    FCCIN_CR05_4 VGOBAL_CR05_4 -1.0
    FCCIN_CR05_4 FCCCAP_4 1.0
    FCCIN_CR05_4 FCCY_FCCG_4 -0.55
    FCCIN_CR05_4 FCCY_LCO_4 -0.2
    FCCIN_CR05_4 FCCY_FLPG_4 -0.15
    FCCIN_CR05_4 FCCY_SLURRY_4 -0.07
    FCCIN_CR06_4 OBJ -2.5
    FCCIN_CR06_4 VGOBAL_CR06_4 -1.0
    FCCIN_CR06_4 FCCCAP_4 1.0
    FCCIN_CR06_4 FCCY_FCCG_4 -0.55
    FCCIN_CR06_4 FCCY_LCO_4 -0.2
    FCCIN_CR06_4 FCCY_FLPG_4 -0.15
    FCCIN_CR06_4 FCCY_SLURRY_4 -0.07
    FCCIN_CR07_4 OBJ -2.5
    FCCIN_CR07_4 VGOBAL_CR07_4 -1.0
    FCCIN_CR07_4 FCCCAP_4 1.0
    FCCIN_CR07_4 FCCY_FCCG_4 -0.55
    FCCIN_CR07_4 FCCY_LCO_4 -0.2
    FCCIN_CR07_4 FCCY_FLPG_4 -0.15
    FCCIN_CR07_4 FCCY_SLURRY_4 -0.07
    FCCIN_CR08_4 OBJ -2.5
    FCCIN_CR08_4 VGOBAL_CR08_4 -1.0
    FCCIN_CR08_4 FCCCAP_4 1.0
    FCCIN_CR08_4 FCCY_FCCG_4 -0.55
    FCCIN_CR08_4 FCCY_LCO_4 -0.2
    FCCIN_CR08_4 FCCY_FLPG_4 -0.15
    FCCIN_CR08_4 FCCY_SLURRY_4 -0.07
    FCCIN_CR09_4 OBJ -2.5
    FCCIN_CR09_4 VGOBAL_CR09_4 -1.0
    FCCIN_CR09_4 FCCCAP_4 1.0
    FCCIN_CR09_4 FCCY_FCCG_4 -0.55
    FCCIN_CR09_4 FCCY_LCO_4 -0.2
    FCCIN_CR09_4 FCCY_FLPG_4 -0.15
    FCCIN_CR09_4 FCCY_SLURRY_4 -0.07
    FCCG_4 FCCY_FCCG_4 1.0
    FCCG_4 GASBAL_4 -1.0
    FCCG_4 GASRON_4 1.0
    LCO_4 FCCY_LCO_4 1.0
    LCO_4 LCOBAL_4 1.0
    FLPG_4 FCCY_FLPG_4 1.0
    FLPG_4 LPGBAL_4 -1.0
    SLURRY_4 FCCY_SLURRY_4 1.0
    SLURRY_4 FOBAL_4 -1.0
    SLURRY_4 FOSUL_4 -1.5
    REFIN_CR00_4 OBJ -3.0
    REFIN_CR00_4 NAPBAL_CR00_4 -1.0
    REFIN_CR00_4 REFCAP_4 1.0
    REFIN_CR00_4 REFY_4 -0.85
    NAPGAS_CR00_4 NAPBAL_CR00_4 -1.0
    NAPGAS_CR00_4 GASBAL_4 -1.0
    NAPGAS_CR00_4 GASRON_4 -41.351908455631545
    REFIN_CR01_4 OBJ -3.0
    REFIN_CR01_4 NAPBAL_CR01_4 -1.0
    REFIN_CR01_4 REFCAP_4 1.0
    REFIN_CR01_4 REFY_4 -0.85
    NAPGAS_CR01_4 NAPBAL_CR01_4 -1.0
    NAPGAS_CR01_4 GASBAL_4 -1.0
    NAPGAS_CR01_4 GASRON_4 -33.623043958680114
    REFIN_CR02_4 OBJ -3.0
    REFIN_CR02_4 NAPBAL_CR02_4 -1.0
    REFIN_CR02_4 REFCAP_4 1.0
    REFIN_CR02_4 REFY_4 -0.85
    NAPGAS_CR02_4 NAPBAL_CR02_4 -1.0
    NAPGAS_CR02_4 GASBAL_4 -1.0
    NAPGAS_CR02_4 GASRON_4 -39.74522208078083
    REFIN_CR03_4 OBJ -3.0
    REFIN_CR03_4 NAPBAL_CR03_4 -1.0
    REFIN_CR03_4 REFCAP_4 1.0
    REFIN_CR03_4 REFY_4 -0.85
    NAPGAS_CR03_4 NAPBAL_CR03_4 -1.0
    NAPGAS_CR03_4 GASBAL_4 -1.0
    NAPGAS_CR03_4 GASRON_4 -39.32063345179839
    REFIN_CR04_4 OBJ -3.0
    REFIN_CR04_4 NAPBAL_CR04_4 -1.0
    REFIN_CR04_4 REFCAP_4 1.0
    REFIN_CR04_4 REFY_4 -0.85
    NAPGAS_CR04_4 NAPBAL_CR04_4 -1.0
    NAPGAS_CR04_4 GASBAL_4 -1.0
    NAPGAS_CR04_4 GASRON_4 -28.06018906757886
    REFIN_CR05_4 OBJ -3.0
    REFIN_CR05_4 NAPBAL_CR05_4 -1.0
    REFIN_CR05_4 REFCAP_4 1.0
    REFIN_CR05_4 REFY_4 -0.85
    NAPGAS_CR05_4 NAPBAL_CR05_4 -1.0
    NAPGAS_CR05_4 GASBAL_4 -1.0
    NAPGAS_CR05_4 GASRON_4 -37.177062383933254
    REFIN_CR06_4 OBJ -3.0
    REFIN_CR06_4 NAPBAL_CR06_4 -1.0
    REFIN_CR06_4 REFCAP_4 1.0
    REFIN_CR06_4 REFY_4 -0.85
    NAPGAS_CR06_4 NAPBAL_CR06_4 -1.0
    NAPGAS_CR06_4 GASBAL_4 -1.0
    NAPGAS_CR06_4 GASRON_4 -38.73738801284508
    REFIN_CR07_4 OBJ -3.0
    REFIN_CR07_4 NAPBAL_CR07_4 -1.0
    REFIN_CR07_4 REFCAP_4 1.0
    REFIN_CR07_4 REFY_4 -0.85
    NAPGAS_CR07_4 NAPBAL_CR07_4 -1.0
    NAPGAS_CR07_4 GASBAL_4 -1.0
    NAPGAS_CR07_4 GASRON_4 -31.720911449683953
    REFIN_CR08_4 OBJ -3.0
    REFIN_CR08_4 NAPBAL_CR08_4 -1.0
    REFIN_CR08_4 REFCAP_4 1.0
    REFIN_CR08_4 REFY_4 -0.85
    NAPGAS_CR08_4 NAPBAL_CR08_4 -1.0
    NAPGAS_CR08_4 GASBAL_4 -1.0
    NAPGAS_CR08_4 GASRON_4 -31.236267605063702
    REFIN_CR09_4 OBJ -3.0
    REFIN_CR09_4 NAPBAL_CR09_4 -1.0
    REFIN_CR09_4 REFCAP_4 1.0
    REFIN_CR09_4 REFY_4 -0.85
    NAPGAS_CR09_4 NAPBAL_CR09_4 -1.0
    NAPGAS_CR09_4 GASBAL_4 -1.0
    NAPGAS_CR09_4 GASRON_4 -29.9151768258086
    REFORMATE_4 REFY_4 1.0
    REFORMATE_4 GASBAL_4 -1.0
    REFORMATE_4 GASRON_4 7.0
    DHTIN_CR00_4 OBJ -2.0
    DHTIN_CR00_4 DSLBAL_CR00_4 -1.0
    DHTIN_CR00_4 DHTCAP_4 1.0
    DHTIN_CR00_4 DHTY_4 -0.98
    DSLDIR_CR00_4 DSLBAL_CR00_4 -1.0
    DSLDIR_CR00_4 DSLPB_4 -1.0
    DSLDIR_CR00_4 DSLSUL_4 1.5862267507032528
    DHTIN_CR01_4 OBJ -2.0
    DHTIN_CR01_4 DSLBAL_CR01_4 -1.0
    DHTIN_CR01_4 DHTCAP_4 1.0
    DHTIN_CR01_4 DHTY_4 -0.98
    DSLDIR_CR01_4 DSLBAL_CR01_4 -1.0
    DSLDIR_CR01_4 DSLPB_4 -1.0
    DSLDIR_CR01_4 DSLSUL_4 0.8149467463033994
    DHTIN_CR02_4 OBJ -2.0
    DHTIN_CR02_4 DSLBAL_CR02_4 -1.0
    DHTIN_CR02_4 DHTCAP_4 1.0
    DHTIN_CR02_4 DHTY_4 -0.98
    DSLDIR_CR02_4 DSLBAL_CR02_4 -1.0
    DSLDIR_CR02_4 DSLPB_4 -1.0
    DSLDIR_CR02_4 DSLSUL_4 1.0170271993959037
    DHTIN_CR03_4 OBJ -2.0
    DHTIN_CR03_4 DSLBAL_CR03_4 -1.0
    DHTIN_CR03_4 DHTCAP_4 1.0
    DHTIN_CR03_4 DHTY_4 -0.98
    DSLDIR_CR03_4 DSLBAL_CR03_4 -1.0
    DSLDIR_CR03_4 DSLPB_4 -1.0
    DSLDIR_CR03_4 DSLSUL_4 0.4394117672662308
    DHTIN_CR04_4 OBJ -2.0
    DHTIN_CR04_4 DSLBAL_CR04_4 -1.0
    DHTIN_CR04_4 DHTCAP_4 1.0
    DHTIN_CR04_4 DHTY_4 -0.98
    DSLDIR_CR04_4 DSLBAL_CR04_4 -1.0
    DSLDIR_CR04_4 DSLPB_4 -1.0
    DSLDIR_CR04_4 DSLSUL_4 1.6095005435592393
    DHTIN_CR05_4 OBJ -2.0
    DHTIN_CR05_4 DSLBAL_CR05_4 -1.0
    DHTIN_CR05_4 DHTCAP_4 1.0
    DHTIN_CR05_4 DHTY_4 -0.98
    DSLDIR_CR05_4 DSLBAL_CR05_4 -1.0
    DSLDIR_CR05_4 DSLPB_4 -1.0
    DSLDIR_CR05_4 DSLSUL_4 1.1028999274270206
    DHTIN_CR06_4 OBJ -2.0
    DHTIN_CR06_4 DSLBAL_CR06_4 -1.0
    DHTIN_CR06_4 DHTCAP_4 1.0
    DHTIN_CR06_4 DHTY_4 -0.98
    DSLDIR_CR06_4 DSLBAL_CR06_4 -1.0
    DSLDIR_CR06_4 DSLPB_4 -1.0
    DSLDIR_CR06_4 DSLSUL_4 1.0307656961819645
    DHTIN_CR07_4 OBJ -2.0
    DHTIN_CR07_4 DSLBAL_CR07_4 -1.0
    DHTIN_CR07_4 DHTCAP_4 1.0
    DHTIN_CR07_4 DHTY_4 -0.98
    DSLDIR_CR07_4 DSLBAL_CR07_4 -1.0
    DSLDIR_CR07_4 DSLPB_4 -1.0
    DSLDIR_CR07_4 DSLSUL_4 0.06500943297844713
    DHTIN_CR08_4 OBJ -2.0
    DHTIN_CR08_4 DSLBAL_CR08_4 -1.0
    DHTIN_CR08_4 DHTCAP_4 1.0
    DHTIN_CR08_4 DHTY_4 -0.98
    DSLDIR_CR08_4 DSLBAL_CR08_4 -1.0
    DSLDIR_CR08_4 DSLPB_4 -1.0
    DSLDIR_CR08_4 DSLSUL_4 1.0136884541165885
    DHTIN_CR09_4 OBJ -2.0
    DHTIN_CR09_4 DSLBAL_CR09_4 -1.0
    DHTIN_CR09_4 DHTCAP_4 1.0
    DHTIN_CR09_4 DHTY_4 -0.98
    DSLDIR_CR09_4 DSLBAL_CR09_4 -1.0
    DSLDIR_CR09_4 DSLPB_4 -1.0
    DSLDIR_CR09_4 DSLSUL_4 0.020618980777730833
    LCODHT_4 LCOBAL_4 -1.0
    LCODHT_4 DHTCAP_4 1.0
    LCODHT_4 DHTY_4 -0.95
    LCOFO_4 LCOBAL_4 -1.0
    LCOFO_4 FOBAL_4 -1.0
    LCOFO_4 FOSUL_4 -2.5
    ULSD_4 DHTY_4 1.0
    ULSD_4 DSLPB_4 -1.0
    ULSD_4 DSLSUL_4 -0.049
    SELL_LPG_4 OBJ 50.23686027918559
    SELL_LPG_4 PBAL_LPG_4 -1.0
    SELL_LPG_4 DMAX_LPG_4 1.0
    SELL_LPG_4 DMIN_LPG_4 1.0
    SELL_GAS_4 OBJ 95.9067332602634
    SELL_GAS_4 PBAL_GAS_4 -1.0
    SELL_GAS_4 DMAX_GAS_4 1.0
    SELL_GAS_4 DMIN_GAS_4 1.0
    SELL_JET_4 OBJ 91.33974596215562
    SELL_JET_4 PBAL_JET_4 -1.0
    SELL_JET_4 DMAX_JET_4 1.0
    SELL_JET_4 DMIN_JET_4 1.0
    SELL_DSL_4 OBJ 89.5129510429125
    SELL_DSL_4 PBAL_DSL_4 -1.0
    SELL_DSL_4 DMAX_DSL_4 1.0
    SELL_DSL_4 DMIN_DSL_4 1.0
    SELL_FO_4 OBJ 54.80384757729337
    SELL_FO_4 PBAL_FO_4 -1.0
    SELL_FO_4 DMAX_FO_4 1.0
    SELL_FO_4 DMIN_FO_4 1.0
    PINV_LPG_4 OBJ -0.5
    PINV_LPG_4 PBAL_LPG_4 -1.0
    PINV_LPG_4 PBAL_LPG_5 1.0
    PINV_GAS_4 OBJ -0.5
    PINV_GAS_4 PBAL_GAS_4 -1.0
    PINV_GAS_4 PBAL_GAS_5 1.0
    PINV_JET_4 OBJ -0.5
    PINV_JET_4 PBAL_JET_4 -1.0
    PINV_JET_4 PBAL_JET_5 1.0
    PINV_DSL_4 OBJ -0.5
    PINV_DSL_4 PBAL_DSL_4 -1.0
    PINV_DSL_4 PBAL_DSL_5 1.0
    PINV_FO_4 OBJ -0.5
    PINV_FO_4 PBAL_FO_4 -1.0
    PINV_FO_4 PBAL_FO_5 1.0
    SHORT_LPG_4 OBJ -400.0
    SHORT_LPG_4 DMIN_LPG_4 1.0
    SHORT_GAS_4 OBJ -400.0
    SHORT_GAS_4 DMIN_GAS_4 1.0
    SHORT_JET_4 OBJ -400.0
    SHORT_JET_4 DMIN_JET_4 1.0
    SHORT_DSL_4 OBJ -400.0
    SHORT_DSL_4 DMIN_DSL_4 1.0
    SHORT_FO_4 OBJ -400.0
    SHORT_FO_4 DMIN_FO_4 1.0
    GASPOOL_4 GASBAL_4 1.0
    GASPOOL_4 PBAL_GAS_4 1.0
    JETPOOL_4 JETBAL_4 1.0
    JETPOOL_4 PBAL_JET_4 1.0
    KERJET_CR00_4 KERBAL_CR00_4 -1.0
    KERJET_CR00_4 JETBAL_4 -1.0
    KERJET_CR00_4 JETSUL_4 0.10905668767581322
    KERDSL_CR00_4 KERBAL_CR00_4 -1.0
    KERDSL_CR00_4 DSLPB_4 -1.0
    KERDSL_CR00_4 DSLSUL_4 0.3590566876758132
    KERJET_CR01_4 KERBAL_CR01_4 -1.0
    KERJET_CR01_4 JETBAL_4 -1.0
    KERJET_CR01_4 JETSUL_4 -0.08376331342415014
    KERDSL_CR01_4 KERBAL_CR01_4 -1.0
    KERDSL_CR01_4 DSLPB_4 -1.0
    KERDSL_CR01_4 DSLSUL_4 0.16623668657584983
    KERJET_CR02_4 KERBAL_CR02_4 -1.0
    KERJET_CR02_4 JETBAL_4 -1.0
    KERJET_CR02_4 JETSUL_4 -0.033243200151024055
    KERDSL_CR02_4 KERBAL_CR02_4 -1.0
    KERDSL_CR02_4 DSLPB_4 -1.0
    KERDSL_CR02_4 DSLSUL_4 0.21675679984897595
    KERJET_CR03_4 KERBAL_CR03_4 -1.0
    KERJET_CR03_4 JETBAL_4 -1.0
    KERJET_CR03_4 JETSUL_4 -0.17764705818344229
    KERDSL_CR03_4 KERBAL_CR03_4 -1.0
    KERDSL_CR03_4 DSLPB_4 -1.0
    KERDSL_CR03_4 DSLSUL_4 0.0723529418165577
    KERJET_CR04_4 KERBAL_CR04_4 -1.0
    KERJET_CR04_4 JETBAL_4 -1.0
    KERJET_CR04_4 JETSUL_4 0.11487513588980985
    KERDSL_CR04_4 KERBAL_CR04_4 -1.0
    KERDSL_CR04_4 DSLPB_4 -1.0
    KERDSL_CR04_4 DSLSUL_4 0.36487513588980985
    KERJET_CR05_4 KERBAL_CR05_4 -1.0
    KERJET_CR05_4 JETBAL_4 -1.0
    KERJET_CR05_4 JETSUL_4 -0.011775018143244831
    KERDSL_CR05_4 KERBAL_CR05_4 -1.0
    KERDSL_CR05_4 DSLPB_4 -1.0
    KERDSL_CR05_4 DSLSUL_4 0.23822498185675517
    KERJET_CR06_4 KERBAL_CR06_4 -1.0
    KERJET_CR06_4 JETBAL_4 -1.0
    KERJET_CR06_4 JETSUL_4 -0.029808575954508865
    KERDSL_CR06_4 KERBAL_CR06_4 -1.0
    KERDSL_CR06_4 DSLPB_4 -1.0
    KERDSL_CR06_4 DSLSUL_4 0.22019142404549114
    KERJET_CR07_4 KERBAL_CR07_4 -1.0
    KERJET_CR07_4 JETBAL_4 -1.0
    KERJET_CR07_4 JETSUL_4 -0.2712476417553882
    KERDSL_CR07_4 KERBAL_CR07_4 -1.0
    KERDSL_CR07_4 DSLPB_4 -1.0
    KERDSL_CR07_4 DSLSUL_4 -0.02124764175538822
    KERJET_CR08_4 KERBAL_CR08_4 -1.0
    KERJET_CR08_4 JETBAL_4 -1.0
    KERJET_CR08_4 JETSUL_4 -0.03407788647085286
    KERDSL_CR08_4 KERBAL_CR08_4 -1.0
    KERDSL_CR08_4 DSLPB_4 -1.0
    KERDSL_CR08_4 DSLSUL_4 0.21592211352914714
    KERJET_CR09_4 KERBAL_CR09_4 -1.0
    KERJET_CR09_4 JETBAL_4 -1.0
    KERJET_CR09_4 JETSUL_4 -0.28234525480556727
    KERDSL_CR09_4 KERBAL_CR09_4 -1.0
    KERDSL_CR09_4 DSLPB_4 -1.0
    KERDSL_CR09_4 DSLSUL_4 -0.0323452548055673
    DSLPOOL_4 DSLPB_4 1.0
    DSLPOOL_4 PBAL_DSL_4 1.0
    LPGPOOL_4 LPGBAL_4 1.0
    LPGPOOL_4 PBAL_LPG_4 1.0
    FOPOOL_4 FOBAL_4 1.0
    FOPOOL_4 PBAL_FO_4 1.0
    M4988 'MARKER' 'INTORG'
    NPAR_CR00_5 PARCEL_CR00_5 -20.0
    M4990 'MARKER' 'INTEND'
    BUY_CR00_5 OBJ -57.359905942556175
    BUY_CR00_5 PARCEL_CR00_5 1.0
    BUY_CR00_5 CBAL_CR00_5 1.0
    CINV_CR00_5 OBJ -0.3
    CINV_CR00_5 CBAL_CR00_5 -1.0
    CDU_CR00_5 CBAL_CR00_5 -1.0
    CDU_CR00_5 CDUCAP_5 1.0
    CDU_CR00_5 CDUMIN_5 1.0
    CDU_CR00_5 YLPG_CR00_5 -0.013786055933968056
    CDU_CR00_5 YNAP_CR00_5 -0.1214444916358349
    CDU_CR00_5 YKER_CR00_5 -0.10646372452567733
    CDU_CR00_5 YDSL_CR00_5 -0.20292085263352289
    CDU_CR00_5 YVGO_CR00_5 -0.27390944719057636
    CDU_CR00_5 YRES_CR00_5 -0.28147542808042036
    M5005 'MARKER' 'INTORG'
    NPAR_CR01_5 PARCEL_CR01_5 -20.0
    M5007 'MARKER' 'INTEND'
    BUY_CR01_5 OBJ -75.32066431856191
    BUY_CR01_5 PARCEL_CR01_5 1.0
    BUY_CR01_5 CBAL_CR01_5 1.0
    CINV_CR01_5 OBJ -0.3
    CINV_CR01_5 CBAL_CR01_5 -1.0
    CDU_CR01_5 CBAL_CR01_5 -1.0
    CDU_CR01_5 CDUCAP_5 1.0
    CDU_CR01_5 CDUMIN_5 1.0
    CDU_CR01_5 YLPG_CR01_5 -0.025127543584387436
    CDU_CR01_5 YNAP_CR01_5 -0.2025917905849106
    CDU_CR01_5 YKER_CR01_5 -0.13410952106049506
    CDU_CR01_5 YDSL_CR01_5 -0.24728591651278542
    CDU_CR01_5 YVGO_CR01_5 -0.22897185950088417
    CDU_CR01_5 YRES_CR01_5 -0.16191336875653717
    M5022 'MARKER' 'INTORG'
    NPAR_CR02_5 PARCEL_CR02_5 -20.0
    M5024 'MARKER' 'INTEND'
    BUY_CR02_5 OBJ -60.98578856678018
    BUY_CR02_5 PARCEL_CR02_5 1.0
    BUY_CR02_5 CBAL_CR02_5 1.0
    CINV_CR02_5 OBJ -0.3
    CINV_CR02_5 CBAL_CR02_5 -1.0
    CDU_CR02_5 CBAL_CR02_5 -1.0
    CDU_CR02_5 CDUCAP_5 1.0
    CDU_CR02_5 CDUMIN_5 1.0
    CDU_CR02_5 YLPG_CR02_5 -0.013444753666275039
    CDU_CR02_5 YNAP_CR02_5 -0.11889710072836579
    CDU_CR02_5 YKER_CR02_5 -0.103840437143255
    CDU_CR02_5 YDSL_CR02_5 -0.21229612809407214
    CDU_CR02_5 YVGO_CR02_5 -0.2628713956905896
    CDU_CR02_5 YRES_CR02_5 -0.28865018467744247
    M5039 'MARKER' 'INTORG'
    NPAR_CR03_5 PARCEL_CR03_5 -20.0
    M5041 'MARKER' 'INTEND'
    BUY_CR03_5 OBJ -66.77575461291674
    BUY_CR03_5 PARCEL_CR03_5 1.0
    BUY_CR03_5 CBAL_CR03_5 1.0
    CINV_CR03_5 OBJ -0.3
    CINV_CR03_5 CBAL_CR03_5 -1.0
    CDU_CR03_5 CBAL_CR03_5 -1.0
    CDU_CR03_5 CDUCAP_5 1.0
    CDU_CR03_5 CDUMIN_5 1.0
    CDU_CR03_5 YLPG_CR03_5 -0.01400858068810675
    CDU_CR03_5 YNAP_CR03_5 -0.1424923117986131
    CDU_CR03_5 YKER_CR03_5 -0.10784088582669263
    CDU_CR03_5 YDSL_CR03_5 -0.19279120630762445
    CDU_CR03_5 YVGO_CR03_5 -0.28544626211923063
    CDU_CR03_5 YRES_CR03_5 -0.2574207532597324
    M5056 'MARKER' 'INTORG'
    NPAR_CR04_5 PARCEL_CR04_5 -20.0
    M5058 'MARKER' 'INTEND'
    BUY_CR04_5 OBJ -72.75246144279387
    BUY_CR04_5 PARCEL_CR04_5 1.0
    BUY_CR04_5 CBAL_CR04_5 1.0
    CINV_CR04_5 OBJ -0.3
    CINV_CR04_5 CBAL_CR04_5 -1.0
    CDU_CR04_5 CBAL_CR04_5 -1.0
    CDU_CR04_5 CDUCAP_5 1.0
    CDU_CR04_5 CDUMIN_5 1.0
    CDU_CR04_5 YLPG_CR04_5 -0.02335213093765316
    CDU_CR04_5 YNAP_CR04_5 -0.2292355396921612
    CDU_CR04_5 YKER_CR04_5 -0.14240695851543803
    CDU_CR04_5 YDSL_CR04_5 -0.24384363627499198
    CDU_CR04_5 YVGO_CR04_5 -0.2465326974706559
    CDU_CR04_5 YRES_CR04_5 -0.1146290371090997
    M5073 'MARKER' 'INTORG'
    NPAR_CR05_5 PARCEL_CR05_5 -20.0
    M5075 'MARKER' 'INTEND'
    BUY_CR05_5 OBJ -64.90386084496456
    BUY_CR05_5 PARCEL_CR05_5 1.0
    BUY_CR05_5 CBAL_CR05_5 1.0
    CINV_CR05_5 OBJ -0.3
    CINV_CR05_5 CBAL_CR05_5 -1.0
    CDU_CR05_5 CBAL_CR05_5 -1.0
    CDU_CR05_5 CDUCAP_5 1.0
    CDU_CR05_5 CDUMIN_5 1.0
    CDU_CR05_5 YLPG_CR05_5 -0.01735729802728813
    CDU_CR05_5 YNAP_CR05_5 -0.16608619710065003
    CDU_CR05_5 YKER_CR05_5 -0.1170544437563835
    CDU_CR05_5 YDSL_CR05_5 -0.22299235889970878
    CDU_CR05_5 YVGO_CR05_5 -0.2433490540516293
    CDU_CR05_5 YRES_CR05_5 -0.23316064816434035
    M5090 'MARKER' 'INTORG'
    NPAR_CR06_5 PARCEL_CR06_5 -20.0
    M5092 'MARKER' 'INTEND'
    BUY_CR06_5 OBJ -63.21058463221458
    BUY_CR06_5 PARCEL_CR06_5 1.0
    BUY_CR06_5 CBAL_CR06_5 1.0
    CINV_CR06_5 OBJ -0.3
    CINV_CR06_5 CBAL_CR06_5 -1.0
    CDU_CR06_5 CBAL_CR06_5 -1.0
    CDU_CR06_5 CDUCAP_5 1.0
    CDU_CR06_5 CDUMIN_5 1.0
    CDU_CR06_5 YLPG_CR06_5 -0.014219474855875663
    CDU_CR06_5 YNAP_CR06_5 -0.13746806025500902
    CDU_CR06_5 YKER_CR06_5 -0.10533897185985656
    CDU_CR06_5 YDSL_CR06_5 -0.20403840195434858
    CDU_CR06_5 YVGO_CR06_5 -0.26484358994429863
    CDU_CR06_5 YRES_CR06_5 -0.27409150113061165
    M5107 'MARKER' 'INTORG'
    NPAR_CR07_5 PARCEL_CR07_5 -20.0
    M5109 'MARKER' 'INTEND'
    BUY_CR07_5 OBJ -71.67765340878535
    BUY_CR07_5 PARCEL_CR07_5 1.0
    BUY_CR07_5 CBAL_CR07_5 1.0
    CINV_CR07_5 OBJ -0.3
    CINV_CR07_5 CBAL_CR07_5 -1.0
    CDU_CR07_5 CBAL_CR07_5 -1.0
    CDU_CR07_5 CDUCAP_5 1.0
    CDU_CR07_5 CDUMIN_5 1.0
    CDU_CR07_5 YLPG_CR07_5 -0.01678766142162217
    CDU_CR07_5 YNAP_CR07_5 -0.18341674311422207
    CDU_CR07_5 YKER_CR07_5 -0.13271469159016522
    CDU_CR07_5 YDSL_CR07_5 -0.2249127244045356
    CDU_CR07_5 YVGO_CR07_5 -0.24848613807316539
    CDU_CR07_5 YRES_CR07_5 -0.19368204139628944
    M5124 'MARKER' 'INTORG'
    NPAR_CR08_5 PARCEL_CR08_5 -20.0
    M5126 'MARKER' 'INTEND'
    BUY_CR08_5 OBJ -69.15580815777714
    BUY_CR08_5 PARCEL_CR08_5 1.0
    BUY_CR08_5 CBAL_CR08_5 1.0
    CINV_CR08_5 OBJ -0.3
    CINV_CR08_5 CBAL_CR08_5 -1.0
    CDU_CR08_5 CBAL_CR08_5 -1.0
    CDU_CR08_5 CDUCAP_5 1.0
    CDU_CR08_5 CDUMIN_5 1.0
    CDU_CR08_5 YLPG_CR08_5 -0.023930881960770135
    CDU_CR08_5 YNAP_CR08_5 -0.199474063989656
    CDU_CR08_5 YKER_CR08_5 -0.13012967624359006
    CDU_CR08_5 YDSL_CR08_5 -0.24906213509239003
    CDU_CR08_5 YVGO_CR08_5 -0.24247509330512357
    CDU_CR08_5 YRES_CR08_5 -0.15492814940847022
    M5141 'MARKER' 'INTORG'
    NPAR_CR09_5 PARCEL_CR09_5 -20.0
    M5143 'MARKER' 'INTEND'
    BUY_CR09_5 OBJ -78.28299198136276
    BUY_CR09_5 PARCEL_CR09_5 1.0
    BUY_CR09_5 CBAL_CR09_5 1.0
    CINV_CR09_5 OBJ -0.3
    CINV_CR09_5 CBAL_CR09_5 -1.0
    CDU_CR09_5 CBAL_CR09_5 -1.0
    CDU_CR09_5 CDUCAP_5 1.0
    CDU_CR09_5 CDUMIN_5 1.0
    CDU_CR09_5 YLPG_CR09_5 -0.0254414593142613
    CDU_CR09_5 YNAP_CR09_5 -0.2406668892422991
    CDU_CR09_5 YKER_CR09_5 -0.14150533274546892
    CDU_CR09_5 YDSL_CR09_5 -0.23713673044274025
    CDU_CR09_5 YVGO_CR09_5 -0.23566730460149374
    CDU_CR09_5 YRES_CR09_5 -0.11958228365373665
    M5158 'MARKER' 'INTORG'
    CDUMODE_5 OBJ -150.0
    CDUMODE_5 CDUCAP_5 -150.0
    CDUMODE_5 CDUMIN_5 -90.0
    M5162 'MARKER' 'INTEND'
    LPG_CR00_5 YLPG_CR00_5 1.0
    LPG_CR00_5 LPGBAL_5 -1.0
    NAP_CR00_5 YNAP_CR00_5 1.0
    NAP_CR00_5 NAPBAL_CR00_5 1.0
    KER_CR00_5 YKER_CR00_5 1.0
    KER_CR00_5 KERBAL_CR00_5 1.0
    DSL_CR00_5 YDSL_CR00_5 1.0
    DSL_CR00_5 DSLBAL_CR00_5 1.0
    VGO_CR00_5 YVGO_CR00_5 1.0
    VGO_CR00_5 VGOBAL_CR00_5 1.0
    RES_CR00_5 YRES_CR00_5 1.0
    RES_CR00_5 RESSPLIT_CR00_5 1.0
    LPG_CR01_5 YLPG_CR01_5 1.0
    LPG_CR01_5 LPGBAL_5 -1.0
    NAP_CR01_5 YNAP_CR01_5 1.0
    NAP_CR01_5 NAPBAL_CR01_5 1.0
    KER_CR01_5 YKER_CR01_5 1.0
    KER_CR01_5 KERBAL_CR01_5 1.0
    DSL_CR01_5 YDSL_CR01_5 1.0
    DSL_CR01_5 DSLBAL_CR01_5 1.0
    VGO_CR01_5 YVGO_CR01_5 1.0
    VGO_CR01_5 VGOBAL_CR01_5 1.0
    RES_CR01_5 YRES_CR01_5 1.0
    RES_CR01_5 RESSPLIT_CR01_5 1.0
    LPG_CR02_5 YLPG_CR02_5 1.0
    LPG_CR02_5 LPGBAL_5 -1.0
    NAP_CR02_5 YNAP_CR02_5 1.0
    NAP_CR02_5 NAPBAL_CR02_5 1.0
    KER_CR02_5 YKER_CR02_5 1.0
    KER_CR02_5 KERBAL_CR02_5 1.0
    DSL_CR02_5 YDSL_CR02_5 1.0
    DSL_CR02_5 DSLBAL_CR02_5 1.0
    VGO_CR02_5 YVGO_CR02_5 1.0
    VGO_CR02_5 VGOBAL_CR02_5 1.0
    RES_CR02_5 YRES_CR02_5 1.0
    RES_CR02_5 RESSPLIT_CR02_5 1.0
    LPG_CR03_5 YLPG_CR03_5 1.0
    LPG_CR03_5 LPGBAL_5 -1.0
    NAP_CR03_5 YNAP_CR03_5 1.0
    NAP_CR03_5 NAPBAL_CR03_5 1.0
    KER_CR03_5 YKER_CR03_5 1.0
    KER_CR03_5 KERBAL_CR03_5 1.0
    DSL_CR03_5 YDSL_CR03_5 1.0
    DSL_CR03_5 DSLBAL_CR03_5 1.0
    VGO_CR03_5 YVGO_CR03_5 1.0
    VGO_CR03_5 VGOBAL_CR03_5 1.0
    RES_CR03_5 YRES_CR03_5 1.0
    RES_CR03_5 RESSPLIT_CR03_5 1.0
    LPG_CR04_5 YLPG_CR04_5 1.0
    LPG_CR04_5 LPGBAL_5 -1.0
    NAP_CR04_5 YNAP_CR04_5 1.0
    NAP_CR04_5 NAPBAL_CR04_5 1.0
    KER_CR04_5 YKER_CR04_5 1.0
    KER_CR04_5 KERBAL_CR04_5 1.0
    DSL_CR04_5 YDSL_CR04_5 1.0
    DSL_CR04_5 DSLBAL_CR04_5 1.0
    VGO_CR04_5 YVGO_CR04_5 1.0
    VGO_CR04_5 VGOBAL_CR04_5 1.0
    RES_CR04_5 YRES_CR04_5 1.0
    RES_CR04_5 RESSPLIT_CR04_5 1.0
    LPG_CR05_5 YLPG_CR05_5 1.0
    LPG_CR05_5 LPGBAL_5 -1.0
    NAP_CR05_5 YNAP_CR05_5 1.0
    NAP_CR05_5 NAPBAL_CR05_5 1.0
    KER_CR05_5 YKER_CR05_5 1.0
    KER_CR05_5 KERBAL_CR05_5 1.0
    DSL_CR05_5 YDSL_CR05_5 1.0
    DSL_CR05_5 DSLBAL_CR05_5 1.0
    VGO_CR05_5 YVGO_CR05_5 1.0
    VGO_CR05_5 VGOBAL_CR05_5 1.0
    RES_CR05_5 YRES_CR05_5 1.0
    RES_CR05_5 RESSPLIT_CR05_5 1.0
    LPG_CR06_5 YLPG_CR06_5 1.0
    LPG_CR06_5 LPGBAL_5 -1.0
    NAP_CR06_5 YNAP_CR06_5 1.0
    NAP_CR06_5 NAPBAL_CR06_5 1.0
    KER_CR06_5 YKER_CR06_5 1.0
    KER_CR06_5 KERBAL_CR06_5 1.0
    DSL_CR06_5 YDSL_CR06_5 1.0
    DSL_CR06_5 DSLBAL_CR06_5 1.0
    VGO_CR06_5 YVGO_CR06_5 1.0
    VGO_CR06_5 VGOBAL_CR06_5 1.0
    RES_CR06_5 YRES_CR06_5 1.0
    RES_CR06_5 RESSPLIT_CR06_5 1.0
    LPG_CR07_5 YLPG_CR07_5 1.0
    LPG_CR07_5 LPGBAL_5 -1.0
    NAP_CR07_5 YNAP_CR07_5 1.0
    NAP_CR07_5 NAPBAL_CR07_5 1.0
    KER_CR07_5 YKER_CR07_5 1.0
    KER_CR07_5 KERBAL_CR07_5 1.0
    DSL_CR07_5 YDSL_CR07_5 1.0
    DSL_CR07_5 DSLBAL_CR07_5 1.0
    VGO_CR07_5 YVGO_CR07_5 1.0
    VGO_CR07_5 VGOBAL_CR07_5 1.0
    RES_CR07_5 YRES_CR07_5 1.0
    RES_CR07_5 RESSPLIT_CR07_5 1.0
    LPG_CR08_5 YLPG_CR08_5 1.0
    LPG_CR08_5 LPGBAL_5 -1.0
    NAP_CR08_5 YNAP_CR08_5 1.0
    NAP_CR08_5 NAPBAL_CR08_5 1.0
    KER_CR08_5 YKER_CR08_5 1.0
    KER_CR08_5 KERBAL_CR08_5 1.0
    DSL_CR08_5 YDSL_CR08_5 1.0
    DSL_CR08_5 DSLBAL_CR08_5 1.0
    VGO_CR08_5 YVGO_CR08_5 1.0
    VGO_CR08_5 VGOBAL_CR08_5 1.0
    RES_CR08_5 YRES_CR08_5 1.0
    RES_CR08_5 RESSPLIT_CR08_5 1.0
    LPG_CR09_5 YLPG_CR09_5 1.0
    LPG_CR09_5 LPGBAL_5 -1.0
    NAP_CR09_5 YNAP_CR09_5 1.0
    NAP_CR09_5 NAPBAL_CR09_5 1.0
    KER_CR09_5 YKER_CR09_5 1.0
    KER_CR09_5 KERBAL_CR09_5 1.0
    DSL_CR09_5 YDSL_CR09_5 1.0
    DSL_CR09_5 DSLBAL_CR09_5 1.0
    VGO_CR09_5 YVGO_CR09_5 1.0
    VGO_CR09_5 VGOBAL_CR09_5 1.0
    RES_CR09_5 YRES_CR09_5 1.0
    RES_CR09_5 RESSPLIT_CR09_5 1.0
    VDUIN_CR00_5 RESSPLIT_CR00_5 -1.0
    VDUIN_CR00_5 VDUY1_CR00_5 -0.45
    VDUIN_CR00_5 VDUY2_CR00_5 -0.55
    VDUIN_CR00_5 VDUCAP_5 1.0
    RESFO_CR00_5 RESSPLIT_CR00_5 -1.0
    RESFO_CR00_5 FOBAL_5 -1.0
    RESFO_CR00_5 FOSUL_5 1.9540891690108433
    VGO2_CR00_5 VDUY1_CR00_5 1.0
    VGO2_CR00_5 VGOBAL_CR00_5 1.0
    VR_CR00_5 VDUY2_CR00_5 1.0
    VR_CR00_5 FOBAL_5 -1.0
    VR_CR00_5 FOSUL_5 3.5903159197140964
    VDUIN_CR01_5 RESSPLIT_CR01_5 -1.0
    VDUIN_CR01_5 VDUY1_CR01_5 -0.45
    VDUIN_CR01_5 VDUY2_CR01_5 -0.55
    VDUIN_CR01_5 VDUCAP_5 1.0
    RESFO_CR01_5 RESSPLIT_CR01_5 -1.0
    RESFO_CR01_5 FOBAL_5 -1.0
    RESFO_CR01_5 FOSUL_5 -0.6168441789886687
    VGO2_CR01_5 VDUY1_CR01_5 1.0
    VGO2_CR01_5 VGOBAL_CR01_5 1.0
    VR_CR01_5 VDUY2_CR01_5 1.0
    VR_CR01_5 FOBAL_5 -1.0
    VR_CR01_5 FOSUL_5 0.24810256731473057
    VDUIN_CR02_5 RESSPLIT_CR02_5 -1.0
    VDUIN_CR02_5 VDUY1_CR02_5 -0.45
    VDUIN_CR02_5 VDUY2_CR02_5 -0.55
    VDUIN_CR02_5 VDUCAP_5 1.0
    RESFO_CR02_5 RESSPLIT_CR02_5 -1.0
    RESFO_CR02_5 FOBAL_5 -1.0
    RESFO_CR02_5 FOSUL_5 0.05675733131967897
    VGO2_CR02_5 VDUY1_CR02_5 1.0
    VGO2_CR02_5 VGOBAL_CR02_5 1.0
    VR_CR02_5 VDUY2_CR02_5 1.0
    VR_CR02_5 FOBAL_5 -1.0
    VR_CR02_5 FOSUL_5 1.1237845307155832
    VDUIN_CR03_5 RESSPLIT_CR03_5 -1.0
    VDUIN_CR03_5 VDUY1_CR03_5 -0.45
    VDUIN_CR03_5 VDUY2_CR03_5 -0.55
    VDUIN_CR03_5 VDUCAP_5 1.0
    RESFO_CR03_5 RESSPLIT_CR03_5 -1.0
    RESFO_CR03_5 FOBAL_5 -1.0
    RESFO_CR03_5 FOSUL_5 -1.8686274424458973
    VGO2_CR03_5 VDUY1_CR03_5 1.0
    VGO2_CR03_5 VGOBAL_CR03_5 1.0
    VR_CR03_5 VDUY2_CR03_5 1.0
    VR_CR03_5 FOBAL_5 -1.0
    VR_CR03_5 FOSUL_5 -1.3792156751796663
    VDUIN_CR04_5 RESSPLIT_CR04_5 -1.0
    VDUIN_CR04_5 VDUY1_CR04_5 -0.45
    VDUIN_CR04_5 VDUY2_CR04_5 -0.55
    VDUIN_CR04_5 VDUCAP_5 1.0
    RESFO_CR04_5 RESSPLIT_CR04_5 -1.0
    RESFO_CR04_5 FOBAL_5 -1.0
    RESFO_CR04_5 FOSUL_5 2.031668478530798
    VGO2_CR04_5 VDUY1_CR04_5 1.0
    VGO2_CR04_5 VGOBAL_CR04_5 1.0
    VR_CR04_5 VDUY2_CR04_5 1.0
    VR_CR04_5 FOBAL_5 -1.0
    VR_CR04_5 FOSUL_5 3.6911690220900377
    VDUIN_CR05_5 RESSPLIT_CR05_5 -1.0
    VDUIN_CR05_5 VDUY1_CR05_5 -0.45
    VDUIN_CR05_5 VDUY2_CR05_5 -0.55
    VDUIN_CR05_5 VDUCAP_5 1.0
    RESFO_CR05_5 RESSPLIT_CR05_5 -1.0
    RESFO_CR05_5 FOBAL_5 -1.0
    RESFO_CR05_5 FOSUL_5 0.3429997580900688
    VGO2_CR05_5 VDUY1_CR05_5 1.0
    VGO2_CR05_5 VGOBAL_CR05_5 1.0
    VR_CR05_5 VDUY2_CR05_5 1.0
    VR_CR05_5 FOBAL_5 -1.0
    VR_CR05_5 FOSUL_5 1.4958996855170898
    VDUIN_CR06_5 RESSPLIT_CR06_5 -1.0
    VDUIN_CR06_5 VDUY1_CR06_5 -0.45
    VDUIN_CR06_5 VDUY2_CR06_5 -0.55
    VDUIN_CR06_5 VDUCAP_5 1.0
    RESFO_CR06_5 RESSPLIT_CR06_5 -1.0
    RESFO_CR06_5 FOBAL_5 -1.0
    RESFO_CR06_5 FOSUL_5 0.10255232060654862
    VGO2_CR06_5 VDUY1_CR06_5 1.0
    VGO2_CR06_5 VGOBAL_CR06_5 1.0
    VR_CR06_5 VDUY2_CR06_5 1.0
    VR_CR06_5 FOBAL_5 -1.0
    VR_CR06_5 FOSUL_5 1.1833180167885136
    VDUIN_CR07_5 RESSPLIT_CR07_5 -1.0
    VDUIN_CR07_5 VDUY1_CR07_5 -0.45
    VDUIN_CR07_5 VDUY2_CR07_5 -0.55
    VDUIN_CR07_5 VDUCAP_5 1.0
    RESFO_CR07_5 RESSPLIT_CR07_5 -1.0
    RESFO_CR07_5 FOBAL_5 -1.0
    RESFO_CR07_5 FOSUL_5 -3.116635223405176
    VGO2_CR07_5 VDUY1_CR07_5 1.0
    VGO2_CR07_5 VGOBAL_CR07_5 1.0
    VR_CR07_5 VDUY2_CR07_5 1.0
    VR_CR07_5 FOBAL_5 -1.0
    VR_CR07_5 FOSUL_5 -3.001625790426729
    VDUIN_CR08_5 RESSPLIT_CR08_5 -1.0
    VDUIN_CR08_5 VDUY1_CR08_5 -0.45
    VDUIN_CR08_5 VDUY2_CR08_5 -0.55
    VDUIN_CR08_5 VDUCAP_5 1.0
    RESFO_CR08_5 RESSPLIT_CR08_5 -1.0
    RESFO_CR08_5 FOBAL_5 -1.0
    RESFO_CR08_5 FOSUL_5 0.0456281803886287
    VGO2_CR08_5 VDUY1_CR08_5 1.0
    VGO2_CR08_5 VGOBAL_CR08_5 1.0
    VR_CR08_5 VDUY2_CR08_5 1.0
    VR_CR08_5 FOBAL_5 -1.0
    VR_CR08_5 FOSUL_5 1.109316634505218
    VDUIN_CR09_5 RESSPLIT_CR09_5 -1.0
    VDUIN_CR09_5 VDUY1_CR09_5 -0.45
    VDUIN_CR09_5 VDUY2_CR09_5 -0.55
    VDUIN_CR09_5 VDUCAP_5 1.0
    RESFO_CR09_5 RESSPLIT_CR09_5 -1.0
    RESFO_CR09_5 FOBAL_5 -1.0
    RESFO_CR09_5 FOSUL_5 -3.264603397407564
    VGO2_CR09_5 VDUY1_CR09_5 1.0
    VGO2_CR09_5 VGOBAL_CR09_5 1.0
    VR_CR09_5 VDUY2_CR09_5 1.0
    VR_CR09_5 FOBAL_5 -1.0
    VR_CR09_5 FOSUL_5 -3.1939844166298332
    FCCIN_CR00_5 OBJ -2.5
    FCCIN_CR00_5 VGOBAL_CR00_5 -1.0
    FCCIN_CR00_5 FCCCAP_5 1.0
    FCCIN_CR00_5 FCCY_FCCG_5 -0.55
    FCCIN_CR00_5 FCCY_LCO_5 -0.2
    FCCIN_CR00_5 FCCY_FLPG_5 -0.15
    FCCIN_CR00_5 FCCY_SLURRY_5 -0.07
    FCCIN_CR01_5 OBJ -2.5
    FCCIN_CR01_5 VGOBAL_CR01_5 -1.0
    FCCIN_CR01_5 FCCCAP_5 1.0
    FCCIN_CR01_5 FCCY_FCCG_5 -0.55
    FCCIN_CR01_5 FCCY_LCO_5 -0.2
    FCCIN_CR01_5 FCCY_FLPG_5 -0.15
    FCCIN_CR01_5 FCCY_SLURRY_5 -0.07
    FCCIN_CR02_5 OBJ -2.5
    FCCIN_CR02_5 VGOBAL_CR02_5 -1.0
    FCCIN_CR02_5 FCCCAP_5 1.0
    FCCIN_CR02_5 FCCY_FCCG_5 -0.55
    FCCIN_CR02_5 FCCY_LCO_5 -0.2
    FCCIN_CR02_5 FCCY_FLPG_5 -0.15
    FCCIN_CR02_5 FCCY_SLURRY_5 -0.07
    FCCIN_CR03_5 OBJ -2.5
    FCCIN_CR03_5 VGOBAL_CR03_5 -1.0
    FCCIN_CR03_5 FCCCAP_5 1.0
    FCCIN_CR03_5 FCCY_FCCG_5 -0.55
    FCCIN_CR03_5 FCCY_LCO_5 -0.2
    FCCIN_CR03_5 FCCY_FLPG_5 -0.15
    FCCIN_CR03_5 FCCY_SLURRY_5 -0.07
    FCCIN_CR04_5 OBJ -2.5
    FCCIN_CR04_5 VGOBAL_CR04_5 -1.0
    FCCIN_CR04_5 FCCCAP_5 1.0
    FCCIN_CR04_5 FCCY_FCCG_5 -0.55
    FCCIN_CR04_5 FCCY_LCO_5 -0.2
    FCCIN_CR04_5 FCCY_FLPG_5 -0.15
    FCCIN_CR04_5 FCCY_SLURRY_5 -0.07
    FCCIN_CR05_5 OBJ -2.5
    FCCIN_CR05_5 VGOBAL_CR05_5 -1.0
    FCCIN_CR05_5 FCCCAP_5 1.0
    FCCIN_CR05_5 FCCY_FCCG_5 -0.55
    FCCIN_CR05_5 FCCY_LCO_5 -0.2
    FCCIN_CR05_5 FCCY_FLPG_5 -0.15
    FCCIN_CR05_5 FCCY_SLURRY_5 -0.07
    FCCIN_CR06_5 OBJ -2.5
    FCCIN_CR06_5 VGOBAL_CR06_5 -1.0
    FCCIN_CR06_5 FCCCAP_5 1.0
    FCCIN_CR06_5 FCCY_FCCG_5 -0.55
    FCCIN_CR06_5 FCCY_LCO_5 -0.2
    FCCIN_CR06_5 FCCY_FLPG_5 -0.15
    FCCIN_CR06_5 FCCY_SLURRY_5 -0.07
    FCCIN_CR07_5 OBJ -2.5
    FCCIN_CR07_5 VGOBAL_CR07_5 -1.0
    FCCIN_CR07_5 FCCCAP_5 1.0
    FCCIN_CR07_5 FCCY_FCCG_5 -0.55
    FCCIN_CR07_5 FCCY_LCO_5 -0.2
    FCCIN_CR07_5 FCCY_FLPG_5 -0.15
    FCCIN_CR07_5 FCCY_SLURRY_5 -0.07
    FCCIN_CR08_5 OBJ -2.5
    FCCIN_CR08_5 VGOBAL_CR08_5 -1.0
    FCCIN_CR08_5 FCCCAP_5 1.0
    FCCIN_CR08_5 FCCY_FCCG_5 -0.55
    FCCIN_CR08_5 FCCY_LCO_5 -0.2
    FCCIN_CR08_5 FCCY_FLPG_5 -0.15
    FCCIN_CR08_5 FCCY_SLURRY_5 -0.07
    FCCIN_CR09_5 OBJ -2.5
    FCCIN_CR09_5 VGOBAL_CR09_5 -1.0
    FCCIN_CR09_5 FCCCAP_5 1.0
    FCCIN_CR09_5 FCCY_FCCG_5 -0.55
    FCCIN_CR09_5 FCCY_LCO_5 -0.2
    FCCIN_CR09_5 FCCY_FLPG_5 -0.15
    FCCIN_CR09_5 FCCY_SLURRY_5 -0.07
    FCCG_5 FCCY_FCCG_5 1.0
    FCCG_5 GASBAL_5 -1.0
    FCCG_5 GASRON_5 1.0
    LCO_5 FCCY_LCO_5 1.0
    LCO_5 LCOBAL_5 1.0
    FLPG_5 FCCY_FLPG_5 1.0
    FLPG_5 LPGBAL_5 -1.0
    SLURRY_5 FCCY_SLURRY_5 1.0
    SLURRY_5 FOBAL_5 -1.0
    SLURRY_5 FOSUL_5 -1.5
    REFIN_CR00_5 OBJ -3.0
    REFIN_CR00_5 NAPBAL_CR00_5 -1.0
    REFIN_CR00_5 REFCAP_5 1.0
    REFIN_CR00_5 REFY_5 -0.85
    NAPGAS_CR00_5 NAPBAL_CR00_5 -1.0
    NAPGAS_CR00_5 GASBAL_5 -1.0
    NAPGAS_CR00_5 GASRON_5 -41.351908455631545
    REFIN_CR01_5 OBJ -3.0
    REFIN_CR01_5 NAPBAL_CR01_5 -1.0
    REFIN_CR01_5 REFCAP_5 1.0
    REFIN_CR01_5 REFY_5 -0.85
    NAPGAS_CR01_5 NAPBAL_CR01_5 -1.0
    NAPGAS_CR01_5 GASBAL_5 -1.0
    NAPGAS_CR01_5 GASRON_5 -33.623043958680114
    REFIN_CR02_5 OBJ -3.0
    REFIN_CR02_5 NAPBAL_CR02_5 -1.0
    REFIN_CR02_5 REFCAP_5 1.0
    REFIN_CR02_5 REFY_5 -0.85
    NAPGAS_CR02_5 NAPBAL_CR02_5 -1.0
    NAPGAS_CR02_5 GASBAL_5 -1.0
    NAPGAS_CR02_5 GASRON_5 -39.74522208078083
    REFIN_CR03_5 OBJ -3.0
    REFIN_CR03_5 NAPBAL_CR03_5 -1.0
    REFIN_CR03_5 REFCAP_5 1.0
    REFIN_CR03_5 REFY_5 -0.85
    NAPGAS_CR03_5 NAPBAL_CR03_5 -1.0
    NAPGAS_CR03_5 GASBAL_5 -1.0
    NAPGAS_CR03_5 GASRON_5 -39.32063345179839
    REFIN_CR04_5 OBJ -3.0
    REFIN_CR04_5 NAPBAL_CR04_5 -1.0
    REFIN_CR04_5 REFCAP_5 1.0
    REFIN_CR04_5 REFY_5 -0.85
    NAPGAS_CR04_5 NAPBAL_CR04_5 -1.0
    NAPGAS_CR04_5 GASBAL_5 -1.0
    NAPGAS_CR04_5 GASRON_5 -28.06018906757886
    REFIN_CR05_5 OBJ -3.0
    REFIN_CR05_5 NAPBAL_CR05_5 -1.0
    REFIN_CR05_5 REFCAP_5 1.0
    REFIN_CR05_5 REFY_5 -0.85
    NAPGAS_CR05_5 NAPBAL_CR05_5 -1.0
    NAPGAS_CR05_5 GASBAL_5 -1.0
    NAPGAS_CR05_5 GASRON_5 -37.177062383933254
    REFIN_CR06_5 OBJ -3.0
    REFIN_CR06_5 NAPBAL_CR06_5 -1.0
    REFIN_CR06_5 REFCAP_5 1.0
    REFIN_CR06_5 REFY_5 -0.85
    NAPGAS_CR06_5 NAPBAL_CR06_5 -1.0
    NAPGAS_CR06_5 GASBAL_5 -1.0
    NAPGAS_CR06_5 GASRON_5 -38.73738801284508
    REFIN_CR07_5 OBJ -3.0
    REFIN_CR07_5 NAPBAL_CR07_5 -1.0
    REFIN_CR07_5 REFCAP_5 1.0
    REFIN_CR07_5 REFY_5 -0.85
    NAPGAS_CR07_5 NAPBAL_CR07_5 -1.0
    NAPGAS_CR07_5 GASBAL_5 -1.0
    NAPGAS_CR07_5 GASRON_5 -31.720911449683953
    REFIN_CR08_5 OBJ -3.0
    REFIN_CR08_5 NAPBAL_CR08_5 -1.0
    REFIN_CR08_5 REFCAP_5 1.0
    REFIN_CR08_5 REFY_5 -0.85
    NAPGAS_CR08_5 NAPBAL_CR08_5 -1.0
    NAPGAS_CR08_5 GASBAL_5 -1.0
    NAPGAS_CR08_5 GASRON_5 -31.236267605063702
    REFIN_CR09_5 OBJ -3.0
    REFIN_CR09_5 NAPBAL_CR09_5 -1.0
    REFIN_CR09_5 REFCAP_5 1.0
    REFIN_CR09_5 REFY_5 -0.85
    NAPGAS_CR09_5 NAPBAL_CR09_5 -1.0
    NAPGAS_CR09_5 GASBAL_5 -1.0
    NAPGAS_CR09_5 GASRON_5 -29.9151768258086
    REFORMATE_5 REFY_5 1.0
    REFORMATE_5 GASBAL_5 -1.0
    REFORMATE_5 GASRON_5 7.0
    DHTIN_CR00_5 OBJ -2.0
    DHTIN_CR00_5 DSLBAL_CR00_5 -1.0
    DHTIN_CR00_5 DHTCAP_5 1.0
    DHTIN_CR00_5 DHTY_5 -0.98
    DSLDIR_CR00_5 DSLBAL_CR00_5 -1.0
    DSLDIR_CR00_5 DSLPB_5 -1.0
    DSLDIR_CR00_5 DSLSUL_5 1.5862267507032528
    DHTIN_CR01_5 OBJ -2.0
    DHTIN_CR01_5 DSLBAL_CR01_5 -1.0
    DHTIN_CR01_5 DHTCAP_5 1.0
    DHTIN_CR01_5 DHTY_5 -0.98
    DSLDIR_CR01_5 DSLBAL_CR01_5 -1.0
    DSLDIR_CR01_5 DSLPB_5 -1.0
    DSLDIR_CR01_5 DSLSUL_5 0.8149467463033994
    DHTIN_CR02_5 OBJ -2.0
    DHTIN_CR02_5 DSLBAL_CR02_5 -1.0
    DHTIN_CR02_5 DHTCAP_5 1.0
    DHTIN_CR02_5 DHTY_5 -0.98
    DSLDIR_CR02_5 DSLBAL_CR02_5 -1.0
    DSLDIR_CR02_5 DSLPB_5 -1.0
    DSLDIR_CR02_5 DSLSUL_5 1.0170271993959037
    DHTIN_CR03_5 OBJ -2.0
    DHTIN_CR03_5 DSLBAL_CR03_5 -1.0
    DHTIN_CR03_5 DHTCAP_5 1.0
    DHTIN_CR03_5 DHTY_5 -0.98
    DSLDIR_CR03_5 DSLBAL_CR03_5 -1.0
    DSLDIR_CR03_5 DSLPB_5 -1.0
    DSLDIR_CR03_5 DSLSUL_5 0.4394117672662308
    DHTIN_CR04_5 OBJ -2.0
    DHTIN_CR04_5 DSLBAL_CR04_5 -1.0
    DHTIN_CR04_5 DHTCAP_5 1.0
    DHTIN_CR04_5 DHTY_5 -0.98
    DSLDIR_CR04_5 DSLBAL_CR04_5 -1.0
    DSLDIR_CR04_5 DSLPB_5 -1.0
    DSLDIR_CR04_5 DSLSUL_5 1.6095005435592393
    DHTIN_CR05_5 OBJ -2.0
    DHTIN_CR05_5 DSLBAL_CR05_5 -1.0
    DHTIN_CR05_5 DHTCAP_5 1.0
    DHTIN_CR05_5 DHTY_5 -0.98
    DSLDIR_CR05_5 DSLBAL_CR05_5 -1.0
    DSLDIR_CR05_5 DSLPB_5 -1.0
    DSLDIR_CR05_5 DSLSUL_5 1.1028999274270206
    DHTIN_CR06_5 OBJ -2.0
    DHTIN_CR06_5 DSLBAL_CR06_5 -1.0
    DHTIN_CR06_5 DHTCAP_5 1.0
    DHTIN_CR06_5 DHTY_5 -0.98
    DSLDIR_CR06_5 DSLBAL_CR06_5 -1.0
    DSLDIR_CR06_5 DSLPB_5 -1.0
    DSLDIR_CR06_5 DSLSUL_5 1.0307656961819645
    DHTIN_CR07_5 OBJ -2.0
    DHTIN_CR07_5 DSLBAL_CR07_5 -1.0
    DHTIN_CR07_5 DHTCAP_5 1.0
    DHTIN_CR07_5 DHTY_5 -0.98
    DSLDIR_CR07_5 DSLBAL_CR07_5 -1.0
    DSLDIR_CR07_5 DSLPB_5 -1.0
    DSLDIR_CR07_5 DSLSUL_5 0.06500943297844713
    DHTIN_CR08_5 OBJ -2.0
    DHTIN_CR08_5 DSLBAL_CR08_5 -1.0
    DHTIN_CR08_5 DHTCAP_5 1.0
    DHTIN_CR08_5 DHTY_5 -0.98
    DSLDIR_CR08_5 DSLBAL_CR08_5 -1.0
    DSLDIR_CR08_5 DSLPB_5 -1.0
    DSLDIR_CR08_5 DSLSUL_5 1.0136884541165885
    DHTIN_CR09_5 OBJ -2.0
    DHTIN_CR09_5 DSLBAL_CR09_5 -1.0
    DHTIN_CR09_5 DHTCAP_5 1.0
    DHTIN_CR09_5 DHTY_5 -0.98
    DSLDIR_CR09_5 DSLBAL_CR09_5 -1.0
    DSLDIR_CR09_5 DSLPB_5 -1.0
    DSLDIR_CR09_5 DSLSUL_5 0.020618980777730833
    LCODHT_5 LCOBAL_5 -1.0
    LCODHT_5 DHTCAP_5 1.0
    LCODHT_5 DHTY_5 -0.95
    LCOFO_5 LCOBAL_5 -1.0
    LCOFO_5 FOBAL_5 -1.0
    LCOFO_5 FOSUL_5 -2.5
    ULSD_5 DHTY_5 1.0
    ULSD_5 DSLPB_5 -1.0
    ULSD_5 DSLSUL_5 -0.049
    SELL_LPG_5 OBJ 50.23686027918559
    SELL_LPG_5 PBAL_LPG_5 -1.0
    SELL_LPG_5 DMAX_LPG_5 1.0
    SELL_LPG_5 DMIN_LPG_5 1.0
    SELL_GAS_5 OBJ 95.9067332602634
    SELL_GAS_5 PBAL_GAS_5 -1.0
    SELL_GAS_5 DMAX_GAS_5 1.0
    SELL_GAS_5 DMIN_GAS_5 1.0
    SELL_JET_5 OBJ 91.33974596215562
    SELL_JET_5 PBAL_JET_5 -1.0
    SELL_JET_5 DMAX_JET_5 1.0
    SELL_JET_5 DMIN_JET_5 1.0
    SELL_DSL_5 OBJ 89.5129510429125
    SELL_DSL_5 PBAL_DSL_5 -1.0
    SELL_DSL_5 DMAX_DSL_5 1.0
    SELL_DSL_5 DMIN_DSL_5 1.0
    SELL_FO_5 OBJ 54.80384757729337
    SELL_FO_5 PBAL_FO_5 -1.0
    SELL_FO_5 DMAX_FO_5 1.0
    SELL_FO_5 DMIN_FO_5 1.0
    PINV_LPG_5 OBJ -0.5
    PINV_LPG_5 PBAL_LPG_5 -1.0
    PINV_GAS_5 OBJ -0.5
    PINV_GAS_5 PBAL_GAS_5 -1.0
    PINV_JET_5 OBJ -0.5
    PINV_JET_5 PBAL_JET_5 -1.0
    PINV_DSL_5 OBJ -0.5
    PINV_DSL_5 PBAL_DSL_5 -1.0
    PINV_FO_5 OBJ -0.5
    PINV_FO_5 PBAL_FO_5 -1.0
    SHORT_LPG_5 OBJ -400.0
    SHORT_LPG_5 DMIN_LPG_5 1.0
    SHORT_GAS_5 OBJ -400.0
    SHORT_GAS_5 DMIN_GAS_5 1.0
    SHORT_JET_5 OBJ -400.0
    SHORT_JET_5 DMIN_JET_5 1.0
    SHORT_DSL_5 OBJ -400.0
    SHORT_DSL_5 DMIN_DSL_5 1.0
    SHORT_FO_5 OBJ -400.0
    SHORT_FO_5 DMIN_FO_5 1.0
    GASPOOL_5 GASBAL_5 1.0
    GASPOOL_5 PBAL_GAS_5 1.0
    JETPOOL_5 JETBAL_5 1.0
    JETPOOL_5 PBAL_JET_5 1.0
    KERJET_CR00_5 KERBAL_CR00_5 -1.0
    KERJET_CR00_5 JETBAL_5 -1.0
    KERJET_CR00_5 JETSUL_5 0.10905668767581322
    KERDSL_CR00_5 KERBAL_CR00_5 -1.0
    KERDSL_CR00_5 DSLPB_5 -1.0
    KERDSL_CR00_5 DSLSUL_5 0.3590566876758132
    KERJET_CR01_5 KERBAL_CR01_5 -1.0
    KERJET_CR01_5 JETBAL_5 -1.0
    KERJET_CR01_5 JETSUL_5 -0.08376331342415014
    KERDSL_CR01_5 KERBAL_CR01_5 -1.0
    KERDSL_CR01_5 DSLPB_5 -1.0
    KERDSL_CR01_5 DSLSUL_5 0.16623668657584983
    KERJET_CR02_5 KERBAL_CR02_5 -1.0
    KERJET_CR02_5 JETBAL_5 -1.0
    KERJET_CR02_5 JETSUL_5 -0.033243200151024055
    KERDSL_CR02_5 KERBAL_CR02_5 -1.0
    KERDSL_CR02_5 DSLPB_5 -1.0
    KERDSL_CR02_5 DSLSUL_5 0.21675679984897595
    KERJET_CR03_5 KERBAL_CR03_5 -1.0
    KERJET_CR03_5 JETBAL_5 -1.0
    KERJET_CR03_5 JETSUL_5 -0.17764705818344229
    KERDSL_CR03_5 KERBAL_CR03_5 -1.0
    KERDSL_CR03_5 DSLPB_5 -1.0
    KERDSL_CR03_5 DSLSUL_5 0.0723529418165577
    KERJET_CR04_5 KERBAL_CR04_5 -1.0
    KERJET_CR04_5 JETBAL_5 -1.0
    KERJET_CR04_5 JETSUL_5 0.11487513588980985
    KERDSL_CR04_5 KERBAL_CR04_5 -1.0
    KERDSL_CR04_5 DSLPB_5 -1.0
    KERDSL_CR04_5 DSLSUL_5 0.36487513588980985
    KERJET_CR05_5 KERBAL_CR05_5 -1.0
    KERJET_CR05_5 JETBAL_5 -1.0
    KERJET_CR05_5 JETSUL_5 -0.011775018143244831
    KERDSL_CR05_5 KERBAL_CR05_5 -1.0
    KERDSL_CR05_5 DSLPB_5 -1.0
    KERDSL_CR05_5 DSLSUL_5 0.23822498185675517
    KERJET_CR06_5 KERBAL_CR06_5 -1.0
    KERJET_CR06_5 JETBAL_5 -1.0
    KERJET_CR06_5 JETSUL_5 -0.029808575954508865
    KERDSL_CR06_5 KERBAL_CR06_5 -1.0
    KERDSL_CR06_5 DSLPB_5 -1.0
    KERDSL_CR06_5 DSLSUL_5 0.22019142404549114
    KERJET_CR07_5 KERBAL_CR07_5 -1.0
    KERJET_CR07_5 JETBAL_5 -1.0
    KERJET_CR07_5 JETSUL_5 -0.2712476417553882
    KERDSL_CR07_5 KERBAL_CR07_5 -1.0
    KERDSL_CR07_5 DSLPB_5 -1.0
    KERDSL_CR07_5 DSLSUL_5 -0.02124764175538822
    KERJET_CR08_5 KERBAL_CR08_5 -1.0
    KERJET_CR08_5 JETBAL_5 -1.0
    KERJET_CR08_5 JETSUL_5 -0.03407788647085286
    KERDSL_CR08_5 KERBAL_CR08_5 -1.0
    KERDSL_CR08_5 DSLPB_5 -1.0
    KERDSL_CR08_5 DSLSUL_5 0.21592211352914714
    KERJET_CR09_5 KERBAL_CR09_5 -1.0
    KERJET_CR09_5 JETBAL_5 -1.0
    KERJET_CR09_5 JETSUL_5 -0.28234525480556727
    KERDSL_CR09_5 KERBAL_CR09_5 -1.0
    KERDSL_CR09_5 DSLPB_5 -1.0
    KERDSL_CR09_5 DSLSUL_5 -0.0323452548055673
    DSLPOOL_5 DSLPB_5 1.0
    DSLPOOL_5 PBAL_DSL_5 1.0
    LPGPOOL_5 LPGBAL_5 1.0
    LPGPOOL_5 PBAL_LPG_5 1.0
    FOPOOL_5 FOBAL_5 1.0
    FOPOOL_5 PBAL_FO_5 1.0
RHS
    RHS CBAL_CR00_0 -7.5
    RHS CBAL_CR01_0 -7.5
    RHS CBAL_CR02_0 -7.5
    RHS CBAL_CR03_0 -7.5
    RHS CBAL_CR04_0 -7.5
    RHS CBAL_CR05_0 -7.5
    RHS CBAL_CR06_0 -7.5
    RHS CBAL_CR07_0 -7.5
    RHS CBAL_CR08_0 -7.5
    RHS CBAL_CR09_0 -7.5
    RHS VDUCAP_0 37.5
    RHS FCCCAP_0 52.5
    RHS REFCAP_0 30.0
    RHS DHTCAP_0 45.0
    RHS DMAX_LPG_0 7.199999999999999
    RHS DMIN_LPG_0 3.0
    RHS DMAX_GAS_0 54.0
    RHS DMIN_GAS_0 22.5
    RHS DMAX_JET_0 18.0
    RHS DMIN_JET_0 7.5
    RHS DMAX_DSL_0 63.0
    RHS DMIN_DSL_0 26.25
    RHS DMAX_FO_0 36.0
    RHS DMIN_FO_0 15.0
    RHS VDUCAP_1 37.5
    RHS FCCCAP_1 52.5
    RHS REFCAP_1 30.0
    RHS DHTCAP_1 45.0
    RHS DMAX_LPG_1 7.8235382907247955
    RHS DMIN_LPG_1 3.2598076211353315
    RHS DMAX_GAS_1 58.676537180435965
    RHS DMIN_GAS_1 24.448557158514987
    RHS DMAX_JET_1 19.558845726811988
    RHS DMIN_JET_1 8.149519052838329
    RHS DMAX_DSL_1 68.45596004384196
    RHS DMIN_DSL_1 28.52331668493415
    RHS DMAX_FO_1 39.117691453623976
    RHS DMIN_FO_1 16.299038105676658
    RHS VDUCAP_2 37.5
    RHS FCCCAP_2 52.5
    RHS REFCAP_2 30.0
    RHS DHTCAP_2 45.0
    RHS DMAX_LPG_2 7.8235382907247955
    RHS DMIN_LPG_2 3.2598076211353315
    RHS DMAX_GAS_2 58.676537180435965
    RHS DMIN_GAS_2 24.448557158514987
    RHS DMAX_JET_2 19.558845726811988
    RHS DMIN_JET_2 8.149519052838329
    RHS DMAX_DSL_2 68.45596004384196
    RHS DMIN_DSL_2 28.52331668493415
    RHS DMAX_FO_2 39.117691453623976
    RHS DMIN_FO_2 16.299038105676658
    RHS VDUCAP_3 37.5
    RHS FCCCAP_3 52.5
    RHS REFCAP_3 30.0
    RHS DHTCAP_3 45.0
    RHS DMAX_LPG_3 7.199999999999999
    RHS DMIN_LPG_3 3.0
    RHS DMAX_GAS_3 54.0
    RHS DMIN_GAS_3 22.5
    RHS DMAX_JET_3 18.0
    RHS DMIN_JET_3 7.5
    RHS DMAX_DSL_3 63.0
    RHS DMIN_DSL_3 26.25
    RHS DMAX_FO_3 36.0
    RHS DMIN_FO_3 15.0
    RHS VDUCAP_4 37.5
    RHS FCCCAP_4 52.5
    RHS REFCAP_4 30.0
    RHS DHTCAP_4 45.0
    RHS DMAX_LPG_4 6.576461709275204
    RHS DMIN_LPG_4 2.7401923788646685
    RHS DMAX_GAS_4 49.32346281956403
    RHS DMIN_GAS_4 20.551442841485013
    RHS DMAX_JET_4 16.44115427318801
    RHS DMIN_JET_4 6.850480947161671
    RHS DMAX_DSL_4 57.54403995615804
    RHS DMIN_DSL_4 23.97668331506585
    RHS DMAX_FO_4 32.88230854637602
    RHS DMIN_FO_4 13.700961894323342
    RHS VDUCAP_5 37.5
    RHS FCCCAP_5 52.5
    RHS REFCAP_5 30.0
    RHS DHTCAP_5 45.0
    RHS DMAX_LPG_5 6.576461709275204
    RHS DMIN_LPG_5 2.7401923788646685
    RHS DMAX_GAS_5 49.32346281956403
    RHS DMIN_GAS_5 20.551442841485013
    RHS DMAX_JET_5 16.44115427318801
    RHS DMIN_JET_5 6.850480947161671
    RHS DMAX_DSL_5 57.54403995615804
    RHS DMIN_DSL_5 23.97668331506585
    RHS DMAX_FO_5 32.88230854637602
    RHS DMIN_FO_5 13.700961894323342
BOUNDS
 UP BND NPAR_CR00_0 1.0
 UP BND CINV_CR00_0 75.0
 UP BND NPAR_CR01_0 3.0
 UP BND CINV_CR01_0 75.0
 UP BND NPAR_CR02_0 2.0
 UP BND CINV_CR02_0 75.0
 UP BND NPAR_CR03_0 2.0
 UP BND CINV_CR03_0 75.0
 UP BND NPAR_CR04_0 2.0
 UP BND CINV_CR04_0 75.0
 UP BND NPAR_CR05_0 3.0
 UP BND CINV_CR05_0 75.0
 UP BND NPAR_CR06_0 1.0
 UP BND CINV_CR06_0 75.0
 UP BND NPAR_CR07_0 1.0
 UP BND CINV_CR07_0 75.0
 UP BND NPAR_CR08_0 4.0
 UP BND CINV_CR08_0 75.0
 UP BND NPAR_CR09_0 3.0
 UP BND CINV_CR09_0 75.0
 UP BND CDUMODE_0 1.0
 UP BND PINV_LPG_0 15.0
 UP BND PINV_GAS_0 15.0
 UP BND PINV_JET_0 15.0
 UP BND PINV_DSL_0 15.0
 UP BND PINV_FO_0 15.0
 UP BND NPAR_CR00_1 1.0
 UP BND CINV_CR00_1 75.0
 UP BND NPAR_CR01_1 3.0
 UP BND CINV_CR01_1 75.0
 UP BND NPAR_CR02_1 1.0
 UP BND CINV_CR02_1 75.0
 UP BND NPAR_CR03_1 3.0
 UP BND CINV_CR03_1 75.0
 UP BND NPAR_CR04_1 1.0
 UP BND CINV_CR04_1 75.0
 UP BND NPAR_CR05_1 2.0
 UP BND CINV_CR05_1 75.0
 UP BND NPAR_CR06_1 1.0
 UP BND CINV_CR06_1 75.0
 UP BND NPAR_CR07_1 1.0
 UP BND CINV_CR07_1 75.0
 UP BND NPAR_CR08_1 3.0
 UP BND CINV_CR08_1 75.0
 UP BND NPAR_CR09_1 2.0
 UP BND CINV_CR09_1 75.0
 UP BND CDUMODE_1 1.0
 UP BND PINV_LPG_1 15.0
 UP BND PINV_GAS_1 15.0
 UP BND PINV_JET_1 15.0
 UP BND PINV_DSL_1 15.0
 UP BND PINV_FO_1 15.0
 UP BND NPAR_CR00_2 1.0
 UP BND CINV_CR00_2 75.0
 UP BND NPAR_CR01_2 2.0
 UP BND CINV_CR01_2 75.0
 UP BND NPAR_CR02_2 1.0
 UP BND CINV_CR02_2 75.0
 UP BND NPAR_CR03_2 2.0
 UP BND CINV_CR03_2 75.0
 UP BND NPAR_CR04_2 3.0
 UP BND CINV_CR04_2 75.0
 UP BND NPAR_CR05_2 1.0
 UP BND CINV_CR05_2 75.0
 UP BND NPAR_CR06_2 1.0
 UP BND CINV_CR06_2 75.0
 UP BND NPAR_CR07_2 1.0
 UP BND CINV_CR07_2 75.0
 UP BND NPAR_CR08_2 3.0
 UP BND CINV_CR08_2 75.0
 UP BND NPAR_CR09_2 1.0
 UP BND CINV_CR09_2 75.0
 UP BND CDUMODE_2 1.0
 UP BND PINV_LPG_2 15.0
 UP BND PINV_GAS_2 15.0
 UP BND PINV_JET_2 15.0
 UP BND PINV_DSL_2 15.0
 UP BND PINV_FO_2 15.0
 UP BND NPAR_CR00_3 3.0
 UP BND CINV_CR00_3 75.0
 UP BND NPAR_CR01_3 1.0
 UP BND CINV_CR01_3 75.0
 UP BND NPAR_CR02_3 2.0
 UP BND CINV_CR02_3 75.0
 UP BND NPAR_CR03_3 2.0
 UP BND CINV_CR03_3 75.0
 UP BND NPAR_CR04_3 1.0
 UP BND CINV_CR04_3 75.0
 UP BND NPAR_CR05_3 4.0
 UP BND CINV_CR05_3 75.0
 UP BND NPAR_CR06_3 2.0
 UP BND CINV_CR06_3 75.0
 UP BND NPAR_CR07_3 2.0
 UP BND CINV_CR07_3 75.0
 UP BND NPAR_CR08_3 3.0
 UP BND CINV_CR08_3 75.0
 UP BND NPAR_CR09_3 1.0
 UP BND CINV_CR09_3 75.0
 UP BND CDUMODE_3 1.0
 UP BND PINV_LPG_3 15.0
 UP BND PINV_GAS_3 15.0
 UP BND PINV_JET_3 15.0
 UP BND PINV_DSL_3 15.0
 UP BND PINV_FO_3 15.0
 UP BND NPAR_CR00_4 4.0
 UP BND CINV_CR00_4 75.0
 UP BND NPAR_CR01_4 3.0
 UP BND CINV_CR01_4 75.0
 UP BND NPAR_CR02_4 3.0
 UP BND CINV_CR02_4 75.0
 UP BND NPAR_CR03_4 4.0
 UP BND CINV_CR03_4 75.0
 UP BND NPAR_CR04_4 3.0
 UP BND CINV_CR04_4 75.0
 UP BND NPAR_CR05_4 2.0
 UP BND CINV_CR05_4 75.0
 UP BND NPAR_CR06_4 1.0
 UP BND CINV_CR06_4 75.0
 UP BND NPAR_CR07_4 2.0
 UP BND CINV_CR07_4 75.0
 UP BND NPAR_CR08_4 1.0
 UP BND CINV_CR08_4 75.0
 UP BND NPAR_CR09_4 2.0
 UP BND CINV_CR09_4 75.0
 UP BND CDUMODE_4 1.0
 UP BND PINV_LPG_4 15.0
 UP BND PINV_GAS_4 15.0
 UP BND PINV_JET_4 15.0
 UP BND PINV_DSL_4 15.0
 UP BND PINV_FO_4 15.0
 UP BND NPAR_CR00_5 2.0
 UP BND CINV_CR00_5 75.0
 UP BND NPAR_CR01_5 4.0
 UP BND CINV_CR01_5 75.0
 UP BND NPAR_CR02_5 1.0
 UP BND CINV_CR02_5 75.0
 UP BND NPAR_CR03_5 4.0
 UP BND CINV_CR03_5 75.0
 UP BND NPAR_CR04_5 2.0
 UP BND CINV_CR04_5 75.0
 UP BND NPAR_CR05_5 3.0
 UP BND CINV_CR05_5 75.0
 UP BND NPAR_CR06_5 4.0
 UP BND CINV_CR06_5 75.0
 UP BND NPAR_CR07_5 4.0
 UP BND CINV_CR07_5 75.0
 UP BND NPAR_CR08_5 2.0
 UP BND CINV_CR08_5 75.0
 UP BND NPAR_CR09_5 1.0
 UP BND CINV_CR09_5 75.0
 UP BND CDUMODE_5 1.0
 UP BND PINV_LPG_5 15.0
 UP BND PINV_GAS_5 15.0
 UP BND PINV_JET_5 15.0
 UP BND PINV_DSL_5 15.0
 UP BND PINV_FO_5 15.0
ENDATA
