NAME UC_G10H24
ROWS
 N  OBJ
 G  PMIN_G00_0
 L  PMAX_G00_0
 E  LOGIC_G00_0
 L  MINUP_G00_0
 L  MINDN_G00_0
 G  PMIN_G00_1
 L  PMAX_G00_1
 E  LOGIC_G00_1
 L  RUP_G00_1
 L  RDN_G00_1
 L  MINUP_G00_1
 L  MINDN_G00_1
 G  PMIN_G00_2
 L  PMAX_G00_2
 E  LOGIC_G00_2
 L  RUP_G00_2
 L  RDN_G00_2
 L  MINUP_G00_2
 L  MINDN_G00_2
 G  PMIN_G00_3
 L  PMAX_G00_3
 E  LOGIC_G00_3
 L  RUP_G00_3
 L  RDN_G00_3
 L  MINUP_G00_3
 L  MINDN_G00_3
 G  PMIN_G00_4
 L  PMAX_G00_4
 E  LOGIC_G00_4
 L  RUP_G00_4
 L  RDN_G00_4
 L  MINUP_G00_4
 L  MINDN_G00_4
 G  PMIN_G00_5
 L  PMAX_G00_5
 E  LOGIC_G00_5
 L  RUP_G00_5
 L  RDN_G00_5
 L  MINUP_G00_5
 L  MINDN_G00_5
 G  PMIN_G00_6
 L  PMAX_G00_6
 E  LOGIC_G00_6
 L  RUP_G00_6
 L  RDN_G00_6
 L  MINUP_G00_6
 L  MINDN_G00_6
 G  PMIN_G00_7
 L  PMAX_G00_7
 E  LOGIC_G00_7
 L  RUP_G00_7
 L  RDN_G00_7
 L  MINUP_G00_7
 L  MINDN_G00_7
 G  PMIN_G00_8
 L  PMAX_G00_8
 E  LOGIC_G00_8
 L  RUP_G00_8
 L  RDN_G00_8
 L  MINUP_G00_8
 L  MINDN_G00_8
 G  PMIN_G00_9
 L  PMAX_G00_9
 E  LOGIC_G00_9
 L  RUP_G00_9
 L  RDN_G00_9
 L  MINUP_G00_9
 L  MINDN_G00_9
 G  PMIN_G00_10
 L  PMAX_G00_10
 E  LOGIC_G00_10
 L  RUP_G00_10
 L  RDN_G00_10
 L  MINUP_G00_10
 L  MINDN_G00_10
 G  PMIN_G00_11
 L  PMAX_G00_11
 E  LOGIC_G00_11
 L  RUP_G00_11
 L  RDN_G00_11
 L  MINUP_G00_11
 L  MINDN_G00_11
 G  PMIN_G00_12
 L  PMAX_G00_12
 E  LOGIC_G00_12
 L  RUP_G00_12
 L  RDN_G00_12
 L  MINUP_G00_12
 L  MINDN_G00_12
 G  PMIN_G00_13
 L  PMAX_G00_13
 E  LOGIC_G00_13
 L  RUP_G00_13
 L  RDN_G00_13
 L  MINUP_G00_13
 L  MINDN_G00_13
 G  PMIN_G00_14
 L  PMAX_G00_14
 E  LOGIC_G00_14
 L  RUP_G00_14
 L  RDN_G00_14
 L  MINUP_G00_14
 L  MINDN_G00_14
 G  PMIN_G00_15
 L  PMAX_G00_15
 E  LOGIC_G00_15
 L  RUP_G00_15
 L  RDN_G00_15
 L  MINUP_G00_15
 L  MINDN_G00_15
 G  PMIN_G00_16
 L  PMAX_G00_16
 E  LOGIC_G00_16
 L  RUP_G00_16
 L  RDN_G00_16
 L  MINUP_G00_16
 L  MINDN_G00_16
 G  PMIN_G00_17
 L  PMAX_G00_17
 E  LOGIC_G00_17
 L  RUP_G00_17
 L  RDN_G00_17
 L  MINUP_G00_17
 L  MINDN_G00_17
 G  PMIN_G00_18
 L  PMAX_G00_18
 E  LOGIC_G00_18
 L  RUP_G00_18
 L  RDN_G00_18
 L  MINUP_G00_18
 L  MINDN_G00_18
 G  PMIN_G00_19
 L  PMAX_G00_19
 E  LOGIC_G00_19
 L  RUP_G00_19
 L  RDN_G00_19
 L  MINUP_G00_19
 L  MINDN_G00_19
 G  PMIN_G00_20
 L  PMAX_G00_20
 E  LOGIC_G00_20
 L  RUP_G00_20
 L  RDN_G00_20
 L  MINUP_G00_20
 L  MINDN_G00_20
 G  PMIN_G00_21
 L  PMAX_G00_21
 E  LOGIC_G00_21
 L  RUP_G00_21
 L  RDN_G00_21
 L  MINUP_G00_21
 L  MINDN_G00_21
 G  PMIN_G00_22
 L  PMAX_G00_22
 E  LOGIC_G00_22
 L  RUP_G00_22
 L  RDN_G00_22
 L  MINUP_G00_22
 L  MINDN_G00_22
 G  PMIN_G00_23
 L  PMAX_G00_23
 E  LOGIC_G00_23
 L  RUP_G00_23
 L  RDN_G00_23
 L  MINUP_G00_23
 L  MINDN_G00_23
 G  PMIN_G01_0
 L  PMAX_G01_0
 E  LOGIC_G01_0
 L  MINUP_G01_0
 L  MINDN_G01_0
 G  PMIN_G01_1
 L  PMAX_G01_1
 E  LOGIC_G01_1
 L  RUP_G01_1
 L  RDN_G01_1
 L  MINUP_G01_1
 L  MINDN_G01_1
 G  PMIN_G01_2
 L  PMAX_G01_2
 E  LOGIC_G01_2
 L  RUP_G01_2
 L  RDN_G01_2
 L  MINUP_G01_2
 L  MINDN_G01_2
 G  PMIN_G01_3
 L  PMAX_G01_3
 E  LOGIC_G01_3
 L  RUP_G01_3
 L  RDN_G01_3
 L  MINUP_G01_3
 L  MINDN_G01_3
 G  PMIN_G01_4
 L  PMAX_G01_4
 E  LOGIC_G01_4
 L  RUP_G01_4
 L  RDN_G01_4
 L  MINUP_G01_4
 L  MINDN_G01_4
 G  PMIN_G01_5
 L  PMAX_G01_5
 E  LOGIC_G01_5
 L  RUP_G01_5
 L  RDN_G01_5
 L  MINUP_G01_5
 L  MINDN_G01_5
 G  PMIN_G01_6
 L  PMAX_G01_6
 E  LOGIC_G01_6
 L  RUP_G01_6
 L  RDN_G01_6
 L  MINUP_G01_6
 L  MINDN_G01_6
 G  PMIN_G01_7
 L  PMAX_G01_7
 E  LOGIC_G01_7
 L  RUP_G01_7
 L  RDN_G01_7
 L  MINUP_G01_7
 L  MINDN_G01_7
 G  PMIN_G01_8
 L  PMAX_G01_8
 E  LOGIC_G01_8
 L  RUP_G01_8
 L  RDN_G01_8
 L  MINUP_G01_8
 L  MINDN_G01_8
 G  PMIN_G01_9
 L  PMAX_G01_9
 E  LOGIC_G01_9
 L  RUP_G01_9
 L  RDN_G01_9
 L  MINUP_G01_9
 L  MINDN_G01_9
 G  PMIN_G01_10
 L  PMAX_G01_10
 E  LOGIC_G01_10
 L  RUP_G01_10
 L  RDN_G01_10
 L  MINUP_G01_10
 L  MINDN_G01_10
 G  PMIN_G01_11
 L  PMAX_G01_11
 E  LOGIC_G01_11
 L  RUP_G01_11
 L  RDN_G01_11
 L  MINUP_G01_11
 L  MINDN_G01_11
 G  PMIN_G01_12
 L  PMAX_G01_12
 E  LOGIC_G01_12
 L  RUP_G01_12
 L  RDN_G01_12
 L  MINUP_G01_12
 L  MINDN_G01_12
 G  PMIN_G01_13
 L  PMAX_G01_13
 E  LOGIC_G01_13
 L  RUP_G01_13
 L  RDN_G01_13
 L  MINUP_G01_13
 L  MINDN_G01_13
 G  PMIN_G01_14
 L  PMAX_G01_14
 E  LOGIC_G01_14
 L  RUP_G01_14
 L  RDN_G01_14
 L  MINUP_G01_14
 L  MINDN_G01_14
 G  PMIN_G01_15
 L  PMAX_G01_15
 E  LOGIC_G01_15
 L  RUP_G01_15
 L  RDN_G01_15
 L  MINUP_G01_15
 L  MINDN_G01_15
 G  PMIN_G01_16
 L  PMAX_G01_16
 E  LOGIC_G01_16
 L  RUP_G01_16
 L  RDN_G01_16
 L  MINUP_G01_16
 L  MINDN_G01_16
 G  PMIN_G01_17
 L  PMAX_G01_17
 E  LOGIC_G01_17
 L  RUP_G01_17
 L  RDN_G01_17
 L  MINUP_G01_17
 L  MINDN_G01_17
 G  PMIN_G01_18
 L  PMAX_G01_18
 E  LOGIC_G01_18
 L  RUP_G01_18
 L  RDN_G01_18
 L  MINUP_G01_18
 L  MINDN_G01_18
 G  PMIN_G01_19
 L  PMAX_G01_19
 E  LOGIC_G01_19
 L  RUP_G01_19
 L  RDN_G01_19
 L  MINUP_G01_19
 L  MINDN_G01_19
 G  PMIN_G01_20
 L  PMAX_G01_20
 E  LOGIC_G01_20
 L  RUP_G01_20
 L  RDN_G01_20
 L  MINUP_G01_20
 L  MINDN_G01_20
 G  PMIN_G01_21
 L  PMAX_G01_21
 E  LOGIC_G01_21
 L  RUP_G01_21
 L  RDN_G01_21
 L  MINUP_G01_21
 L  MINDN_G01_21
 G  PMIN_G01_22
 L  PMAX_G01_22
 E  LOGIC_G01_22
 L  RUP_G01_22
 L  RDN_G01_22
 L  MINUP_G01_22
 L  MINDN_G01_22
 G  PMIN_G01_23
 L  PMAX_G01_23
 E  LOGIC_G01_23
 L  RUP_G01_23
 L  RDN_G01_23
 L  MINUP_G01_23
 L  MINDN_G01_23
 G  PMIN_G02_0
 L  PMAX_G02_0
 E  LOGIC_G02_0
 L  MINUP_G02_0
 L  MINDN_G02_0
 G  PMIN_G02_1
 L  PMAX_G02_1
 E  LOGIC_G02_1
 L  RUP_G02_1
 L  RDN_G02_1
 L  MINUP_G02_1
 L  MINDN_G02_1
 G  PMIN_G02_2
 L  PMAX_G02_2
 E  LOGIC_G02_2
 L  RUP_G02_2
 L  RDN_G02_2
 L  MINUP_G02_2
 L  MINDN_G02_2
 G  PMIN_G02_3
 L  PMAX_G02_3
 E  LOGIC_G02_3
 L  RUP_G02_3
 L  RDN_G02_3
 L  MINUP_G02_3
 L  MINDN_G02_3
 G  PMIN_G02_4
 L  PMAX_G02_4
 E  LOGIC_G02_4
 L  RUP_G02_4
 L  RDN_G02_4
 L  MINUP_G02_4
 L  MINDN_G02_4
 G  PMIN_G02_5
 L  PMAX_G02_5
 E  LOGIC_G02_5
 L  RUP_G02_5
 L  RDN_G02_5
 L  MINUP_G02_5
 L  MINDN_G02_5
 G  PMIN_G02_6
 L  PMAX_G02_6
 E  LOGIC_G02_6
 L  RUP_G02_6
 L  RDN_G02_6
 L  MINUP_G02_6
 L  MINDN_G02_6
 G  PMIN_G02_7
 L  PMAX_G02_7
 E  LOGIC_G02_7
 L  RUP_G02_7
 L  RDN_G02_7
 L  MINUP_G02_7
 L  MINDN_G02_7
 G  PMIN_G02_8
 L  PMAX_G02_8
 E  LOGIC_G02_8
 L  RUP_G02_8
 L  RDN_G02_8
 L  MINUP_G02_8
 L  MINDN_G02_8
 G  PMIN_G02_9
 L  PMAX_G02_9
 E  LOGIC_G02_9
 L  RUP_G02_9
 L  RDN_G02_9
 L  MINUP_G02_9
 L  MINDN_G02_9
 G  PMIN_G02_10
 L  PMAX_G02_10
 E  LOGIC_G02_10
 L  RUP_G02_10
 L  RDN_G02_10
 L  MINUP_G02_10
 L  MINDN_G02_10
 G  PMIN_G02_11
 L  PMAX_G02_11
 E  LOGIC_G02_11
 L  RUP_G02_11
 L  RDN_G02_11
 L  MINUP_G02_11
 L  MINDN_G02_11
 G  PMIN_G02_12
 L  PMAX_G02_12
 E  LOGIC_G02_12
 L  RUP_G02_12
 L  RDN_G02_12
 L  MINUP_G02_12
 L  MINDN_G02_12
 G  PMIN_G02_13
 L  PMAX_G02_13
 E  LOGIC_G02_13
 L  RUP_G02_13
 L  RDN_G02_13
 L  MINUP_G02_13
 L  MINDN_G02_13
 G  PMIN_G02_14
 L  PMAX_G02_14
 E  LOGIC_G02_14
 L  RUP_G02_14
 L  RDN_G02_14
 L  MINUP_G02_14
 L  MINDN_G02_14
 G  PMIN_G02_15
 L  PMAX_G02_15
 E  LOGIC_G02_15
 L  RUP_G02_15
 L  RDN_G02_15
 L  MINUP_G02_15
 L  MINDN_G02_15
 G  PMIN_G02_16
 L  PMAX_G02_16
 E  LOGIC_G02_16
 L  RUP_G02_16
 L  RDN_G02_16
 L  MINUP_G02_16
 L  MINDN_G02_16
 G  PMIN_G02_17
 L  PMAX_G02_17
 E  LOGIC_G02_17
 L  RUP_G02_17
 L  RDN_G02_17
 L  MINUP_G02_17
 L  MINDN_G02_17
 G  PMIN_G02_18
 L  PMAX_G02_18
 E  LOGIC_G02_18
 L  RUP_G02_18
 L  RDN_G02_18
 L  MINUP_G02_18
 L  MINDN_G02_18
 G  PMIN_G02_19
 L  PMAX_G02_19
 E  LOGIC_G02_19
 L  RUP_G02_19
 L  RDN_G02_19
 L  MINUP_G02_19
 L  MINDN_G02_19
 G  PMIN_G02_20
 L  PMAX_G02_20
 E  LOGIC_G02_20
 L  RUP_G02_20
 L  RDN_G02_20
 L  MINUP_G02_20
 L  MINDN_G02_20
 G  PMIN_G02_21
 L  PMAX_G02_21
 E  LOGIC_G02_21
 L  RUP_G02_21
 L  RDN_G02_21
 L  MINUP_G02_21
 L  MINDN_G02_21
 G  PMIN_G02_22
 L  PMAX_G02_22
 E  LOGIC_G02_22
 L  RUP_G02_22
 L  RDN_G02_22
 L  MINUP_G02_22
 L  MINDN_G02_22
 G  PMIN_G02_23
 L  PMAX_G02_23
 E  LOGIC_G02_23
 L  RUP_G02_23
 L  RDN_G02_23
 L  MINUP_G02_23
 L  MINDN_G02_23
 G  PMIN_G03_0
 L  PMAX_G03_0
 E  LOGIC_G03_0
 L  MINUP_G03_0
 L  MINDN_G03_0
 G  PMIN_G03_1
 L  PMAX_G03_1
 E  LOGIC_G03_1
 L  RUP_G03_1
 L  RDN_G03_1
 L  MINUP_G03_1
 L  MINDN_G03_1
 G  PMIN_G03_2
 L  PMAX_G03_2
 E  LOGIC_G03_2
 L  RUP_G03_2
 L  RDN_G03_2
 L  MINUP_G03_2
 L  MINDN_G03_2
 G  PMIN_G03_3
 L  PMAX_G03_3
 E  LOGIC_G03_3
 L  RUP_G03_3
 L  RDN_G03_3
 L  MINUP_G03_3
 L  MINDN_G03_3
 G  PMIN_G03_4
 L  PMAX_G03_4
 E  LOGIC_G03_4
 L  RUP_G03_4
 L  RDN_G03_4
 L  MINUP_G03_4
 L  MINDN_G03_4
 G  PMIN_G03_5
 L  PMAX_G03_5
 E  LOGIC_G03_5
 L  RUP_G03_5
 L  RDN_G03_5
 L  MINUP_G03_5
 L  MINDN_G03_5
 G  PMIN_G03_6
 L  PMAX_G03_6
 E  LOGIC_G03_6
 L  RUP_G03_6
 L  RDN_G03_6
 L  MINUP_G03_6
 L  MINDN_G03_6
 G  PMIN_G03_7
 L  PMAX_G03_7
 E  LOGIC_G03_7
 L  RUP_G03_7
 L  RDN_G03_7
 L  MINUP_G03_7
 L  MINDN_G03_7
 G  PMIN_G03_8
 L  PMAX_G03_8
 E  LOGIC_G03_8
 L  RUP_G03_8
 L  RDN_G03_8
 L  MINUP_G03_8
 L  MINDN_G03_8
 G  PMIN_G03_9
 L  PMAX_G03_9
 E  LOGIC_G03_9
 L  RUP_G03_9
 L  RDN_G03_9
 L  MINUP_G03_9
 L  MINDN_G03_9
 G  PMIN_G03_10
 L  PMAX_G03_10
 E  LOGIC_G03_10
 L  RUP_G03_10
 L  RDN_G03_10
 L  MINUP_G03_10
 L  MINDN_G03_10
 G  PMIN_G03_11
 L  PMAX_G03_11
 E  LOGIC_G03_11
 L  RUP_G03_11
 L  RDN_G03_11
 L  MINUP_G03_11
 L  MINDN_G03_11
 G  PMIN_G03_12
 L  PMAX_G03_12
 E  LOGIC_G03_12
 L  RUP_G03_12
 L  RDN_G03_12
 L  MINUP_G03_12
 L  MINDN_G03_12
 G  PMIN_G03_13
 L  PMAX_G03_13
 E  LOGIC_G03_13
 L  RUP_G03_13
 L  RDN_G03_13
 L  MINUP_G03_13
 L  MINDN_G03_13
 G  PMIN_G03_14
 L  PMAX_G03_14
 E  LOGIC_G03_14
 L  RUP_G03_14
 L  RDN_G03_14
 L  MINUP_G03_14
 L  MINDN_G03_14
 G  PMIN_G03_15
 L  PMAX_G03_15
 E  LOGIC_G03_15
 L  RUP_G03_15
 L  RDN_G03_15
 L  MINUP_G03_15
 L  MINDN_G03_15
 G  PMIN_G03_16
 L  PMAX_G03_16
 E  LOGIC_G03_16
 L  RUP_G03_16
 L  RDN_G03_16
 L  MINUP_G03_16
 L  MINDN_G03_16
 G  PMIN_G03_17
 L  PMAX_G03_17
 E  LOGIC_G03_17
 L  RUP_G03_17
 L  RDN_G03_17
 L  MINUP_G03_17
 L  MINDN_G03_17
 G  PMIN_G03_18
 L  PMAX_G03_18
 E  LOGIC_G03_18
 L  RUP_G03_18
 L  RDN_G03_18
 L  MINUP_G03_18
 L  MINDN_G03_18
 G  PMIN_G03_19
 L  PMAX_G03_19
 E  LOGIC_G03_19
 L  RUP_G03_19
 L  RDN_G03_19
 L  MINUP_G03_19
 L  MINDN_G03_19
 G  PMIN_G03_20
 L  PMAX_G03_20
 E  LOGIC_G03_20
 L  RUP_G03_20
 L  RDN_G03_20
 L  MINUP_G03_20
 L  MINDN_G03_20
 G  PMIN_G03_21
 L  PMAX_G03_21
 E  LOGIC_G03_21
 L  RUP_G03_21
 L  RDN_G03_21
 L  MINUP_G03_21
 L  MINDN_G03_21
 G  PMIN_G03_22
 L  PMAX_G03_22
 E  LOGIC_G03_22
 L  RUP_G03_22
 L  RDN_G03_22
 L  MINUP_G03_22
 L  MINDN_G03_22
 G  PMIN_G03_23
 L  PMAX_G03_23
 E  LOGIC_G03_23
 L  RUP_G03_23
 L  RDN_G03_23
 L  MINUP_G03_23
 L  MINDN_G03_23
 G  PMIN_G04_0
 L  PMAX_G04_0
 E  LOGIC_G04_0
 L  MINUP_G04_0
 L  MINDN_G04_0
 G  PMIN_G04_1
 L  PMAX_G04_1
 E  LOGIC_G04_1
 L  RUP_G04_1
 L  RDN_G04_1
 L  MINUP_G04_1
 L  MINDN_G04_1
 G  PMIN_G04_2
 L  PMAX_G04_2
 E  LOGIC_G04_2
 L  RUP_G04_2
 L  RDN_G04_2
 L  MINUP_G04_2
 L  MINDN_G04_2
 G  PMIN_G04_3
 L  PMAX_G04_3
 E  LOGIC_G04_3
 L  RUP_G04_3
 L  RDN_G04_3
 L  MINUP_G04_3
 L  MINDN_G04_3
 G  PMIN_G04_4
 L  PMAX_G04_4
 E  LOGIC_G04_4
 L  RUP_G04_4
 L  RDN_G04_4
 L  MINUP_G04_4
 L  MINDN_G04_4
 G  PMIN_G04_5
 L  PMAX_G04_5
 E  LOGIC_G04_5
 L  RUP_G04_5
 L  RDN_G04_5
 L  MINUP_G04_5
 L  MINDN_G04_5
 G  PMIN_G04_6
 L  PMAX_G04_6
 E  LOGIC_G04_6
 L  RUP_G04_6
 L  RDN_G04_6
 L  MINUP_G04_6
 L  MINDN_G04_6
 G  PMIN_G04_7
 L  PMAX_G04_7
 E  LOGIC_G04_7
 L  RUP_G04_7
 L  RDN_G04_7
 L  MINUP_G04_7
 L  MINDN_G04_7
 G  PMIN_G04_8
 L  PMAX_G04_8
 E  LOGIC_G04_8
 L  RUP_G04_8
 L  RDN_G04_8
 L  MINUP_G04_8
 L  MINDN_G04_8
 G  PMIN_G04_9
 L  PMAX_G04_9
 E  LOGIC_G04_9
 L  RUP_G04_9
 L  RDN_G04_9
 L  MINUP_G04_9
 L  MINDN_G04_9
 G  PMIN_G04_10
 L  PMAX_G04_10
 E  LOGIC_G04_10
 L  RUP_G04_10
 L  RDN_G04_10
 L  MINUP_G04_10
 L  MINDN_G04_10
 G  PMIN_G04_11
 L  PMAX_G04_11
 E  LOGIC_G04_11
 L  RUP_G04_11
 L  RDN_G04_11
 L  MINUP_G04_11
 L  MINDN_G04_11
 G  PMIN_G04_12
 L  PMAX_G04_12
 E  LOGIC_G04_12
 L  RUP_G04_12
 L  RDN_G04_12
 L  MINUP_G04_12
 L  MINDN_G04_12
 G  PMIN_G04_13
 L  PMAX_G04_13
 E  LOGIC_G04_13
 L  RUP_G04_13
 L  RDN_G04_13
 L  MINUP_G04_13
 L  MINDN_G04_13
 G  PMIN_G04_14
 L  PMAX_G04_14
 E  LOGIC_G04_14
 L  RUP_G04_14
 L  RDN_G04_14
 L  MINUP_G04_14
 L  MINDN_G04_14
 G  PMIN_G04_15
 L  PMAX_G04_15
 E  LOGIC_G04_15
 L  RUP_G04_15
 L  RDN_G04_15
 L  MINUP_G04_15
 L  MINDN_G04_15
 G  PMIN_G04_16
 L  PMAX_G04_16
 E  LOGIC_G04_16
 L  RUP_G04_16
 L  RDN_G04_16
 L  MINUP_G04_16
 L  MINDN_G04_16
 G  PMIN_G04_17
 L  PMAX_G04_17
 E  LOGIC_G04_17
 L  RUP_G04_17
 L  RDN_G04_17
 L  MINUP_G04_17
 L  MINDN_G04_17
 G  PMIN_G04_18
 L  PMAX_G04_18
 E  LOGIC_G04_18
 L  RUP_G04_18
 L  RDN_G04_18
 L  MINUP_G04_18
 L  MINDN_G04_18
 G  PMIN_G04_19
 L  PMAX_G04_19
 E  LOGIC_G04_19
 L  RUP_G04_19
 L  RDN_G04_19
 L  MINUP_G04_19
 L  MINDN_G04_19
 G  PMIN_G04_20
 L  PMAX_G04_20
 E  LOGIC_G04_20
 L  RUP_G04_20
 L  RDN_G04_20
 L  MINUP_G04_20
 L  MINDN_G04_20
 G  PMIN_G04_21
 L  PMAX_G04_21
 E  LOGIC_G04_21
 L  RUP_G04_21
 L  RDN_G04_21
 L  MINUP_G04_21
 L  MINDN_G04_21
 G  PMIN_G04_22
 L  PMAX_G04_22
 E  LOGIC_G04_22
 L  RUP_G04_22
 L  RDN_G04_22
 L  MINUP_G04_22
 L  MINDN_G04_22
 G  PMIN_G04_23
 L  PMAX_G04_23
 E  LOGIC_G04_23
 L  RUP_G04_23
 L  RDN_G04_23
 L  MINUP_G04_23
 L  MINDN_G04_23
 G  PMIN_G05_0
 L  PMAX_G05_0
 E  LOGIC_G05_0
 L  MINUP_G05_0
 L  MINDN_G05_0
 G  PMIN_G05_1
 L  PMAX_G05_1
 E  LOGIC_G05_1
 L  RUP_G05_1
 L  RDN_G05_1
 L  MINUP_G05_1
 L  MINDN_G05_1
 G  PMIN_G05_2
 L  PMAX_G05_2
 E  LOGIC_G05_2
 L  RUP_G05_2
 L  RDN_G05_2
 L  MINUP_G05_2
 L  MINDN_G05_2
 G  PMIN_G05_3
 L  PMAX_G05_3
 E  LOGIC_G05_3
 L  RUP_G05_3
 L  RDN_G05_3
 L  MINUP_G05_3
 L  MINDN_G05_3
 G  PMIN_G05_4
 L  PMAX_G05_4
 E  LOGIC_G05_4
 L  RUP_G05_4
 L  RDN_G05_4
 L  MINUP_G05_4
 L  MINDN_G05_4
 G  PMIN_G05_5
 L  PMAX_G05_5
 E  LOGIC_G05_5
 L  RUP_G05_5
 L  RDN_G05_5
 L  MINUP_G05_5
 L  MINDN_G05_5
 G  PMIN_G05_6
 L  PMAX_G05_6
 E  LOGIC_G05_6
 L  RUP_G05_6
 L  RDN_G05_6
 L  MINUP_G05_6
 L  MINDN_G05_6
 G  PMIN_G05_7
 L  PMAX_G05_7
 E  LOGIC_G05_7
 L  RUP_G05_7
 L  RDN_G05_7
 L  MINUP_G05_7
 L  MINDN_G05_7
 G  PMIN_G05_8
 L  PMAX_G05_8
 E  LOGIC_G05_8
 L  RUP_G05_8
 L  RDN_G05_8
 L  MINUP_G05_8
 L  MINDN_G05_8
 G  PMIN_G05_9
 L  PMAX_G05_9
 E  LOGIC_G05_9
 L  RUP_G05_9
 L  RDN_G05_9
 L  MINUP_G05_9
 L  MINDN_G05_9
 G  PMIN_G05_10
 L  PMAX_G05_10
 E  LOGIC_G05_10
 L  RUP_G05_10
 L  RDN_G05_10
 L  MINUP_G05_10
 L  MINDN_G05_10
 G  PMIN_G05_11
 L  PMAX_G05_11
 E  LOGIC_G05_11
 L  RUP_G05_11
 L  RDN_G05_11
 L  MINUP_G05_11
 L  MINDN_G05_11
 G  PMIN_G05_12
 L  PMAX_G05_12
 E  LOGIC_G05_12
 L  RUP_G05_12
 L  RDN_G05_12
 L  MINUP_G05_12
 L  MINDN_G05_12
 G  PMIN_G05_13
 L  PMAX_G05_13
 E  LOGIC_G05_13
 L  RUP_G05_13
 L  RDN_G05_13
 L  MINUP_G05_13
 L  MINDN_G05_13
 G  PMIN_G05_14
 L  PMAX_G05_14
 E  LOGIC_G05_14
 L  RUP_G05_14
 L  RDN_G05_14
 L  MINUP_G05_14
 L  MINDN_G05_14
 G  PMIN_G05_15
 L  PMAX_G05_15
 E  LOGIC_G05_15
 L  RUP_G05_15
 L  RDN_G05_15
 L  MINUP_G05_15
 L  MINDN_G05_15
 G  PMIN_G05_16
 L  PMAX_G05_16
 E  LOGIC_G05_16
 L  RUP_G05_16
 L  RDN_G05_16
 L  MINUP_G05_16
 L  MINDN_G05_16
 G  PMIN_G05_17
 L  PMAX_G05_17
 E  LOGIC_G05_17
 L  RUP_G05_17
 L  RDN_G05_17
 L  MINUP_G05_17
 L  MINDN_G05_17
 G  PMIN_G05_18
 L  PMAX_G05_18
 E  LOGIC_G05_18
 L  RUP_G05_18
 L  RDN_G05_18
 L  MINUP_G05_18
 L  MINDN_G05_18
 G  PMIN_G05_19
 L  PMAX_G05_19
 E  LOGIC_G05_19
 L  RUP_G05_19
 L  RDN_G05_19
 L  MINUP_G05_19
 L  MINDN_G05_19
 G  PMIN_G05_20
 L  PMAX_G05_20
 E  LOGIC_G05_20
 L  RUP_G05_20
 L  RDN_G05_20
 L  MINUP_G05_20
 L  MINDN_G05_20
 G  PMIN_G05_21
 L  PMAX_G05_21
 E  LOGIC_G05_21
 L  RUP_G05_21
 L  RDN_G05_21
 L  MINUP_G05_21
 L  MINDN_G05_21
 G  PMIN_G05_22
 L  PMAX_G05_22
 E  LOGIC_G05_22
 L  RUP_G05_22
 L  RDN_G05_22
 L  MINUP_G05_22
 L  MINDN_G05_22
 G  PMIN_G05_23
 L  PMAX_G05_23
 E  LOGIC_G05_23
 L  RUP_G05_23
 L  RDN_G05_23
 L  MINUP_G05_23
 L  MINDN_G05_23
 G  PMIN_G06_0
 L  PMAX_G06_0
 E  LOGIC_G06_0
 L  MINUP_G06_0
 L  MINDN_G06_0
 G  PMIN_G06_1
 L  PMAX_G06_1
 E  LOGIC_G06_1
 L  RUP_G06_1
 L  RDN_G06_1
 L  MINUP_G06_1
 L  MINDN_G06_1
 G  PMIN_G06_2
 L  PMAX_G06_2
 E  LOGIC_G06_2
 L  RUP_G06_2
 L  RDN_G06_2
 L  MINUP_G06_2
 L  MINDN_G06_2
 G  PMIN_G06_3
 L  PMAX_G06_3
 E  LOGIC_G06_3
 L  RUP_G06_3
 L  RDN_G06_3
 L  MINUP_G06_3
 L  MINDN_G06_3
 G  PMIN_G06_4
 L  PMAX_G06_4
 E  LOGIC_G06_4
 L  RUP_G06_4
 L  RDN_G06_4
 L  MINUP_G06_4
 L  MINDN_G06_4
 G  PMIN_G06_5
 L  PMAX_G06_5
 E  LOGIC_G06_5
 L  RUP_G06_5
 L  RDN_G06_5
 L  MINUP_G06_5
 L  MINDN_G06_5
 G  PMIN_G06_6
 L  PMAX_G06_6
 E  LOGIC_G06_6
 L  RUP_G06_6
 L  RDN_G06_6
 L  MINUP_G06_6
 L  MINDN_G06_6
 G  PMIN_G06_7
 L  PMAX_G06_7
 E  LOGIC_G06_7
 L  RUP_G06_7
 L  RDN_G06_7
 L  MINUP_G06_7
 L  MINDN_G06_7
 G  PMIN_G06_8
 L  PMAX_G06_8
 E  LOGIC_G06_8
 L  RUP_G06_8
 L  RDN_G06_8
 L  MINUP_G06_8
 L  MINDN_G06_8
 G  PMIN_G06_9
 L  PMAX_G06_9
 E  LOGIC_G06_9
 L  RUP_G06_9
 L  RDN_G06_9
 L  MINUP_G06_9
 L  MINDN_G06_9
 G  PMIN_G06_10
 L  PMAX_G06_10
 E  LOGIC_G06_10
 L  RUP_G06_10
 L  RDN_G06_10
 L  MINUP_G06_10
 L  MINDN_G06_10
 G  PMIN_G06_11
 L  PMAX_G06_11
 E  LOGIC_G06_11
 L  RUP_G06_11
 L  RDN_G06_11
 L  MINUP_G06_11
 L  MINDN_G06_11
 G  PMIN_G06_12
 L  PMAX_G06_12
 E  LOGIC_G06_12
 L  RUP_G06_12
 L  RDN_G06_12
 L  MINUP_G06_12
 L  MINDN_G06_12
 G  PMIN_G06_13
 L  PMAX_G06_13
 E  LOGIC_G06_13
 L  RUP_G06_13
 L  RDN_G06_13
 L  MINUP_G06_13
 L  MINDN_G06_13
 G  PMIN_G06_14
 L  PMAX_G06_14
 E  LOGIC_G06_14
 L  RUP_G06_14
 L  RDN_G06_14
 L  MINUP_G06_14
 L  MINDN_G06_14
 G  PMIN_G06_15
 L  PMAX_G06_15
 E  LOGIC_G06_15
 L  RUP_G06_15
 L  RDN_G06_15
 L  MINUP_G06_15
 L  MINDN_G06_15
 G  PMIN_G06_16
 L  PMAX_G06_16
 E  LOGIC_G06_16
 L  RUP_G06_16
 L  RDN_G06_16
 L  MINUP_G06_16
 L  MINDN_G06_16
 G  PMIN_G06_17
 L  PMAX_G06_17
 E  LOGIC_G06_17
 L  RUP_G06_17
 L  RDN_G06_17
 L  MINUP_G06_17
 L  MINDN_G06_17
 G  PMIN_G06_18
 L  PMAX_G06_18
 E  LOGIC_G06_18
 L  RUP_G06_18
 L  RDN_G06_18
 L  MINUP_G06_18
 L  MINDN_G06_18
 G  PMIN_G06_19
 L  PMAX_G06_19
 E  LOGIC_G06_19
 L  RUP_G06_19
 L  RDN_G06_19
 L  MINUP_G06_19
 L  MINDN_G06_19
 G  PMIN_G06_20
 L  PMAX_G06_20
 E  LOGIC_G06_20
 L  RUP_G06_20
 L  RDN_G06_20
 L  MINUP_G06_20
 L  MINDN_G06_20
 G  PMIN_G06_21
 L  PMAX_G06_21
 E  LOGIC_G06_21
 L  RUP_G06_21
 L  RDN_G06_21
 L  MINUP_G06_21
 L  MINDN_G06_21
 G  PMIN_G06_22
 L  PMAX_G06_22
 E  LOGIC_G06_22
 L  RUP_G06_22
 L  RDN_G06_22
 L  MINUP_G06_22
 L  MINDN_G06_22
 G  PMIN_G06_23
 L  PMAX_G06_23
 E  LOGIC_G06_23
 L  RUP_G06_23
 L  RDN_G06_23
 L  MINUP_G06_23
 L  MINDN_G06_23
 G  PMIN_G07_0
 L  PMAX_G07_0
 E  LOGIC_G07_0
 L  MINUP_G07_0
 L  MINDN_G07_0
 G  PMIN_G07_1
 L  PMAX_G07_1
 E  LOGIC_G07_1
 L  RUP_G07_1
 L  RDN_G07_1
 L  MINUP_G07_1
 L  MINDN_G07_1
 G  PMIN_G07_2
 L  PMAX_G07_2
 E  LOGIC_G07_2
 L  RUP_G07_2
 L  RDN_G07_2
 L  MINUP_G07_2
 L  MINDN_G07_2
 G  PMIN_G07_3
 L  PMAX_G07_3
 E  LOGIC_G07_3
 L  RUP_G07_3
 L  RDN_G07_3
 L  MINUP_G07_3
 L  MINDN_G07_3
 G  PMIN_G07_4
 L  PMAX_G07_4
 E  LOGIC_G07_4
 L  RUP_G07_4
 L  RDN_G07_4
 L  MINUP_G07_4
 L  MINDN_G07_4
 G  PMIN_G07_5
 L  PMAX_G07_5
 E  LOGIC_G07_5
 L  RUP_G07_5
 L  RDN_G07_5
 L  MINUP_G07_5
 L  MINDN_G07_5
 G  PMIN_G07_6
 L  PMAX_G07_6
 E  LOGIC_G07_6
 L  RUP_G07_6
 L  RDN_G07_6
 L  MINUP_G07_6
 L  MINDN_G07_6
 G  PMIN_G07_7
 L  PMAX_G07_7
 E  LOGIC_G07_7
 L  RUP_G07_7
 L  RDN_G07_7
 L  MINUP_G07_7
 L  MINDN_G07_7
 G  PMIN_G07_8
 L  PMAX_G07_8
 E  LOGIC_G07_8
 L  RUP_G07_8
 L  RDN_G07_8
 L  MINUP_G07_8
 L  MINDN_G07_8
 G  PMIN_G07_9
 L  PMAX_G07_9
 E  LOGIC_G07_9
 L  RUP_G07_9
 L  RDN_G07_9
 L  MINUP_G07_9
 L  MINDN_G07_9
 G  PMIN_G07_10
 L  PMAX_G07_10
 E  LOGIC_G07_10
 L  RUP_G07_10
 L  RDN_G07_10
 L  MINUP_G07_10
 L  MINDN_G07_10
 G  PMIN_G07_11
 L  PMAX_G07_11
 E  LOGIC_G07_11
 L  RUP_G07_11
 L  RDN_G07_11
 L  MINUP_G07_11
 L  MINDN_G07_11
 G  PMIN_G07_12
 L  PMAX_G07_12
 E  LOGIC_G07_12
 L  RUP_G07_12
 L  RDN_G07_12
 L  MINUP_G07_12
 L  MINDN_G07_12
 G  PMIN_G07_13
 L  PMAX_G07_13
 E  LOGIC_G07_13
 L  RUP_G07_13
 L  RDN_G07_13
 L  MINUP_G07_13
 L  MINDN_G07_13
 G  PMIN_G07_14
 L  PMAX_G07_14
 E  LOGIC_G07_14
 L  RUP_G07_14
 L  RDN_G07_14
 L  MINUP_G07_14
 L  MINDN_G07_14
 G  PMIN_G07_15
 L  PMAX_G07_15
 E  LOGIC_G07_15
 L  RUP_G07_15
 L  RDN_G07_15
 L  MINUP_G07_15
 L  MINDN_G07_15
 G  PMIN_G07_16
 L  PMAX_G07_16
 E  LOGIC_G07_16
 L  RUP_G07_16
 L  RDN_G07_16
 L  MINUP_G07_16
 L  MINDN_G07_16
 G  PMIN_G07_17
 L  PMAX_G07_17
 E  LOGIC_G07_17
 L  RUP_G07_17
 L  RDN_G07_17
 L  MINUP_G07_17
 L  MINDN_G07_17
 G  PMIN_G07_18
 L  PMAX_G07_18
 E  LOGIC_G07_18
 L  RUP_G07_18
 L  RDN_G07_18
 L  MINUP_G07_18
 L  MINDN_G07_18
 G  PMIN_G07_19
 L  PMAX_G07_19
 E  LOGIC_G07_19
 L  RUP_G07_19
 L  RDN_G07_19
 L  MINUP_G07_19
 L  MINDN_G07_19
 G  PMIN_G07_20
 L  PMAX_G07_20
 E  LOGIC_G07_20
 L  RUP_G07_20
 L  RDN_G07_20
 L  MINUP_G07_20
 L  MINDN_G07_20
 G  PMIN_G07_21
 L  PMAX_G07_21
 E  LOGIC_G07_21
 L  RUP_G07_21
 L  RDN_G07_21
 L  MINUP_G07_21
 L  MINDN_G07_21
 G  PMIN_G07_22
 L  PMAX_G07_22
 E  LOGIC_G07_22
 L  RUP_G07_22
 L  RDN_G07_22
 L  MINUP_G07_22
 L  MINDN_G07_22
 G  PMIN_G07_23
 L  PMAX_G07_23
 E  LOGIC_G07_23
 L  RUP_G07_23
 L  RDN_G07_23
 L  MINUP_G07_23
 L  MINDN_G07_23
 G  PMIN_G08_0
 L  PMAX_G08_0
 E  LOGIC_G08_0
 L  MINUP_G08_0
 L  MINDN_G08_0
 G  PMIN_G08_1
 L  PMAX_G08_1
 E  LOGIC_G08_1
 L  RUP_G08_1
 L  RDN_G08_1
 L  MINUP_G08_1
 L  MINDN_G08_1
 G  PMIN_G08_2
 L  PMAX_G08_2
 E  LOGIC_G08_2
 L  RUP_G08_2
 L  RDN_G08_2
 L  MINUP_G08_2
 L  MINDN_G08_2
 G  PMIN_G08_3
 L  PMAX_G08_3
 E  LOGIC_G08_3
 L  RUP_G08_3
 L  RDN_G08_3
 L  MINUP_G08_3
 L  MINDN_G08_3
 G  PMIN_G08_4
 L  PMAX_G08_4
 E  LOGIC_G08_4
 L  RUP_G08_4
 L  RDN_G08_4
 L  MINUP_G08_4
 L  MINDN_G08_4
 G  PMIN_G08_5
 L  PMAX_G08_5
 E  LOGIC_G08_5
 L  RUP_G08_5
 L  RDN_G08_5
 L  MINUP_G08_5
 L  MINDN_G08_5
 G  PMIN_G08_6
 L  PMAX_G08_6
 E  LOGIC_G08_6
 L  RUP_G08_6
 L  RDN_G08_6
 L  MINUP_G08_6
 L  MINDN_G08_6
 G  PMIN_G08_7
 L  PMAX_G08_7
 E  LOGIC_G08_7
 L  RUP_G08_7
 L  RDN_G08_7
 L  MINUP_G08_7
 L  MINDN_G08_7
 G  PMIN_G08_8
 L  PMAX_G08_8
 E  LOGIC_G08_8
 L  RUP_G08_8
 L  RDN_G08_8
 L  MINUP_G08_8
 L  MINDN_G08_8
 G  PMIN_G08_9
 L  PMAX_G08_9
 E  LOGIC_G08_9
 L  RUP_G08_9
 L  RDN_G08_9
 L  MINUP_G08_9
 L  MINDN_G08_9
 G  PMIN_G08_10
 L  PMAX_G08_10
 E  LOGIC_G08_10
 L  RUP_G08_10
 L  RDN_G08_10
 L  MINUP_G08_10
 L  MINDN_G08_10
 G  PMIN_G08_11
 L  PMAX_G08_11
 E  LOGIC_G08_11
 L  RUP_G08_11
 L  RDN_G08_11
 L  MINUP_G08_11
 L  MINDN_G08_11
 G  PMIN_G08_12
 L  PMAX_G08_12
 E  LOGIC_G08_12
 L  RUP_G08_12
 L  RDN_G08_12
 L  MINUP_G08_12
 L  MINDN_G08_12
 G  PMIN_G08_13
 L  PMAX_G08_13
 E  LOGIC_G08_13
 L  RUP_G08_13
 L  RDN_G08_13
 L  MINUP_G08_13
 L  MINDN_G08_13
 G  PMIN_G08_14
 L  PMAX_G08_14
 E  LOGIC_G08_14
 L  RUP_G08_14
 L  RDN_G08_14
 L  MINUP_G08_14
 L  MINDN_G08_14
 G  PMIN_G08_15
 L  PMAX_G08_15
 E  LOGIC_G08_15
 L  RUP_G08_15
 L  RDN_G08_15
 L  MINUP_G08_15
 L  MINDN_G08_15
 G  PMIN_G08_16
 L  PMAX_G08_16
 E  LOGIC_G08_16
 L  RUP_G08_16
 L  RDN_G08_16
 L  MINUP_G08_16
 L  MINDN_G08_16
 G  PMIN_G08_17
 L  PMAX_G08_17
 E  LOGIC_G08_17
 L  RUP_G08_17
 L  RDN_G08_17
 L  MINUP_G08_17
 L  MINDN_G08_17
 G  PMIN_G08_18
 L  PMAX_G08_18
 E  LOGIC_G08_18
 L  RUP_G08_18
 L  RDN_G08_18
 L  MINUP_G08_18
 L  MINDN_G08_18
 G  PMIN_G08_19
 L  PMAX_G08_19
 E  LOGIC_G08_19
 L  RUP_G08_19
 L  RDN_G08_19
 L  MINUP_G08_19
 L  MINDN_G08_19
 G  PMIN_G08_20
 L  PMAX_G08_20
 E  LOGIC_G08_20
 L  RUP_G08_20
 L  RDN_G08_20
 L  MINUP_G08_20
 L  MINDN_G08_20
 G  PMIN_G08_21
 L  PMAX_G08_21
 E  LOGIC_G08_21
 L  RUP_G08_21
 L  RDN_G08_21
 L  MINUP_G08_21
 L  MINDN_G08_21
 G  PMIN_G08_22
 L  PMAX_G08_22
 E  LOGIC_G08_22
 L  RUP_G08_22
 L  RDN_G08_22
 L  MINUP_G08_22
 L  MINDN_G08_22
 G  PMIN_G08_23
 L  PMAX_G08_23
 E  LOGIC_G08_23
 L  RUP_G08_23
 L  RDN_G08_23
 L  MINUP_G08_23
 L  MINDN_G08_23
 G  PMIN_G09_0
 L  PMAX_G09_0
 E  LOGIC_G09_0
 L  MINUP_G09_0
 L  MINDN_G09_0
 G  PMIN_G09_1
 L  PMAX_G09_1
 E  LOGIC_G09_1
 L  RUP_G09_1
 L  RDN_G09_1
 L  MINUP_G09_1
 L  MINDN_G09_1
 G  PMIN_G09_2
 L  PMAX_G09_2
 E  LOGIC_G09_2
 L  RUP_G09_2
 L  RDN_G09_2
 L  MINUP_G09_2
 L  MINDN_G09_2
 G  PMIN_G09_3
 L  PMAX_G09_3
 E  LOGIC_G09_3
 L  RUP_G09_3
 L  RDN_G09_3
 L  MINUP_G09_3
 L  MINDN_G09_3
 G  PMIN_G09_4
 L  PMAX_G09_4
 E  LOGIC_G09_4
 L  RUP_G09_4
 L  RDN_G09_4
 L  MINUP_G09_4
 L  MINDN_G09_4
 G  PMIN_G09_5
 L  PMAX_G09_5
 E  LOGIC_G09_5
 L  RUP_G09_5
 L  RDN_G09_5
 L  MINUP_G09_5
 L  MINDN_G09_5
 G  PMIN_G09_6
 L  PMAX_G09_6
 E  LOGIC_G09_6
 L  RUP_G09_6
 L  RDN_G09_6
 L  MINUP_G09_6
 L  MINDN_G09_6
 G  PMIN_G09_7
 L  PMAX_G09_7
 E  LOGIC_G09_7
 L  RUP_G09_7
 L  RDN_G09_7
 L  MINUP_G09_7
 L  MINDN_G09_7
 G  PMIN_G09_8
 L  PMAX_G09_8
 E  LOGIC_G09_8
 L  RUP_G09_8
 L  RDN_G09_8
 L  MINUP_G09_8
 L  MINDN_G09_8
 G  PMIN_G09_9
 L  PMAX_G09_9
 E  LOGIC_G09_9
 L  RUP_G09_9
 L  RDN_G09_9
 L  MINUP_G09_9
 L  MINDN_G09_9
 G  PMIN_G09_10
 L  PMAX_G09_10
 E  LOGIC_G09_10
 L  RUP_G09_10
 L  RDN_G09_10
 L  MINUP_G09_10
 L  MINDN_G09_10
 G  PMIN_G09_11
 L  PMAX_G09_11
 E  LOGIC_G09_11
 L  RUP_G09_11
 L  RDN_G09_11
 L  MINUP_G09_11
 L  MINDN_G09_11
 G  PMIN_G09_12
 L  PMAX_G09_12
 E  LOGIC_G09_12
 L  RUP_G09_12
 L  RDN_G09_12
 L  MINUP_G09_12
 L  MINDN_G09_12
 G  PMIN_G09_13
 L  PMAX_G09_13
 E  LOGIC_G09_13
 L  RUP_G09_13
 L  RDN_G09_13
 L  MINUP_G09_13
 L  MINDN_G09_13
 G  PMIN_G09_14
 L  PMAX_G09_14
 E  LOGIC_G09_14
 L  RUP_G09_14
 L  RDN_G09_14
 L  MINUP_G09_14
 L  MINDN_G09_14
 G  PMIN_G09_15
 L  PMAX_G09_15
 E  LOGIC_G09_15
 L  RUP_G09_15
 L  RDN_G09_15
 L  MINUP_G09_15
 L  MINDN_G09_15
 G  PMIN_G09_16
 L  PMAX_G09_16
 E  LOGIC_G09_16
 L  RUP_G09_16
 L  RDN_G09_16
 L  MINUP_G09_16
 L  MINDN_G09_16
 G  PMIN_G09_17
 L  PMAX_G09_17
 E  LOGIC_G09_17
 L  RUP_G09_17
 L  RDN_G09_17
 L  MINUP_G09_17
 L  MINDN_G09_17
 G  PMIN_G09_18
 L  PMAX_G09_18
 E  LOGIC_G09_18
 L  RUP_G09_18
 L  RDN_G09_18
 L  MINUP_G09_18
 L  MINDN_G09_18
 G  PMIN_G09_19
 L  PMAX_G09_19
 E  LOGIC_G09_19
 L  RUP_G09_19
 L  RDN_G09_19
 L  MINUP_G09_19
 L  MINDN_G09_19
 G  PMIN_G09_20
 L  PMAX_G09_20
 E  LOGIC_G09_20
 L  RUP_G09_20
 L  RDN_G09_20
 L  MINUP_G09_20
 L  MINDN_G09_20
 G  PMIN_G09_21
 L  PMAX_G09_21
 E  LOGIC_G09_21
 L  RUP_G09_21
 L  RDN_G09_21
 L  MINUP_G09_21
 L  MINDN_G09_21
 G  PMIN_G09_22
 L  PMAX_G09_22
 E  LOGIC_G09_22
 L  RUP_G09_22
 L  RDN_G09_22
 L  MINUP_G09_22
 L  MINDN_G09_22
 G  PMIN_G09_23
 L  PMAX_G09_23
 E  LOGIC_G09_23
 L  RUP_G09_23
 L  RDN_G09_23
 L  MINUP_G09_23
 L  MINDN_G09_23
 G  DEM_0
 G  RES_0
 G  DEM_1
 G  RES_1
 G  DEM_2
 G  RES_2
 G  DEM_3
 G  RES_3
 G  DEM_4
 G  RES_4
 G  DEM_5
 G  RES_5
 G  DEM_6
 G  RES_6
 G  DEM_7
 G  RES_7
 G  DEM_8
 G  RES_8
 G  DEM_9
 G  RES_9
 G  DEM_10
 G  RES_10
 G  DEM_11
 G  RES_11
 G  DEM_12
 G  RES_12
 G  DEM_13
 G  RES_13
 G  DEM_14
 G  RES_14
 G  DEM_15
 G  RES_15
 G  DEM_16
 G  RES_16
 G  DEM_17
 G  RES_17
 G  DEM_18
 G  RES_18
 G  DEM_19
 G  RES_19
 G  DEM_20
 G  RES_20
 G  DEM_21
 G  RES_21
 G  DEM_22
 G  RES_22
 G  DEM_23
 G  RES_23
COLUMNS
    M1712 'MARKER' 'INTORG'
    U_G00_0 OBJ 139.2741590087976
    U_G00_0 PMIN_G00_0 -45.553118546098766
    U_G00_0 PMAX_G00_0 -97.02748543934042
    U_G00_0 LOGIC_G00_0 1.0
    U_G00_0 MINUP_G00_0 -1.0
    U_G00_0 MINDN_G00_0 1.0
    U_G00_0 LOGIC_G00_1 -1.0
    U_G00_0 RES_0 97.02748543934042
    V_G00_0 OBJ 1587.2182438574346
    V_G00_0 LOGIC_G00_0 -1.0
    V_G00_0 MINUP_G00_0 1.0
    V_G00_0 MINUP_G00_1 1.0
    V_G00_0 MINUP_G00_2 1.0
    V_G00_0 MINUP_G00_3 1.0
    W_G00_0 LOGIC_G00_0 1.0
    W_G00_0 MINDN_G00_0 1.0
    W_G00_0 MINDN_G00_1 1.0
    M1730 'MARKER' 'INTEND'
    P_G00_0 OBJ 49.36985785394763
    P_G00_0 PMIN_G00_0 1.0
    P_G00_0 PMAX_G00_0 1.0
    P_G00_0 RUP_G00_1 -1.0
    P_G00_0 RDN_G00_1 1.0
    P_G00_0 DEM_0 1.0
    M1737 'MARKER' 'INTORG'
    U_G00_1 OBJ 139.2741590087976
    U_G00_1 PMIN_G00_1 -45.553118546098766
    U_G00_1 PMAX_G00_1 -97.02748543934042
    U_G00_1 LOGIC_G00_1 1.0
    U_G00_1 MINUP_G00_1 -1.0
    U_G00_1 MINDN_G00_1 1.0
    U_G00_1 LOGIC_G00_2 -1.0
    U_G00_1 RES_1 97.02748543934042
    V_G00_1 OBJ 1587.2182438574346
    V_G00_1 LOGIC_G00_1 -1.0
    V_G00_1 MINUP_G00_1 1.0
    V_G00_1 MINUP_G00_2 1.0
    V_G00_1 MINUP_G00_3 1.0
    V_G00_1 MINUP_G00_4 1.0
    W_G00_1 LOGIC_G00_1 1.0
    W_G00_1 MINDN_G00_1 1.0
    W_G00_1 MINDN_G00_2 1.0
    M1755 'MARKER' 'INTEND'
    P_G00_1 OBJ 49.36985785394763
    P_G00_1 PMIN_G00_1 1.0
    P_G00_1 PMAX_G00_1 1.0
    P_G00_1 RUP_G00_1 1.0
    P_G00_1 RDN_G00_1 -1.0
    P_G00_1 RUP_G00_2 -1.0
    P_G00_1 RDN_G00_2 1.0
    P_G00_1 DEM_1 1.0
    M1764 'MARKER' 'INTORG'
    U_G00_2 OBJ 139.2741590087976
    U_G00_2 PMIN_G00_2 -45.553118546098766
    U_G00_2 PMAX_G00_2 -97.02748543934042
    U_G00_2 LOGIC_G00_2 1.0
    U_G00_2 MINUP_G00_2 -1.0
    U_G00_2 MINDN_G00_2 1.0
    U_G00_2 LOGIC_G00_3 -1.0
    U_G00_2 RES_2 97.02748543934042
    V_G00_2 OBJ 1587.2182438574346
    V_G00_2 LOGIC_G00_2 -1.0
    V_G00_2 MINUP_G00_2 1.0
    V_G00_2 MINUP_G00_3 1.0
    V_G00_2 MINUP_G00_4 1.0
    V_G00_2 MINUP_G00_5 1.0
    W_G00_2 LOGIC_G00_2 1.0
    W_G00_2 MINDN_G00_2 1.0
    W_G00_2 MINDN_G00_3 1.0
    M1782 'MARKER' 'INTEND'
    P_G00_2 OBJ 49.36985785394763
    P_G00_2 PMIN_G00_2 1.0
    P_G00_2 PMAX_G00_2 1.0
    P_G00_2 RUP_G00_2 1.0
    P_G00_2 RDN_G00_2 -1.0
    P_G00_2 RUP_G00_3 -1.0
    P_G00_2 RDN_G00_3 1.0
    P_G00_2 DEM_2 1.0
    M1791 'MARKER' 'INTORG'
    U_G00_3 OBJ 139.2741590087976
    U_G00_3 PMIN_G00_3 -45.553118546098766
    U_G00_3 PMAX_G00_3 -97.02748543934042
    U_G00_3 LOGIC_G00_3 1.0
    U_G00_3 MINUP_G00_3 -1.0
    U_G00_3 MINDN_G00_3 1.0
    U_G00_3 LOGIC_G00_4 -1.0
    U_G00_3 RES_3 97.02748543934042
    V_G00_3 OBJ 1587.2182438574346
    V_G00_3 LOGIC_G00_3 -1.0
    V_G00_3 MINUP_G00_3 1.0
    V_G00_3 MINUP_G00_4 1.0
    V_G00_3 MINUP_G00_5 1.0
    V_G00_3 MINUP_G00_6 1.0
    W_G00_3 LOGIC_G00_3 1.0
    W_G00_3 MINDN_G00_3 1.0
    W_G00_3 MINDN_G00_4 1.0
    M1809 'MARKER' 'INTEND'
    P_G00_3 OBJ 49.36985785394763
    P_G00_3 PMIN_G00_3 1.0
    P_G00_3 PMAX_G00_3 1.0
    P_G00_3 RUP_G00_3 1.0
    P_G00_3 RDN_G00_3 -1.0
    P_G00_3 RUP_G00_4 -1.0
    P_G00_3 RDN_G00_4 1.0
    P_G00_3 DEM_3 1.0
    M1818 'MARKER' 'INTORG'
    U_G00_4 OBJ 139.2741590087976
    U_G00_4 PMIN_G00_4 -45.553118546098766
    U_G00_4 PMAX_G00_4 -97.02748543934042
    U_G00_4 LOGIC_G00_4 1.0
    U_G00_4 MINUP_G00_4 -1.0
    U_G00_4 MINDN_G00_4 1.0
    U_G00_4 LOGIC_G00_5 -1.0
    U_G00_4 RES_4 97.02748543934042
    V_G00_4 OBJ 1587.2182438574346
    V_G00_4 LOGIC_G00_4 -1.0
    V_G00_4 MINUP_G00_4 1.0
    V_G00_4 MINUP_G00_5 1.0
    V_G00_4 MINUP_G00_6 1.0
    V_G00_4 MINUP_G00_7 1.0
    W_G00_4 LOGIC_G00_4 1.0
    W_G00_4 MINDN_G00_4 1.0
    W_G00_4 MINDN_G00_5 1.0
    M1836 'MARKER' 'INTEND'
    P_G00_4 OBJ 49.36985785394763
    P_G00_4 PMIN_G00_4 1.0
    P_G00_4 PMAX_G00_4 1.0
    P_G00_4 RUP_G00_4 1.0
    P_G00_4 RDN_G00_4 -1.0
    P_G00_4 RUP_G00_5 -1.0
    P_G00_4 RDN_G00_5 1.0
    P_G00_4 DEM_4 1.0
    M1845 'MARKER' 'INTORG'
    U_G00_5 OBJ 139.2741590087976
    U_G00_5 PMIN_G00_5 -45.553118546098766
    U_G00_5 PMAX_G00_5 -97.02748543934042
    U_G00_5 LOGIC_G00_5 1.0
    U_G00_5 MINUP_G00_5 -1.0
    U_G00_5 MINDN_G00_5 1.0
    U_G00_5 LOGIC_G00_6 -1.0
    U_G00_5 RES_5 97.02748543934042
    V_G00_5 OBJ 1587.2182438574346
    V_G00_5 LOGIC_G00_5 -1.0
    V_G00_5 MINUP_G00_5 1.0
    V_G00_5 MINUP_G00_6 1.0
    V_G00_5 MINUP_G00_7 1.0
    V_G00_5 MINUP_G00_8 1.0
    W_G00_5 LOGIC_G00_5 1.0
    W_G00_5 MINDN_G00_5 1.0
    W_G00_5 MINDN_G00_6 1.0
    M1863 'MARKER' 'INTEND'
    P_G00_5 OBJ 49.36985785394763
    P_G00_5 PMIN_G00_5 1.0
    P_G00_5 PMAX_G00_5 1.0
    P_G00_5 RUP_G00_5 1.0
    P_G00_5 RDN_G00_5 -1.0
    P_G00_5 RUP_G00_6 -1.0
    P_G00_5 RDN_G00_6 1.0
    P_G00_5 DEM_5 1.0
    M1872 'MARKER' 'INTORG'
    U_G00_6 OBJ 139.2741590087976
    U_G00_6 PMIN_G00_6 -45.553118546098766
    U_G00_6 PMAX_G00_6 -97.02748543934042
    U_G00_6 LOGIC_G00_6 1.0
    U_G00_6 MINUP_G00_6 -1.0
    U_G00_6 MINDN_G00_6 1.0
    U_G00_6 LOGIC_G00_7 -1.0
    U_G00_6 RES_6 97.02748543934042
    V_G00_6 OBJ 1587.2182438574346
    V_G00_6 LOGIC_G00_6 -1.0
    V_G00_6 MINUP_G00_6 1.0
    V_G00_6 MINUP_G00_7 1.0
    V_G00_6 MINUP_G00_8 1.0
    V_G00_6 MINUP_G00_9 1.0
    W_G00_6 LOGIC_G00_6 1.0
    W_G00_6 MINDN_G00_6 1.0
    W_G00_6 MINDN_G00_7 1.0
    M1890 'MARKER' 'INTEND'
    P_G00_6 OBJ 49.36985785394763
    P_G00_6 PMIN_G00_6 1.0
    P_G00_6 PMAX_G00_6 1.0
    P_G00_6 RUP_G00_6 1.0
    P_G00_6 RDN_G00_6 -1.0
    P_G00_6 RUP_G00_7 -1.0
    P_G00_6 RDN_G00_7 1.0
    P_G00_6 DEM_6 1.0
    M1899 'MARKER' 'INTORG'
    U_G00_7 OBJ 139.2741590087976
    U_G00_7 PMIN_G00_7 -45.553118546098766
    U_G00_7 PMAX_G00_7 -97.02748543934042
    U_G00_7 LOGIC_G00_7 1.0
    U_G00_7 MINUP_G00_7 -1.0
    U_G00_7 MINDN_G00_7 1.0
    U_G00_7 LOGIC_G00_8 -1.0
    U_G00_7 RES_7 97.02748543934042
    V_G00_7 OBJ 1587.2182438574346
    V_G00_7 LOGIC_G00_7 -1.0
    V_G00_7 MINUP_G00_7 1.0
    V_G00_7 MINUP_G00_8 1.0
    V_G00_7 MINUP_G00_9 1.0
    V_G00_7 MINUP_G00_10 1.0
    W_G00_7 LOGIC_G00_7 1.0
    W_G00_7 MINDN_G00_7 1.0
    W_G00_7 MINDN_G00_8 1.0
    M1917 'MARKER' 'INTEND'
    P_G00_7 OBJ 49.36985785394763
    P_G00_7 PMIN_G00_7 1.0
    P_G00_7 PMAX_G00_7 1.0
    P_G00_7 RUP_G00_7 1.0
    P_G00_7 RDN_G00_7 -1.0
    P_G00_7 RUP_G00_8 -1.0
    P_G00_7 RDN_G00_8 1.0
    P_G00_7 DEM_7 1.0
    M1926 'MARKER' 'INTORG'
    U_G00_8 OBJ 139.2741590087976
    U_G00_8 PMIN_G00_8 -45.553118546098766
    U_G00_8 PMAX_G00_8 -97.02748543934042
    U_G00_8 LOGIC_G00_8 1.0
    U_G00_8 MINUP_G00_8 -1.0
    U_G00_8 MINDN_G00_8 1.0
    U_G00_8 LOGIC_G00_9 -1.0
    U_G00_8 RES_8 97.02748543934042
    V_G00_8 OBJ 1587.2182438574346
    V_G00_8 LOGIC_G00_8 -1.0
    V_G00_8 MINUP_G00_8 1.0
    V_G00_8 MINUP_G00_9 1.0
    V_G00_8 MINUP_G00_10 1.0
    V_G00_8 MINUP_G00_11 1.0
    W_G00_8 LOGIC_G00_8 1.0
    W_G00_8 MINDN_G00_8 1.0
    W_G00_8 MINDN_G00_9 1.0
    M1944 'MARKER' 'INTEND'
    P_G00_8 OBJ 49.36985785394763
    P_G00_8 PMIN_G00_8 1.0
    P_G00_8 PMAX_G00_8 1.0
    P_G00_8 RUP_G00_8 1.0
    P_G00_8 RDN_G00_8 -1.0
    P_G00_8 RUP_G00_9 -1.0
    P_G00_8 RDN_G00_9 1.0
    P_G00_8 DEM_8 1.0
    M1953 'MARKER' 'INTORG'
    U_G00_9 OBJ 139.2741590087976
    U_G00_9 PMIN_G00_9 -45.553118546098766
    U_G00_9 PMAX_G00_9 -97.02748543934042
    U_G00_9 LOGIC_G00_9 1.0
    U_G00_9 MINUP_G00_9 -1.0
    U_G00_9 MINDN_G00_9 1.0
    U_G00_9 LOGIC_G00_10 -1.0
    U_G00_9 RES_9 97.02748543934042
    V_G00_9 OBJ 1587.2182438574346
    V_G00_9 LOGIC_G00_9 -1.0
    V_G00_9 MINUP_G00_9 1.0
    V_G00_9 MINUP_G00_10 1.0
    V_G00_9 MINUP_G00_11 1.0
    V_G00_9 MINUP_G00_12 1.0
    W_G00_9 LOGIC_G00_9 1.0
    W_G00_9 MINDN_G00_9 1.0
    W_G00_9 MINDN_G00_10 1.0
    M1971 'MARKER' 'INTEND'
    P_G00_9 OBJ 49.36985785394763
    P_G00_9 PMIN_G00_9 1.0
    P_G00_9 PMAX_G00_9 1.0
    P_G00_9 RUP_G00_9 1.0
    P_G00_9 RDN_G00_9 -1.0
    P_G00_9 RUP_G00_10 -1.0
    P_G00_9 RDN_G00_10 1.0
    P_G00_9 DEM_9 1.0
    M1980 'MARKER' 'INTORG'
    U_G00_10 OBJ 139.2741590087976
    U_G00_10 PMIN_G00_10 -45.553118546098766
    U_G00_10 PMAX_G00_10 -97.02748543934042
    U_G00_10 LOGIC_G00_10 1.0
    U_G00_10 MINUP_G00_10 -1.0
    U_G00_10 MINDN_G00_10 1.0
    U_G00_10 LOGIC_G00_11 -1.0
    U_G00_10 RES_10 97.02748543934042
    V_G00_10 OBJ 1587.2182438574346
    V_G00_10 LOGIC_G00_10 -1.0
    V_G00_10 MINUP_G00_10 1.0
    V_G00_10 MINUP_G00_11 1.0
    V_G00_10 MINUP_G00_12 1.0
    V_G00_10 MINUP_G00_13 1.0
    W_G00_10 LOGIC_G00_10 1.0
    W_G00_10 MINDN_G00_10 1.0
    W_G00_10 MINDN_G00_11 1.0
    M1998 'MARKER' 'INTEND'
    P_G00_10 OBJ 49.36985785394763
    P_G00_10 PMIN_G00_10 1.0
    P_G00_10 PMAX_G00_10 1.0
    P_G00_10 RUP_G00_10 1.0
    P_G00_10 RDN_G00_10 -1.0
    P_G00_10 RUP_G00_11 -1.0
    P_G00_10 RDN_G00_11 1.0
    P_G00_10 DEM_10 1.0
    M2007 'MARKER' 'INTORG'
    U_G00_11 OBJ 139.2741590087976
    U_G00_11 PMIN_G00_11 -45.553118546098766
    U_G00_11 PMAX_G00_11 -97.02748543934042
    U_G00_11 LOGIC_G00_11 1.0
    U_G00_11 MINUP_G00_11 -1.0
    U_G00_11 MINDN_G00_11 1.0
    U_G00_11 LOGIC_G00_12 -1.0
    U_G00_11 RES_11 97.02748543934042
    V_G00_11 OBJ 1587.2182438574346
    V_G00_11 LOGIC_G00_11 -1.0
    V_G00_11 MINUP_G00_11 1.0
    V_G00_11 MINUP_G00_12 1.0
    V_G00_11 MINUP_G00_13 1.0
    V_G00_11 MINUP_G00_14 1.0
    W_G00_11 LOGIC_G00_11 1.0
    W_G00_11 MINDN_G00_11 1.0
    W_G00_11 MINDN_G00_12 1.0
    M2025 'MARKER' 'INTEND'
    P_G00_11 OBJ 49.36985785394763
    P_G00_11 PMIN_G00_11 1.0
    P_G00_11 PMAX_G00_11 1.0
    P_G00_11 RUP_G00_11 1.0
    P_G00_11 RDN_G00_11 -1.0
    P_G00_11 RUP_G00_12 -1.0
    P_G00_11 RDN_G00_12 1.0
    P_G00_11 DEM_11 1.0
    M2034 'MARKER' 'INTORG'
    U_G00_12 OBJ 139.2741590087976
    U_G00_12 PMIN_G00_12 -45.553118546098766
    U_G00_12 PMAX_G00_12 -97.02748543934042
    U_G00_12 LOGIC_G00_12 1.0
    U_G00_12 MINUP_G00_12 -1.0
    U_G00_12 MINDN_G00_12 1.0
    U_G00_12 LOGIC_G00_13 -1.0
    U_G00_12 RES_12 97.02748543934042
    V_G00_12 OBJ 1587.2182438574346
    V_G00_12 LOGIC_G00_12 -1.0
    V_G00_12 MINUP_G00_12 1.0
    V_G00_12 MINUP_G00_13 1.0
    V_G00_12 MINUP_G00_14 1.0
    V_G00_12 MINUP_G00_15 1.0
    W_G00_12 LOGIC_G00_12 1.0
    W_G00_12 MINDN_G00_12 1.0
    W_G00_12 MINDN_G00_13 1.0
    M2052 'MARKER' 'INTEND'
    P_G00_12 OBJ 49.36985785394763
    P_G00_12 PMIN_G00_12 1.0
    P_G00_12 PMAX_G00_12 1.0
    P_G00_12 RUP_G00_12 1.0
    P_G00_12 RDN_G00_12 -1.0
    P_G00_12 RUP_G00_13 -1.0
    P_G00_12 RDN_G00_13 1.0
    P_G00_12 DEM_12 1.0
    M2061 'MARKER' 'INTORG'
    U_G00_13 OBJ 139.2741590087976
    U_G00_13 PMIN_G00_13 -45.553118546098766
    U_G00_13 PMAX_G00_13 -97.02748543934042
    U_G00_13 LOGIC_G00_13 1.0
    U_G00_13 MINUP_G00_13 -1.0
    U_G00_13 MINDN_G00_13 1.0
    U_G00_13 LOGIC_G00_14 -1.0
    U_G00_13 RES_13 97.02748543934042
    V_G00_13 OBJ 1587.2182438574346
    V_G00_13 LOGIC_G00_13 -1.0
    V_G00_13 MINUP_G00_13 1.0
    V_G00_13 MINUP_G00_14 1.0
    V_G00_13 MINUP_G00_15 1.0
    V_G00_13 MINUP_G00_16 1.0
    W_G00_13 LOGIC_G00_13 1.0
    W_G00_13 MINDN_G00_13 1.0
    W_G00_13 MINDN_G00_14 1.0
    M2079 'MARKER' 'INTEND'
    P_G00_13 OBJ 49.36985785394763
    P_G00_13 PMIN_G00_13 1.0
    P_G00_13 PMAX_G00_13 1.0
    P_G00_13 RUP_G00_13 1.0
    P_G00_13 RDN_G00_13 -1.0
    P_G00_13 RUP_G00_14 -1.0
    P_G00_13 RDN_G00_14 1.0
    P_G00_13 DEM_13 1.0
    M2088 'MARKER' 'INTORG'
    U_G00_14 OBJ 139.2741590087976
    U_G00_14 PMIN_G00_14 -45.553118546098766
    U_G00_14 PMAX_G00_14 -97.02748543934042
    U_G00_14 LOGIC_G00_14 1.0
    U_G00_14 MINUP_G00_14 -1.0
    U_G00_14 MINDN_G00_14 1.0
    U_G00_14 LOGIC_G00_15 -1.0
    U_G00_14 RES_14 97.02748543934042
    V_G00_14 OBJ 1587.2182438574346
    V_G00_14 LOGIC_G00_14 -1.0
    V_G00_14 MINUP_G00_14 1.0
    V_G00_14 MINUP_G00_15 1.0
    V_G00_14 MINUP_G00_16 1.0
    V_G00_14 MINUP_G00_17 1.0
    W_G00_14 LOGIC_G00_14 1.0
    W_G00_14 MINDN_G00_14 1.0
    W_G00_14 MINDN_G00_15 1.0
    M2106 'MARKER' 'INTEND'
    P_G00_14 OBJ 49.36985785394763
    P_G00_14 PMIN_G00_14 1.0
    P_G00_14 PMAX_G00_14 1.0
    P_G00_14 RUP_G00_14 1.0
    P_G00_14 RDN_G00_14 -1.0
    P_G00_14 RUP_G00_15 -1.0
    P_G00_14 RDN_G00_15 1.0
    P_G00_14 DEM_14 1.0
    M2115 'MARKER' 'INTORG'
    U_G00_15 OBJ 139.2741590087976
    U_G00_15 PMIN_G00_15 -45.553118546098766
    U_G00_15 PMAX_G00_15 -97.02748543934042
    U_G00_15 LOGIC_G00_15 1.0
    U_G00_15 MINUP_G00_15 -1.0
    U_G00_15 MINDN_G00_15 1.0
    U_G00_15 LOGIC_G00_16 -1.0
    U_G00_15 RES_15 97.02748543934042
    V_G00_15 OBJ 1587.2182438574346
    V_G00_15 LOGIC_G00_15 -1.0
    V_G00_15 MINUP_G00_15 1.0
    V_G00_15 MINUP_G00_16 1.0
    V_G00_15 MINUP_G00_17 1.0
    V_G00_15 MINUP_G00_18 1.0
    W_G00_15 LOGIC_G00_15 1.0
    W_G00_15 MINDN_G00_15 1.0
    W_G00_15 MINDN_G00_16 1.0
    M2133 'MARKER' 'INTEND'
    P_G00_15 OBJ 49.36985785394763
    P_G00_15 PMIN_G00_15 1.0
    P_G00_15 PMAX_G00_15 1.0
    P_G00_15 RUP_G00_15 1.0
    P_G00_15 RDN_G00_15 -1.0
    P_G00_15 RUP_G00_16 -1.0
    P_G00_15 RDN_G00_16 1.0
    P_G00_15 DEM_15 1.0
    M2142 'MARKER' 'INTORG'
    U_G00_16 OBJ 139.2741590087976
    U_G00_16 PMIN_G00_16 -45.553118546098766
    U_G00_16 PMAX_G00_16 -97.02748543934042
    U_G00_16 LOGIC_G00_16 1.0
    U_G00_16 MINUP_G00_16 -1.0
    U_G00_16 MINDN_G00_16 1.0
    U_G00_16 LOGIC_G00_17 -1.0
    U_G00_16 RES_16 97.02748543934042
    V_G00_16 OBJ 1587.2182438574346
    V_G00_16 LOGIC_G00_16 -1.0
    V_G00_16 MINUP_G00_16 1.0
    V_G00_16 MINUP_G00_17 1.0
    V_G00_16 MINUP_G00_18 1.0
    V_G00_16 MINUP_G00_19 1.0
    W_G00_16 LOGIC_G00_16 1.0
    W_G00_16 MINDN_G00_16 1.0
    W_G00_16 MINDN_G00_17 1.0
    M2160 'MARKER' 'INTEND'
    P_G00_16 OBJ 49.36985785394763
    P_G00_16 PMIN_G00_16 1.0
    P_G00_16 PMAX_G00_16 1.0
    P_G00_16 RUP_G00_16 1.0
    P_G00_16 RDN_G00_16 -1.0
    P_G00_16 RUP_G00_17 -1.0
    P_G00_16 RDN_G00_17 1.0
    P_G00_16 DEM_16 1.0
    M2169 'MARKER' 'INTORG'
    U_G00_17 OBJ 139.2741590087976
    U_G00_17 PMIN_G00_17 -45.553118546098766
    U_G00_17 PMAX_G00_17 -97.02748543934042
    U_G00_17 LOGIC_G00_17 1.0
    U_G00_17 MINUP_G00_17 -1.0
    U_G00_17 MINDN_G00_17 1.0
    U_G00_17 LOGIC_G00_18 -1.0
    U_G00_17 RES_17 97.02748543934042
    V_G00_17 OBJ 1587.2182438574346
    V_G00_17 LOGIC_G00_17 -1.0
    V_G00_17 MINUP_G00_17 1.0
    V_G00_17 MINUP_G00_18 1.0
    V_G00_17 MINUP_G00_19 1.0
    V_G00_17 MINUP_G00_20 1.0
    W_G00_17 LOGIC_G00_17 1.0
    W_G00_17 MINDN_G00_17 1.0
    W_G00_17 MINDN_G00_18 1.0
    M2187 'MARKER' 'INTEND'
    P_G00_17 OBJ 49.36985785394763
    P_G00_17 PMIN_G00_17 1.0
    P_G00_17 PMAX_G00_17 1.0
    P_G00_17 RUP_G00_17 1.0
    P_G00_17 RDN_G00_17 -1.0
    P_G00_17 RUP_G00_18 -1.0
    P_G00_17 RDN_G00_18 1.0
    P_G00_17 DEM_17 1.0
    M2196 'MARKER' 'INTORG'
    U_G00_18 OBJ 139.2741590087976
    U_G00_18 PMIN_G00_18 -45.553118546098766
    U_G00_18 PMAX_G00_18 -97.02748543934042
    U_G00_18 LOGIC_G00_18 1.0
    U_G00_18 MINUP_G00_18 -1.0
    U_G00_18 MINDN_G00_18 1.0
    U_G00_18 LOGIC_G00_19 -1.0
    U_G00_18 RES_18 97.02748543934042
    V_G00_18 OBJ 1587.2182438574346
    V_G00_18 LOGIC_G00_18 -1.0
    V_G00_18 MINUP_G00_18 1.0
    V_G00_18 MINUP_G00_19 1.0
    V_G00_18 MINUP_G00_20 1.0
    V_G00_18 MINUP_G00_21 1.0
    W_G00_18 LOGIC_G00_18 1.0
    W_G00_18 MINDN_G00_18 1.0
    W_G00_18 MINDN_G00_19 1.0
    M2214 'MARKER' 'INTEND'
    P_G00_18 OBJ 49.36985785394763
    P_G00_18 PMIN_G00_18 1.0
    P_G00_18 PMAX_G00_18 1.0
    P_G00_18 RUP_G00_18 1.0
    P_G00_18 RDN_G00_18 -1.0
    P_G00_18 RUP_G00_19 -1.0
    P_G00_18 RDN_G00_19 1.0
    P_G00_18 DEM_18 1.0
    M2223 'MARKER' 'INTORG'
    U_G00_19 OBJ 139.2741590087976
    U_G00_19 PMIN_G00_19 -45.553118546098766
    U_G00_19 PMAX_G00_19 -97.02748543934042
    U_G00_19 LOGIC_G00_19 1.0
    U_G00_19 MINUP_G00_19 -1.0
    U_G00_19 MINDN_G00_19 1.0
    U_G00_19 LOGIC_G00_20 -1.0
    U_G00_19 RES_19 97.02748543934042
    V_G00_19 OBJ 1587.2182438574346
    V_G00_19 LOGIC_G00_19 -1.0
    V_G00_19 MINUP_G00_19 1.0
    V_G00_19 MINUP_G00_20 1.0
    V_G00_19 MINUP_G00_21 1.0
    V_G00_19 MINUP_G00_22 1.0
    W_G00_19 LOGIC_G00_19 1.0
    W_G00_19 MINDN_G00_19 1.0
    W_G00_19 MINDN_G00_20 1.0
    M2241 'MARKER' 'INTEND'
    P_G00_19 OBJ 49.36985785394763
    P_G00_19 PMIN_G00_19 1.0
    P_G00_19 PMAX_G00_19 1.0
    P_G00_19 RUP_G00_19 1.0
    P_G00_19 RDN_G00_19 -1.0
    P_G00_19 RUP_G00_20 -1.0
    P_G00_19 RDN_G00_20 1.0
    P_G00_19 DEM_19 1.0
    M2250 'MARKER' 'INTORG'
    U_G00_20 OBJ 139.2741590087976
    U_G00_20 PMIN_G00_20 -45.553118546098766
    U_G00_20 PMAX_G00_20 -97.02748543934042
    U_G00_20 LOGIC_G00_20 1.0
    U_G00_20 MINUP_G00_20 -1.0
    U_G00_20 MINDN_G00_20 1.0
    U_G00_20 LOGIC_G00_21 -1.0
    U_G00_20 RES_20 97.02748543934042
    V_G00_20 OBJ 1587.2182438574346
    V_G00_20 LOGIC_G00_20 -1.0
    V_G00_20 MINUP_G00_20 1.0
    V_G00_20 MINUP_G00_21 1.0
    V_G00_20 MINUP_G00_22 1.0
    V_G00_20 MINUP_G00_23 1.0
    W_G00_20 LOGIC_G00_20 1.0
    W_G00_20 MINDN_G00_20 1.0
    W_G00_20 MINDN_G00_21 1.0
    M2268 'MARKER' 'INTEND'
    P_G00_20 OBJ 49.36985785394763
    P_G00_20 PMIN_G00_20 1.0
    P_G00_20 PMAX_G00_20 1.0
    P_G00_20 RUP_G00_20 1.0
    P_G00_20 RDN_G00_20 -1.0
    P_G00_20 RUP_G00_21 -1.0
    P_G00_20 RDN_G00_21 1.0
    P_G00_20 DEM_20 1.0
    M2277 'MARKER' 'INTORG'
    U_G00_21 OBJ 139.2741590087976
    U_G00_21 PMIN_G00_21 -45.553118546098766
    U_G00_21 PMAX_G00_21 -97.02748543934042
    U_G00_21 LOGIC_G00_21 1.0
    U_G00_21 MINUP_G00_21 -1.0
    U_G00_21 MINDN_G00_21 1.0
    U_G00_21 LOGIC_G00_22 -1.0
    U_G00_21 RES_21 97.02748543934042
    V_G00_21 OBJ 1587.2182438574346
    V_G00_21 LOGIC_G00_21 -1.0
    V_G00_21 MINUP_G00_21 1.0
    V_G00_21 MINUP_G00_22 1.0
    V_G00_21 MINUP_G00_23 1.0
    W_G00_21 LOGIC_G00_21 1.0
    W_G00_21 MINDN_G00_21 1.0
    W_G00_21 MINDN_G00_22 1.0
    M2294 'MARKER' 'INTEND'
    P_G00_21 OBJ 49.36985785394763
    P_G00_21 PMIN_G00_21 1.0
    P_G00_21 PMAX_G00_21 1.0
    P_G00_21 RUP_G00_21 1.0
    P_G00_21 RDN_G00_21 -1.0
    P_G00_21 RUP_G00_22 -1.0
    P_G00_21 RDN_G00_22 1.0
    P_G00_21 DEM_21 1.0
    M2303 'MARKER' 'INTORG'
    U_G00_22 OBJ 139.2741590087976
    U_G00_22 PMIN_G00_22 -45.553118546098766
    U_G00_22 PMAX_G00_22 -97.02748543934042
    U_G00_22 LOGIC_G00_22 1.0
    U_G00_22 MINUP_G00_22 -1.0
    U_G00_22 MINDN_G00_22 1.0
    U_G00_22 LOGIC_G00_23 -1.0
    U_G00_22 RES_22 97.02748543934042
    V_G00_22 OBJ 1587.2182438574346
    V_G00_22 LOGIC_G00_22 -1.0
    V_G00_22 MINUP_G00_22 1.0
    V_G00_22 MINUP_G00_23 1.0
    W_G00_22 LOGIC_G00_22 1.0
    W_G00_22 MINDN_G00_22 1.0
    W_G00_22 MINDN_G00_23 1.0
    M2319 'MARKER' 'INTEND'
    P_G00_22 OBJ 49.36985785394763
    P_G00_22 PMIN_G00_22 1.0
    P_G00_22 PMAX_G00_22 1.0
    P_G00_22 RUP_G00_22 1.0
    P_G00_22 RDN_G00_22 -1.0
    P_G00_22 RUP_G00_23 -1.0
    P_G00_22 RDN_G00_23 1.0
    P_G00_22 DEM_22 1.0
    M2328 'MARKER' 'INTORG'
    U_G00_23 OBJ 139.2741590087976
    U_G00_23 PMIN_G00_23 -45.553118546098766
    U_G00_23 PMAX_G00_23 -97.02748543934042
    U_G00_23 LOGIC_G00_23 1.0
    U_G00_23 MINUP_G00_23 -1.0
    U_G00_23 MINDN_G00_23 1.0
    U_G00_23 RES_23 97.02748543934042
    V_G00_23 OBJ 1587.2182438574346
    V_G00_23 LOGIC_G00_23 -1.0
    V_G00_23 MINUP_G00_23 1.0
    W_G00_23 LOGIC_G00_23 1.0
    W_G00_23 MINDN_G00_23 1.0
    M2341 'MARKER' 'INTEND'
    P_G00_23 OBJ 49.36985785394763
    P_G00_23 PMIN_G00_23 1.0
    P_G00_23 PMAX_G00_23 1.0
    P_G00_23 RUP_G00_23 1.0
    P_G00_23 RDN_G00_23 -1.0
    P_G00_23 DEM_23 1.0
    M2348 'MARKER' 'INTORG'
    U_G01_0 OBJ 201.46847376676868
    U_G01_0 PMIN_G01_0 -25.32497914678607
    U_G01_0 PMAX_G01_0 -82.8508553709822
    U_G01_0 LOGIC_G01_0 1.0
    U_G01_0 MINUP_G01_0 -1.0
    U_G01_0 MINDN_G01_0 1.0
    U_G01_0 LOGIC_G01_1 -1.0
    U_G01_0 RES_0 82.8508553709822
    V_G01_0 OBJ 2334.3842308822377
    V_G01_0 LOGIC_G01_0 -1.0
    V_G01_0 MINUP_G01_0 1.0
    V_G01_0 MINUP_G01_1 1.0
    V_G01_0 MINUP_G01_2 1.0
    V_G01_0 MINUP_G01_3 1.0
    W_G01_0 LOGIC_G01_0 1.0
    W_G01_0 MINDN_G01_0 1.0
    W_G01_0 MINDN_G01_1 1.0
    W_G01_0 MINDN_G01_2 1.0
    M2367 'MARKER' 'INTEND'
    P_G01_0 OBJ 52.609429676394136
    P_G01_0 PMIN_G01_0 1.0
    P_G01_0 PMAX_G01_0 1.0
    P_G01_0 RUP_G01_1 -1.0
    P_G01_0 RDN_G01_1 1.0
    P_G01_0 DEM_0 1.0
    M2374 'MARKER' 'INTORG'
    U_G01_1 OBJ 201.46847376676868
    U_G01_1 PMIN_G01_1 -25.32497914678607
    U_G01_1 PMAX_G01_1 -82.8508553709822
    U_G01_1 LOGIC_G01_1 1.0
    U_G01_1 MINUP_G01_1 -1.0
    U_G01_1 MINDN_G01_1 1.0
    U_G01_1 LOGIC_G01_2 -1.0
    U_G01_1 RES_1 82.8508553709822
    V_G01_1 OBJ 2334.3842308822377
    V_G01_1 LOGIC_G01_1 -1.0
    V_G01_1 MINUP_G01_1 1.0
    V_G01_1 MINUP_G01_2 1.0
    V_G01_1 MINUP_G01_3 1.0
    V_G01_1 MINUP_G01_4 1.0
    W_G01_1 LOGIC_G01_1 1.0
    W_G01_1 MINDN_G01_1 1.0
    W_G01_1 MINDN_G01_2 1.0
    W_G01_1 MINDN_G01_3 1.0
    M2393 'MARKER' 'INTEND'
    P_G01_1 OBJ 52.609429676394136
    P_G01_1 PMIN_G01_1 1.0
    P_G01_1 PMAX_G01_1 1.0
    P_G01_1 RUP_G01_1 1.0
    P_G01_1 RDN_G01_1 -1.0
    P_G01_1 RUP_G01_2 -1.0
    P_G01_1 RDN_G01_2 1.0
    P_G01_1 DEM_1 1.0
    M2402 'MARKER' 'INTORG'
    U_G01_2 OBJ 201.46847376676868
    U_G01_2 PMIN_G01_2 -25.32497914678607
    U_G01_2 PMAX_G01_2 -82.8508553709822
    U_G01_2 LOGIC_G01_2 1.0
    U_G01_2 MINUP_G01_2 -1.0
    U_G01_2 MINDN_G01_2 1.0
    U_G01_2 LOGIC_G01_3 -1.0
    U_G01_2 RES_2 82.8508553709822
    V_G01_2 OBJ 2334.3842308822377
    V_G01_2 LOGIC_G01_2 -1.0
    V_G01_2 MINUP_G01_2 1.0
    V_G01_2 MINUP_G01_3 1.0
    V_G01_2 MINUP_G01_4 1.0
    V_G01_2 MINUP_G01_5 1.0
    W_G01_2 LOGIC_G01_2 1.0
    W_G01_2 MINDN_G01_2 1.0
    W_G01_2 MINDN_G01_3 1.0
    W_G01_2 MINDN_G01_4 1.0
    M2421 'MARKER' 'INTEND'
    P_G01_2 OBJ 52.609429676394136
    P_G01_2 PMIN_G01_2 1.0
    P_G01_2 PMAX_G01_2 1.0
    P_G01_2 RUP_G01_2 1.0
    P_G01_2 RDN_G01_2 -1.0
    P_G01_2 RUP_G01_3 -1.0
    P_G01_2 RDN_G01_3 1.0
    P_G01_2 DEM_2 1.0
    M2430 'MARKER' 'INTORG'
    U_G01_3 OBJ 201.46847376676868
    U_G01_3 PMIN_G01_3 -25.32497914678607
    U_G01_3 PMAX_G01_3 -82.8508553709822
    U_G01_3 LOGIC_G01_3 1.0
    U_G01_3 MINUP_G01_3 -1.0
    U_G01_3 MINDN_G01_3 1.0
    U_G01_3 LOGIC_G01_4 -1.0
    U_G01_3 RES_3 82.8508553709822
    V_G01_3 OBJ 2334.3842308822377
    V_G01_3 LOGIC_G01_3 -1.0
    V_G01_3 MINUP_G01_3 1.0
    V_G01_3 MINUP_G01_4 1.0
    V_G01_3 MINUP_G01_5 1.0
    V_G01_3 MINUP_G01_6 1.0
    W_G01_3 LOGIC_G01_3 1.0
    W_G01_3 MINDN_G01_3 1.0
    W_G01_3 MINDN_G01_4 1.0
    W_G01_3 MINDN_G01_5 1.0
    M2449 'MARKER' 'INTEND'
    P_G01_3 OBJ 52.609429676394136
    P_G01_3 PMIN_G01_3 1.0
    P_G01_3 PMAX_G01_3 1.0
    P_G01_3 RUP_G01_3 1.0
    P_G01_3 RDN_G01_3 -1.0
    P_G01_3 RUP_G01_4 -1.0
    P_G01_3 RDN_G01_4 1.0
    P_G01_3 DEM_3 1.0
    M2458 'MARKER' 'INTORG'
    U_G01_4 OBJ 201.46847376676868
    U_G01_4 PMIN_G01_4 -25.32497914678607
    U_G01_4 PMAX_G01_4 -82.8508553709822
    U_G01_4 LOGIC_G01_4 1.0
    U_G01_4 MINUP_G01_4 -1.0
    U_G01_4 MINDN_G01_4 1.0
    U_G01_4 LOGIC_G01_5 -1.0
    U_G01_4 RES_4 82.8508553709822
    V_G01_4 OBJ 2334.3842308822377
    V_G01_4 LOGIC_G01_4 -1.0
    V_G01_4 MINUP_G01_4 1.0
    V_G01_4 MINUP_G01_5 1.0
    V_G01_4 MINUP_G01_6 1.0
    V_G01_4 MINUP_G01_7 1.0
    W_G01_4 LOGIC_G01_4 1.0
    W_G01_4 MINDN_G01_4 1.0
    W_G01_4 MINDN_G01_5 1.0
    W_G01_4 MINDN_G01_6 1.0
    M2477 'MARKER' 'INTEND'
    P_G01_4 OBJ 52.609429676394136
    P_G01_4 PMIN_G01_4 1.0
    P_G01_4 PMAX_G01_4 1.0
    P_G01_4 RUP_G01_4 1.0
    P_G01_4 RDN_G01_4 -1.0
    P_G01_4 RUP_G01_5 -1.0
    P_G01_4 RDN_G01_5 1.0
    P_G01_4 DEM_4 1.0
    M2486 'MARKER' 'INTORG'
    U_G01_5 OBJ 201.46847376676868
    U_G01_5 PMIN_G01_5 -25.32497914678607
    U_G01_5 PMAX_G01_5 -82.8508553709822
    U_G01_5 LOGIC_G01_5 1.0
    U_G01_5 MINUP_G01_5 -1.0
    U_G01_5 MINDN_G01_5 1.0
    U_G01_5 LOGIC_G01_6 -1.0
    U_G01_5 RES_5 82.8508553709822
    V_G01_5 OBJ 2334.3842308822377
    V_G01_5 LOGIC_G01_5 -1.0
    V_G01_5 MINUP_G01_5 1.0
    V_G01_5 MINUP_G01_6 1.0
    V_G01_5 MINUP_G01_7 1.0
    V_G01_5 MINUP_G01_8 1.0
    W_G01_5 LOGIC_G01_5 1.0
    W_G01_5 MINDN_G01_5 1.0
    W_G01_5 MINDN_G01_6 1.0
    W_G01_5 MINDN_G01_7 1.0
    M2505 'MARKER' 'INTEND'
    P_G01_5 OBJ 52.609429676394136
    P_G01_5 PMIN_G01_5 1.0
    P_G01_5 PMAX_G01_5 1.0
    P_G01_5 RUP_G01_5 1.0
    P_G01_5 RDN_G01_5 -1.0
    P_G01_5 RUP_G01_6 -1.0
    P_G01_5 RDN_G01_6 1.0
    P_G01_5 DEM_5 1.0
    M2514 'MARKER' 'INTORG'
    U_G01_6 OBJ 201.46847376676868
    U_G01_6 PMIN_G01_6 -25.32497914678607
    U_G01_6 PMAX_G01_6 -82.8508553709822
    U_G01_6 LOGIC_G01_6 1.0
    U_G01_6 MINUP_G01_6 -1.0
    U_G01_6 MINDN_G01_6 1.0
    U_G01_6 LOGIC_G01_7 -1.0
    U_G01_6 RES_6 82.8508553709822
    V_G01_6 OBJ 2334.3842308822377
    V_G01_6 LOGIC_G01_6 -1.0
    V_G01_6 MINUP_G01_6 1.0
    V_G01_6 MINUP_G01_7 1.0
    V_G01_6 MINUP_G01_8 1.0
    V_G01_6 MINUP_G01_9 1.0
    W_G01_6 LOGIC_G01_6 1.0
    W_G01_6 MINDN_G01_6 1.0
    W_G01_6 MINDN_G01_7 1.0
    W_G01_6 MINDN_G01_8 1.0
    M2533 'MARKER' 'INTEND'
    P_G01_6 OBJ 52.609429676394136
    P_G01_6 PMIN_G01_6 1.0
    P_G01_6 PMAX_G01_6 1.0
    P_G01_6 RUP_G01_6 1.0
    P_G01_6 RDN_G01_6 -1.0
    P_G01_6 RUP_G01_7 -1.0
    P_G01_6 RDN_G01_7 1.0
    P_G01_6 DEM_6 1.0
    M2542 'MARKER' 'INTORG'
    U_G01_7 OBJ 201.46847376676868
    U_G01_7 PMIN_G01_7 -25.32497914678607
    U_G01_7 PMAX_G01_7 -82.8508553709822
    U_G01_7 LOGIC_G01_7 1.0
    U_G01_7 MINUP_G01_7 -1.0
    U_G01_7 MINDN_G01_7 1.0
    U_G01_7 LOGIC_G01_8 -1.0
    U_G01_7 RES_7 82.8508553709822
    V_G01_7 OBJ 2334.3842308822377
    V_G01_7 LOGIC_G01_7 -1.0
    V_G01_7 MINUP_G01_7 1.0
    V_G01_7 MINUP_G01_8 1.0
    V_G01_7 MINUP_G01_9 1.0
    V_G01_7 MINUP_G01_10 1.0
    W_G01_7 LOGIC_G01_7 1.0
    W_G01_7 MINDN_G01_7 1.0
    W_G01_7 MINDN_G01_8 1.0
    W_G01_7 MINDN_G01_9 1.0
    M2561 'MARKER' 'INTEND'
    P_G01_7 OBJ 52.609429676394136
    P_G01_7 PMIN_G01_7 1.0
    P_G01_7 PMAX_G01_7 1.0
    P_G01_7 RUP_G01_7 1.0
    P_G01_7 RDN_G01_7 -1.0
    P_G01_7 RUP_G01_8 -1.0
    P_G01_7 RDN_G01_8 1.0
    P_G01_7 DEM_7 1.0
    M2570 'MARKER' 'INTORG'
    U_G01_8 OBJ 201.46847376676868
    U_G01_8 PMIN_G01_8 -25.32497914678607
    U_G01_8 PMAX_G01_8 -82.8508553709822
    U_G01_8 LOGIC_G01_8 1.0
    U_G01_8 MINUP_G01_8 -1.0
    U_G01_8 MINDN_G01_8 1.0
    U_G01_8 LOGIC_G01_9 -1.0
    U_G01_8 RES_8 82.8508553709822
    V_G01_8 OBJ 2334.3842308822377
    V_G01_8 LOGIC_G01_8 -1.0
    V_G01_8 MINUP_G01_8 1.0
    V_G01_8 MINUP_G01_9 1.0
    V_G01_8 MINUP_G01_10 1.0
    V_G01_8 MINUP_G01_11 1.0
    W_G01_8 LOGIC_G01_8 1.0
    W_G01_8 MINDN_G01_8 1.0
    W_G01_8 MINDN_G01_9 1.0
    W_G01_8 MINDN_G01_10 1.0
    M2589 'MARKER' 'INTEND'
    P_G01_8 OBJ 52.609429676394136
    P_G01_8 PMIN_G01_8 1.0
    P_G01_8 PMAX_G01_8 1.0
    P_G01_8 RUP_G01_8 1.0
    P_G01_8 RDN_G01_8 -1.0
    P_G01_8 RUP_G01_9 -1.0
    P_G01_8 RDN_G01_9 1.0
    P_G01_8 DEM_8 1.0
    M2598 'MARKER' 'INTORG'
    U_G01_9 OBJ 201.46847376676868
    U_G01_9 PMIN_G01_9 -25.32497914678607
    U_G01_9 PMAX_G01_9 -82.8508553709822
    U_G01_9 LOGIC_G01_9 1.0
    U_G01_9 MINUP_G01_9 -1.0
    U_G01_9 MINDN_G01_9 1.0
    U_G01_9 LOGIC_G01_10 -1.0
    U_G01_9 RES_9 82.8508553709822
    V_G01_9 OBJ 2334.3842308822377
    V_G01_9 LOGIC_G01_9 -1.0
    V_G01_9 MINUP_G01_9 1.0
    V_G01_9 MINUP_G01_10 1.0
    V_G01_9 MINUP_G01_11 1.0
    V_G01_9 MINUP_G01_12 1.0
    W_G01_9 LOGIC_G01_9 1.0
    W_G01_9 MINDN_G01_9 1.0
    W_G01_9 MINDN_G01_10 1.0
    W_G01_9 MINDN_G01_11 1.0
    M2617 'MARKER' 'INTEND'
    P_G01_9 OBJ 52.609429676394136
    P_G01_9 PMIN_G01_9 1.0
    P_G01_9 PMAX_G01_9 1.0
    P_G01_9 RUP_G01_9 1.0
    P_G01_9 RDN_G01_9 -1.0
    P_G01_9 RUP_G01_10 -1.0
    P_G01_9 RDN_G01_10 1.0
    P_G01_9 DEM_9 1.0
    M2626 'MARKER' 'INTORG'
    U_G01_10 OBJ 201.46847376676868
    U_G01_10 PMIN_G01_10 -25.32497914678607
    U_G01_10 PMAX_G01_10 -82.8508553709822
    U_G01_10 LOGIC_G01_10 1.0
    U_G01_10 MINUP_G01_10 -1.0
    U_G01_10 MINDN_G01_10 1.0
    U_G01_10 LOGIC_G01_11 -1.0
    U_G01_10 RES_10 82.8508553709822
    V_G01_10 OBJ 2334.3842308822377
    V_G01_10 LOGIC_G01_10 -1.0
    V_G01_10 MINUP_G01_10 1.0
    V_G01_10 MINUP_G01_11 1.0
    V_G01_10 MINUP_G01_12 1.0
    V_G01_10 MINUP_G01_13 1.0
    W_G01_10 LOGIC_G01_10 1.0
    W_G01_10 MINDN_G01_10 1.0
    W_G01_10 MINDN_G01_11 1.0
    W_G01_10 MINDN_G01_12 1.0
    M2645 'MARKER' 'INTEND'
    P_G01_10 OBJ 52.609429676394136
    P_G01_10 PMIN_G01_10 1.0
    P_G01_10 PMAX_G01_10 1.0
    P_G01_10 RUP_G01_10 1.0
    P_G01_10 RDN_G01_10 -1.0
    P_G01_10 RUP_G01_11 -1.0
    P_G01_10 RDN_G01_11 1.0
    P_G01_10 DEM_10 1.0
    M2654 'MARKER' 'INTORG'
    U_G01_11 OBJ 201.46847376676868
    U_G01_11 PMIN_G01_11 -25.32497914678607
    U_G01_11 PMAX_G01_11 -82.8508553709822
    U_G01_11 LOGIC_G01_11 1.0
    U_G01_11 MINUP_G01_11 -1.0
    U_G01_11 MINDN_G01_11 1.0
    U_G01_11 LOGIC_G01_12 -1.0
    U_G01_11 RES_11 82.8508553709822
    V_G01_11 OBJ 2334.3842308822377
    V_G01_11 LOGIC_G01_11 -1.0
    V_G01_11 MINUP_G01_11 1.0
    V_G01_11 MINUP_G01_12 1.0
    V_G01_11 MINUP_G01_13 1.0
    V_G01_11 MINUP_G01_14 1.0
    W_G01_11 LOGIC_G01_11 1.0
    W_G01_11 MINDN_G01_11 1.0
    W_G01_11 MINDN_G01_12 1.0
    W_G01_11 MINDN_G01_13 1.0
    M2673 'MARKER' 'INTEND'
    P_G01_11 OBJ 52.609429676394136
    P_G01_11 PMIN_G01_11 1.0
    P_G01_11 PMAX_G01_11 1.0
    P_G01_11 RUP_G01_11 1.0
    P_G01_11 RDN_G01_11 -1.0
    P_G01_11 RUP_G01_12 -1.0
    P_G01_11 RDN_G01_12 1.0
    P_G01_11 DEM_11 1.0
    M2682 'MARKER' 'INTORG'
    U_G01_12 OBJ 201.46847376676868
    U_G01_12 PMIN_G01_12 -25.32497914678607
    U_G01_12 PMAX_G01_12 -82.8508553709822
    U_G01_12 LOGIC_G01_12 1.0
    U_G01_12 MINUP_G01_12 -1.0
    U_G01_12 MINDN_G01_12 1.0
    U_G01_12 LOGIC_G01_13 -1.0
    U_G01_12 RES_12 82.8508553709822
    V_G01_12 OBJ 2334.3842308822377
    V_G01_12 LOGIC_G01_12 -1.0
    V_G01_12 MINUP_G01_12 1.0
    V_G01_12 MINUP_G01_13 1.0
    V_G01_12 MINUP_G01_14 1.0
    V_G01_12 MINUP_G01_15 1.0
    W_G01_12 LOGIC_G01_12 1.0
    W_G01_12 MINDN_G01_12 1.0
    W_G01_12 MINDN_G01_13 1.0
    W_G01_12 MINDN_G01_14 1.0
    M2701 'MARKER' 'INTEND'
    P_G01_12 OBJ 52.609429676394136
    P_G01_12 PMIN_G01_12 1.0
    P_G01_12 PMAX_G01_12 1.0
    P_G01_12 RUP_G01_12 1.0
    P_G01_12 RDN_G01_12 -1.0
    P_G01_12 RUP_G01_13 -1.0
    P_G01_12 RDN_G01_13 1.0
    P_G01_12 DEM_12 1.0
    M2710 'MARKER' 'INTORG'
    U_G01_13 OBJ 201.46847376676868
    U_G01_13 PMIN_G01_13 -25.32497914678607
    U_G01_13 PMAX_G01_13 -82.8508553709822
    U_G01_13 LOGIC_G01_13 1.0
    U_G01_13 MINUP_G01_13 -1.0
    U_G01_13 MINDN_G01_13 1.0
    U_G01_13 LOGIC_G01_14 -1.0
    U_G01_13 RES_13 82.8508553709822
    V_G01_13 OBJ 2334.3842308822377
    V_G01_13 LOGIC_G01_13 -1.0
    V_G01_13 MINUP_G01_13 1.0
    V_G01_13 MINUP_G01_14 1.0
    V_G01_13 MINUP_G01_15 1.0
    V_G01_13 MINUP_G01_16 1.0
    W_G01_13 LOGIC_G01_13 1.0
    W_G01_13 MINDN_G01_13 1.0
    W_G01_13 MINDN_G01_14 1.0
    W_G01_13 MINDN_G01_15 1.0
    M2729 'MARKER' 'INTEND'
    P_G01_13 OBJ 52.609429676394136
    P_G01_13 PMIN_G01_13 1.0
    P_G01_13 PMAX_G01_13 1.0
    P_G01_13 RUP_G01_13 1.0
    P_G01_13 RDN_G01_13 -1.0
    P_G01_13 RUP_G01_14 -1.0
    P_G01_13 RDN_G01_14 1.0
    P_G01_13 DEM_13 1.0
    M2738 'MARKER' 'INTORG'
    U_G01_14 OBJ 201.46847376676868
    U_G01_14 PMIN_G01_14 -25.32497914678607
    U_G01_14 PMAX_G01_14 -82.8508553709822
    U_G01_14 LOGIC_G01_14 1.0
    U_G01_14 MINUP_G01_14 -1.0
    U_G01_14 MINDN_G01_14 1.0
    U_G01_14 LOGIC_G01_15 -1.0
    U_G01_14 RES_14 82.8508553709822
    V_G01_14 OBJ 2334.3842308822377
    V_G01_14 LOGIC_G01_14 -1.0
    V_G01_14 MINUP_G01_14 1.0
    V_G01_14 MINUP_G01_15 1.0
    V_G01_14 MINUP_G01_16 1.0
    V_G01_14 MINUP_G01_17 1.0
    W_G01_14 LOGIC_G01_14 1.0
    W_G01_14 MINDN_G01_14 1.0
    W_G01_14 MINDN_G01_15 1.0
    W_G01_14 MINDN_G01_16 1.0
    M2757 'MARKER' 'INTEND'
    P_G01_14 OBJ 52.609429676394136
    P_G01_14 PMIN_G01_14 1.0
    P_G01_14 PMAX_G01_14 1.0
    P_G01_14 RUP_G01_14 1.0
    P_G01_14 RDN_G01_14 -1.0
    P_G01_14 RUP_G01_15 -1.0
    P_G01_14 RDN_G01_15 1.0
    P_G01_14 DEM_14 1.0
    M2766 'MARKER' 'INTORG'
    U_G01_15 OBJ 201.46847376676868
    U_G01_15 PMIN_G01_15 -25.32497914678607
    U_G01_15 PMAX_G01_15 -82.8508553709822
    U_G01_15 LOGIC_G01_15 1.0
    U_G01_15 MINUP_G01_15 -1.0
    U_G01_15 MINDN_G01_15 1.0
    U_G01_15 LOGIC_G01_16 -1.0
    U_G01_15 RES_15 82.8508553709822
    V_G01_15 OBJ 2334.3842308822377
    V_G01_15 LOGIC_G01_15 -1.0
    V_G01_15 MINUP_G01_15 1.0
    V_G01_15 MINUP_G01_16 1.0
    V_G01_15 MINUP_G01_17 1.0
    V_G01_15 MINUP_G01_18 1.0
    W_G01_15 LOGIC_G01_15 1.0
    W_G01_15 MINDN_G01_15 1.0
    W_G01_15 MINDN_G01_16 1.0
    W_G01_15 MINDN_G01_17 1.0
    M2785 'MARKER' 'INTEND'
    P_G01_15 OBJ 52.609429676394136
    P_G01_15 PMIN_G01_15 1.0
    P_G01_15 PMAX_G01_15 1.0
    P_G01_15 RUP_G01_15 1.0
    P_G01_15 RDN_G01_15 -1.0
    P_G01_15 RUP_G01_16 -1.0
    P_G01_15 RDN_G01_16 1.0
    P_G01_15 DEM_15 1.0
    M2794 'MARKER' 'INTORG'
    U_G01_16 OBJ 201.46847376676868
    U_G01_16 PMIN_G01_16 -25.32497914678607
    U_G01_16 PMAX_G01_16 -82.8508553709822
    U_G01_16 LOGIC_G01_16 1.0
    U_G01_16 MINUP_G01_16 -1.0
    U_G01_16 MINDN_G01_16 1.0
    U_G01_16 LOGIC_G01_17 -1.0
    U_G01_16 RES_16 82.8508553709822
    V_G01_16 OBJ 2334.3842308822377
    V_G01_16 LOGIC_G01_16 -1.0
    V_G01_16 MINUP_G01_16 1.0
    V_G01_16 MINUP_G01_17 1.0
    V_G01_16 MINUP_G01_18 1.0
    V_G01_16 MINUP_G01_19 1.0
    W_G01_16 LOGIC_G01_16 1.0
    W_G01_16 MINDN_G01_16 1.0
    W_G01_16 MINDN_G01_17 1.0
    W_G01_16 MINDN_G01_18 1.0
    M2813 'MARKER' 'INTEND'
    P_G01_16 OBJ 52.609429676394136
    P_G01_16 PMIN_G01_16 1.0
    P_G01_16 PMAX_G01_16 1.0
    P_G01_16 RUP_G01_16 1.0
    P_G01_16 RDN_G01_16 -1.0
    P_G01_16 RUP_G01_17 -1.0
    P_G01_16 RDN_G01_17 1.0
    P_G01_16 DEM_16 1.0
    M2822 'MARKER' 'INTORG'
    U_G01_17 OBJ 201.46847376676868
    U_G01_17 PMIN_G01_17 -25.32497914678607
    U_G01_17 PMAX_G01_17 -82.8508553709822
    U_G01_17 LOGIC_G01_17 1.0
    U_G01_17 MINUP_G01_17 -1.0
    U_G01_17 MINDN_G01_17 1.0
    U_G01_17 LOGIC_G01_18 -1.0
    U_G01_17 RES_17 82.8508553709822
    V_G01_17 OBJ 2334.3842308822377
    V_G01_17 LOGIC_G01_17 -1.0
    V_G01_17 MINUP_G01_17 1.0
    V_G01_17 MINUP_G01_18 1.0
    V_G01_17 MINUP_G01_19 1.0
    V_G01_17 MINUP_G01_20 1.0
    W_G01_17 LOGIC_G01_17 1.0
    W_G01_17 MINDN_G01_17 1.0
    W_G01_17 MINDN_G01_18 1.0
    W_G01_17 MINDN_G01_19 1.0
    M2841 'MARKER' 'INTEND'
    P_G01_17 OBJ 52.609429676394136
    P_G01_17 PMIN_G01_17 1.0
    P_G01_17 PMAX_G01_17 1.0
    P_G01_17 RUP_G01_17 1.0
    P_G01_17 RDN_G01_17 -1.0
    P_G01_17 RUP_G01_18 -1.0
    P_G01_17 RDN_G01_18 1.0
    P_G01_17 DEM_17 1.0
    M2850 'MARKER' 'INTORG'
    U_G01_18 OBJ 201.46847376676868
    U_G01_18 PMIN_G01_18 -25.32497914678607
    U_G01_18 PMAX_G01_18 -82.8508553709822
    U_G01_18 LOGIC_G01_18 1.0
    U_G01_18 MINUP_G01_18 -1.0
    U_G01_18 MINDN_G01_18 1.0
    U_G01_18 LOGIC_G01_19 -1.0
    U_G01_18 RES_18 82.8508553709822
    V_G01_18 OBJ 2334.3842308822377
    V_G01_18 LOGIC_G01_18 -1.0
    V_G01_18 MINUP_G01_18 1.0
    V_G01_18 MINUP_G01_19 1.0
    V_G01_18 MINUP_G01_20 1.0
    V_G01_18 MINUP_G01_21 1.0
    W_G01_18 LOGIC_G01_18 1.0
    W_G01_18 MINDN_G01_18 1.0
    W_G01_18 MINDN_G01_19 1.0
    W_G01_18 MINDN_G01_20 1.0
    M2869 'MARKER' 'INTEND'
    P_G01_18 OBJ 52.609429676394136
    P_G01_18 PMIN_G01_18 1.0
    P_G01_18 PMAX_G01_18 1.0
    P_G01_18 RUP_G01_18 1.0
    P_G01_18 RDN_G01_18 -1.0
    P_G01_18 RUP_G01_19 -1.0
    P_G01_18 RDN_G01_19 1.0
    P_G01_18 DEM_18 1.0
    M2878 'MARKER' 'INTORG'
    U_G01_19 OBJ 201.46847376676868
    U_G01_19 PMIN_G01_19 -25.32497914678607
    U_G01_19 PMAX_G01_19 -82.8508553709822
    U_G01_19 LOGIC_G01_19 1.0
    U_G01_19 MINUP_G01_19 -1.0
    U_G01_19 MINDN_G01_19 1.0
    U_G01_19 LOGIC_G01_20 -1.0
    U_G01_19 RES_19 82.8508553709822
    V_G01_19 OBJ 2334.3842308822377
    V_G01_19 LOGIC_G01_19 -1.0
    V_G01_19 MINUP_G01_19 1.0
    V_G01_19 MINUP_G01_20 1.0
    V_G01_19 MINUP_G01_21 1.0
    V_G01_19 MINUP_G01_22 1.0
    W_G01_19 LOGIC_G01_19 1.0
    W_G01_19 MINDN_G01_19 1.0
    W_G01_19 MINDN_G01_20 1.0
    W_G01_19 MINDN_G01_21 1.0
    M2897 'MARKER' 'INTEND'
    P_G01_19 OBJ 52.609429676394136
    P_G01_19 PMIN_G01_19 1.0
    P_G01_19 PMAX_G01_19 1.0
    P_G01_19 RUP_G01_19 1.0
    P_G01_19 RDN_G01_19 -1.0
    P_G01_19 RUP_G01_20 -1.0
    P_G01_19 RDN_G01_20 1.0
    P_G01_19 DEM_19 1.0
    M2906 'MARKER' 'INTORG'
    U_G01_20 OBJ 201.46847376676868
    U_G01_20 PMIN_G01_20 -25.32497914678607
    U_G01_20 PMAX_G01_20 -82.8508553709822
    U_G01_20 LOGIC_G01_20 1.0
    U_G01_20 MINUP_G01_20 -1.0
    U_G01_20 MINDN_G01_20 1.0
    U_G01_20 LOGIC_G01_21 -1.0
    U_G01_20 RES_20 82.8508553709822
    V_G01_20 OBJ 2334.3842308822377
    V_G01_20 LOGIC_G01_20 -1.0
    V_G01_20 MINUP_G01_20 1.0
    V_G01_20 MINUP_G01_21 1.0
    V_G01_20 MINUP_G01_22 1.0
    V_G01_20 MINUP_G01_23 1.0
    W_G01_20 LOGIC_G01_20 1.0
    W_G01_20 MINDN_G01_20 1.0
    W_G01_20 MINDN_G01_21 1.0
    W_G01_20 MINDN_G01_22 1.0
    M2925 'MARKER' 'INTEND'
    P_G01_20 OBJ 52.609429676394136
    P_G01_20 PMIN_G01_20 1.0
    P_G01_20 PMAX_G01_20 1.0
    P_G01_20 RUP_G01_20 1.0
    P_G01_20 RDN_G01_20 -1.0
    P_G01_20 RUP_G01_21 -1.0
    P_G01_20 RDN_G01_21 1.0
    P_G01_20 DEM_20 1.0
    M2934 'MARKER' 'INTORG'
    U_G01_21 OBJ 201.46847376676868
    U_G01_21 PMIN_G01_21 -25.32497914678607
    U_G01_21 PMAX_G01_21 -82.8508553709822
    U_G01_21 LOGIC_G01_21 1.0
    U_G01_21 MINUP_G01_21 -1.0
    U_G01_21 MINDN_G01_21 1.0
    U_G01_21 LOGIC_G01_22 -1.0
    U_G01_21 RES_21 82.8508553709822
    V_G01_21 OBJ 2334.3842308822377
    V_G01_21 LOGIC_G01_21 -1.0
    V_G01_21 MINUP_G01_21 1.0
    V_G01_21 MINUP_G01_22 1.0
    V_G01_21 MINUP_G01_23 1.0
    W_G01_21 LOGIC_G01_21 1.0
    W_G01_21 MINDN_G01_21 1.0
    W_G01_21 MINDN_G01_22 1.0
    W_G01_21 MINDN_G01_23 1.0
    M2952 'MARKER' 'INTEND'
    P_G01_21 OBJ 52.609429676394136
    P_G01_21 PMIN_G01_21 1.0
    P_G01_21 PMAX_G01_21 1.0
    P_G01_21 RUP_G01_21 1.0
    P_G01_21 RDN_G01_21 -1.0
    P_G01_21 RUP_G01_22 -1.0
    P_G01_21 RDN_G01_22 1.0
    P_G01_21 DEM_21 1.0
    M2961 'MARKER' 'INTORG'
    U_G01_22 OBJ 201.46847376676868
    U_G01_22 PMIN_G01_22 -25.32497914678607
    U_G01_22 PMAX_G01_22 -82.8508553709822
    U_G01_22 LOGIC_G01_22 1.0
    U_G01_22 MINUP_G01_22 -1.0
    U_G01_22 MINDN_G01_22 1.0
    U_G01_22 LOGIC_G01_23 -1.0
    U_G01_22 RES_22 82.8508553709822
    V_G01_22 OBJ 2334.3842308822377
    V_G01_22 LOGIC_G01_22 -1.0
    V_G01_22 MINUP_G01_22 1.0
    V_G01_22 MINUP_G01_23 1.0
    W_G01_22 LOGIC_G01_22 1.0
    W_G01_22 MINDN_G01_22 1.0
    W_G01_22 MINDN_G01_23 1.0
    M2977 'MARKER' 'INTEND'
    P_G01_22 OBJ 52.609429676394136
    P_G01_22 PMIN_G01_22 1.0
    P_G01_22 PMAX_G01_22 1.0
    P_G01_22 RUP_G01_22 1.0
    P_G01_22 RDN_G01_22 -1.0
    P_G01_22 RUP_G01_23 -1.0
    P_G01_22 RDN_G01_23 1.0
    P_G01_22 DEM_22 1.0
    M2986 'MARKER' 'INTORG'
    U_G01_23 OBJ 201.46847376676868
    U_G01_23 PMIN_G01_23 -25.32497914678607
    U_G01_23 PMAX_G01_23 -82.8508553709822
    U_G01_23 LOGIC_G01_23 1.0
    U_G01_23 MINUP_G01_23 -1.0
    U_G01_23 MINDN_G01_23 1.0
    U_G01_23 RES_23 82.8508553709822
    V_G01_23 OBJ 2334.3842308822377
    V_G01_23 LOGIC_G01_23 -1.0
    V_G01_23 MINUP_G01_23 1.0
    W_G01_23 LOGIC_G01_23 1.0
    W_G01_23 MINDN_G01_23 1.0
    M2999 'MARKER' 'INTEND'
    P_G01_23 OBJ 52.609429676394136
    P_G01_23 PMIN_G01_23 1.0
    P_G01_23 PMAX_G01_23 1.0
    P_G01_23 RUP_G01_23 1.0
    P_G01_23 RDN_G01_23 -1.0
    P_G01_23 DEM_23 1.0
    M3006 'MARKER' 'INTORG'
    U_G02_0 OBJ 365.49961016401926
    U_G02_0 PMIN_G02_0 -104.60360264585489
    U_G02_0 PMAX_G02_0 -302.53901131927387
    U_G02_0 LOGIC_G02_0 1.0
    U_G02_0 MINUP_G02_0 -1.0
    U_G02_0 MINDN_G02_0 1.0
    U_G02_0 LOGIC_G02_1 -1.0
    U_G02_0 RES_0 302.53901131927387
    V_G02_0 OBJ 285.6519524939499
    V_G02_0 LOGIC_G02_0 -1.0
    V_G02_0 MINUP_G02_0 1.0
    V_G02_0 MINUP_G02_1 1.0
    V_G02_0 MINUP_G02_2 1.0
    V_G02_0 MINUP_G02_3 1.0
    V_G02_0 MINUP_G02_4 1.0
    W_G02_0 LOGIC_G02_0 1.0
    W_G02_0 MINDN_G02_0 1.0
    M3024 'MARKER' 'INTEND'
    P_G02_0 OBJ 57.5371812999265
    P_G02_0 PMIN_G02_0 1.0
    P_G02_0 PMAX_G02_0 1.0
    P_G02_0 RUP_G02_1 -1.0
    P_G02_0 RDN_G02_1 1.0
    P_G02_0 DEM_0 1.0
    M3031 'MARKER' 'INTORG'
    U_G02_1 OBJ 365.49961016401926
    U_G02_1 PMIN_G02_1 -104.60360264585489
    U_G02_1 PMAX_G02_1 -302.53901131927387
    U_G02_1 LOGIC_G02_1 1.0
    U_G02_1 MINUP_G02_1 -1.0
    U_G02_1 MINDN_G02_1 1.0
    U_G02_1 LOGIC_G02_2 -1.0
    U_G02_1 RES_1 302.53901131927387
    V_G02_1 OBJ 285.6519524939499
    V_G02_1 LOGIC_G02_1 -1.0
    V_G02_1 MINUP_G02_1 1.0
    V_G02_1 MINUP_G02_2 1.0
    V_G02_1 MINUP_G02_3 1.0
    V_G02_1 MINUP_G02_4 1.0
    V_G02_1 MINUP_G02_5 1.0
    W_G02_1 LOGIC_G02_1 1.0
    W_G02_1 MINDN_G02_1 1.0
    M3049 'MARKER' 'INTEND'
    P_G02_1 OBJ 57.5371812999265
    P_G02_1 PMIN_G02_1 1.0
    P_G02_1 PMAX_G02_1 1.0
    P_G02_1 RUP_G02_1 1.0
    P_G02_1 RDN_G02_1 -1.0
    P_G02_1 RUP_G02_2 -1.0
    P_G02_1 RDN_G02_2 1.0
    P_G02_1 DEM_1 1.0
    M3058 'MARKER' 'INTORG'
    U_G02_2 OBJ 365.49961016401926
    U_G02_2 PMIN_G02_2 -104.60360264585489
    U_G02_2 PMAX_G02_2 -302.53901131927387
    U_G02_2 LOGIC_G02_2 1.0
    U_G02_2 MINUP_G02_2 -1.0
    U_G02_2 MINDN_G02_2 1.0
    U_G02_2 LOGIC_G02_3 -1.0
    U_G02_2 RES_2 302.53901131927387
    V_G02_2 OBJ 285.6519524939499
    V_G02_2 LOGIC_G02_2 -1.0
    V_G02_2 MINUP_G02_2 1.0
    V_G02_2 MINUP_G02_3 1.0
    V_G02_2 MINUP_G02_4 1.0
    V_G02_2 MINUP_G02_5 1.0
    V_G02_2 MINUP_G02_6 1.0
    W_G02_2 LOGIC_G02_2 1.0
    W_G02_2 MINDN_G02_2 1.0
    M3076 'MARKER' 'INTEND'
    P_G02_2 OBJ 57.5371812999265
    P_G02_2 PMIN_G02_2 1.0
    P_G02_2 PMAX_G02_2 1.0
    P_G02_2 RUP_G02_2 1.0
    P_G02_2 RDN_G02_2 -1.0
    P_G02_2 RUP_G02_3 -1.0
    P_G02_2 RDN_G02_3 1.0
    P_G02_2 DEM_2 1.0
    M3085 'MARKER' 'INTORG'
    U_G02_3 OBJ 365.49961016401926
    U_G02_3 PMIN_G02_3 -104.60360264585489
    U_G02_3 PMAX_G02_3 -302.53901131927387
    U_G02_3 LOGIC_G02_3 1.0
    U_G02_3 MINUP_G02_3 -1.0
    U_G02_3 MINDN_G02_3 1.0
    U_G02_3 LOGIC_G02_4 -1.0
    U_G02_3 RES_3 302.53901131927387
    V_G02_3 OBJ 285.6519524939499
    V_G02_3 LOGIC_G02_3 -1.0
    V_G02_3 MINUP_G02_3 1.0
    V_G02_3 MINUP_G02_4 1.0
    V_G02_3 MINUP_G02_5 1.0
    V_G02_3 MINUP_G02_6 1.0
    V_G02_3 MINUP_G02_7 1.0
    W_G02_3 LOGIC_G02_3 1.0
    W_G02_3 MINDN_G02_3 1.0
    M3103 'MARKER' 'INTEND'
    P_G02_3 OBJ 57.5371812999265
    P_G02_3 PMIN_G02_3 1.0
    P_G02_3 PMAX_G02_3 1.0
    P_G02_3 RUP_G02_3 1.0
    P_G02_3 RDN_G02_3 -1.0
    P_G02_3 RUP_G02_4 -1.0
    P_G02_3 RDN_G02_4 1.0
    P_G02_3 DEM_3 1.0
    M3112 'MARKER' 'INTORG'
    U_G02_4 OBJ 365.49961016401926
    U_G02_4 PMIN_G02_4 -104.60360264585489
    U_G02_4 PMAX_G02_4 -302.53901131927387
    U_G02_4 LOGIC_G02_4 1.0
    U_G02_4 MINUP_G02_4 -1.0
    U_G02_4 MINDN_G02_4 1.0
    U_G02_4 LOGIC_G02_5 -1.0
    U_G02_4 RES_4 302.53901131927387
    V_G02_4 OBJ 285.6519524939499
    V_G02_4 LOGIC_G02_4 -1.0
    V_G02_4 MINUP_G02_4 1.0
    V_G02_4 MINUP_G02_5 1.0
    V_G02_4 MINUP_G02_6 1.0
    V_G02_4 MINUP_G02_7 1.0
    V_G02_4 MINUP_G02_8 1.0
    W_G02_4 LOGIC_G02_4 1.0
    W_G02_4 MINDN_G02_4 1.0
    M3130 'MARKER' 'INTEND'
    P_G02_4 OBJ 57.5371812999265
    P_G02_4 PMIN_G02_4 1.0
    P_G02_4 PMAX_G02_4 1.0
    P_G02_4 RUP_G02_4 1.0
    P_G02_4 RDN_G02_4 -1.0
    P_G02_4 RUP_G02_5 -1.0
    P_G02_4 RDN_G02_5 1.0
    P_G02_4 DEM_4 1.0
    M3139 'MARKER' 'INTORG'
    U_G02_5 OBJ 365.49961016401926
    U_G02_5 PMIN_G02_5 -104.60360264585489
    U_G02_5 PMAX_G02_5 -302.53901131927387
    U_G02_5 LOGIC_G02_5 1.0
    U_G02_5 MINUP_G02_5 -1.0
    U_G02_5 MINDN_G02_5 1.0
    U_G02_5 LOGIC_G02_6 -1.0
    U_G02_5 RES_5 302.53901131927387
    V_G02_5 OBJ 285.6519524939499
    V_G02_5 LOGIC_G02_5 -1.0
    V_G02_5 MINUP_G02_5 1.0
    V_G02_5 MINUP_G02_6 1.0
    V_G02_5 MINUP_G02_7 1.0
    V_G02_5 MINUP_G02_8 1.0
    V_G02_5 MINUP_G02_9 1.0
    W_G02_5 LOGIC_G02_5 1.0
    W_G02_5 MINDN_G02_5 1.0
    M3157 'MARKER' 'INTEND'
    P_G02_5 OBJ 57.5371812999265
    P_G02_5 PMIN_G02_5 1.0
    P_G02_5 PMAX_G02_5 1.0
    P_G02_5 RUP_G02_5 1.0
    P_G02_5 RDN_G02_5 -1.0
    P_G02_5 RUP_G02_6 -1.0
    P_G02_5 RDN_G02_6 1.0
    P_G02_5 DEM_5 1.0
    M3166 'MARKER' 'INTORG'
    U_G02_6 OBJ 365.49961016401926
    U_G02_6 PMIN_G02_6 -104.60360264585489
    U_G02_6 PMAX_G02_6 -302.53901131927387
    U_G02_6 LOGIC_G02_6 1.0
    U_G02_6 MINUP_G02_6 -1.0
    U_G02_6 MINDN_G02_6 1.0
    U_G02_6 LOGIC_G02_7 -1.0
    U_G02_6 RES_6 302.53901131927387
    V_G02_6 OBJ 285.6519524939499
    V_G02_6 LOGIC_G02_6 -1.0
    V_G02_6 MINUP_G02_6 1.0
    V_G02_6 MINUP_G02_7 1.0
    V_G02_6 MINUP_G02_8 1.0
    V_G02_6 MINUP_G02_9 1.0
    V_G02_6 MINUP_G02_10 1.0
    W_G02_6 LOGIC_G02_6 1.0
    W_G02_6 MINDN_G02_6 1.0
    M3184 'MARKER' 'INTEND'
    P_G02_6 OBJ 57.5371812999265
    P_G02_6 PMIN_G02_6 1.0
    P_G02_6 PMAX_G02_6 1.0
    P_G02_6 RUP_G02_6 1.0
    P_G02_6 RDN_G02_6 -1.0
    P_G02_6 RUP_G02_7 -1.0
    P_G02_6 RDN_G02_7 1.0
    P_G02_6 DEM_6 1.0
    M3193 'MARKER' 'INTORG'
    U_G02_7 OBJ 365.49961016401926
    U_G02_7 PMIN_G02_7 -104.60360264585489
    U_G02_7 PMAX_G02_7 -302.53901131927387
    U_G02_7 LOGIC_G02_7 1.0
    U_G02_7 MINUP_G02_7 -1.0
    U_G02_7 MINDN_G02_7 1.0
    U_G02_7 LOGIC_G02_8 -1.0
    U_G02_7 RES_7 302.53901131927387
    V_G02_7 OBJ 285.6519524939499
    V_G02_7 LOGIC_G02_7 -1.0
    V_G02_7 MINUP_G02_7 1.0
    V_G02_7 MINUP_G02_8 1.0
    V_G02_7 MINUP_G02_9 1.0
    V_G02_7 MINUP_G02_10 1.0
    V_G02_7 MINUP_G02_11 1.0
    W_G02_7 LOGIC_G02_7 1.0
    W_G02_7 MINDN_G02_7 1.0
    M3211 'MARKER' 'INTEND'
    P_G02_7 OBJ 57.5371812999265
    P_G02_7 PMIN_G02_7 1.0
    P_G02_7 PMAX_G02_7 1.0
    P_G02_7 RUP_G02_7 1.0
    P_G02_7 RDN_G02_7 -1.0
    P_G02_7 RUP_G02_8 -1.0
    P_G02_7 RDN_G02_8 1.0
    P_G02_7 DEM_7 1.0
    M3220 'MARKER' 'INTORG'
    U_G02_8 OBJ 365.49961016401926
    U_G02_8 PMIN_G02_8 -104.60360264585489
    U_G02_8 PMAX_G02_8 -302.53901131927387
    U_G02_8 LOGIC_G02_8 1.0
    U_G02_8 MINUP_G02_8 -1.0
    U_G02_8 MINDN_G02_8 1.0
    U_G02_8 LOGIC_G02_9 -1.0
    U_G02_8 RES_8 302.53901131927387
    V_G02_8 OBJ 285.6519524939499
    V_G02_8 LOGIC_G02_8 -1.0
    V_G02_8 MINUP_G02_8 1.0
    V_G02_8 MINUP_G02_9 1.0
    V_G02_8 MINUP_G02_10 1.0
    V_G02_8 MINUP_G02_11 1.0
    V_G02_8 MINUP_G02_12 1.0
    W_G02_8 LOGIC_G02_8 1.0
    W_G02_8 MINDN_G02_8 1.0
    M3238 'MARKER' 'INTEND'
    P_G02_8 OBJ 57.5371812999265
    P_G02_8 PMIN_G02_8 1.0
    P_G02_8 PMAX_G02_8 1.0
    P_G02_8 RUP_G02_8 1.0
    P_G02_8 RDN_G02_8 -1.0
    P_G02_8 RUP_G02_9 -1.0
    P_G02_8 RDN_G02_9 1.0
    P_G02_8 DEM_8 1.0
    M3247 'MARKER' 'INTORG'
    U_G02_9 OBJ 365.49961016401926
    U_G02_9 PMIN_G02_9 -104.60360264585489
    U_G02_9 PMAX_G02_9 -302.53901131927387
    U_G02_9 LOGIC_G02_9 1.0
    U_G02_9 MINUP_G02_9 -1.0
    U_G02_9 MINDN_G02_9 1.0
    U_G02_9 LOGIC_G02_10 -1.0
    U_G02_9 RES_9 302.53901131927387
    V_G02_9 OBJ 285.6519524939499
    V_G02_9 LOGIC_G02_9 -1.0
    V_G02_9 MINUP_G02_9 1.0
    V_G02_9 MINUP_G02_10 1.0
    V_G02_9 MINUP_G02_11 1.0
    V_G02_9 MINUP_G02_12 1.0
    V_G02_9 MINUP_G02_13 1.0
    W_G02_9 LOGIC_G02_9 1.0
    W_G02_9 MINDN_G02_9 1.0
    M3265 'MARKER' 'INTEND'
    P_G02_9 OBJ 57.5371812999265
    P_G02_9 PMIN_G02_9 1.0
    P_G02_9 PMAX_G02_9 1.0
    P_G02_9 RUP_G02_9 1.0
    P_G02_9 RDN_G02_9 -1.0
    P_G02_9 RUP_G02_10 -1.0
    P_G02_9 RDN_G02_10 1.0
    P_G02_9 DEM_9 1.0
    M3274 'MARKER' 'INTORG'
    U_G02_10 OBJ 365.49961016401926
    U_G02_10 PMIN_G02_10 -104.60360264585489
    U_G02_10 PMAX_G02_10 -302.53901131927387
    U_G02_10 LOGIC_G02_10 1.0
    U_G02_10 MINUP_G02_10 -1.0
    U_G02_10 MINDN_G02_10 1.0
    U_G02_10 LOGIC_G02_11 -1.0
    U_G02_10 RES_10 302.53901131927387
    V_G02_10 OBJ 285.6519524939499
    V_G02_10 LOGIC_G02_10 -1.0
    V_G02_10 MINUP_G02_10 1.0
    V_G02_10 MINUP_G02_11 1.0
    V_G02_10 MINUP_G02_12 1.0
    V_G02_10 MINUP_G02_13 1.0
    V_G02_10 MINUP_G02_14 1.0
    W_G02_10 LOGIC_G02_10 1.0
    W_G02_10 MINDN_G02_10 1.0
    M3292 'MARKER' 'INTEND'
    P_G02_10 OBJ 57.5371812999265
    P_G02_10 PMIN_G02_10 1.0
    P_G02_10 PMAX_G02_10 1.0
    P_G02_10 RUP_G02_10 1.0
    P_G02_10 RDN_G02_10 -1.0
    P_G02_10 RUP_G02_11 -1.0
    P_G02_10 RDN_G02_11 1.0
    P_G02_10 DEM_10 1.0
    M3301 'MARKER' 'INTORG'
    U_G02_11 OBJ 365.49961016401926
    U_G02_11 PMIN_G02_11 -104.60360264585489
    U_G02_11 PMAX_G02_11 -302.53901131927387
    U_G02_11 LOGIC_G02_11 1.0
    U_G02_11 MINUP_G02_11 -1.0
    U_G02_11 MINDN_G02_11 1.0
    U_G02_11 LOGIC_G02_12 -1.0
    U_G02_11 RES_11 302.53901131927387
    V_G02_11 OBJ 285.6519524939499
    V_G02_11 LOGIC_G02_11 -1.0
    V_G02_11 MINUP_G02_11 1.0
    V_G02_11 MINUP_G02_12 1.0
    V_G02_11 MINUP_G02_13 1.0
    V_G02_11 MINUP_G02_14 1.0
    V_G02_11 MINUP_G02_15 1.0
    W_G02_11 LOGIC_G02_11 1.0
    W_G02_11 MINDN_G02_11 1.0
    M3319 'MARKER' 'INTEND'
    P_G02_11 OBJ 57.5371812999265
    P_G02_11 PMIN_G02_11 1.0
    P_G02_11 PMAX_G02_11 1.0
    P_G02_11 RUP_G02_11 1.0
    P_G02_11 RDN_G02_11 -1.0
    P_G02_11 RUP_G02_12 -1.0
    P_G02_11 RDN_G02_12 1.0
    P_G02_11 DEM_11 1.0
    M3328 'MARKER' 'INTORG'
    U_G02_12 OBJ 365.49961016401926
    U_G02_12 PMIN_G02_12 -104.60360264585489
    U_G02_12 PMAX_G02_12 -302.53901131927387
    U_G02_12 LOGIC_G02_12 1.0
    U_G02_12 MINUP_G02_12 -1.0
    U_G02_12 MINDN_G02_12 1.0
    U_G02_12 LOGIC_G02_13 -1.0
    U_G02_12 RES_12 302.53901131927387
    V_G02_12 OBJ 285.6519524939499
    V_G02_12 LOGIC_G02_12 -1.0
    V_G02_12 MINUP_G02_12 1.0
    V_G02_12 MINUP_G02_13 1.0
    V_G02_12 MINUP_G02_14 1.0
    V_G02_12 MINUP_G02_15 1.0
    V_G02_12 MINUP_G02_16 1.0
    W_G02_12 LOGIC_G02_12 1.0
    W_G02_12 MINDN_G02_12 1.0
    M3346 'MARKER' 'INTEND'
    P_G02_12 OBJ 57.5371812999265
    P_G02_12 PMIN_G02_12 1.0
    P_G02_12 PMAX_G02_12 1.0
    P_G02_12 RUP_G02_12 1.0
    P_G02_12 RDN_G02_12 -1.0
    P_G02_12 RUP_G02_13 -1.0
    P_G02_12 RDN_G02_13 1.0
    P_G02_12 DEM_12 1.0
    M3355 'MARKER' 'INTORG'
    U_G02_13 OBJ 365.49961016401926
    U_G02_13 PMIN_G02_13 -104.60360264585489
    U_G02_13 PMAX_G02_13 -302.53901131927387
    U_G02_13 LOGIC_G02_13 1.0
    U_G02_13 MINUP_G02_13 -1.0
    U_G02_13 MINDN_G02_13 1.0
    U_G02_13 LOGIC_G02_14 -1.0
    U_G02_13 RES_13 302.53901131927387
    V_G02_13 OBJ 285.6519524939499
    V_G02_13 LOGIC_G02_13 -1.0
    V_G02_13 MINUP_G02_13 1.0
    V_G02_13 MINUP_G02_14 1.0
    V_G02_13 MINUP_G02_15 1.0
    V_G02_13 MINUP_G02_16 1.0
    V_G02_13 MINUP_G02_17 1.0
    W_G02_13 LOGIC_G02_13 1.0
    W_G02_13 MINDN_G02_13 1.0
    M3373 'MARKER' 'INTEND'
    P_G02_13 OBJ 57.5371812999265
    P_G02_13 PMIN_G02_13 1.0
    P_G02_13 PMAX_G02_13 1.0
    P_G02_13 RUP_G02_13 1.0
    P_G02_13 RDN_G02_13 -1.0
    P_G02_13 RUP_G02_14 -1.0
    P_G02_13 RDN_G02_14 1.0
    P_G02_13 DEM_13 1.0
    M3382 'MARKER' 'INTORG'
    U_G02_14 OBJ 365.49961016401926
    U_G02_14 PMIN_G02_14 -104.60360264585489
    U_G02_14 PMAX_G02_14 -302.53901131927387
    U_G02_14 LOGIC_G02_14 1.0
    U_G02_14 MINUP_G02_14 -1.0
    U_G02_14 MINDN_G02_14 1.0
    U_G02_14 LOGIC_G02_15 -1.0
    U_G02_14 RES_14 302.53901131927387
    V_G02_14 OBJ 285.6519524939499
    V_G02_14 LOGIC_G02_14 -1.0
    V_G02_14 MINUP_G02_14 1.0
    V_G02_14 MINUP_G02_15 1.0
    V_G02_14 MINUP_G02_16 1.0
    V_G02_14 MINUP_G02_17 1.0
    V_G02_14 MINUP_G02_18 1.0
    W_G02_14 LOGIC_G02_14 1.0
    W_G02_14 MINDN_G02_14 1.0
    M3400 'MARKER' 'INTEND'
    P_G02_14 OBJ 57.5371812999265
    P_G02_14 PMIN_G02_14 1.0
    P_G02_14 PMAX_G02_14 1.0
    P_G02_14 RUP_G02_14 1.0
    P_G02_14 RDN_G02_14 -1.0
    P_G02_14 RUP_G02_15 -1.0
    P_G02_14 RDN_G02_15 1.0
    P_G02_14 DEM_14 1.0
    M3409 'MARKER' 'INTORG'
    U_G02_15 OBJ 365.49961016401926
    U_G02_15 PMIN_G02_15 -104.60360264585489
    U_G02_15 PMAX_G02_15 -302.53901131927387
    U_G02_15 LOGIC_G02_15 1.0
    U_G02_15 MINUP_G02_15 -1.0
    U_G02_15 MINDN_G02_15 1.0
    U_G02_15 LOGIC_G02_16 -1.0
    U_G02_15 RES_15 302.53901131927387
    V_G02_15 OBJ 285.6519524939499
    V_G02_15 LOGIC_G02_15 -1.0
    V_G02_15 MINUP_G02_15 1.0
    V_G02_15 MINUP_G02_16 1.0
    V_G02_15 MINUP_G02_17 1.0
    V_G02_15 MINUP_G02_18 1.0
    V_G02_15 MINUP_G02_19 1.0
    W_G02_15 LOGIC_G02_15 1.0
    W_G02_15 MINDN_G02_15 1.0
    M3427 'MARKER' 'INTEND'
    P_G02_15 OBJ 57.5371812999265
    P_G02_15 PMIN_G02_15 1.0
    P_G02_15 PMAX_G02_15 1.0
    P_G02_15 RUP_G02_15 1.0
    P_G02_15 RDN_G02_15 -1.0
    P_G02_15 RUP_G02_16 -1.0
    P_G02_15 RDN_G02_16 1.0
    P_G02_15 DEM_15 1.0
    M3436 'MARKER' 'INTORG'
    U_G02_16 OBJ 365.49961016401926
    U_G02_16 PMIN_G02_16 -104.60360264585489
    U_G02_16 PMAX_G02_16 -302.53901131927387
    U_G02_16 LOGIC_G02_16 1.0
    U_G02_16 MINUP_G02_16 -1.0
    U_G02_16 MINDN_G02_16 1.0
    U_G02_16 LOGIC_G02_17 -1.0
    U_G02_16 RES_16 302.53901131927387
    V_G02_16 OBJ 285.6519524939499
    V_G02_16 LOGIC_G02_16 -1.0
    V_G02_16 MINUP_G02_16 1.0
    V_G02_16 MINUP_G02_17 1.0
    V_G02_16 MINUP_G02_18 1.0
    V_G02_16 MINUP_G02_19 1.0
    V_G02_16 MINUP_G02_20 1.0
    W_G02_16 LOGIC_G02_16 1.0
    W_G02_16 MINDN_G02_16 1.0
    M3454 'MARKER' 'INTEND'
    P_G02_16 OBJ 57.5371812999265
    P_G02_16 PMIN_G02_16 1.0
    P_G02_16 PMAX_G02_16 1.0
    P_G02_16 RUP_G02_16 1.0
    P_G02_16 RDN_G02_16 -1.0
    P_G02_16 RUP_G02_17 -1.0
    P_G02_16 RDN_G02_17 1.0
    P_G02_16 DEM_16 1.0
    M3463 'MARKER' 'INTORG'
    U_G02_17 OBJ 365.49961016401926
    U_G02_17 PMIN_G02_17 -104.60360264585489
    U_G02_17 PMAX_G02_17 -302.53901131927387
    U_G02_17 LOGIC_G02_17 1.0
    U_G02_17 MINUP_G02_17 -1.0
    U_G02_17 MINDN_G02_17 1.0
    U_G02_17 LOGIC_G02_18 -1.0
    U_G02_17 RES_17 302.53901131927387
    V_G02_17 OBJ 285.6519524939499
    V_G02_17 LOGIC_G02_17 -1.0
    V_G02_17 MINUP_G02_17 1.0
    V_G02_17 MINUP_G02_18 1.0
    V_G02_17 MINUP_G02_19 1.0
    V_G02_17 MINUP_G02_20 1.0
    V_G02_17 MINUP_G02_21 1.0
    W_G02_17 LOGIC_G02_17 1.0
    W_G02_17 MINDN_G02_17 1.0
    M3481 'MARKER' 'INTEND'
    P_G02_17 OBJ 57.5371812999265
    P_G02_17 PMIN_G02_17 1.0
    P_G02_17 PMAX_G02_17 1.0
    P_G02_17 RUP_G02_17 1.0
    P_G02_17 RDN_G02_17 -1.0
    P_G02_17 RUP_G02_18 -1.0
    P_G02_17 RDN_G02_18 1.0
    P_G02_17 DEM_17 1.0
    M3490 'MARKER' 'INTORG'
    U_G02_18 OBJ 365.49961016401926
    U_G02_18 PMIN_G02_18 -104.60360264585489
    U_G02_18 PMAX_G02_18 -302.53901131927387
    U_G02_18 LOGIC_G02_18 1.0
    U_G02_18 MINUP_G02_18 -1.0
    U_G02_18 MINDN_G02_18 1.0
    U_G02_18 LOGIC_G02_19 -1.0
    U_G02_18 RES_18 302.53901131927387
    V_G02_18 OBJ 285.6519524939499
    V_G02_18 LOGIC_G02_18 -1.0
    V_G02_18 MINUP_G02_18 1.0
    V_G02_18 MINUP_G02_19 1.0
    V_G02_18 MINUP_G02_20 1.0
    V_G02_18 MINUP_G02_21 1.0
    V_G02_18 MINUP_G02_22 1.0
    W_G02_18 LOGIC_G02_18 1.0
    W_G02_18 MINDN_G02_18 1.0
    M3508 'MARKER' 'INTEND'
    P_G02_18 OBJ 57.5371812999265
    P_G02_18 PMIN_G02_18 1.0
    P_G02_18 PMAX_G02_18 1.0
    P_G02_18 RUP_G02_18 1.0
    P_G02_18 RDN_G02_18 -1.0
    P_G02_18 RUP_G02_19 -1.0
    P_G02_18 RDN_G02_19 1.0
    P_G02_18 DEM_18 1.0
    M3517 'MARKER' 'INTORG'
    U_G02_19 OBJ 365.49961016401926
    U_G02_19 PMIN_G02_19 -104.60360264585489
    U_G02_19 PMAX_G02_19 -302.53901131927387
    U_G02_19 LOGIC_G02_19 1.0
    U_G02_19 MINUP_G02_19 -1.0
    U_G02_19 MINDN_G02_19 1.0
    U_G02_19 LOGIC_G02_20 -1.0
    U_G02_19 RES_19 302.53901131927387
    V_G02_19 OBJ 285.6519524939499
    V_G02_19 LOGIC_G02_19 -1.0
    V_G02_19 MINUP_G02_19 1.0
    V_G02_19 MINUP_G02_20 1.0
    V_G02_19 MINUP_G02_21 1.0
    V_G02_19 MINUP_G02_22 1.0
    V_G02_19 MINUP_G02_23 1.0
    W_G02_19 LOGIC_G02_19 1.0
    W_G02_19 MINDN_G02_19 1.0
    M3535 'MARKER' 'INTEND'
    P_G02_19 OBJ 57.5371812999265
    P_G02_19 PMIN_G02_19 1.0
    P_G02_19 PMAX_G02_19 1.0
    P_G02_19 RUP_G02_19 1.0
    P_G02_19 RDN_G02_19 -1.0
    P_G02_19 RUP_G02_20 -1.0
    P_G02_19 RDN_G02_20 1.0
    P_G02_19 DEM_19 1.0
    M3544 'MARKER' 'INTORG'
    U_G02_20 OBJ 365.49961016401926
    U_G02_20 PMIN_G02_20 -104.60360264585489
    U_G02_20 PMAX_G02_20 -302.53901131927387
    U_G02_20 LOGIC_G02_20 1.0
    U_G02_20 MINUP_G02_20 -1.0
    U_G02_20 MINDN_G02_20 1.0
    U_G02_20 LOGIC_G02_21 -1.0
    U_G02_20 RES_20 302.53901131927387
    V_G02_20 OBJ 285.6519524939499
    V_G02_20 LOGIC_G02_20 -1.0
    V_G02_20 MINUP_G02_20 1.0
    V_G02_20 MINUP_G02_21 1.0
    V_G02_20 MINUP_G02_22 1.0
    V_G02_20 MINUP_G02_23 1.0
    W_G02_20 LOGIC_G02_20 1.0
    W_G02_20 MINDN_G02_20 1.0
    M3561 'MARKER' 'INTEND'
    P_G02_20 OBJ 57.5371812999265
    P_G02_20 PMIN_G02_20 1.0
    P_G02_20 PMAX_G02_20 1.0
    P_G02_20 RUP_G02_20 1.0
    P_G02_20 RDN_G02_20 -1.0
    P_G02_20 RUP_G02_21 -1.0
    P_G02_20 RDN_G02_21 1.0
    P_G02_20 DEM_20 1.0
    M3570 'MARKER' 'INTORG'
    U_G02_21 OBJ 365.49961016401926
    U_G02_21 PMIN_G02_21 -104.60360264585489
    U_G02_21 PMAX_G02_21 -302.53901131927387
    U_G02_21 LOGIC_G02_21 1.0
    U_G02_21 MINUP_G02_21 -1.0
    U_G02_21 MINDN_G02_21 1.0
    U_G02_21 LOGIC_G02_22 -1.0
    U_G02_21 RES_21 302.53901131927387
    V_G02_21 OBJ 285.6519524939499
    V_G02_21 LOGIC_G02_21 -1.0
    V_G02_21 MINUP_G02_21 1.0
    V_G02_21 MINUP_G02_22 1.0
    V_G02_21 MINUP_G02_23 1.0
    W_G02_21 LOGIC_G02_21 1.0
    W_G02_21 MINDN_G02_21 1.0
    M3586 'MARKER' 'INTEND'
    P_G02_21 OBJ 57.5371812999265
    P_G02_21 PMIN_G02_21 1.0
    P_G02_21 PMAX_G02_21 1.0
    P_G02_21 RUP_G02_21 1.0
    P_G02_21 RDN_G02_21 -1.0
    P_G02_21 RUP_G02_22 -1.0
    P_G02_21 RDN_G02_22 1.0
    P_G02_21 DEM_21 1.0
    M3595 'MARKER' 'INTORG'
    U_G02_22 OBJ 365.49961016401926
    U_G02_22 PMIN_G02_22 -104.60360264585489
    U_G02_22 PMAX_G02_22 -302.53901131927387
    U_G02_22 LOGIC_G02_22 1.0
    U_G02_22 MINUP_G02_22 -1.0
    U_G02_22 MINDN_G02_22 1.0
    U_G02_22 LOGIC_G02_23 -1.0
    U_G02_22 RES_22 302.53901131927387
    V_G02_22 OBJ 285.6519524939499
    V_G02_22 LOGIC_G02_22 -1.0
    V_G02_22 MINUP_G02_22 1.0
    V_G02_22 MINUP_G02_23 1.0
    W_G02_22 LOGIC_G02_22 1.0
    W_G02_22 MINDN_G02_22 1.0
    M3610 'MARKER' 'INTEND'
    P_G02_22 OBJ 57.5371812999265
    P_G02_22 PMIN_G02_22 1.0
    P_G02_22 PMAX_G02_22 1.0
    P_G02_22 RUP_G02_22 1.0
    P_G02_22 RDN_G02_22 -1.0
    P_G02_22 RUP_G02_23 -1.0
    P_G02_22 RDN_G02_23 1.0
    P_G02_22 DEM_22 1.0
    M3619 'MARKER' 'INTORG'
    U_G02_23 OBJ 365.49961016401926
    U_G02_23 PMIN_G02_23 -104.60360264585489
    U_G02_23 PMAX_G02_23 -302.53901131927387
    U_G02_23 LOGIC_G02_23 1.0
    U_G02_23 MINUP_G02_23 -1.0
    U_G02_23 MINDN_G02_23 1.0
    U_G02_23 RES_23 302.53901131927387
    V_G02_23 OBJ 285.6519524939499
    V_G02_23 LOGIC_G02_23 -1.0
    V_G02_23 MINUP_G02_23 1.0
    W_G02_23 LOGIC_G02_23 1.0
    W_G02_23 MINDN_G02_23 1.0
    M3632 'MARKER' 'INTEND'
    P_G02_23 OBJ 57.5371812999265
    P_G02_23 PMIN_G02_23 1.0
    P_G02_23 PMAX_G02_23 1.0
    P_G02_23 RUP_G02_23 1.0
    P_G02_23 RDN_G02_23 -1.0
    P_G02_23 DEM_23 1.0
    M3639 'MARKER' 'INTORG'
    U_G03_0 OBJ 197.74080145395106
    U_G03_0 PMIN_G03_0 -142.48323931570107
    U_G03_0 PMAX_G03_0 -378.7022069724787
    U_G03_0 LOGIC_G03_0 1.0
    U_G03_0 MINUP_G03_0 -1.0
    U_G03_0 MINDN_G03_0 1.0
    U_G03_0 LOGIC_G03_1 -1.0
    U_G03_0 RES_0 378.7022069724787
    V_G03_0 OBJ 281.31420520963025
    V_G03_0 LOGIC_G03_0 -1.0
    V_G03_0 MINUP_G03_0 1.0
    V_G03_0 MINUP_G03_1 1.0
    V_G03_0 MINUP_G03_2 1.0
    V_G03_0 MINUP_G03_3 1.0
    W_G03_0 LOGIC_G03_0 1.0
    W_G03_0 MINDN_G03_0 1.0
    W_G03_0 MINDN_G03_1 1.0
    W_G03_0 MINDN_G03_2 1.0
    W_G03_0 MINDN_G03_3 1.0
    M3659 'MARKER' 'INTEND'
    P_G03_0 OBJ 24.746972870877602
    P_G03_0 PMIN_G03_0 1.0
    P_G03_0 PMAX_G03_0 1.0
    P_G03_0 RUP_G03_1 -1.0
    P_G03_0 RDN_G03_1 1.0
    P_G03_0 DEM_0 1.0
    M3666 'MARKER' 'INTORG'
    U_G03_1 OBJ 197.74080145395106
    U_G03_1 PMIN_G03_1 -142.48323931570107
    U_G03_1 PMAX_G03_1 -378.7022069724787
    U_G03_1 LOGIC_G03_1 1.0
    U_G03_1 MINUP_G03_1 -1.0
    U_G03_1 MINDN_G03_1 1.0
    U_G03_1 LOGIC_G03_2 -1.0
    U_G03_1 RES_1 378.7022069724787
    V_G03_1 OBJ 281.31420520963025
    V_G03_1 LOGIC_G03_1 -1.0
    V_G03_1 MINUP_G03_1 1.0
    V_G03_1 MINUP_G03_2 1.0
    V_G03_1 MINUP_G03_3 1.0
    V_G03_1 MINUP_G03_4 1.0
    W_G03_1 LOGIC_G03_1 1.0
    W_G03_1 MINDN_G03_1 1.0
    W_G03_1 MINDN_G03_2 1.0
    W_G03_1 MINDN_G03_3 1.0
    W_G03_1 MINDN_G03_4 1.0
    M3686 'MARKER' 'INTEND'
    P_G03_1 OBJ 24.746972870877602
    P_G03_1 PMIN_G03_1 1.0
    P_G03_1 PMAX_G03_1 1.0
    P_G03_1 RUP_G03_1 1.0
    P_G03_1 RDN_G03_1 -1.0
    P_G03_1 RUP_G03_2 -1.0
    P_G03_1 RDN_G03_2 1.0
    P_G03_1 DEM_1 1.0
    M3695 'MARKER' 'INTORG'
    U_G03_2 OBJ 197.74080145395106
    U_G03_2 PMIN_G03_2 -142.48323931570107
    U_G03_2 PMAX_G03_2 -378.7022069724787
    U_G03_2 LOGIC_G03_2 1.0
    U_G03_2 MINUP_G03_2 -1.0
    U_G03_2 MINDN_G03_2 1.0
    U_G03_2 LOGIC_G03_3 -1.0
    U_G03_2 RES_2 378.7022069724787
    V_G03_2 OBJ 281.31420520963025
    V_G03_2 LOGIC_G03_2 -1.0
    V_G03_2 MINUP_G03_2 1.0
    V_G03_2 MINUP_G03_3 1.0
    V_G03_2 MINUP_G03_4 1.0
    V_G03_2 MINUP_G03_5 1.0
    W_G03_2 LOGIC_G03_2 1.0
    W_G03_2 MINDN_G03_2 1.0
    W_G03_2 MINDN_G03_3 1.0
    W_G03_2 MINDN_G03_4 1.0
    W_G03_2 MINDN_G03_5 1.0
    M3715 'MARKER' 'INTEND'
    P_G03_2 OBJ 24.746972870877602
    P_G03_2 PMIN_G03_2 1.0
    P_G03_2 PMAX_G03_2 1.0
    P_G03_2 RUP_G03_2 1.0
    P_G03_2 RDN_G03_2 -1.0
    P_G03_2 RUP_G03_3 -1.0
    P_G03_2 RDN_G03_3 1.0
    P_G03_2 DEM_2 1.0
    M3724 'MARKER' 'INTORG'
    U_G03_3 OBJ 197.74080145395106
    U_G03_3 PMIN_G03_3 -142.48323931570107
    U_G03_3 PMAX_G03_3 -378.7022069724787
    U_G03_3 LOGIC_G03_3 1.0
    U_G03_3 MINUP_G03_3 -1.0
    U_G03_3 MINDN_G03_3 1.0
    U_G03_3 LOGIC_G03_4 -1.0
    U_G03_3 RES_3 378.7022069724787
    V_G03_3 OBJ 281.31420520963025
    V_G03_3 LOGIC_G03_3 -1.0
    V_G03_3 MINUP_G03_3 1.0
    V_G03_3 MINUP_G03_4 1.0
    V_G03_3 MINUP_G03_5 1.0
    V_G03_3 MINUP_G03_6 1.0
    W_G03_3 LOGIC_G03_3 1.0
    W_G03_3 MINDN_G03_3 1.0
    W_G03_3 MINDN_G03_4 1.0
    W_G03_3 MINDN_G03_5 1.0
    W_G03_3 MINDN_G03_6 1.0
    M3744 'MARKER' 'INTEND'
    P_G03_3 OBJ 24.746972870877602
    P_G03_3 PMIN_G03_3 1.0
    P_G03_3 PMAX_G03_3 1.0
    P_G03_3 RUP_G03_3 1.0
    P_G03_3 RDN_G03_3 -1.0
    P_G03_3 RUP_G03_4 -1.0
    P_G03_3 RDN_G03_4 1.0
    P_G03_3 DEM_3 1.0
    M3753 'MARKER' 'INTORG'
    U_G03_4 OBJ 197.74080145395106
    U_G03_4 PMIN_G03_4 -142.48323931570107
    U_G03_4 PMAX_G03_4 -378.7022069724787
    U_G03_4 LOGIC_G03_4 1.0
    U_G03_4 MINUP_G03_4 -1.0
    U_G03_4 MINDN_G03_4 1.0
    U_G03_4 LOGIC_G03_5 -1.0
    U_G03_4 RES_4 378.7022069724787
    V_G03_4 OBJ 281.31420520963025
    V_G03_4 LOGIC_G03_4 -1.0
    V_G03_4 MINUP_G03_4 1.0
    V_G03_4 MINUP_G03_5 1.0
    V_G03_4 MINUP_G03_6 1.0
    V_G03_4 MINUP_G03_7 1.0
    W_G03_4 LOGIC_G03_4 1.0
    W_G03_4 MINDN_G03_4 1.0
    W_G03_4 MINDN_G03_5 1.0
    W_G03_4 MINDN_G03_6 1.0
    W_G03_4 MINDN_G03_7 1.0
    M3773 'MARKER' 'INTEND'
    P_G03_4 OBJ 24.746972870877602
    P_G03_4 PMIN_G03_4 1.0
    P_G03_4 PMAX_G03_4 1.0
    P_G03_4 RUP_G03_4 1.0
    P_G03_4 RDN_G03_4 -1.0
    P_G03_4 RUP_G03_5 -1.0
    P_G03_4 RDN_G03_5 1.0
    P_G03_4 DEM_4 1.0
    M3782 'MARKER' 'INTORG'
    U_G03_5 OBJ 197.74080145395106
    U_G03_5 PMIN_G03_5 -142.48323931570107
    U_G03_5 PMAX_G03_5 -378.7022069724787
    U_G03_5 LOGIC_G03_5 1.0
    U_G03_5 MINUP_G03_5 -1.0
    U_G03_5 MINDN_G03_5 1.0
    U_G03_5 LOGIC_G03_6 -1.0
    U_G03_5 RES_5 378.7022069724787
    V_G03_5 OBJ 281.31420520963025
    V_G03_5 LOGIC_G03_5 -1.0
    V_G03_5 MINUP_G03_5 1.0
    V_G03_5 MINUP_G03_6 1.0
    V_G03_5 MINUP_G03_7 1.0
    V_G03_5 MINUP_G03_8 1.0
    W_G03_5 LOGIC_G03_5 1.0
    W_G03_5 MINDN_G03_5 1.0
    W_G03_5 MINDN_G03_6 1.0
    W_G03_5 MINDN_G03_7 1.0
    W_G03_5 MINDN_G03_8 1.0
    M3802 'MARKER' 'INTEND'
    P_G03_5 OBJ 24.746972870877602
    P_G03_5 PMIN_G03_5 1.0
    P_G03_5 PMAX_G03_5 1.0
    P_G03_5 RUP_G03_5 1.0
    P_G03_5 RDN_G03_5 -1.0
    P_G03_5 RUP_G03_6 -1.0
    P_G03_5 RDN_G03_6 1.0
    P_G03_5 DEM_5 1.0
    M3811 'MARKER' 'INTORG'
    U_G03_6 OBJ 197.74080145395106
    U_G03_6 PMIN_G03_6 -142.48323931570107
    U_G03_6 PMAX_G03_6 -378.7022069724787
    U_G03_6 LOGIC_G03_6 1.0
    U_G03_6 MINUP_G03_6 -1.0
    U_G03_6 MINDN_G03_6 1.0
    U_G03_6 LOGIC_G03_7 -1.0
    U_G03_6 RES_6 378.7022069724787
    V_G03_6 OBJ 281.31420520963025
    V_G03_6 LOGIC_G03_6 -1.0
    V_G03_6 MINUP_G03_6 1.0
    V_G03_6 MINUP_G03_7 1.0
    V_G03_6 MINUP_G03_8 1.0
    V_G03_6 MINUP_G03_9 1.0
    W_G03_6 LOGIC_G03_6 1.0
    W_G03_6 MINDN_G03_6 1.0
    W_G03_6 MINDN_G03_7 1.0
    W_G03_6 MINDN_G03_8 1.0
    W_G03_6 MINDN_G03_9 1.0
    M3831 'MARKER' 'INTEND'
    P_G03_6 OBJ 24.746972870877602
    P_G03_6 PMIN_G03_6 1.0
    P_G03_6 PMAX_G03_6 1.0
    P_G03_6 RUP_G03_6 1.0
    P_G03_6 RDN_G03_6 -1.0
    P_G03_6 RUP_G03_7 -1.0
    P_G03_6 RDN_G03_7 1.0
    P_G03_6 DEM_6 1.0
    M3840 'MARKER' 'INTORG'
    U_G03_7 OBJ 197.74080145395106
    U_G03_7 PMIN_G03_7 -142.48323931570107
    U_G03_7 PMAX_G03_7 -378.7022069724787
    U_G03_7 LOGIC_G03_7 1.0
    U_G03_7 MINUP_G03_7 -1.0
    U_G03_7 MINDN_G03_7 1.0
    U_G03_7 LOGIC_G03_8 -1.0
    U_G03_7 RES_7 378.7022069724787
    V_G03_7 OBJ 281.31420520963025
    V_G03_7 LOGIC_G03_7 -1.0
    V_G03_7 MINUP_G03_7 1.0
    V_G03_7 MINUP_G03_8 1.0
    V_G03_7 MINUP_G03_9 1.0
    V_G03_7 MINUP_G03_10 1.0
    W_G03_7 LOGIC_G03_7 1.0
    W_G03_7 MINDN_G03_7 1.0
    W_G03_7 MINDN_G03_8 1.0
    W_G03_7 MINDN_G03_9 1.0
    W_G03_7 MINDN_G03_10 1.0
    M3860 'MARKER' 'INTEND'
    P_G03_7 OBJ 24.746972870877602
    P_G03_7 PMIN_G03_7 1.0
    P_G03_7 PMAX_G03_7 1.0
    P_G03_7 RUP_G03_7 1.0
    P_G03_7 RDN_G03_7 -1.0
    P_G03_7 RUP_G03_8 -1.0
    P_G03_7 RDN_G03_8 1.0
    P_G03_7 DEM_7 1.0
    M3869 'MARKER' 'INTORG'
    U_G03_8 OBJ 197.74080145395106
    U_G03_8 PMIN_G03_8 -142.48323931570107
    U_G03_8 PMAX_G03_8 -378.7022069724787
    U_G03_8 LOGIC_G03_8 1.0
    U_G03_8 MINUP_G03_8 -1.0
    U_G03_8 MINDN_G03_8 1.0
    U_G03_8 LOGIC_G03_9 -1.0
    U_G03_8 RES_8 378.7022069724787
    V_G03_8 OBJ 281.31420520963025
    V_G03_8 LOGIC_G03_8 -1.0
    V_G03_8 MINUP_G03_8 1.0
    V_G03_8 MINUP_G03_9 1.0
    V_G03_8 MINUP_G03_10 1.0
    V_G03_8 MINUP_G03_11 1.0
    W_G03_8 LOGIC_G03_8 1.0
    W_G03_8 MINDN_G03_8 1.0
    W_G03_8 MINDN_G03_9 1.0
    W_G03_8 MINDN_G03_10 1.0
    W_G03_8 MINDN_G03_11 1.0
    M3889 'MARKER' 'INTEND'
    P_G03_8 OBJ 24.746972870877602
    P_G03_8 PMIN_G03_8 1.0
    P_G03_8 PMAX_G03_8 1.0
    P_G03_8 RUP_G03_8 1.0
    P_G03_8 RDN_G03_8 -1.0
    P_G03_8 RUP_G03_9 -1.0
    P_G03_8 RDN_G03_9 1.0
    P_G03_8 DEM_8 1.0
    M3898 'MARKER' 'INTORG'
    U_G03_9 OBJ 197.74080145395106
    U_G03_9 PMIN_G03_9 -142.48323931570107
    U_G03_9 PMAX_G03_9 -378.7022069724787
    U_G03_9 LOGIC_G03_9 1.0
    U_G03_9 MINUP_G03_9 -1.0
    U_G03_9 MINDN_G03_9 1.0
    U_G03_9 LOGIC_G03_10 -1.0
    U_G03_9 RES_9 378.7022069724787
    V_G03_9 OBJ 281.31420520963025
    V_G03_9 LOGIC_G03_9 -1.0
    V_G03_9 MINUP_G03_9 1.0
    V_G03_9 MINUP_G03_10 1.0
    V_G03_9 MINUP_G03_11 1.0
    V_G03_9 MINUP_G03_12 1.0
    W_G03_9 LOGIC_G03_9 1.0
    W_G03_9 MINDN_G03_9 1.0
    W_G03_9 MINDN_G03_10 1.0
    W_G03_9 MINDN_G03_11 1.0
    W_G03_9 MINDN_G03_12 1.0
    M3918 'MARKER' 'INTEND'
    P_G03_9 OBJ 24.746972870877602
    P_G03_9 PMIN_G03_9 1.0
    P_G03_9 PMAX_G03_9 1.0
    P_G03_9 RUP_G03_9 1.0
    P_G03_9 RDN_G03_9 -1.0
    P_G03_9 RUP_G03_10 -1.0
    P_G03_9 RDN_G03_10 1.0
    P_G03_9 DEM_9 1.0
    M3927 'MARKER' 'INTORG'
    U_G03_10 OBJ 197.74080145395106
    U_G03_10 PMIN_G03_10 -142.48323931570107
    U_G03_10 PMAX_G03_10 -378.7022069724787
    U_G03_10 LOGIC_G03_10 1.0
    U_G03_10 MINUP_G03_10 -1.0
    U_G03_10 MINDN_G03_10 1.0
    U_G03_10 LOGIC_G03_11 -1.0
    U_G03_10 RES_10 378.7022069724787
    V_G03_10 OBJ 281.31420520963025
    V_G03_10 LOGIC_G03_10 -1.0
    V_G03_10 MINUP_G03_10 1.0
    V_G03_10 MINUP_G03_11 1.0
    V_G03_10 MINUP_G03_12 1.0
    V_G03_10 MINUP_G03_13 1.0
    W_G03_10 LOGIC_G03_10 1.0
    W_G03_10 MINDN_G03_10 1.0
    W_G03_10 MINDN_G03_11 1.0
    W_G03_10 MINDN_G03_12 1.0
    W_G03_10 MINDN_G03_13 1.0
    M3947 'MARKER' 'INTEND'
    P_G03_10 OBJ 24.746972870877602
    P_G03_10 PMIN_G03_10 1.0
    P_G03_10 PMAX_G03_10 1.0
    P_G03_10 RUP_G03_10 1.0
    P_G03_10 RDN_G03_10 -1.0
    P_G03_10 RUP_G03_11 -1.0
    P_G03_10 RDN_G03_11 1.0
    P_G03_10 DEM_10 1.0
    M3956 'MARKER' 'INTORG'
    U_G03_11 OBJ 197.74080145395106
    U_G03_11 PMIN_G03_11 -142.48323931570107
    U_G03_11 PMAX_G03_11 -378.7022069724787
    U_G03_11 LOGIC_G03_11 1.0
    U_G03_11 MINUP_G03_11 -1.0
    U_G03_11 MINDN_G03_11 1.0
    U_G03_11 LOGIC_G03_12 -1.0
    U_G03_11 RES_11 378.7022069724787
    V_G03_11 OBJ 281.31420520963025
    V_G03_11 LOGIC_G03_11 -1.0
    V_G03_11 MINUP_G03_11 1.0
    V_G03_11 MINUP_G03_12 1.0
    V_G03_11 MINUP_G03_13 1.0
    V_G03_11 MINUP_G03_14 1.0
    W_G03_11 LOGIC_G03_11 1.0
    W_G03_11 MINDN_G03_11 1.0
    W_G03_11 MINDN_G03_12 1.0
    W_G03_11 MINDN_G03_13 1.0
    W_G03_11 MINDN_G03_14 1.0
    M3976 'MARKER' 'INTEND'
    P_G03_11 OBJ 24.746972870877602
    P_G03_11 PMIN_G03_11 1.0
    P_G03_11 PMAX_G03_11 1.0
    P_G03_11 RUP_G03_11 1.0
    P_G03_11 RDN_G03_11 -1.0
    P_G03_11 RUP_G03_12 -1.0
    P_G03_11 RDN_G03_12 1.0
    P_G03_11 DEM_11 1.0
    M3985 'MARKER' 'INTORG'
    U_G03_12 OBJ 197.74080145395106
    U_G03_12 PMIN_G03_12 -142.48323931570107
    U_G03_12 PMAX_G03_12 -378.7022069724787
    U_G03_12 LOGIC_G03_12 1.0
    U_G03_12 MINUP_G03_12 -1.0
    U_G03_12 MINDN_G03_12 1.0
    U_G03_12 LOGIC_G03_13 -1.0
    U_G03_12 RES_12 378.7022069724787
    V_G03_12 OBJ 281.31420520963025
    V_G03_12 LOGIC_G03_12 -1.0
    V_G03_12 MINUP_G03_12 1.0
    V_G03_12 MINUP_G03_13 1.0
    V_G03_12 MINUP_G03_14 1.0
    V_G03_12 MINUP_G03_15 1.0
    W_G03_12 LOGIC_G03_12 1.0
    W_G03_12 MINDN_G03_12 1.0
    W_G03_12 MINDN_G03_13 1.0
    W_G03_12 MINDN_G03_14 1.0
    W_G03_12 MINDN_G03_15 1.0
    M4005 'MARKER' 'INTEND'
    P_G03_12 OBJ 24.746972870877602
    P_G03_12 PMIN_G03_12 1.0
    P_G03_12 PMAX_G03_12 1.0
    P_G03_12 RUP_G03_12 1.0
    P_G03_12 RDN_G03_12 -1.0
    P_G03_12 RUP_G03_13 -1.0
    P_G03_12 RDN_G03_13 1.0
    P_G03_12 DEM_12 1.0
    M4014 'MARKER' 'INTORG'
    U_G03_13 OBJ 197.74080145395106
    U_G03_13 PMIN_G03_13 -142.48323931570107
    U_G03_13 PMAX_G03_13 -378.7022069724787
    U_G03_13 LOGIC_G03_13 1.0
    U_G03_13 MINUP_G03_13 -1.0
    U_G03_13 MINDN_G03_13 1.0
    U_G03_13 LOGIC_G03_14 -1.0
    U_G03_13 RES_13 378.7022069724787
    V_G03_13 OBJ 281.31420520963025
    V_G03_13 LOGIC_G03_13 -1.0
    V_G03_13 MINUP_G03_13 1.0
    V_G03_13 MINUP_G03_14 1.0
    V_G03_13 MINUP_G03_15 1.0
    V_G03_13 MINUP_G03_16 1.0
    W_G03_13 LOGIC_G03_13 1.0
    W_G03_13 MINDN_G03_13 1.0
    W_G03_13 MINDN_G03_14 1.0
    W_G03_13 MINDN_G03_15 1.0
    W_G03_13 MINDN_G03_16 1.0
    M4034 'MARKER' 'INTEND'
    P_G03_13 OBJ 24.746972870877602
    P_G03_13 PMIN_G03_13 1.0
    P_G03_13 PMAX_G03_13 1.0
    P_G03_13 RUP_G03_13 1.0
    P_G03_13 RDN_G03_13 -1.0
    P_G03_13 RUP_G03_14 -1.0
    P_G03_13 RDN_G03_14 1.0
    P_G03_13 DEM_13 1.0
    M4043 'MARKER' 'INTORG'
    U_G03_14 OBJ 197.74080145395106
    U_G03_14 PMIN_G03_14 -142.48323931570107
    U_G03_14 PMAX_G03_14 -378.7022069724787
    U_G03_14 LOGIC_G03_14 1.0
    U_G03_14 MINUP_G03_14 -1.0
    U_G03_14 MINDN_G03_14 1.0
    U_G03_14 LOGIC_G03_15 -1.0
    U_G03_14 RES_14 378.7022069724787
    V_G03_14 OBJ 281.31420520963025
    V_G03_14 LOGIC_G03_14 -1.0
    V_G03_14 MINUP_G03_14 1.0
    V_G03_14 MINUP_G03_15 1.0
    V_G03_14 MINUP_G03_16 1.0
    V_G03_14 MINUP_G03_17 1.0
    W_G03_14 LOGIC_G03_14 1.0
    W_G03_14 MINDN_G03_14 1.0
    W_G03_14 MINDN_G03_15 1.0
    W_G03_14 MINDN_G03_16 1.0
    W_G03_14 MINDN_G03_17 1.0
    M4063 'MARKER' 'INTEND'
    P_G03_14 OBJ 24.746972870877602
    P_G03_14 PMIN_G03_14 1.0
    P_G03_14 PMAX_G03_14 1.0
    P_G03_14 RUP_G03_14 1.0
    P_G03_14 RDN_G03_14 -1.0
    P_G03_14 RUP_G03_15 -1.0
    P_G03_14 RDN_G03_15 1.0
    P_G03_14 DEM_14 1.0
    M4072 'MARKER' 'INTORG'
    U_G03_15 OBJ 197.74080145395106
    U_G03_15 PMIN_G03_15 -142.48323931570107
    U_G03_15 PMAX_G03_15 -378.7022069724787
    U_G03_15 LOGIC_G03_15 1.0
    U_G03_15 MINUP_G03_15 -1.0
    U_G03_15 MINDN_G03_15 1.0
    U_G03_15 LOGIC_G03_16 -1.0
    U_G03_15 RES_15 378.7022069724787
    V_G03_15 OBJ 281.31420520963025
    V_G03_15 LOGIC_G03_15 -1.0
    V_G03_15 MINUP_G03_15 1.0
    V_G03_15 MINUP_G03_16 1.0
    V_G03_15 MINUP_G03_17 1.0
    V_G03_15 MINUP_G03_18 1.0
    W_G03_15 LOGIC_G03_15 1.0
    W_G03_15 MINDN_G03_15 1.0
    W_G03_15 MINDN_G03_16 1.0
    W_G03_15 MINDN_G03_17 1.0
    W_G03_15 MINDN_G03_18 1.0
    M4092 'MARKER' 'INTEND'
    P_G03_15 OBJ 24.746972870877602
    P_G03_15 PMIN_G03_15 1.0
    P_G03_15 PMAX_G03_15 1.0
    P_G03_15 RUP_G03_15 1.0
    P_G03_15 RDN_G03_15 -1.0
    P_G03_15 RUP_G03_16 -1.0
    P_G03_15 RDN_G03_16 1.0
    P_G03_15 DEM_15 1.0
    M4101 'MARKER' 'INTORG'
    U_G03_16 OBJ 197.74080145395106
    U_G03_16 PMIN_G03_16 -142.48323931570107
    U_G03_16 PMAX_G03_16 -378.7022069724787
    U_G03_16 LOGIC_G03_16 1.0
    U_G03_16 MINUP_G03_16 -1.0
    U_G03_16 MINDN_G03_16 1.0
    U_G03_16 LOGIC_G03_17 -1.0
    U_G03_16 RES_16 378.7022069724787
    V_G03_16 OBJ 281.31420520963025
    V_G03_16 LOGIC_G03_16 -1.0
    V_G03_16 MINUP_G03_16 1.0
    V_G03_16 MINUP_G03_17 1.0
    V_G03_16 MINUP_G03_18 1.0
    V_G03_16 MINUP_G03_19 1.0
    W_G03_16 LOGIC_G03_16 1.0
    W_G03_16 MINDN_G03_16 1.0
    W_G03_16 MINDN_G03_17 1.0
    W_G03_16 MINDN_G03_18 1.0
    W_G03_16 MINDN_G03_19 1.0
    M4121 'MARKER' 'INTEND'
    P_G03_16 OBJ 24.746972870877602
    P_G03_16 PMIN_G03_16 1.0
    P_G03_16 PMAX_G03_16 1.0
    P_G03_16 RUP_G03_16 1.0
    P_G03_16 RDN_G03_16 -1.0
    P_G03_16 RUP_G03_17 -1.0
    P_G03_16 RDN_G03_17 1.0
    P_G03_16 DEM_16 1.0
    M4130 'MARKER' 'INTORG'
    U_G03_17 OBJ 197.74080145395106
    U_G03_17 PMIN_G03_17 -142.48323931570107
    U_G03_17 PMAX_G03_17 -378.7022069724787
    U_G03_17 LOGIC_G03_17 1.0
    U_G03_17 MINUP_G03_17 -1.0
    U_G03_17 MINDN_G03_17 1.0
    U_G03_17 LOGIC_G03_18 -1.0
    U_G03_17 RES_17 378.7022069724787
    V_G03_17 OBJ 281.31420520963025
    V_G03_17 LOGIC_G03_17 -1.0
    V_G03_17 MINUP_G03_17 1.0
    V_G03_17 MINUP_G03_18 1.0
    V_G03_17 MINUP_G03_19 1.0
    V_G03_17 MINUP_G03_20 1.0
    W_G03_17 LOGIC_G03_17 1.0
    W_G03_17 MINDN_G03_17 1.0
    W_G03_17 MINDN_G03_18 1.0
    W_G03_17 MINDN_G03_19 1.0
    W_G03_17 MINDN_G03_20 1.0
    M4150 'MARKER' 'INTEND'
    P_G03_17 OBJ 24.746972870877602
    P_G03_17 PMIN_G03_17 1.0
    P_G03_17 PMAX_G03_17 1.0
    P_G03_17 RUP_G03_17 1.0
    P_G03_17 RDN_G03_17 -1.0
    P_G03_17 RUP_G03_18 -1.0
    P_G03_17 RDN_G03_18 1.0
    P_G03_17 DEM_17 1.0
    M4159 'MARKER' 'INTORG'
    U_G03_18 OBJ 197.74080145395106
    U_G03_18 PMIN_G03_18 -142.48323931570107
    U_G03_18 PMAX_G03_18 -378.7022069724787
    U_G03_18 LOGIC_G03_18 1.0
    U_G03_18 MINUP_G03_18 -1.0
    U_G03_18 MINDN_G03_18 1.0
    U_G03_18 LOGIC_G03_19 -1.0
    U_G03_18 RES_18 378.7022069724787
    V_G03_18 OBJ 281.31420520963025
    V_G03_18 LOGIC_G03_18 -1.0
    V_G03_18 MINUP_G03_18 1.0
    V_G03_18 MINUP_G03_19 1.0
    V_G03_18 MINUP_G03_20 1.0
    V_G03_18 MINUP_G03_21 1.0
    W_G03_18 LOGIC_G03_18 1.0
    W_G03_18 MINDN_G03_18 1.0
    W_G03_18 MINDN_G03_19 1.0
    W_G03_18 MINDN_G03_20 1.0
    W_G03_18 MINDN_G03_21 1.0
    M4179 'MARKER' 'INTEND'
    P_G03_18 OBJ 24.746972870877602
    P_G03_18 PMIN_G03_18 1.0
    P_G03_18 PMAX_G03_18 1.0
    P_G03_18 RUP_G03_18 1.0
    P_G03_18 RDN_G03_18 -1.0
    P_G03_18 RUP_G03_19 -1.0
    P_G03_18 RDN_G03_19 1.0
    P_G03_18 DEM_18 1.0
    M4188 'MARKER' 'INTORG'
    U_G03_19 OBJ 197.74080145395106
    U_G03_19 PMIN_G03_19 -142.48323931570107
    U_G03_19 PMAX_G03_19 -378.7022069724787
    U_G03_19 LOGIC_G03_19 1.0
    U_G03_19 MINUP_G03_19 -1.0
    U_G03_19 MINDN_G03_19 1.0
    U_G03_19 LOGIC_G03_20 -1.0
    U_G03_19 RES_19 378.7022069724787
    V_G03_19 OBJ 281.31420520963025
    V_G03_19 LOGIC_G03_19 -1.0
    V_G03_19 MINUP_G03_19 1.0
    V_G03_19 MINUP_G03_20 1.0
    V_G03_19 MINUP_G03_21 1.0
    V_G03_19 MINUP_G03_22 1.0
    W_G03_19 LOGIC_G03_19 1.0
    W_G03_19 MINDN_G03_19 1.0
    W_G03_19 MINDN_G03_20 1.0
    W_G03_19 MINDN_G03_21 1.0
    W_G03_19 MINDN_G03_22 1.0
    M4208 'MARKER' 'INTEND'
    P_G03_19 OBJ 24.746972870877602
    P_G03_19 PMIN_G03_19 1.0
    P_G03_19 PMAX_G03_19 1.0
    P_G03_19 RUP_G03_19 1.0
    P_G03_19 RDN_G03_19 -1.0
    P_G03_19 RUP_G03_20 -1.0
    P_G03_19 RDN_G03_20 1.0
    P_G03_19 DEM_19 1.0
    M4217 'MARKER' 'INTORG'
    U_G03_20 OBJ 197.74080145395106
    U_G03_20 PMIN_G03_20 -142.48323931570107
    U_G03_20 PMAX_G03_20 -378.7022069724787
    U_G03_20 LOGIC_G03_20 1.0
    U_G03_20 MINUP_G03_20 -1.0
    U_G03_20 MINDN_G03_20 1.0
    U_G03_20 LOGIC_G03_21 -1.0
    U_G03_20 RES_20 378.7022069724787
    V_G03_20 OBJ 281.31420520963025
    V_G03_20 LOGIC_G03_20 -1.0
    V_G03_20 MINUP_G03_20 1.0
    V_G03_20 MINUP_G03_21 1.0
    V_G03_20 MINUP_G03_22 1.0
    V_G03_20 MINUP_G03_23 1.0
    W_G03_20 LOGIC_G03_20 1.0
    W_G03_20 MINDN_G03_20 1.0
    W_G03_20 MINDN_G03_21 1.0
    W_G03_20 MINDN_G03_22 1.0
    W_G03_20 MINDN_G03_23 1.0
    M4237 'MARKER' 'INTEND'
    P_G03_20 OBJ 24.746972870877602
    P_G03_20 PMIN_G03_20 1.0
    P_G03_20 PMAX_G03_20 1.0
    P_G03_20 RUP_G03_20 1.0
    P_G03_20 RDN_G03_20 -1.0
    P_G03_20 RUP_G03_21 -1.0
    P_G03_20 RDN_G03_21 1.0
    P_G03_20 DEM_20 1.0
    M4246 'MARKER' 'INTORG'
    U_G03_21 OBJ 197.74080145395106
    U_G03_21 PMIN_G03_21 -142.48323931570107
    U_G03_21 PMAX_G03_21 -378.7022069724787
    U_G03_21 LOGIC_G03_21 1.0
    U_G03_21 MINUP_G03_21 -1.0
    U_G03_21 MINDN_G03_21 1.0
    U_G03_21 LOGIC_G03_22 -1.0
    U_G03_21 RES_21 378.7022069724787
    V_G03_21 OBJ 281.31420520963025
    V_G03_21 LOGIC_G03_21 -1.0
    V_G03_21 MINUP_G03_21 1.0
    V_G03_21 MINUP_G03_22 1.0
    V_G03_21 MINUP_G03_23 1.0
    W_G03_21 LOGIC_G03_21 1.0
    W_G03_21 MINDN_G03_21 1.0
    W_G03_21 MINDN_G03_22 1.0
    W_G03_21 MINDN_G03_23 1.0
    M4264 'MARKER' 'INTEND'
    P_G03_21 OBJ 24.746972870877602
    P_G03_21 PMIN_G03_21 1.0
    P_G03_21 PMAX_G03_21 1.0
    P_G03_21 RUP_G03_21 1.0
    P_G03_21 RDN_G03_21 -1.0
    P_G03_21 RUP_G03_22 -1.0
    P_G03_21 RDN_G03_22 1.0
    P_G03_21 DEM_21 1.0
    M4273 'MARKER' 'INTORG'
    U_G03_22 OBJ 197.74080145395106
    U_G03_22 PMIN_G03_22 -142.48323931570107
    U_G03_22 PMAX_G03_22 -378.7022069724787
    U_G03_22 LOGIC_G03_22 1.0
    U_G03_22 MINUP_G03_22 -1.0
    U_G03_22 MINDN_G03_22 1.0
    U_G03_22 LOGIC_G03_23 -1.0
    U_G03_22 RES_22 378.7022069724787
    V_G03_22 OBJ 281.31420520963025
    V_G03_22 LOGIC_G03_22 -1.0
    V_G03_22 MINUP_G03_22 1.0
    V_G03_22 MINUP_G03_23 1.0
    W_G03_22 LOGIC_G03_22 1.0
    W_G03_22 MINDN_G03_22 1.0
    W_G03_22 MINDN_G03_23 1.0
    M4289 'MARKER' 'INTEND'
    P_G03_22 OBJ 24.746972870877602
    P_G03_22 PMIN_G03_22 1.0
    P_G03_22 PMAX_G03_22 1.0
    P_G03_22 RUP_G03_22 1.0
    P_G03_22 RDN_G03_22 -1.0
    P_G03_22 RUP_G03_23 -1.0
    P_G03_22 RDN_G03_23 1.0
    P_G03_22 DEM_22 1.0
    M4298 'MARKER' 'INTORG'
    U_G03_23 OBJ 197.74080145395106
    U_G03_23 PMIN_G03_23 -142.48323931570107
    U_G03_23 PMAX_G03_23 -378.7022069724787
    U_G03_23 LOGIC_G03_23 1.0
    U_G03_23 MINUP_G03_23 -1.0
    U_G03_23 MINDN_G03_23 1.0
    U_G03_23 RES_23 378.7022069724787
    V_G03_23 OBJ 281.31420520963025
    V_G03_23 LOGIC_G03_23 -1.0
    V_G03_23 MINUP_G03_23 1.0
    W_G03_23 LOGIC_G03_23 1.0
    W_G03_23 MINDN_G03_23 1.0
    M4311 'MARKER' 'INTEND'
    P_G03_23 OBJ 24.746972870877602
    P_G03_23 PMIN_G03_23 1.0
    P_G03_23 PMAX_G03_23 1.0
    P_G03_23 RUP_G03_23 1.0
    P_G03_23 RDN_G03_23 -1.0
    P_G03_23 DEM_23 1.0
    M4318 'MARKER' 'INTORG'
    U_G04_0 OBJ 316.3317081396372
    U_G04_0 PMIN_G04_0 -89.88592459386169
    U_G04_0 PMAX_G04_0 -243.5008517025378
    U_G04_0 LOGIC_G04_0 1.0
    U_G04_0 MINUP_G04_0 -1.0
    U_G04_0 MINDN_G04_0 1.0
    U_G04_0 LOGIC_G04_1 -1.0
    U_G04_0 RES_0 243.5008517025378
    V_G04_0 OBJ 2866.2844748153425
    V_G04_0 LOGIC_G04_0 -1.0
    V_G04_0 MINUP_G04_0 1.0
    V_G04_0 MINUP_G04_1 1.0
    V_G04_0 MINUP_G04_2 1.0
    V_G04_0 MINUP_G04_3 1.0
    W_G04_0 LOGIC_G04_0 1.0
    W_G04_0 MINDN_G04_0 1.0
    W_G04_0 MINDN_G04_1 1.0
    W_G04_0 MINDN_G04_2 1.0
    W_G04_0 MINDN_G04_3 1.0
    W_G04_0 MINDN_G04_4 1.0
    M4339 'MARKER' 'INTEND'
    P_G04_0 OBJ 45.45818429324885
    P_G04_0 PMIN_G04_0 1.0
    P_G04_0 PMAX_G04_0 1.0
    P_G04_0 RUP_G04_1 -1.0
    P_G04_0 RDN_G04_1 1.0
    P_G04_0 DEM_0 1.0
    M4346 'MARKER' 'INTORG'
    U_G04_1 OBJ 316.3317081396372
    U_G04_1 PMIN_G04_1 -89.88592459386169
    U_G04_1 PMAX_G04_1 -243.5008517025378
    U_G04_1 LOGIC_G04_1 1.0
    U_G04_1 MINUP_G04_1 -1.0
    U_G04_1 MINDN_G04_1 1.0
    U_G04_1 LOGIC_G04_2 -1.0
    U_G04_1 RES_1 243.5008517025378
    V_G04_1 OBJ 2866.2844748153425
    V_G04_1 LOGIC_G04_1 -1.0
    V_G04_1 MINUP_G04_1 1.0
    V_G04_1 MINUP_G04_2 1.0
    V_G04_1 MINUP_G04_3 1.0
    V_G04_1 MINUP_G04_4 1.0
    W_G04_1 LOGIC_G04_1 1.0
    W_G04_1 MINDN_G04_1 1.0
    W_G04_1 MINDN_G04_2 1.0
    W_G04_1 MINDN_G04_3 1.0
    W_G04_1 MINDN_G04_4 1.0
    W_G04_1 MINDN_G04_5 1.0
    M4367 'MARKER' 'INTEND'
    P_G04_1 OBJ 45.45818429324885
    P_G04_1 PMIN_G04_1 1.0
    P_G04_1 PMAX_G04_1 1.0
    P_G04_1 RUP_G04_1 1.0
    P_G04_1 RDN_G04_1 -1.0
    P_G04_1 RUP_G04_2 -1.0
    P_G04_1 RDN_G04_2 1.0
    P_G04_1 DEM_1 1.0
    M4376 'MARKER' 'INTORG'
    U_G04_2 OBJ 316.3317081396372
    U_G04_2 PMIN_G04_2 -89.88592459386169
    U_G04_2 PMAX_G04_2 -243.5008517025378
    U_G04_2 LOGIC_G04_2 1.0
    U_G04_2 MINUP_G04_2 -1.0
    U_G04_2 MINDN_G04_2 1.0
    U_G04_2 LOGIC_G04_3 -1.0
    U_G04_2 RES_2 243.5008517025378
    V_G04_2 OBJ 2866.2844748153425
    V_G04_2 LOGIC_G04_2 -1.0
    V_G04_2 MINUP_G04_2 1.0
    V_G04_2 MINUP_G04_3 1.0
    V_G04_2 MINUP_G04_4 1.0
    V_G04_2 MINUP_G04_5 1.0
    W_G04_2 LOGIC_G04_2 1.0
    W_G04_2 MINDN_G04_2 1.0
    W_G04_2 MINDN_G04_3 1.0
    W_G04_2 MINDN_G04_4 1.0
    W_G04_2 MINDN_G04_5 1.0
    W_G04_2 MINDN_G04_6 1.0
    M4397 'MARKER' 'INTEND'
    P_G04_2 OBJ 45.45818429324885
    P_G04_2 PMIN_G04_2 1.0
    P_G04_2 PMAX_G04_2 1.0
    P_G04_2 RUP_G04_2 1.0
    P_G04_2 RDN_G04_2 -1.0
    P_G04_2 RUP_G04_3 -1.0
    P_G04_2 RDN_G04_3 1.0
    P_G04_2 DEM_2 1.0
    M4406 'MARKER' 'INTORG'
    U_G04_3 OBJ 316.3317081396372
    U_G04_3 PMIN_G04_3 -89.88592459386169
    U_G04_3 PMAX_G04_3 -243.5008517025378
    U_G04_3 LOGIC_G04_3 1.0
    U_G04_3 MINUP_G04_3 -1.0
    U_G04_3 MINDN_G04_3 1.0
    U_G04_3 LOGIC_G04_4 -1.0
    U_G04_3 RES_3 243.5008517025378
    V_G04_3 OBJ 2866.2844748153425
    V_G04_3 LOGIC_G04_3 -1.0
    V_G04_3 MINUP_G04_3 1.0
    V_G04_3 MINUP_G04_4 1.0
    V_G04_3 MINUP_G04_5 1.0
    V_G04_3 MINUP_G04_6 1.0
    W_G04_3 LOGIC_G04_3 1.0
    W_G04_3 MINDN_G04_3 1.0
    W_G04_3 MINDN_G04_4 1.0
    W_G04_3 MINDN_G04_5 1.0
    W_G04_3 MINDN_G04_6 1.0
    W_G04_3 MINDN_G04_7 1.0
    M4427 'MARKER' 'INTEND'
    P_G04_3 OBJ 45.45818429324885
    P_G04_3 PMIN_G04_3 1.0
    P_G04_3 PMAX_G04_3 1.0
    P_G04_3 RUP_G04_3 1.0
    P_G04_3 RDN_G04_3 -1.0
    P_G04_3 RUP_G04_4 -1.0
    P_G04_3 RDN_G04_4 1.0
    P_G04_3 DEM_3 1.0
    M4436 'MARKER' 'INTORG'
    U_G04_4 OBJ 316.3317081396372
    U_G04_4 PMIN_G04_4 -89.88592459386169
    U_G04_4 PMAX_G04_4 -243.5008517025378
    U_G04_4 LOGIC_G04_4 1.0
    U_G04_4 MINUP_G04_4 -1.0
    U_G04_4 MINDN_G04_4 1.0
    U_G04_4 LOGIC_G04_5 -1.0
    U_G04_4 RES_4 243.5008517025378
    V_G04_4 OBJ 2866.2844748153425
    V_G04_4 LOGIC_G04_4 -1.0
    V_G04_4 MINUP_G04_4 1.0
    V_G04_4 MINUP_G04_5 1.0
    V_G04_4 MINUP_G04_6 1.0
    V_G04_4 MINUP_G04_7 1.0
    W_G04_4 LOGIC_G04_4 1.0
    W_G04_4 MINDN_G04_4 1.0
    W_G04_4 MINDN_G04_5 1.0
    W_G04_4 MINDN_G04_6 1.0
    W_G04_4 MINDN_G04_7 1.0
    W_G04_4 MINDN_G04_8 1.0
    M4457 'MARKER' 'INTEND'
    P_G04_4 OBJ 45.45818429324885
    P_G04_4 PMIN_G04_4 1.0
    P_G04_4 PMAX_G04_4 1.0
    P_G04_4 RUP_G04_4 1.0
    P_G04_4 RDN_G04_4 -1.0
    P_G04_4 RUP_G04_5 -1.0
    P_G04_4 RDN_G04_5 1.0
    P_G04_4 DEM_4 1.0
    M4466 'MARKER' 'INTORG'
    U_G04_5 OBJ 316.3317081396372
    U_G04_5 PMIN_G04_5 -89.88592459386169
    U_G04_5 PMAX_G04_5 -243.5008517025378
    U_G04_5 LOGIC_G04_5 1.0
    U_G04_5 MINUP_G04_5 -1.0
    U_G04_5 MINDN_G04_5 1.0
    U_G04_5 LOGIC_G04_6 -1.0
    U_G04_5 RES_5 243.5008517025378
    V_G04_5 OBJ 2866.2844748153425
    V_G04_5 LOGIC_G04_5 -1.0
    V_G04_5 MINUP_G04_5 1.0
    V_G04_5 MINUP_G04_6 1.0
    V_G04_5 MINUP_G04_7 1.0
    V_G04_5 MINUP_G04_8 1.0
    W_G04_5 LOGIC_G04_5 1.0
    W_G04_5 MINDN_G04_5 1.0
    W_G04_5 MINDN_G04_6 1.0
    W_G04_5 MINDN_G04_7 1.0
    W_G04_5 MINDN_G04_8 1.0
    W_G04_5 MINDN_G04_9 1.0
    M4487 'MARKER' 'INTEND'
    P_G04_5 OBJ 45.45818429324885
    P_G04_5 PMIN_G04_5 1.0
    P_G04_5 PMAX_G04_5 1.0
    P_G04_5 RUP_G04_5 1.0
    P_G04_5 RDN_G04_5 -1.0
    P_G04_5 RUP_G04_6 -1.0
    P_G04_5 RDN_G04_6 1.0
    P_G04_5 DEM_5 1.0
    M4496 'MARKER' 'INTORG'
    U_G04_6 OBJ 316.3317081396372
    U_G04_6 PMIN_G04_6 -89.88592459386169
    U_G04_6 PMAX_G04_6 -243.5008517025378
    U_G04_6 LOGIC_G04_6 1.0
    U_G04_6 MINUP_G04_6 -1.0
    U_G04_6 MINDN_G04_6 1.0
    U_G04_6 LOGIC_G04_7 -1.0
    U_G04_6 RES_6 243.5008517025378
    V_G04_6 OBJ 2866.2844748153425
    V_G04_6 LOGIC_G04_6 -1.0
    V_G04_6 MINUP_G04_6 1.0
    V_G04_6 MINUP_G04_7 1.0
    V_G04_6 MINUP_G04_8 1.0
    V_G04_6 MINUP_G04_9 1.0
    W_G04_6 LOGIC_G04_6 1.0
    W_G04_6 MINDN_G04_6 1.0
    W_G04_6 MINDN_G04_7 1.0
    W_G04_6 MINDN_G04_8 1.0
    W_G04_6 MINDN_G04_9 1.0
    W_G04_6 MINDN_G04_10 1.0
    M4517 'MARKER' 'INTEND'
    P_G04_6 OBJ 45.45818429324885
    P_G04_6 PMIN_G04_6 1.0
    P_G04_6 PMAX_G04_6 1.0
    P_G04_6 RUP_G04_6 1.0
    P_G04_6 RDN_G04_6 -1.0
    P_G04_6 RUP_G04_7 -1.0
    P_G04_6 RDN_G04_7 1.0
    P_G04_6 DEM_6 1.0
    M4526 'MARKER' 'INTORG'
    U_G04_7 OBJ 316.3317081396372
    U_G04_7 PMIN_G04_7 -89.88592459386169
    U_G04_7 PMAX_G04_7 -243.5008517025378
    U_G04_7 LOGIC_G04_7 1.0
    U_G04_7 MINUP_G04_7 -1.0
    U_G04_7 MINDN_G04_7 1.0
    U_G04_7 LOGIC_G04_8 -1.0
    U_G04_7 RES_7 243.5008517025378
    V_G04_7 OBJ 2866.2844748153425
    V_G04_7 LOGIC_G04_7 -1.0
    V_G04_7 MINUP_G04_7 1.0
    V_G04_7 MINUP_G04_8 1.0
    V_G04_7 MINUP_G04_9 1.0
    V_G04_7 MINUP_G04_10 1.0
    W_G04_7 LOGIC_G04_7 1.0
    W_G04_7 MINDN_G04_7 1.0
    W_G04_7 MINDN_G04_8 1.0
    W_G04_7 MINDN_G04_9 1.0
    W_G04_7 MINDN_G04_10 1.0
    W_G04_7 MINDN_G04_11 1.0
    M4547 'MARKER' 'INTEND'
    P_G04_7 OBJ 45.45818429324885
    P_G04_7 PMIN_G04_7 1.0
    P_G04_7 PMAX_G04_7 1.0
    P_G04_7 RUP_G04_7 1.0
    P_G04_7 RDN_G04_7 -1.0
    P_G04_7 RUP_G04_8 -1.0
    P_G04_7 RDN_G04_8 1.0
    P_G04_7 DEM_7 1.0
    M4556 'MARKER' 'INTORG'
    U_G04_8 OBJ 316.3317081396372
    U_G04_8 PMIN_G04_8 -89.88592459386169
    U_G04_8 PMAX_G04_8 -243.5008517025378
    U_G04_8 LOGIC_G04_8 1.0
    U_G04_8 MINUP_G04_8 -1.0
    U_G04_8 MINDN_G04_8 1.0
    U_G04_8 LOGIC_G04_9 -1.0
    U_G04_8 RES_8 243.5008517025378
    V_G04_8 OBJ 2866.2844748153425
    V_G04_8 LOGIC_G04_8 -1.0
    V_G04_8 MINUP_G04_8 1.0
    V_G04_8 MINUP_G04_9 1.0
    V_G04_8 MINUP_G04_10 1.0
    V_G04_8 MINUP_G04_11 1.0
    W_G04_8 LOGIC_G04_8 1.0
    W_G04_8 MINDN_G04_8 1.0
    W_G04_8 MINDN_G04_9 1.0
    W_G04_8 MINDN_G04_10 1.0
    W_G04_8 MINDN_G04_11 1.0
    W_G04_8 MINDN_G04_12 1.0
    M4577 'MARKER' 'INTEND'
    P_G04_8 OBJ 45.45818429324885
    P_G04_8 PMIN_G04_8 1.0
    P_G04_8 PMAX_G04_8 1.0
    P_G04_8 RUP_G04_8 1.0
    P_G04_8 RDN_G04_8 -1.0
    P_G04_8 RUP_G04_9 -1.0
    P_G04_8 RDN_G04_9 1.0
    P_G04_8 DEM_8 1.0
    M4586 'MARKER' 'INTORG'
    U_G04_9 OBJ 316.3317081396372
    U_G04_9 PMIN_G04_9 -89.88592459386169
    U_G04_9 PMAX_G04_9 -243.5008517025378
    U_G04_9 LOGIC_G04_9 1.0
    U_G04_9 MINUP_G04_9 -1.0
    U_G04_9 MINDN_G04_9 1.0
    U_G04_9 LOGIC_G04_10 -1.0
    U_G04_9 RES_9 243.5008517025378
    V_G04_9 OBJ 2866.2844748153425
    V_G04_9 LOGIC_G04_9 -1.0
    V_G04_9 MINUP_G04_9 1.0
    V_G04_9 MINUP_G04_10 1.0
    V_G04_9 MINUP_G04_11 1.0
    V_G04_9 MINUP_G04_12 1.0
    W_G04_9 LOGIC_G04_9 1.0
    W_G04_9 MINDN_G04_9 1.0
    W_G04_9 MINDN_G04_10 1.0
    W_G04_9 MINDN_G04_11 1.0
    W_G04_9 MINDN_G04_12 1.0
    W_G04_9 MINDN_G04_13 1.0
    M4607 'MARKER' 'INTEND'
    P_G04_9 OBJ 45.45818429324885
    P_G04_9 PMIN_G04_9 1.0
    P_G04_9 PMAX_G04_9 1.0
    P_G04_9 RUP_G04_9 1.0
    P_G04_9 RDN_G04_9 -1.0
    P_G04_9 RUP_G04_10 -1.0
    P_G04_9 RDN_G04_10 1.0
    P_G04_9 DEM_9 1.0
    M4616 'MARKER' 'INTORG'
    U_G04_10 OBJ 316.3317081396372
    U_G04_10 PMIN_G04_10 -89.88592459386169
    U_G04_10 PMAX_G04_10 -243.5008517025378
    U_G04_10 LOGIC_G04_10 1.0
    U_G04_10 MINUP_G04_10 -1.0
    U_G04_10 MINDN_G04_10 1.0
    U_G04_10 LOGIC_G04_11 -1.0
    U_G04_10 RES_10 243.5008517025378
    V_G04_10 OBJ 2866.2844748153425
    V_G04_10 LOGIC_G04_10 -1.0
    V_G04_10 MINUP_G04_10 1.0
    V_G04_10 MINUP_G04_11 1.0
    V_G04_10 MINUP_G04_12 1.0
    V_G04_10 MINUP_G04_13 1.0
    W_G04_10 LOGIC_G04_10 1.0
    W_G04_10 MINDN_G04_10 1.0
    W_G04_10 MINDN_G04_11 1.0
    W_G04_10 MINDN_G04_12 1.0
    W_G04_10 MINDN_G04_13 1.0
    W_G04_10 MINDN_G04_14 1.0
    M4637 'MARKER' 'INTEND'
    P_G04_10 OBJ 45.45818429324885
    P_G04_10 PMIN_G04_10 1.0
    P_G04_10 PMAX_G04_10 1.0
    P_G04_10 RUP_G04_10 1.0
    P_G04_10 RDN_G04_10 -1.0
    P_G04_10 RUP_G04_11 -1.0
    P_G04_10 RDN_G04_11 1.0
    P_G04_10 DEM_10 1.0
    M4646 'MARKER' 'INTORG'
    U_G04_11 OBJ 316.3317081396372
    U_G04_11 PMIN_G04_11 -89.88592459386169
    U_G04_11 PMAX_G04_11 -243.5008517025378
    U_G04_11 LOGIC_G04_11 1.0
    U_G04_11 MINUP_G04_11 -1.0
    U_G04_11 MINDN_G04_11 1.0
    U_G04_11 LOGIC_G04_12 -1.0
    U_G04_11 RES_11 243.5008517025378
    V_G04_11 OBJ 2866.2844748153425
    V_G04_11 LOGIC_G04_11 -1.0
    V_G04_11 MINUP_G04_11 1.0
    V_G04_11 MINUP_G04_12 1.0
    V_G04_11 MINUP_G04_13 1.0
    V_G04_11 MINUP_G04_14 1.0
    W_G04_11 LOGIC_G04_11 1.0
    W_G04_11 MINDN_G04_11 1.0
    W_G04_11 MINDN_G04_12 1.0
    W_G04_11 MINDN_G04_13 1.0
    W_G04_11 MINDN_G04_14 1.0
    W_G04_11 MINDN_G04_15 1.0
    M4667 'MARKER' 'INTEND'
    P_G04_11 OBJ 45.45818429324885
    P_G04_11 PMIN_G04_11 1.0
    P_G04_11 PMAX_G04_11 1.0
    P_G04_11 RUP_G04_11 1.0
    P_G04_11 RDN_G04_11 -1.0
    P_G04_11 RUP_G04_12 -1.0
    P_G04_11 RDN_G04_12 1.0
    P_G04_11 DEM_11 1.0
    M4676 'MARKER' 'INTORG'
    U_G04_12 OBJ 316.3317081396372
    U_G04_12 PMIN_G04_12 -89.88592459386169
    U_G04_12 PMAX_G04_12 -243.5008517025378
    U_G04_12 LOGIC_G04_12 1.0
    U_G04_12 MINUP_G04_12 -1.0
    U_G04_12 MINDN_G04_12 1.0
    U_G04_12 LOGIC_G04_13 -1.0
    U_G04_12 RES_12 243.5008517025378
    V_G04_12 OBJ 2866.2844748153425
    V_G04_12 LOGIC_G04_12 -1.0
    V_G04_12 MINUP_G04_12 1.0
    V_G04_12 MINUP_G04_13 1.0
    V_G04_12 MINUP_G04_14 1.0
    V_G04_12 MINUP_G04_15 1.0
    W_G04_12 LOGIC_G04_12 1.0
    W_G04_12 MINDN_G04_12 1.0
    W_G04_12 MINDN_G04_13 1.0
    W_G04_12 MINDN_G04_14 1.0
    W_G04_12 MINDN_G04_15 1.0
    W_G04_12 MINDN_G04_16 1.0
    M4697 'MARKER' 'INTEND'
    P_G04_12 OBJ 45.45818429324885
    P_G04_12 PMIN_G04_12 1.0
    P_G04_12 PMAX_G04_12 1.0
    P_G04_12 RUP_G04_12 1.0
    P_G04_12 RDN_G04_12 -1.0
    P_G04_12 RUP_G04_13 -1.0
    P_G04_12 RDN_G04_13 1.0
    P_G04_12 DEM_12 1.0
    M4706 'MARKER' 'INTORG'
    U_G04_13 OBJ 316.3317081396372
    U_G04_13 PMIN_G04_13 -89.88592459386169
    U_G04_13 PMAX_G04_13 -243.5008517025378
    U_G04_13 LOGIC_G04_13 1.0
    U_G04_13 MINUP_G04_13 -1.0
    U_G04_13 MINDN_G04_13 1.0
    U_G04_13 LOGIC_G04_14 -1.0
    U_G04_13 RES_13 243.5008517025378
    V_G04_13 OBJ 2866.2844748153425
    V_G04_13 LOGIC_G04_13 -1.0
    V_G04_13 MINUP_G04_13 1.0
    V_G04_13 MINUP_G04_14 1.0
    V_G04_13 MINUP_G04_15 1.0
    V_G04_13 MINUP_G04_16 1.0
    W_G04_13 LOGIC_G04_13 1.0
    W_G04_13 MINDN_G04_13 1.0
    W_G04_13 MINDN_G04_14 1.0
    W_G04_13 MINDN_G04_15 1.0
    W_G04_13 MINDN_G04_16 1.0
    W_G04_13 MINDN_G04_17 1.0
    M4727 'MARKER' 'INTEND'
    P_G04_13 OBJ 45.45818429324885
    P_G04_13 PMIN_G04_13 1.0
    P_G04_13 PMAX_G04_13 1.0
    P_G04_13 RUP_G04_13 1.0
    P_G04_13 RDN_G04_13 -1.0
    P_G04_13 RUP_G04_14 -1.0
    P_G04_13 RDN_G04_14 1.0
    P_G04_13 DEM_13 1.0
    M4736 'MARKER' 'INTORG'
    U_G04_14 OBJ 316.3317081396372
    U_G04_14 PMIN_G04_14 -89.88592459386169
    U_G04_14 PMAX_G04_14 -243.5008517025378
    U_G04_14 LOGIC_G04_14 1.0
    U_G04_14 MINUP_G04_14 -1.0
    U_G04_14 MINDN_G04_14 1.0
    U_G04_14 LOGIC_G04_15 -1.0
    U_G04_14 RES_14 243.5008517025378
    V_G04_14 OBJ 2866.2844748153425
    V_G04_14 LOGIC_G04_14 -1.0
    V_G04_14 MINUP_G04_14 1.0
    V_G04_14 MINUP_G04_15 1.0
    V_G04_14 MINUP_G04_16 1.0
    V_G04_14 MINUP_G04_17 1.0
    W_G04_14 LOGIC_G04_14 1.0
    W_G04_14 MINDN_G04_14 1.0
    W_G04_14 MINDN_G04_15 1.0
    W_G04_14 MINDN_G04_16 1.0
    W_G04_14 MINDN_G04_17 1.0
    W_G04_14 MINDN_G04_18 1.0
    M4757 'MARKER' 'INTEND'
    P_G04_14 OBJ 45.45818429324885
    P_G04_14 PMIN_G04_14 1.0
    P_G04_14 PMAX_G04_14 1.0
    P_G04_14 RUP_G04_14 1.0
    P_G04_14 RDN_G04_14 -1.0
    P_G04_14 RUP_G04_15 -1.0
    P_G04_14 RDN_G04_15 1.0
    P_G04_14 DEM_14 1.0
    M4766 'MARKER' 'INTORG'
    U_G04_15 OBJ 316.3317081396372
    U_G04_15 PMIN_G04_15 -89.88592459386169
    U_G04_15 PMAX_G04_15 -243.5008517025378
    U_G04_15 LOGIC_G04_15 1.0
    U_G04_15 MINUP_G04_15 -1.0
    U_G04_15 MINDN_G04_15 1.0
    U_G04_15 LOGIC_G04_16 -1.0
    U_G04_15 RES_15 243.5008517025378
    V_G04_15 OBJ 2866.2844748153425
    V_G04_15 LOGIC_G04_15 -1.0
    V_G04_15 MINUP_G04_15 1.0
    V_G04_15 MINUP_G04_16 1.0
    V_G04_15 MINUP_G04_17 1.0
    V_G04_15 MINUP_G04_18 1.0
    W_G04_15 LOGIC_G04_15 1.0
    W_G04_15 MINDN_G04_15 1.0
    W_G04_15 MINDN_G04_16 1.0
    W_G04_15 MINDN_G04_17 1.0
    W_G04_15 MINDN_G04_18 1.0
    W_G04_15 MINDN_G04_19 1.0
    M4787 'MARKER' 'INTEND'
    P_G04_15 OBJ 45.45818429324885
    P_G04_15 PMIN_G04_15 1.0
    P_G04_15 PMAX_G04_15 1.0
    P_G04_15 RUP_G04_15 1.0
    P_G04_15 RDN_G04_15 -1.0
    P_G04_15 RUP_G04_16 -1.0
    P_G04_15 RDN_G04_16 1.0
    P_G04_15 DEM_15 1.0
    M4796 'MARKER' 'INTORG'
    U_G04_16 OBJ 316.3317081396372
    U_G04_16 PMIN_G04_16 -89.88592459386169
    U_G04_16 PMAX_G04_16 -243.5008517025378
    U_G04_16 LOGIC_G04_16 1.0
    U_G04_16 MINUP_G04_16 -1.0
    U_G04_16 MINDN_G04_16 1.0
    U_G04_16 LOGIC_G04_17 -1.0
    U_G04_16 RES_16 243.5008517025378
    V_G04_16 OBJ 2866.2844748153425
    V_G04_16 LOGIC_G04_16 -1.0
    V_G04_16 MINUP_G04_16 1.0
    V_G04_16 MINUP_G04_17 1.0
    V_G04_16 MINUP_G04_18 1.0
    V_G04_16 MINUP_G04_19 1.0
    W_G04_16 LOGIC_G04_16 1.0
    W_G04_16 MINDN_G04_16 1.0
    W_G04_16 MINDN_G04_17 1.0
    W_G04_16 MINDN_G04_18 1.0
    W_G04_16 MINDN_G04_19 1.0
    W_G04_16 MINDN_G04_20 1.0
    M4817 'MARKER' 'INTEND'
    P_G04_16 OBJ 45.45818429324885
    P_G04_16 PMIN_G04_16 1.0
    P_G04_16 PMAX_G04_16 1.0
    P_G04_16 RUP_G04_16 1.0
    P_G04_16 RDN_G04_16 -1.0
    P_G04_16 RUP_G04_17 -1.0
    P_G04_16 RDN_G04_17 1.0
    P_G04_16 DEM_16 1.0
    M4826 'MARKER' 'INTORG'
    U_G04_17 OBJ 316.3317081396372
    U_G04_17 PMIN_G04_17 -89.88592459386169
    U_G04_17 PMAX_G04_17 -243.5008517025378
    U_G04_17 LOGIC_G04_17 1.0
    U_G04_17 MINUP_G04_17 -1.0
    U_G04_17 MINDN_G04_17 1.0
    U_G04_17 LOGIC_G04_18 -1.0
    U_G04_17 RES_17 243.5008517025378
    V_G04_17 OBJ 2866.2844748153425
    V_G04_17 LOGIC_G04_17 -1.0
    V_G04_17 MINUP_G04_17 1.0
    V_G04_17 MINUP_G04_18 1.0
    V_G04_17 MINUP_G04_19 1.0
    V_G04_17 MINUP_G04_20 1.0
    W_G04_17 LOGIC_G04_17 1.0
    W_G04_17 MINDN_G04_17 1.0
    W_G04_17 MINDN_G04_18 1.0
    W_G04_17 MINDN_G04_19 1.0
    W_G04_17 MINDN_G04_20 1.0
    W_G04_17 MINDN_G04_21 1.0
    M4847 'MARKER' 'INTEND'
    P_G04_17 OBJ 45.45818429324885
    P_G04_17 PMIN_G04_17 1.0
    P_G04_17 PMAX_G04_17 1.0
    P_G04_17 RUP_G04_17 1.0
    P_G04_17 RDN_G04_17 -1.0
    P_G04_17 RUP_G04_18 -1.0
    P_G04_17 RDN_G04_18 1.0
    P_G04_17 DEM_17 1.0
    M4856 'MARKER' 'INTORG'
    U_G04_18 OBJ 316.3317081396372
    U_G04_18 PMIN_G04_18 -89.88592459386169
    U_G04_18 PMAX_G04_18 -243.5008517025378
    U_G04_18 LOGIC_G04_18 1.0
    U_G04_18 MINUP_G04_18 -1.0
    U_G04_18 MINDN_G04_18 1.0
    U_G04_18 LOGIC_G04_19 -1.0
    U_G04_18 RES_18 243.5008517025378
    V_G04_18 OBJ 2866.2844748153425
    V_G04_18 LOGIC_G04_18 -1.0
    V_G04_18 MINUP_G04_18 1.0
    V_G04_18 MINUP_G04_19 1.0
    V_G04_18 MINUP_G04_20 1.0
    V_G04_18 MINUP_G04_21 1.0
    W_G04_18 LOGIC_G04_18 1.0
    W_G04_18 MINDN_G04_18 1.0
    W_G04_18 MINDN_G04_19 1.0
    W_G04_18 MINDN_G04_20 1.0
    W_G04_18 MINDN_G04_21 1.0
    W_G04_18 MINDN_G04_22 1.0
    M4877 'MARKER' 'INTEND'
    P_G04_18 OBJ 45.45818429324885
    P_G04_18 PMIN_G04_18 1.0
    P_G04_18 PMAX_G04_18 1.0
    P_G04_18 RUP_G04_18 1.0
    P_G04_18 RDN_G04_18 -1.0
    P_G04_18 RUP_G04_19 -1.0
    P_G04_18 RDN_G04_19 1.0
    P_G04_18 DEM_18 1.0
    M4886 'MARKER' 'INTORG'
    U_G04_19 OBJ 316.3317081396372
    U_G04_19 PMIN_G04_19 -89.88592459386169
    U_G04_19 PMAX_G04_19 -243.5008517025378
    U_G04_19 LOGIC_G04_19 1.0
    U_G04_19 MINUP_G04_19 -1.0
    U_G04_19 MINDN_G04_19 1.0
    U_G04_19 LOGIC_G04_20 -1.0
    U_G04_19 RES_19 243.5008517025378
    V_G04_19 OBJ 2866.2844748153425
    V_G04_19 LOGIC_G04_19 -1.0
    V_G04_19 MINUP_G04_19 1.0
    V_G04_19 MINUP_G04_20 1.0
    V_G04_19 MINUP_G04_21 1.0
    V_G04_19 MINUP_G04_22 1.0
    W_G04_19 LOGIC_G04_19 1.0
    W_G04_19 MINDN_G04_19 1.0
    W_G04_19 MINDN_G04_20 1.0
    W_G04_19 MINDN_G04_21 1.0
    W_G04_19 MINDN_G04_22 1.0
    W_G04_19 MINDN_G04_23 1.0
    M4907 'MARKER' 'INTEND'
    P_G04_19 OBJ 45.45818429324885
    P_G04_19 PMIN_G04_19 1.0
    P_G04_19 PMAX_G04_19 1.0
    P_G04_19 RUP_G04_19 1.0
    P_G04_19 RDN_G04_19 -1.0
    P_G04_19 RUP_G04_20 -1.0
    P_G04_19 RDN_G04_20 1.0
    P_G04_19 DEM_19 1.0
    M4916 'MARKER' 'INTORG'
    U_G04_20 OBJ 316.3317081396372
    U_G04_20 PMIN_G04_20 -89.88592459386169
    U_G04_20 PMAX_G04_20 -243.5008517025378
    U_G04_20 LOGIC_G04_20 1.0
    U_G04_20 MINUP_G04_20 -1.0
    U_G04_20 MINDN_G04_20 1.0
    U_G04_20 LOGIC_G04_21 -1.0
    U_G04_20 RES_20 243.5008517025378
    V_G04_20 OBJ 2866.2844748153425
    V_G04_20 LOGIC_G04_20 -1.0
    V_G04_20 MINUP_G04_20 1.0
    V_G04_20 MINUP_G04_21 1.0
    V_G04_20 MINUP_G04_22 1.0
    V_G04_20 MINUP_G04_23 1.0
    W_G04_20 LOGIC_G04_20 1.0
    W_G04_20 MINDN_G04_20 1.0
    W_G04_20 MINDN_G04_21 1.0
    W_G04_20 MINDN_G04_22 1.0
    W_G04_20 MINDN_G04_23 1.0
    M4936 'MARKER' 'INTEND'
    P_G04_20 OBJ 45.45818429324885
    P_G04_20 PMIN_G04_20 1.0
    P_G04_20 PMAX_G04_20 1.0
    P_G04_20 RUP_G04_20 1.0
    P_G04_20 RDN_G04_20 -1.0
    P_G04_20 RUP_G04_21 -1.0
    P_G04_20 RDN_G04_21 1.0
    P_G04_20 DEM_20 1.0
    M4945 'MARKER' 'INTORG'
    U_G04_21 OBJ 316.3317081396372
    U_G04_21 PMIN_G04_21 -89.88592459386169
    U_G04_21 PMAX_G04_21 -243.5008517025378
    U_G04_21 LOGIC_G04_21 1.0
    U_G04_21 MINUP_G04_21 -1.0
    U_G04_21 MINDN_G04_21 1.0
    U_G04_21 LOGIC_G04_22 -1.0
    U_G04_21 RES_21 243.5008517025378
    V_G04_21 OBJ 2866.2844748153425
    V_G04_21 LOGIC_G04_21 -1.0
    V_G04_21 MINUP_G04_21 1.0
    V_G04_21 MINUP_G04_22 1.0
    V_G04_21 MINUP_G04_23 1.0
    W_G04_21 LOGIC_G04_21 1.0
    W_G04_21 MINDN_G04_21 1.0
    W_G04_21 MINDN_G04_22 1.0
    W_G04_21 MINDN_G04_23 1.0
    M4963 'MARKER' 'INTEND'
    P_G04_21 OBJ 45.45818429324885
    P_G04_21 PMIN_G04_21 1.0
    P_G04_21 PMAX_G04_21 1.0
    P_G04_21 RUP_G04_21 1.0
    P_G04_21 RDN_G04_21 -1.0
    P_G04_21 RUP_G04_22 -1.0
    P_G04_21 RDN_G04_22 1.0
    P_G04_21 DEM_21 1.0
    M4972 'MARKER' 'INTORG'
    U_G04_22 OBJ 316.3317081396372
    U_G04_22 PMIN_G04_22 -89.88592459386169
    U_G04_22 PMAX_G04_22 -243.5008517025378
    U_G04_22 LOGIC_G04_22 1.0
    U_G04_22 MINUP_G04_22 -1.0
    U_G04_22 MINDN_G04_22 1.0
    U_G04_22 LOGIC_G04_23 -1.0
    U_G04_22 RES_22 243.5008517025378
    V_G04_22 OBJ 2866.2844748153425
    V_G04_22 LOGIC_G04_22 -1.0
    V_G04_22 MINUP_G04_22 1.0
    V_G04_22 MINUP_G04_23 1.0
    W_G04_22 LOGIC_G04_22 1.0
    W_G04_22 MINDN_G04_22 1.0
    W_G04_22 MINDN_G04_23 1.0
    M4988 'MARKER' 'INTEND'
    P_G04_22 OBJ 45.45818429324885
    P_G04_22 PMIN_G04_22 1.0
    P_G04_22 PMAX_G04_22 1.0
    P_G04_22 RUP_G04_22 1.0
    P_G04_22 RDN_G04_22 -1.0
    P_G04_22 RUP_G04_23 -1.0
    P_G04_22 RDN_G04_23 1.0
    P_G04_22 DEM_22 1.0
    M4997 'MARKER' 'INTORG'
    U_G04_23 OBJ 316.3317081396372
    U_G04_23 PMIN_G04_23 -89.88592459386169
    U_G04_23 PMAX_G04_23 -243.5008517025378
    U_G04_23 LOGIC_G04_23 1.0
    U_G04_23 MINUP_G04_23 -1.0
    U_G04_23 MINDN_G04_23 1.0
    U_G04_23 RES_23 243.5008517025378
    V_G04_23 OBJ 2866.2844748153425
    V_G04_23 LOGIC_G04_23 -1.0
    V_G04_23 MINUP_G04_23 1.0
    W_G04_23 LOGIC_G04_23 1.0
    W_G04_23 MINDN_G04_23 1.0
    M5010 'MARKER' 'INTEND'
    P_G04_23 OBJ 45.45818429324885
    P_G04_23 PMIN_G04_23 1.0
    P_G04_23 PMAX_G04_23 1.0
    P_G04_23 RUP_G04_23 1.0
    P_G04_23 RDN_G04_23 -1.0
    P_G04_23 DEM_23 1.0
    M5017 'MARKER' 'INTORG'
    U_G05_0 OBJ 303.2736536188519
    U_G05_0 PMIN_G05_0 -119.28513920771101
    U_G05_0 PMAX_G05_0 -372.7659968644606
    U_G05_0 LOGIC_G05_0 1.0
    U_G05_0 MINUP_G05_0 -1.0
    U_G05_0 MINDN_G05_0 1.0
    U_G05_0 LOGIC_G05_1 -1.0
    U_G05_0 RES_0 372.7659968644606
    V_G05_0 OBJ 1029.8930998034168
    V_G05_0 LOGIC_G05_0 -1.0
    V_G05_0 MINUP_G05_0 1.0
    V_G05_0 MINUP_G05_1 1.0
    V_G05_0 MINUP_G05_2 1.0
    V_G05_0 MINUP_G05_3 1.0
    V_G05_0 MINUP_G05_4 1.0
    W_G05_0 LOGIC_G05_0 1.0
    W_G05_0 MINDN_G05_0 1.0
    W_G05_0 MINDN_G05_1 1.0
    W_G05_0 MINDN_G05_2 1.0
    W_G05_0 MINDN_G05_3 1.0
    M5038 'MARKER' 'INTEND'
    P_G05_0 OBJ 43.32088071602921
    P_G05_0 PMIN_G05_0 1.0
    P_G05_0 PMAX_G05_0 1.0
    P_G05_0 RUP_G05_1 -1.0
    P_G05_0 RDN_G05_1 1.0
    P_G05_0 DEM_0 1.0
    M5045 'MARKER' 'INTORG'
    U_G05_1 OBJ 303.2736536188519
    U_G05_1 PMIN_G05_1 -119.28513920771101
    U_G05_1 PMAX_G05_1 -372.7659968644606
    U_G05_1 LOGIC_G05_1 1.0
    U_G05_1 MINUP_G05_1 -1.0
    U_G05_1 MINDN_G05_1 1.0
    U_G05_1 LOGIC_G05_2 -1.0
    U_G05_1 RES_1 372.7659968644606
    V_G05_1 OBJ 1029.8930998034168
    V_G05_1 LOGIC_G05_1 -1.0
    V_G05_1 MINUP_G05_1 1.0
    V_G05_1 MINUP_G05_2 1.0
    V_G05_1 MINUP_G05_3 1.0
    V_G05_1 MINUP_G05_4 1.0
    V_G05_1 MINUP_G05_5 1.0
    W_G05_1 LOGIC_G05_1 1.0
    W_G05_1 MINDN_G05_1 1.0
    W_G05_1 MINDN_G05_2 1.0
    W_G05_1 MINDN_G05_3 1.0
    W_G05_1 MINDN_G05_4 1.0
    M5066 'MARKER' 'INTEND'
    P_G05_1 OBJ 43.32088071602921
    P_G05_1 PMIN_G05_1 1.0
    P_G05_1 PMAX_G05_1 1.0
    P_G05_1 RUP_G05_1 1.0
    P_G05_1 RDN_G05_1 -1.0
    P_G05_1 RUP_G05_2 -1.0
    P_G05_1 RDN_G05_2 1.0
    P_G05_1 DEM_1 1.0
    M5075 'MARKER' 'INTORG'
    U_G05_2 OBJ 303.2736536188519
    U_G05_2 PMIN_G05_2 -119.28513920771101
    U_G05_2 PMAX_G05_2 -372.7659968644606
    U_G05_2 LOGIC_G05_2 1.0
    U_G05_2 MINUP_G05_2 -1.0
    U_G05_2 MINDN_G05_2 1.0
    U_G05_2 LOGIC_G05_3 -1.0
    U_G05_2 RES_2 372.7659968644606
    V_G05_2 OBJ 1029.8930998034168
    V_G05_2 LOGIC_G05_2 -1.0
    V_G05_2 MINUP_G05_2 1.0
    V_G05_2 MINUP_G05_3 1.0
    V_G05_2 MINUP_G05_4 1.0
    V_G05_2 MINUP_G05_5 1.0
    V_G05_2 MINUP_G05_6 1.0
    W_G05_2 LOGIC_G05_2 1.0
    W_G05_2 MINDN_G05_2 1.0
    W_G05_2 MINDN_G05_3 1.0
    W_G05_2 MINDN_G05_4 1.0
    W_G05_2 MINDN_G05_5 1.0
    M5096 'MARKER' 'INTEND'
    P_G05_2 OBJ 43.32088071602921
    P_G05_2 PMIN_G05_2 1.0
    P_G05_2 PMAX_G05_2 1.0
    P_G05_2 RUP_G05_2 1.0
    P_G05_2 RDN_G05_2 -1.0
    P_G05_2 RUP_G05_3 -1.0
    P_G05_2 RDN_G05_3 1.0
    P_G05_2 DEM_2 1.0
    M5105 'MARKER' 'INTORG'
    U_G05_3 OBJ 303.2736536188519
    U_G05_3 PMIN_G05_3 -119.28513920771101
    U_G05_3 PMAX_G05_3 -372.7659968644606
    U_G05_3 LOGIC_G05_3 1.0
    U_G05_3 MINUP_G05_3 -1.0
    U_G05_3 MINDN_G05_3 1.0
    U_G05_3 LOGIC_G05_4 -1.0
    U_G05_3 RES_3 372.7659968644606
    V_G05_3 OBJ 1029.8930998034168
    V_G05_3 LOGIC_G05_3 -1.0
    V_G05_3 MINUP_G05_3 1.0
    V_G05_3 MINUP_G05_4 1.0
    V_G05_3 MINUP_G05_5 1.0
    V_G05_3 MINUP_G05_6 1.0
    V_G05_3 MINUP_G05_7 1.0
    W_G05_3 LOGIC_G05_3 1.0
    W_G05_3 MINDN_G05_3 1.0
    W_G05_3 MINDN_G05_4 1.0
    W_G05_3 MINDN_G05_5 1.0
    W_G05_3 MINDN_G05_6 1.0
    M5126 'MARKER' 'INTEND'
    P_G05_3 OBJ 43.32088071602921
    P_G05_3 PMIN_G05_3 1.0
    P_G05_3 PMAX_G05_3 1.0
    P_G05_3 RUP_G05_3 1.0
    P_G05_3 RDN_G05_3 -1.0
    P_G05_3 RUP_G05_4 -1.0
    P_G05_3 RDN_G05_4 1.0
    P_G05_3 DEM_3 1.0
    M5135 'MARKER' 'INTORG'
    U_G05_4 OBJ 303.2736536188519
    U_G05_4 PMIN_G05_4 -119.28513920771101
    U_G05_4 PMAX_G05_4 -372.7659968644606
    U_G05_4 LOGIC_G05_4 1.0
    U_G05_4 MINUP_G05_4 -1.0
    U_G05_4 MINDN_G05_4 1.0
    U_G05_4 LOGIC_G05_5 -1.0
    U_G05_4 RES_4 372.7659968644606
    V_G05_4 OBJ 1029.8930998034168
    V_G05_4 LOGIC_G05_4 -1.0
    V_G05_4 MINUP_G05_4 1.0
    V_G05_4 MINUP_G05_5 1.0
    V_G05_4 MINUP_G05_6 1.0
    V_G05_4 MINUP_G05_7 1.0
    V_G05_4 MINUP_G05_8 1.0
    W_G05_4 LOGIC_G05_4 1.0
    W_G05_4 MINDN_G05_4 1.0
    W_G05_4 MINDN_G05_5 1.0
    W_G05_4 MINDN_G05_6 1.0
    W_G05_4 MINDN_G05_7 1.0
    M5156 'MARKER' 'INTEND'
    P_G05_4 OBJ 43.32088071602921
    P_G05_4 PMIN_G05_4 1.0
    P_G05_4 PMAX_G05_4 1.0
    P_G05_4 RUP_G05_4 1.0
    P_G05_4 RDN_G05_4 -1.0
    P_G05_4 RUP_G05_5 -1.0
    P_G05_4 RDN_G05_5 1.0
    P_G05_4 DEM_4 1.0
    M5165 'MARKER' 'INTORG'
    U_G05_5 OBJ 303.2736536188519
    U_G05_5 PMIN_G05_5 -119.28513920771101
    U_G05_5 PMAX_G05_5 -372.7659968644606
    U_G05_5 LOGIC_G05_5 1.0
    U_G05_5 MINUP_G05_5 -1.0
    U_G05_5 MINDN_G05_5 1.0
    U_G05_5 LOGIC_G05_6 -1.0
    U_G05_5 RES_5 372.7659968644606
    V_G05_5 OBJ 1029.8930998034168
    V_G05_5 LOGIC_G05_5 -1.0
    V_G05_5 MINUP_G05_5 1.0
    V_G05_5 MINUP_G05_6 1.0
    V_G05_5 MINUP_G05_7 1.0
    V_G05_5 MINUP_G05_8 1.0
    V_G05_5 MINUP_G05_9 1.0
    W_G05_5 LOGIC_G05_5 1.0
    W_G05_5 MINDN_G05_5 1.0
    W_G05_5 MINDN_G05_6 1.0
    W_G05_5 MINDN_G05_7 1.0
    W_G05_5 MINDN_G05_8 1.0
    M5186 'MARKER' 'INTEND'
    P_G05_5 OBJ 43.32088071602921
    P_G05_5 PMIN_G05_5 1.0
    P_G05_5 PMAX_G05_5 1.0
    P_G05_5 RUP_G05_5 1.0
    P_G05_5 RDN_G05_5 -1.0
    P_G05_5 RUP_G05_6 -1.0
    P_G05_5 RDN_G05_6 1.0
    P_G05_5 DEM_5 1.0
    M5195 'MARKER' 'INTORG'
    U_G05_6 OBJ 303.2736536188519
    U_G05_6 PMIN_G05_6 -119.28513920771101
    U_G05_6 PMAX_G05_6 -372.7659968644606
    U_G05_6 LOGIC_G05_6 1.0
    U_G05_6 MINUP_G05_6 -1.0
    U_G05_6 MINDN_G05_6 1.0
    U_G05_6 LOGIC_G05_7 -1.0
    U_G05_6 RES_6 372.7659968644606
    V_G05_6 OBJ 1029.8930998034168
    V_G05_6 LOGIC_G05_6 -1.0
    V_G05_6 MINUP_G05_6 1.0
    V_G05_6 MINUP_G05_7 1.0
    V_G05_6 MINUP_G05_8 1.0
    V_G05_6 MINUP_G05_9 1.0
    V_G05_6 MINUP_G05_10 1.0
    W_G05_6 LOGIC_G05_6 1.0
    W_G05_6 MINDN_G05_6 1.0
    W_G05_6 MINDN_G05_7 1.0
    W_G05_6 MINDN_G05_8 1.0
    W_G05_6 MINDN_G05_9 1.0
    M5216 'MARKER' 'INTEND'
    P_G05_6 OBJ 43.32088071602921
    P_G05_6 PMIN_G05_6 1.0
    P_G05_6 PMAX_G05_6 1.0
    P_G05_6 RUP_G05_6 1.0
    P_G05_6 RDN_G05_6 -1.0
    P_G05_6 RUP_G05_7 -1.0
    P_G05_6 RDN_G05_7 1.0
    P_G05_6 DEM_6 1.0
    M5225 'MARKER' 'INTORG'
    U_G05_7 OBJ 303.2736536188519
    U_G05_7 PMIN_G05_7 -119.28513920771101
    U_G05_7 PMAX_G05_7 -372.7659968644606
    U_G05_7 LOGIC_G05_7 1.0
    U_G05_7 MINUP_G05_7 -1.0
    U_G05_7 MINDN_G05_7 1.0
    U_G05_7 LOGIC_G05_8 -1.0
    U_G05_7 RES_7 372.7659968644606
    V_G05_7 OBJ 1029.8930998034168
    V_G05_7 LOGIC_G05_7 -1.0
    V_G05_7 MINUP_G05_7 1.0
    V_G05_7 MINUP_G05_8 1.0
    V_G05_7 MINUP_G05_9 1.0
    V_G05_7 MINUP_G05_10 1.0
    V_G05_7 MINUP_G05_11 1.0
    W_G05_7 LOGIC_G05_7 1.0
    W_G05_7 MINDN_G05_7 1.0
    W_G05_7 MINDN_G05_8 1.0
    W_G05_7 MINDN_G05_9 1.0
    W_G05_7 MINDN_G05_10 1.0
    M5246 'MARKER' 'INTEND'
    P_G05_7 OBJ 43.32088071602921
    P_G05_7 PMIN_G05_7 1.0
    P_G05_7 PMAX_G05_7 1.0
    P_G05_7 RUP_G05_7 1.0
    P_G05_7 RDN_G05_7 -1.0
    P_G05_7 RUP_G05_8 -1.0
    P_G05_7 RDN_G05_8 1.0
    P_G05_7 DEM_7 1.0
    M5255 'MARKER' 'INTORG'
    U_G05_8 OBJ 303.2736536188519
    U_G05_8 PMIN_G05_8 -119.28513920771101
    U_G05_8 PMAX_G05_8 -372.7659968644606
    U_G05_8 LOGIC_G05_8 1.0
    U_G05_8 MINUP_G05_8 -1.0
    U_G05_8 MINDN_G05_8 1.0
    U_G05_8 LOGIC_G05_9 -1.0
    U_G05_8 RES_8 372.7659968644606
    V_G05_8 OBJ 1029.8930998034168
    V_G05_8 LOGIC_G05_8 -1.0
    V_G05_8 MINUP_G05_8 1.0
    V_G05_8 MINUP_G05_9 1.0
    V_G05_8 MINUP_G05_10 1.0
    V_G05_8 MINUP_G05_11 1.0
    V_G05_8 MINUP_G05_12 1.0
    W_G05_8 LOGIC_G05_8 1.0
    W_G05_8 MINDN_G05_8 1.0
    W_G05_8 MINDN_G05_9 1.0
    W_G05_8 MINDN_G05_10 1.0
    W_G05_8 MINDN_G05_11 1.0
    M5276 'MARKER' 'INTEND'
    P_G05_8 OBJ 43.32088071602921
    P_G05_8 PMIN_G05_8 1.0
    P_G05_8 PMAX_G05_8 1.0
    P_G05_8 RUP_G05_8 1.0
    P_G05_8 RDN_G05_8 -1.0
    P_G05_8 RUP_G05_9 -1.0
    P_G05_8 RDN_G05_9 1.0
    P_G05_8 DEM_8 1.0
    M5285 'MARKER' 'INTORG'
    U_G05_9 OBJ 303.2736536188519
    U_G05_9 PMIN_G05_9 -119.28513920771101
    U_G05_9 PMAX_G05_9 -372.7659968644606
    U_G05_9 LOGIC_G05_9 1.0
    U_G05_9 MINUP_G05_9 -1.0
    U_G05_9 MINDN_G05_9 1.0
    U_G05_9 LOGIC_G05_10 -1.0
    U_G05_9 RES_9 372.7659968644606
    V_G05_9 OBJ 1029.8930998034168
    V_G05_9 LOGIC_G05_9 -1.0
    V_G05_9 MINUP_G05_9 1.0
    V_G05_9 MINUP_G05_10 1.0
    V_G05_9 MINUP_G05_11 1.0
    V_G05_9 MINUP_G05_12 1.0
    V_G05_9 MINUP_G05_13 1.0
    W_G05_9 LOGIC_G05_9 1.0
    W_G05_9 MINDN_G05_9 1.0
    W_G05_9 MINDN_G05_10 1.0
    W_G05_9 MINDN_G05_11 1.0
    W_G05_9 MINDN_G05_12 1.0
    M5306 'MARKER' 'INTEND'
    P_G05_9 OBJ 43.32088071602921
    P_G05_9 PMIN_G05_9 1.0
    P_G05_9 PMAX_G05_9 1.0
    P_G05_9 RUP_G05_9 1.0
    P_G05_9 RDN_G05_9 -1.0
    P_G05_9 RUP_G05_10 -1.0
    P_G05_9 RDN_G05_10 1.0
    P_G05_9 DEM_9 1.0
    M5315 'MARKER' 'INTORG'
    U_G05_10 OBJ 303.2736536188519
    U_G05_10 PMIN_G05_10 -119.28513920771101
    U_G05_10 PMAX_G05_10 -372.7659968644606
    U_G05_10 LOGIC_G05_10 1.0
    U_G05_10 MINUP_G05_10 -1.0
    U_G05_10 MINDN_G05_10 1.0
    U_G05_10 LOGIC_G05_11 -1.0
    U_G05_10 RES_10 372.7659968644606
    V_G05_10 OBJ 1029.8930998034168
    V_G05_10 LOGIC_G05_10 -1.0
    V_G05_10 MINUP_G05_10 1.0
    V_G05_10 MINUP_G05_11 1.0
    V_G05_10 MINUP_G05_12 1.0
    V_G05_10 MINUP_G05_13 1.0
    V_G05_10 MINUP_G05_14 1.0
    W_G05_10 LOGIC_G05_10 1.0
    W_G05_10 MINDN_G05_10 1.0
    W_G05_10 MINDN_G05_11 1.0
    W_G05_10 MINDN_G05_12 1.0
    W_G05_10 MINDN_G05_13 1.0
    M5336 'MARKER' 'INTEND'
    P_G05_10 OBJ 43.32088071602921
    P_G05_10 PMIN_G05_10 1.0
    P_G05_10 PMAX_G05_10 1.0
    P_G05_10 RUP_G05_10 1.0
    P_G05_10 RDN_G05_10 -1.0
    P_G05_10 RUP_G05_11 -1.0
    P_G05_10 RDN_G05_11 1.0
    P_G05_10 DEM_10 1.0
    M5345 'MARKER' 'INTORG'
    U_G05_11 OBJ 303.2736536188519
    U_G05_11 PMIN_G05_11 -119.28513920771101
    U_G05_11 PMAX_G05_11 -372.7659968644606
    U_G05_11 LOGIC_G05_11 1.0
    U_G05_11 MINUP_G05_11 -1.0
    U_G05_11 MINDN_G05_11 1.0
    U_G05_11 LOGIC_G05_12 -1.0
    U_G05_11 RES_11 372.7659968644606
    V_G05_11 OBJ 1029.8930998034168
    V_G05_11 LOGIC_G05_11 -1.0
    V_G05_11 MINUP_G05_11 1.0
    V_G05_11 MINUP_G05_12 1.0
    V_G05_11 MINUP_G05_13 1.0
    V_G05_11 MINUP_G05_14 1.0
    V_G05_11 MINUP_G05_15 1.0
    W_G05_11 LOGIC_G05_11 1.0
    W_G05_11 MINDN_G05_11 1.0
    W_G05_11 MINDN_G05_12 1.0
    W_G05_11 MINDN_G05_13 1.0
    W_G05_11 MINDN_G05_14 1.0
    M5366 'MARKER' 'INTEND'
    P_G05_11 OBJ 43.32088071602921
    P_G05_11 PMIN_G05_11 1.0
    P_G05_11 PMAX_G05_11 1.0
    P_G05_11 RUP_G05_11 1.0
    P_G05_11 RDN_G05_11 -1.0
    P_G05_11 RUP_G05_12 -1.0
    P_G05_11 RDN_G05_12 1.0
    P_G05_11 DEM_11 1.0
    M5375 'MARKER' 'INTORG'
    U_G05_12 OBJ 303.2736536188519
    U_G05_12 PMIN_G05_12 -119.28513920771101
    U_G05_12 PMAX_G05_12 -372.7659968644606
    U_G05_12 LOGIC_G05_12 1.0
    U_G05_12 MINUP_G05_12 -1.0
    U_G05_12 MINDN_G05_12 1.0
    U_G05_12 LOGIC_G05_13 -1.0
    U_G05_12 RES_12 372.7659968644606
    V_G05_12 OBJ 1029.8930998034168
    V_G05_12 LOGIC_G05_12 -1.0
    V_G05_12 MINUP_G05_12 1.0
    V_G05_12 MINUP_G05_13 1.0
    V_G05_12 MINUP_G05_14 1.0
    V_G05_12 MINUP_G05_15 1.0
    V_G05_12 MINUP_G05_16 1.0
    W_G05_12 LOGIC_G05_12 1.0
    W_G05_12 MINDN_G05_12 1.0
    W_G05_12 MINDN_G05_13 1.0
    W_G05_12 MINDN_G05_14 1.0
    W_G05_12 MINDN_G05_15 1.0
    M5396 'MARKER' 'INTEND'
    P_G05_12 OBJ 43.32088071602921
    P_G05_12 PMIN_G05_12 1.0
    P_G05_12 PMAX_G05_12 1.0
    P_G05_12 RUP_G05_12 1.0
    P_G05_12 RDN_G05_12 -1.0
    P_G05_12 RUP_G05_13 -1.0
    P_G05_12 RDN_G05_13 1.0
    P_G05_12 DEM_12 1.0
    M5405 'MARKER' 'INTORG'
    U_G05_13 OBJ 303.2736536188519
    U_G05_13 PMIN_G05_13 -119.28513920771101
    U_G05_13 PMAX_G05_13 -372.7659968644606
    U_G05_13 LOGIC_G05_13 1.0
    U_G05_13 MINUP_G05_13 -1.0
    U_G05_13 MINDN_G05_13 1.0
    U_G05_13 LOGIC_G05_14 -1.0
    U_G05_13 RES_13 372.7659968644606
    V_G05_13 OBJ 1029.8930998034168
    V_G05_13 LOGIC_G05_13 -1.0
    V_G05_13 MINUP_G05_13 1.0
    V_G05_13 MINUP_G05_14 1.0
    V_G05_13 MINUP_G05_15 1.0
    V_G05_13 MINUP_G05_16 1.0
    V_G05_13 MINUP_G05_17 1.0
    W_G05_13 LOGIC_G05_13 1.0
    W_G05_13 MINDN_G05_13 1.0
    W_G05_13 MINDN_G05_14 1.0
    W_G05_13 MINDN_G05_15 1.0
    W_G05_13 MINDN_G05_16 1.0
    M5426 'MARKER' 'INTEND'
    P_G05_13 OBJ 43.32088071602921
    P_G05_13 PMIN_G05_13 1.0
    P_G05_13 PMAX_G05_13 1.0
    P_G05_13 RUP_G05_13 1.0
    P_G05_13 RDN_G05_13 -1.0
    P_G05_13 RUP_G05_14 -1.0
    P_G05_13 RDN_G05_14 1.0
    P_G05_13 DEM_13 1.0
    M5435 'MARKER' 'INTORG'
    U_G05_14 OBJ 303.2736536188519
    U_G05_14 PMIN_G05_14 -119.28513920771101
    U_G05_14 PMAX_G05_14 -372.7659968644606
    U_G05_14 LOGIC_G05_14 1.0
    U_G05_14 MINUP_G05_14 -1.0
    U_G05_14 MINDN_G05_14 1.0
    U_G05_14 LOGIC_G05_15 -1.0
    U_G05_14 RES_14 372.7659968644606
    V_G05_14 OBJ 1029.8930998034168
    V_G05_14 LOGIC_G05_14 -1.0
    V_G05_14 MINUP_G05_14 1.0
    V_G05_14 MINUP_G05_15 1.0
    V_G05_14 MINUP_G05_16 1.0
    V_G05_14 MINUP_G05_17 1.0
    V_G05_14 MINUP_G05_18 1.0
    W_G05_14 LOGIC_G05_14 1.0
    W_G05_14 MINDN_G05_14 1.0
    W_G05_14 MINDN_G05_15 1.0
    W_G05_14 MINDN_G05_16 1.0
    W_G05_14 MINDN_G05_17 1.0
    M5456 'MARKER' 'INTEND'
    P_G05_14 OBJ 43.32088071602921
    P_G05_14 PMIN_G05_14 1.0
    P_G05_14 PMAX_G05_14 1.0
    P_G05_14 RUP_G05_14 1.0
    P_G05_14 RDN_G05_14 -1.0
    P_G05_14 RUP_G05_15 -1.0
    P_G05_14 RDN_G05_15 1.0
    P_G05_14 DEM_14 1.0
    M5465 'MARKER' 'INTORG'
    U_G05_15 OBJ 303.2736536188519
    U_G05_15 PMIN_G05_15 -119.28513920771101
    U_G05_15 PMAX_G05_15 -372.7659968644606
    U_G05_15 LOGIC_G05_15 1.0
    U_G05_15 MINUP_G05_15 -1.0
    U_G05_15 MINDN_G05_15 1.0
    U_G05_15 LOGIC_G05_16 -1.0
    U_G05_15 RES_15 372.7659968644606
    V_G05_15 OBJ 1029.8930998034168
    V_G05_15 LOGIC_G05_15 -1.0
    V_G05_15 MINUP_G05_15 1.0
    V_G05_15 MINUP_G05_16 1.0
    V_G05_15 MINUP_G05_17 1.0
    V_G05_15 MINUP_G05_18 1.0
    V_G05_15 MINUP_G05_19 1.0
    W_G05_15 LOGIC_G05_15 1.0
    W_G05_15 MINDN_G05_15 1.0
    W_G05_15 MINDN_G05_16 1.0
    W_G05_15 MINDN_G05_17 1.0
    W_G05_15 MINDN_G05_18 1.0
    M5486 'MARKER' 'INTEND'
    P_G05_15 OBJ 43.32088071602921
    P_G05_15 PMIN_G05_15 1.0
    P_G05_15 PMAX_G05_15 1.0
    P_G05_15 RUP_G05_15 1.0
    P_G05_15 RDN_G05_15 -1.0
    P_G05_15 RUP_G05_16 -1.0
    P_G05_15 RDN_G05_16 1.0
    P_G05_15 DEM_15 1.0
    M5495 'MARKER' 'INTORG'
    U_G05_16 OBJ 303.2736536188519
    U_G05_16 PMIN_G05_16 -119.28513920771101
    U_G05_16 PMAX_G05_16 -372.7659968644606
    U_G05_16 LOGIC_G05_16 1.0
    U_G05_16 MINUP_G05_16 -1.0
    U_G05_16 MINDN_G05_16 1.0
    U_G05_16 LOGIC_G05_17 -1.0
    U_G05_16 RES_16 372.7659968644606
    V_G05_16 OBJ 1029.8930998034168
    V_G05_16 LOGIC_G05_16 -1.0
    V_G05_16 MINUP_G05_16 1.0
    V_G05_16 MINUP_G05_17 1.0
    V_G05_16 MINUP_G05_18 1.0
    V_G05_16 MINUP_G05_19 1.0
    V_G05_16 MINUP_G05_20 1.0
    W_G05_16 LOGIC_G05_16 1.0
    W_G05_16 MINDN_G05_16 1.0
    W_G05_16 MINDN_G05_17 1.0
    W_G05_16 MINDN_G05_18 1.0
    W_G05_16 MINDN_G05_19 1.0
    M5516 'MARKER' 'INTEND'
    P_G05_16 OBJ 43.32088071602921
    P_G05_16 PMIN_G05_16 1.0
    P_G05_16 PMAX_G05_16 1.0
    P_G05_16 RUP_G05_16 1.0
    P_G05_16 RDN_G05_16 -1.0
    P_G05_16 RUP_G05_17 -1.0
    P_G05_16 RDN_G05_17 1.0
    P_G05_16 DEM_16 1.0
    M5525 'MARKER' 'INTORG'
    U_G05_17 OBJ 303.2736536188519
    U_G05_17 PMIN_G05_17 -119.28513920771101
    U_G05_17 PMAX_G05_17 -372.7659968644606
    U_G05_17 LOGIC_G05_17 1.0
    U_G05_17 MINUP_G05_17 -1.0
    U_G05_17 MINDN_G05_17 1.0
    U_G05_17 LOGIC_G05_18 -1.0
    U_G05_17 RES_17 372.7659968644606
    V_G05_17 OBJ 1029.8930998034168
    V_G05_17 LOGIC_G05_17 -1.0
    V_G05_17 MINUP_G05_17 1.0
    V_G05_17 MINUP_G05_18 1.0
    V_G05_17 MINUP_G05_19 1.0
    V_G05_17 MINUP_G05_20 1.0
    V_G05_17 MINUP_G05_21 1.0
    W_G05_17 LOGIC_G05_17 1.0
    W_G05_17 MINDN_G05_17 1.0
    W_G05_17 MINDN_G05_18 1.0
    W_G05_17 MINDN_G05_19 1.0
    W_G05_17 MINDN_G05_20 1.0
    M5546 'MARKER' 'INTEND'
    P_G05_17 OBJ 43.32088071602921
    P_G05_17 PMIN_G05_17 1.0
    P_G05_17 PMAX_G05_17 1.0
    P_G05_17 RUP_G05_17 1.0
    P_G05_17 RDN_G05_17 -1.0
    P_G05_17 RUP_G05_18 -1.0
    P_G05_17 RDN_G05_18 1.0
    P_G05_17 DEM_17 1.0
    M5555 'MARKER' 'INTORG'
    U_G05_18 OBJ 303.2736536188519
    U_G05_18 PMIN_G05_18 -119.28513920771101
    U_G05_18 PMAX_G05_18 -372.7659968644606
    U_G05_18 LOGIC_G05_18 1.0
    U_G05_18 MINUP_G05_18 -1.0
    U_G05_18 MINDN_G05_18 1.0
    U_G05_18 LOGIC_G05_19 -1.0
    U_G05_18 RES_18 372.7659968644606
    V_G05_18 OBJ 1029.8930998034168
    V_G05_18 LOGIC_G05_18 -1.0
    V_G05_18 MINUP_G05_18 1.0
    V_G05_18 MINUP_G05_19 1.0
    V_G05_18 MINUP_G05_20 1.0
    V_G05_18 MINUP_G05_21 1.0
    V_G05_18 MINUP_G05_22 1.0
    W_G05_18 LOGIC_G05_18 1.0
    W_G05_18 MINDN_G05_18 1.0
    W_G05_18 MINDN_G05_19 1.0
    W_G05_18 MINDN_G05_20 1.0
    W_G05_18 MINDN_G05_21 1.0
    M5576 'MARKER' 'INTEND'
    P_G05_18 OBJ 43.32088071602921
    P_G05_18 PMIN_G05_18 1.0
    P_G05_18 PMAX_G05_18 1.0
    P_G05_18 RUP_G05_18 1.0
    P_G05_18 RDN_G05_18 -1.0
    P_G05_18 RUP_G05_19 -1.0
    P_G05_18 RDN_G05_19 1.0
    P_G05_18 DEM_18 1.0
    M5585 'MARKER' 'INTORG'
    U_G05_19 OBJ 303.2736536188519
    U_G05_19 PMIN_G05_19 -119.28513920771101
    U_G05_19 PMAX_G05_19 -372.7659968644606
    U_G05_19 LOGIC_G05_19 1.0
    U_G05_19 MINUP_G05_19 -1.0
    U_G05_19 MINDN_G05_19 1.0
    U_G05_19 LOGIC_G05_20 -1.0
    U_G05_19 RES_19 372.7659968644606
    V_G05_19 OBJ 1029.8930998034168
    V_G05_19 LOGIC_G05_19 -1.0
    V_G05_19 MINUP_G05_19 1.0
    V_G05_19 MINUP_G05_20 1.0
    V_G05_19 MINUP_G05_21 1.0
    V_G05_19 MINUP_G05_22 1.0
    V_G05_19 MINUP_G05_23 1.0
    W_G05_19 LOGIC_G05_19 1.0
    W_G05_19 MINDN_G05_19 1.0
    W_G05_19 MINDN_G05_20 1.0
    W_G05_19 MINDN_G05_21 1.0
    W_G05_19 MINDN_G05_22 1.0
    M5606 'MARKER' 'INTEND'
    P_G05_19 OBJ 43.32088071602921
    P_G05_19 PMIN_G05_19 1.0
    P_G05_19 PMAX_G05_19 1.0
    P_G05_19 RUP_G05_19 1.0
    P_G05_19 RDN_G05_19 -1.0
    P_G05_19 RUP_G05_20 -1.0
    P_G05_19 RDN_G05_20 1.0
    P_G05_19 DEM_19 1.0
    M5615 'MARKER' 'INTORG'
    U_G05_20 OBJ 303.2736536188519
    U_G05_20 PMIN_G05_20 -119.28513920771101
    U_G05_20 PMAX_G05_20 -372.7659968644606
    U_G05_20 LOGIC_G05_20 1.0
    U_G05_20 MINUP_G05_20 -1.0
    U_G05_20 MINDN_G05_20 1.0
    U_G05_20 LOGIC_G05_21 -1.0
    U_G05_20 RES_20 372.7659968644606
    V_G05_20 OBJ 1029.8930998034168
    V_G05_20 LOGIC_G05_20 -1.0
    V_G05_20 MINUP_G05_20 1.0
    V_G05_20 MINUP_G05_21 1.0
    V_G05_20 MINUP_G05_22 1.0
    V_G05_20 MINUP_G05_23 1.0
    W_G05_20 LOGIC_G05_20 1.0
    W_G05_20 MINDN_G05_20 1.0
    W_G05_20 MINDN_G05_21 1.0
    W_G05_20 MINDN_G05_22 1.0
    W_G05_20 MINDN_G05_23 1.0
    M5635 'MARKER' 'INTEND'
    P_G05_20 OBJ 43.32088071602921
    P_G05_20 PMIN_G05_20 1.0
    P_G05_20 PMAX_G05_20 1.0
    P_G05_20 RUP_G05_20 1.0
    P_G05_20 RDN_G05_20 -1.0
    P_G05_20 RUP_G05_21 -1.0
    P_G05_20 RDN_G05_21 1.0
    P_G05_20 DEM_20 1.0
    M5644 'MARKER' 'INTORG'
    U_G05_21 OBJ 303.2736536188519
    U_G05_21 PMIN_G05_21 -119.28513920771101
    U_G05_21 PMAX_G05_21 -372.7659968644606
    U_G05_21 LOGIC_G05_21 1.0
    U_G05_21 MINUP_G05_21 -1.0
    U_G05_21 MINDN_G05_21 1.0
    U_G05_21 LOGIC_G05_22 -1.0
    U_G05_21 RES_21 372.7659968644606
    V_G05_21 OBJ 1029.8930998034168
    V_G05_21 LOGIC_G05_21 -1.0
    V_G05_21 MINUP_G05_21 1.0
    V_G05_21 MINUP_G05_22 1.0
    V_G05_21 MINUP_G05_23 1.0
    W_G05_21 LOGIC_G05_21 1.0
    W_G05_21 MINDN_G05_21 1.0
    W_G05_21 MINDN_G05_22 1.0
    W_G05_21 MINDN_G05_23 1.0
    M5662 'MARKER' 'INTEND'
    P_G05_21 OBJ 43.32088071602921
    P_G05_21 PMIN_G05_21 1.0
    P_G05_21 PMAX_G05_21 1.0
    P_G05_21 RUP_G05_21 1.0
    P_G05_21 RDN_G05_21 -1.0
    P_G05_21 RUP_G05_22 -1.0
    P_G05_21 RDN_G05_22 1.0
    P_G05_21 DEM_21 1.0
    M5671 'MARKER' 'INTORG'
    U_G05_22 OBJ 303.2736536188519
    U_G05_22 PMIN_G05_22 -119.28513920771101
    U_G05_22 PMAX_G05_22 -372.7659968644606
    U_G05_22 LOGIC_G05_22 1.0
    U_G05_22 MINUP_G05_22 -1.0
    U_G05_22 MINDN_G05_22 1.0
    U_G05_22 LOGIC_G05_23 -1.0
    U_G05_22 RES_22 372.7659968644606
    V_G05_22 OBJ 1029.8930998034168
    V_G05_22 LOGIC_G05_22 -1.0
    V_G05_22 MINUP_G05_22 1.0
    V_G05_22 MINUP_G05_23 1.0
    W_G05_22 LOGIC_G05_22 1.0
    W_G05_22 MINDN_G05_22 1.0
    W_G05_22 MINDN_G05_23 1.0
    M5687 'MARKER' 'INTEND'
    P_G05_22 OBJ 43.32088071602921
    P_G05_22 PMIN_G05_22 1.0
    P_G05_22 PMAX_G05_22 1.0
    P_G05_22 RUP_G05_22 1.0
    P_G05_22 RDN_G05_22 -1.0
    P_G05_22 RUP_G05_23 -1.0
    P_G05_22 RDN_G05_23 1.0
    P_G05_22 DEM_22 1.0
    M5696 'MARKER' 'INTORG'
    U_G05_23 OBJ 303.2736536188519
    U_G05_23 PMIN_G05_23 -119.28513920771101
    U_G05_23 PMAX_G05_23 -372.7659968644606
    U_G05_23 LOGIC_G05_23 1.0
    U_G05_23 MINUP_G05_23 -1.0
    U_G05_23 MINDN_G05_23 1.0
    U_G05_23 RES_23 372.7659968644606
    V_G05_23 OBJ 1029.8930998034168
    V_G05_23 LOGIC_G05_23 -1.0
    V_G05_23 MINUP_G05_23 1.0
    W_G05_23 LOGIC_G05_23 1.0
    W_G05_23 MINDN_G05_23 1.0
    M5709 'MARKER' 'INTEND'
    P_G05_23 OBJ 43.32088071602921
    P_G05_23 PMIN_G05_23 1.0
    P_G05_23 PMAX_G05_23 1.0
    P_G05_23 RUP_G05_23 1.0
    P_G05_23 RDN_G05_23 -1.0
    P_G05_23 DEM_23 1.0
    M5716 'MARKER' 'INTORG'
    U_G06_0 OBJ 149.45577834288184
    U_G06_0 PMIN_G06_0 -109.7603277837362
    U_G06_0 PMAX_G06_0 -227.70103767896063
    U_G06_0 LOGIC_G06_0 1.0
    U_G06_0 MINUP_G06_0 -1.0
    U_G06_0 MINDN_G06_0 1.0
    U_G06_0 LOGIC_G06_1 -1.0
    U_G06_0 RES_0 227.70103767896063
    V_G06_0 OBJ 2925.6639336864737
    V_G06_0 LOGIC_G06_0 -1.0
    V_G06_0 MINUP_G06_0 1.0
    V_G06_0 MINUP_G06_1 1.0
    V_G06_0 MINUP_G06_2 1.0
    V_G06_0 MINUP_G06_3 1.0
    V_G06_0 MINUP_G06_4 1.0
    W_G06_0 LOGIC_G06_0 1.0
    W_G06_0 MINDN_G06_0 1.0
    W_G06_0 MINDN_G06_1 1.0
    W_G06_0 MINDN_G06_2 1.0
    W_G06_0 MINDN_G06_3 1.0
    M5737 'MARKER' 'INTEND'
    P_G06_0 OBJ 23.543237810221186
    P_G06_0 PMIN_G06_0 1.0
    P_G06_0 PMAX_G06_0 1.0
    P_G06_0 RUP_G06_1 -1.0
    P_G06_0 RDN_G06_1 1.0
    P_G06_0 DEM_0 1.0
    M5744 'MARKER' 'INTORG'
    U_G06_1 OBJ 149.45577834288184
    U_G06_1 PMIN_G06_1 -109.7603277837362
    U_G06_1 PMAX_G06_1 -227.70103767896063
    U_G06_1 LOGIC_G06_1 1.0
    U_G06_1 MINUP_G06_1 -1.0
    U_G06_1 MINDN_G06_1 1.0
    U_G06_1 LOGIC_G06_2 -1.0
    U_G06_1 RES_1 227.70103767896063
    V_G06_1 OBJ 2925.6639336864737
    V_G06_1 LOGIC_G06_1 -1.0
    V_G06_1 MINUP_G06_1 1.0
    V_G06_1 MINUP_G06_2 1.0
    V_G06_1 MINUP_G06_3 1.0
    V_G06_1 MINUP_G06_4 1.0
    V_G06_1 MINUP_G06_5 1.0
    W_G06_1 LOGIC_G06_1 1.0
    W_G06_1 MINDN_G06_1 1.0
    W_G06_1 MINDN_G06_2 1.0
    W_G06_1 MINDN_G06_3 1.0
    W_G06_1 MINDN_G06_4 1.0
    M5765 'MARKER' 'INTEND'
    P_G06_1 OBJ 23.543237810221186
    P_G06_1 PMIN_G06_1 1.0
    P_G06_1 PMAX_G06_1 1.0
    P_G06_1 RUP_G06_1 1.0
    P_G06_1 RDN_G06_1 -1.0
    P_G06_1 RUP_G06_2 -1.0
    P_G06_1 RDN_G06_2 1.0
    P_G06_1 DEM_1 1.0
    M5774 'MARKER' 'INTORG'
    U_G06_2 OBJ 149.45577834288184
    U_G06_2 PMIN_G06_2 -109.7603277837362
    U_G06_2 PMAX_G06_2 -227.70103767896063
    U_G06_2 LOGIC_G06_2 1.0
    U_G06_2 MINUP_G06_2 -1.0
    U_G06_2 MINDN_G06_2 1.0
    U_G06_2 LOGIC_G06_3 -1.0
    U_G06_2 RES_2 227.70103767896063
    V_G06_2 OBJ 2925.6639336864737
    V_G06_2 LOGIC_G06_2 -1.0
    V_G06_2 MINUP_G06_2 1.0
    V_G06_2 MINUP_G06_3 1.0
    V_G06_2 MINUP_G06_4 1.0
    V_G06_2 MINUP_G06_5 1.0
    V_G06_2 MINUP_G06_6 1.0
    W_G06_2 LOGIC_G06_2 1.0
    W_G06_2 MINDN_G06_2 1.0
    W_G06_2 MINDN_G06_3 1.0
    W_G06_2 MINDN_G06_4 1.0
    W_G06_2 MINDN_G06_5 1.0
    M5795 'MARKER' 'INTEND'
    P_G06_2 OBJ 23.543237810221186
    P_G06_2 PMIN_G06_2 1.0
    P_G06_2 PMAX_G06_2 1.0
    P_G06_2 RUP_G06_2 1.0
    P_G06_2 RDN_G06_2 -1.0
    P_G06_2 RUP_G06_3 -1.0
    P_G06_2 RDN_G06_3 1.0
    P_G06_2 DEM_2 1.0
    M5804 'MARKER' 'INTORG'
    U_G06_3 OBJ 149.45577834288184
    U_G06_3 PMIN_G06_3 -109.7603277837362
    U_G06_3 PMAX_G06_3 -227.70103767896063
    U_G06_3 LOGIC_G06_3 1.0
    U_G06_3 MINUP_G06_3 -1.0
    U_G06_3 MINDN_G06_3 1.0
    U_G06_3 LOGIC_G06_4 -1.0
    U_G06_3 RES_3 227.70103767896063
    V_G06_3 OBJ 2925.6639336864737
    V_G06_3 LOGIC_G06_3 -1.0
    V_G06_3 MINUP_G06_3 1.0
    V_G06_3 MINUP_G06_4 1.0
    V_G06_3 MINUP_G06_5 1.0
    V_G06_3 MINUP_G06_6 1.0
    V_G06_3 MINUP_G06_7 1.0
    W_G06_3 LOGIC_G06_3 1.0
    W_G06_3 MINDN_G06_3 1.0
    W_G06_3 MINDN_G06_4 1.0
    W_G06_3 MINDN_G06_5 1.0
    W_G06_3 MINDN_G06_6 1.0
    M5825 'MARKER' 'INTEND'
    P_G06_3 OBJ 23.543237810221186
    P_G06_3 PMIN_G06_3 1.0
    P_G06_3 PMAX_G06_3 1.0
    P_G06_3 RUP_G06_3 1.0
    P_G06_3 RDN_G06_3 -1.0
    P_G06_3 RUP_G06_4 -1.0
    P_G06_3 RDN_G06_4 1.0
    P_G06_3 DEM_3 1.0
    M5834 'MARKER' 'INTORG'
    U_G06_4 OBJ 149.45577834288184
    U_G06_4 PMIN_G06_4 -109.7603277837362
    U_G06_4 PMAX_G06_4 -227.70103767896063
    U_G06_4 LOGIC_G06_4 1.0
    U_G06_4 MINUP_G06_4 -1.0
    U_G06_4 MINDN_G06_4 1.0
    U_G06_4 LOGIC_G06_5 -1.0
    U_G06_4 RES_4 227.70103767896063
    V_G06_4 OBJ 2925.6639336864737
    V_G06_4 LOGIC_G06_4 -1.0
    V_G06_4 MINUP_G06_4 1.0
    V_G06_4 MINUP_G06_5 1.0
    V_G06_4 MINUP_G06_6 1.0
    V_G06_4 MINUP_G06_7 1.0
    V_G06_4 MINUP_G06_8 1.0
    W_G06_4 LOGIC_G06_4 1.0
    W_G06_4 MINDN_G06_4 1.0
    W_G06_4 MINDN_G06_5 1.0
    W_G06_4 MINDN_G06_6 1.0
    W_G06_4 MINDN_G06_7 1.0
    M5855 'MARKER' 'INTEND'
    P_G06_4 OBJ 23.543237810221186
    P_G06_4 PMIN_G06_4 1.0
    P_G06_4 PMAX_G06_4 1.0
    P_G06_4 RUP_G06_4 1.0
    P_G06_4 RDN_G06_4 -1.0
    P_G06_4 RUP_G06_5 -1.0
    P_G06_4 RDN_G06_5 1.0
    P_G06_4 DEM_4 1.0
    M5864 'MARKER' 'INTORG'
    U_G06_5 OBJ 149.45577834288184
    U_G06_5 PMIN_G06_5 -109.7603277837362
    U_G06_5 PMAX_G06_5 -227.70103767896063
    U_G06_5 LOGIC_G06_5 1.0
    U_G06_5 MINUP_G06_5 -1.0
    U_G06_5 MINDN_G06_5 1.0
    U_G06_5 LOGIC_G06_6 -1.0
    U_G06_5 RES_5 227.70103767896063
    V_G06_5 OBJ 2925.6639336864737
    V_G06_5 LOGIC_G06_5 -1.0
    V_G06_5 MINUP_G06_5 1.0
    V_G06_5 MINUP_G06_6 1.0
    V_G06_5 MINUP_G06_7 1.0
    V_G06_5 MINUP_G06_8 1.0
    V_G06_5 MINUP_G06_9 1.0
    W_G06_5 LOGIC_G06_5 1.0
    W_G06_5 MINDN_G06_5 1.0
    W_G06_5 MINDN_G06_6 1.0
    W_G06_5 MINDN_G06_7 1.0
    W_G06_5 MINDN_G06_8 1.0
    M5885 'MARKER' 'INTEND'
    P_G06_5 OBJ 23.543237810221186
    P_G06_5 PMIN_G06_5 1.0
    P_G06_5 PMAX_G06_5 1.0
    P_G06_5 RUP_G06_5 1.0
    P_G06_5 RDN_G06_5 -1.0
    P_G06_5 RUP_G06_6 -1.0
    P_G06_5 RDN_G06_6 1.0
    P_G06_5 DEM_5 1.0
    M5894 'MARKER' 'INTORG'
    U_G06_6 OBJ 149.45577834288184
    U_G06_6 PMIN_G06_6 -109.7603277837362
    U_G06_6 PMAX_G06_6 -227.70103767896063
    U_G06_6 LOGIC_G06_6 1.0
    U_G06_6 MINUP_G06_6 -1.0
    U_G06_6 MINDN_G06_6 1.0
    U_G06_6 LOGIC_G06_7 -1.0
    U_G06_6 RES_6 227.70103767896063
    V_G06_6 OBJ 2925.6639336864737
    V_G06_6 LOGIC_G06_6 -1.0
    V_G06_6 MINUP_G06_6 1.0
    V_G06_6 MINUP_G06_7 1.0
    V_G06_6 MINUP_G06_8 1.0
    V_G06_6 MINUP_G06_9 1.0
    V_G06_6 MINUP_G06_10 1.0
    W_G06_6 LOGIC_G06_6 1.0
    W_G06_6 MINDN_G06_6 1.0
    W_G06_6 MINDN_G06_7 1.0
    W_G06_6 MINDN_G06_8 1.0
    W_G06_6 MINDN_G06_9 1.0
    M5915 'MARKER' 'INTEND'
    P_G06_6 OBJ 23.543237810221186
    P_G06_6 PMIN_G06_6 1.0
    P_G06_6 PMAX_G06_6 1.0
    P_G06_6 RUP_G06_6 1.0
    P_G06_6 RDN_G06_6 -1.0
    P_G06_6 RUP_G06_7 -1.0
    P_G06_6 RDN_G06_7 1.0
    P_G06_6 DEM_6 1.0
    M5924 'MARKER' 'INTORG'
    U_G06_7 OBJ 149.45577834288184
    U_G06_7 PMIN_G06_7 -109.7603277837362
    U_G06_7 PMAX_G06_7 -227.70103767896063
    U_G06_7 LOGIC_G06_7 1.0
    U_G06_7 MINUP_G06_7 -1.0
    U_G06_7 MINDN_G06_7 1.0
    U_G06_7 LOGIC_G06_8 -1.0
    U_G06_7 RES_7 227.70103767896063
    V_G06_7 OBJ 2925.6639336864737
    V_G06_7 LOGIC_G06_7 -1.0
    V_G06_7 MINUP_G06_7 1.0
    V_G06_7 MINUP_G06_8 1.0
    V_G06_7 MINUP_G06_9 1.0
    V_G06_7 MINUP_G06_10 1.0
    V_G06_7 MINUP_G06_11 1.0
    W_G06_7 LOGIC_G06_7 1.0
    W_G06_7 MINDN_G06_7 1.0
    W_G06_7 MINDN_G06_8 1.0
    W_G06_7 MINDN_G06_9 1.0
    W_G06_7 MINDN_G06_10 1.0
    M5945 'MARKER' 'INTEND'
    P_G06_7 OBJ 23.543237810221186
    P_G06_7 PMIN_G06_7 1.0
    P_G06_7 PMAX_G06_7 1.0
    P_G06_7 RUP_G06_7 1.0
    P_G06_7 RDN_G06_7 -1.0
    P_G06_7 RUP_G06_8 -1.0
    P_G06_7 RDN_G06_8 1.0
    P_G06_7 DEM_7 1.0
    M5954 'MARKER' 'INTORG'
    U_G06_8 OBJ 149.45577834288184
    U_G06_8 PMIN_G06_8 -109.7603277837362
    U_G06_8 PMAX_G06_8 -227.70103767896063
    U_G06_8 LOGIC_G06_8 1.0
    U_G06_8 MINUP_G06_8 -1.0
    U_G06_8 MINDN_G06_8 1.0
    U_G06_8 LOGIC_G06_9 -1.0
    U_G06_8 RES_8 227.70103767896063
    V_G06_8 OBJ 2925.6639336864737
    V_G06_8 LOGIC_G06_8 -1.0
    V_G06_8 MINUP_G06_8 1.0
    V_G06_8 MINUP_G06_9 1.0
    V_G06_8 MINUP_G06_10 1.0
    V_G06_8 MINUP_G06_11 1.0
    V_G06_8 MINUP_G06_12 1.0
    W_G06_8 LOGIC_G06_8 1.0
    W_G06_8 MINDN_G06_8 1.0
    W_G06_8 MINDN_G06_9 1.0
    W_G06_8 MINDN_G06_10 1.0
    W_G06_8 MINDN_G06_11 1.0
    M5975 'MARKER' 'INTEND'
    P_G06_8 OBJ 23.543237810221186
    P_G06_8 PMIN_G06_8 1.0
    P_G06_8 PMAX_G06_8 1.0
    P_G06_8 RUP_G06_8 1.0
    P_G06_8 RDN_G06_8 -1.0
    P_G06_8 RUP_G06_9 -1.0
    P_G06_8 RDN_G06_9 1.0
    P_G06_8 DEM_8 1.0
    M5984 'MARKER' 'INTORG'
    U_G06_9 OBJ 149.45577834288184
    U_G06_9 PMIN_G06_9 -109.7603277837362
    U_G06_9 PMAX_G06_9 -227.70103767896063
    U_G06_9 LOGIC_G06_9 1.0
    U_G06_9 MINUP_G06_9 -1.0
    U_G06_9 MINDN_G06_9 1.0
    U_G06_9 LOGIC_G06_10 -1.0
    U_G06_9 RES_9 227.70103767896063
    V_G06_9 OBJ 2925.6639336864737
    V_G06_9 LOGIC_G06_9 -1.0
    V_G06_9 MINUP_G06_9 1.0
    V_G06_9 MINUP_G06_10 1.0
    V_G06_9 MINUP_G06_11 1.0
    V_G06_9 MINUP_G06_12 1.0
    V_G06_9 MINUP_G06_13 1.0
    W_G06_9 LOGIC_G06_9 1.0
    W_G06_9 MINDN_G06_9 1.0
    W_G06_9 MINDN_G06_10 1.0
    W_G06_9 MINDN_G06_11 1.0
    W_G06_9 MINDN_G06_12 1.0
    M6005 'MARKER' 'INTEND'
    P_G06_9 OBJ 23.543237810221186
    P_G06_9 PMIN_G06_9 1.0
    P_G06_9 PMAX_G06_9 1.0
    P_G06_9 RUP_G06_9 1.0
    P_G06_9 RDN_G06_9 -1.0
    P_G06_9 RUP_G06_10 -1.0
    P_G06_9 RDN_G06_10 1.0
    P_G06_9 DEM_9 1.0
    M6014 'MARKER' 'INTORG'
    U_G06_10 OBJ 149.45577834288184
    U_G06_10 PMIN_G06_10 -109.7603277837362
    U_G06_10 PMAX_G06_10 -227.70103767896063
    U_G06_10 LOGIC_G06_10 1.0
    U_G06_10 MINUP_G06_10 -1.0
    U_G06_10 MINDN_G06_10 1.0
    U_G06_10 LOGIC_G06_11 -1.0
    U_G06_10 RES_10 227.70103767896063
    V_G06_10 OBJ 2925.6639336864737
    V_G06_10 LOGIC_G06_10 -1.0
    V_G06_10 MINUP_G06_10 1.0
    V_G06_10 MINUP_G06_11 1.0
    V_G06_10 MINUP_G06_12 1.0
    V_G06_10 MINUP_G06_13 1.0
    V_G06_10 MINUP_G06_14 1.0
    W_G06_10 LOGIC_G06_10 1.0
    W_G06_10 MINDN_G06_10 1.0
    W_G06_10 MINDN_G06_11 1.0
    W_G06_10 MINDN_G06_12 1.0
    W_G06_10 MINDN_G06_13 1.0
    M6035 'MARKER' 'INTEND'
    P_G06_10 OBJ 23.543237810221186
    P_G06_10 PMIN_G06_10 1.0
    P_G06_10 PMAX_G06_10 1.0
    P_G06_10 RUP_G06_10 1.0
    P_G06_10 RDN_G06_10 -1.0
    P_G06_10 RUP_G06_11 -1.0
    P_G06_10 RDN_G06_11 1.0
    P_G06_10 DEM_10 1.0
    M6044 'MARKER' 'INTORG'
    U_G06_11 OBJ 149.45577834288184
    U_G06_11 PMIN_G06_11 -109.7603277837362
    U_G06_11 PMAX_G06_11 -227.70103767896063
    U_G06_11 LOGIC_G06_11 1.0
    U_G06_11 MINUP_G06_11 -1.0
    U_G06_11 MINDN_G06_11 1.0
    U_G06_11 LOGIC_G06_12 -1.0
    U_G06_11 RES_11 227.70103767896063
    V_G06_11 OBJ 2925.6639336864737
    V_G06_11 LOGIC_G06_11 -1.0
    V_G06_11 MINUP_G06_11 1.0
    V_G06_11 MINUP_G06_12 1.0
    V_G06_11 MINUP_G06_13 1.0
    V_G06_11 MINUP_G06_14 1.0
    V_G06_11 MINUP_G06_15 1.0
    W_G06_11 LOGIC_G06_11 1.0
    W_G06_11 MINDN_G06_11 1.0
    W_G06_11 MINDN_G06_12 1.0
    W_G06_11 MINDN_G06_13 1.0
    W_G06_11 MINDN_G06_14 1.0
    M6065 'MARKER' 'INTEND'
    P_G06_11 OBJ 23.543237810221186
    P_G06_11 PMIN_G06_11 1.0
    P_G06_11 PMAX_G06_11 1.0
    P_G06_11 RUP_G06_11 1.0
    P_G06_11 RDN_G06_11 -1.0
    P_G06_11 RUP_G06_12 -1.0
    P_G06_11 RDN_G06_12 1.0
    P_G06_11 DEM_11 1.0
    M6074 'MARKER' 'INTORG'
    U_G06_12 OBJ 149.45577834288184
    U_G06_12 PMIN_G06_12 -109.7603277837362
    U_G06_12 PMAX_G06_12 -227.70103767896063
    U_G06_12 LOGIC_G06_12 1.0
    U_G06_12 MINUP_G06_12 -1.0
    U_G06_12 MINDN_G06_12 1.0
    U_G06_12 LOGIC_G06_13 -1.0
    U_G06_12 RES_12 227.70103767896063
    V_G06_12 OBJ 2925.6639336864737
    V_G06_12 LOGIC_G06_12 -1.0
    V_G06_12 MINUP_G06_12 1.0
    V_G06_12 MINUP_G06_13 1.0
    V_G06_12 MINUP_G06_14 1.0
    V_G06_12 MINUP_G06_15 1.0
    V_G06_12 MINUP_G06_16 1.0
    W_G06_12 LOGIC_G06_12 1.0
    W_G06_12 MINDN_G06_12 1.0
    W_G06_12 MINDN_G06_13 1.0
    W_G06_12 MINDN_G06_14 1.0
    W_G06_12 MINDN_G06_15 1.0
    M6095 'MARKER' 'INTEND'
    P_G06_12 OBJ 23.543237810221186
    P_G06_12 PMIN_G06_12 1.0
    P_G06_12 PMAX_G06_12 1.0
    P_G06_12 RUP_G06_12 1.0
    P_G06_12 RDN_G06_12 -1.0
    P_G06_12 RUP_G06_13 -1.0
    P_G06_12 RDN_G06_13 1.0
    P_G06_12 DEM_12 1.0
    M6104 'MARKER' 'INTORG'
    U_G06_13 OBJ 149.45577834288184
    U_G06_13 PMIN_G06_13 -109.7603277837362
    U_G06_13 PMAX_G06_13 -227.70103767896063
    U_G06_13 LOGIC_G06_13 1.0
    U_G06_13 MINUP_G06_13 -1.0
    U_G06_13 MINDN_G06_13 1.0
    U_G06_13 LOGIC_G06_14 -1.0
    U_G06_13 RES_13 227.70103767896063
    V_G06_13 OBJ 2925.6639336864737
    V_G06_13 LOGIC_G06_13 -1.0
    V_G06_13 MINUP_G06_13 1.0
    V_G06_13 MINUP_G06_14 1.0
    V_G06_13 MINUP_G06_15 1.0
    V_G06_13 MINUP_G06_16 1.0
    V_G06_13 MINUP_G06_17 1.0
    W_G06_13 LOGIC_G06_13 1.0
    W_G06_13 MINDN_G06_13 1.0
    W_G06_13 MINDN_G06_14 1.0
    W_G06_13 MINDN_G06_15 1.0
    W_G06_13 MINDN_G06_16 1.0
    M6125 'MARKER' 'INTEND'
    P_G06_13 OBJ 23.543237810221186
    P_G06_13 PMIN_G06_13 1.0
    P_G06_13 PMAX_G06_13 1.0
    P_G06_13 RUP_G06_13 1.0
    P_G06_13 RDN_G06_13 -1.0
    P_G06_13 RUP_G06_14 -1.0
    P_G06_13 RDN_G06_14 1.0
    P_G06_13 DEM_13 1.0
    M6134 'MARKER' 'INTORG'
    U_G06_14 OBJ 149.45577834288184
    U_G06_14 PMIN_G06_14 -109.7603277837362
    U_G06_14 PMAX_G06_14 -227.70103767896063
    U_G06_14 LOGIC_G06_14 1.0
    U_G06_14 MINUP_G06_14 -1.0
    U_G06_14 MINDN_G06_14 1.0
    U_G06_14 LOGIC_G06_15 -1.0
    U_G06_14 RES_14 227.70103767896063
    V_G06_14 OBJ 2925.6639336864737
    V_G06_14 LOGIC_G06_14 -1.0
    V_G06_14 MINUP_G06_14 1.0
    V_G06_14 MINUP_G06_15 1.0
    V_G06_14 MINUP_G06_16 1.0
    V_G06_14 MINUP_G06_17 1.0
    V_G06_14 MINUP_G06_18 1.0
    W_G06_14 LOGIC_G06_14 1.0
    W_G06_14 MINDN_G06_14 1.0
    W_G06_14 MINDN_G06_15 1.0
    W_G06_14 MINDN_G06_16 1.0
    W_G06_14 MINDN_G06_17 1.0
    M6155 'MARKER' 'INTEND'
    P_G06_14 OBJ 23.543237810221186
    P_G06_14 PMIN_G06_14 1.0
    P_G06_14 PMAX_G06_14 1.0
    P_G06_14 RUP_G06_14 1.0
    P_G06_14 RDN_G06_14 -1.0
    P_G06_14 RUP_G06_15 -1.0
    P_G06_14 RDN_G06_15 1.0
    P_G06_14 DEM_14 1.0
    M6164 'MARKER' 'INTORG'
    U_G06_15 OBJ 149.45577834288184
    U_G06_15 PMIN_G06_15 -109.7603277837362
    U_G06_15 PMAX_G06_15 -227.70103767896063
    U_G06_15 LOGIC_G06_15 1.0
    U_G06_15 MINUP_G06_15 -1.0
    U_G06_15 MINDN_G06_15 1.0
    U_G06_15 LOGIC_G06_16 -1.0
    U_G06_15 RES_15 227.70103767896063
    V_G06_15 OBJ 2925.6639336864737
    V_G06_15 LOGIC_G06_15 -1.0
    V_G06_15 MINUP_G06_15 1.0
    V_G06_15 MINUP_G06_16 1.0
    V_G06_15 MINUP_G06_17 1.0
    V_G06_15 MINUP_G06_18 1.0
    V_G06_15 MINUP_G06_19 1.0
    W_G06_15 LOGIC_G06_15 1.0
    W_G06_15 MINDN_G06_15 1.0
    W_G06_15 MINDN_G06_16 1.0
    W_G06_15 MINDN_G06_17 1.0
    W_G06_15 MINDN_G06_18 1.0
    M6185 'MARKER' 'INTEND'
    P_G06_15 OBJ 23.543237810221186
    P_G06_15 PMIN_G06_15 1.0
    P_G06_15 PMAX_G06_15 1.0
    P_G06_15 RUP_G06_15 1.0
    P_G06_15 RDN_G06_15 -1.0
    P_G06_15 RUP_G06_16 -1.0
    P_G06_15 RDN_G06_16 1.0
    P_G06_15 DEM_15 1.0
    M6194 'MARKER' 'INTORG'
    U_G06_16 OBJ 149.45577834288184
    U_G06_16 PMIN_G06_16 -109.7603277837362
    U_G06_16 PMAX_G06_16 -227.70103767896063
    U_G06_16 LOGIC_G06_16 1.0
    U_G06_16 MINUP_G06_16 -1.0
    U_G06_16 MINDN_G06_16 1.0
    U_G06_16 LOGIC_G06_17 -1.0
    U_G06_16 RES_16 227.70103767896063
    V_G06_16 OBJ 2925.6639336864737
    V_G06_16 LOGIC_G06_16 -1.0
    V_G06_16 MINUP_G06_16 1.0
    V_G06_16 MINUP_G06_17 1.0
    V_G06_16 MINUP_G06_18 1.0
    V_G06_16 MINUP_G06_19 1.0
    V_G06_16 MINUP_G06_20 1.0
    W_G06_16 LOGIC_G06_16 1.0
    W_G06_16 MINDN_G06_16 1.0
    W_G06_16 MINDN_G06_17 1.0
    W_G06_16 MINDN_G06_18 1.0
    W_G06_16 MINDN_G06_19 1.0
    M6215 'MARKER' 'INTEND'
    P_G06_16 OBJ 23.543237810221186
    P_G06_16 PMIN_G06_16 1.0
    P_G06_16 PMAX_G06_16 1.0
    P_G06_16 RUP_G06_16 1.0
    P_G06_16 RDN_G06_16 -1.0
    P_G06_16 RUP_G06_17 -1.0
    P_G06_16 RDN_G06_17 1.0
    P_G06_16 DEM_16 1.0
    M6224 'MARKER' 'INTORG'
    U_G06_17 OBJ 149.45577834288184
    U_G06_17 PMIN_G06_17 -109.7603277837362
    U_G06_17 PMAX_G06_17 -227.70103767896063
    U_G06_17 LOGIC_G06_17 1.0
    U_G06_17 MINUP_G06_17 -1.0
    U_G06_17 MINDN_G06_17 1.0
    U_G06_17 LOGIC_G06_18 -1.0
    U_G06_17 RES_17 227.70103767896063
    V_G06_17 OBJ 2925.6639336864737
    V_G06_17 LOGIC_G06_17 -1.0
    V_G06_17 MINUP_G06_17 1.0
    V_G06_17 MINUP_G06_18 1.0
    V_G06_17 MINUP_G06_19 1.0
    V_G06_17 MINUP_G06_20 1.0
    V_G06_17 MINUP_G06_21 1.0
    W_G06_17 LOGIC_G06_17 1.0
    W_G06_17 MINDN_G06_17 1.0
    W_G06_17 MINDN_G06_18 1.0
    W_G06_17 MINDN_G06_19 1.0
    W_G06_17 MINDN_G06_20 1.0
    M6245 'MARKER' 'INTEND'
    P_G06_17 OBJ 23.543237810221186
    P_G06_17 PMIN_G06_17 1.0
    P_G06_17 PMAX_G06_17 1.0
    P_G06_17 RUP_G06_17 1.0
    P_G06_17 RDN_G06_17 -1.0
    P_G06_17 RUP_G06_18 -1.0
    P_G06_17 RDN_G06_18 1.0
    P_G06_17 DEM_17 1.0
    M6254 'MARKER' 'INTORG'
    U_G06_18 OBJ 149.45577834288184
    U_G06_18 PMIN_G06_18 -109.7603277837362
    U_G06_18 PMAX_G06_18 -227.70103767896063
    U_G06_18 LOGIC_G06_18 1.0
    U_G06_18 MINUP_G06_18 -1.0
    U_G06_18 MINDN_G06_18 1.0
    U_G06_18 LOGIC_G06_19 -1.0
    U_G06_18 RES_18 227.70103767896063
    V_G06_18 OBJ 2925.6639336864737
    V_G06_18 LOGIC_G06_18 -1.0
    V_G06_18 MINUP_G06_18 1.0
    V_G06_18 MINUP_G06_19 1.0
    V_G06_18 MINUP_G06_20 1.0
    V_G06_18 MINUP_G06_21 1.0
    V_G06_18 MINUP_G06_22 1.0
    W_G06_18 LOGIC_G06_18 1.0
    W_G06_18 MINDN_G06_18 1.0
    W_G06_18 MINDN_G06_19 1.0
    W_G06_18 MINDN_G06_20 1.0
    W_G06_18 MINDN_G06_21 1.0
    M6275 'MARKER' 'INTEND'
    P_G06_18 OBJ 23.543237810221186
    P_G06_18 PMIN_G06_18 1.0
    P_G06_18 PMAX_G06_18 1.0
    P_G06_18 RUP_G06_18 1.0
    P_G06_18 RDN_G06_18 -1.0
    P_G06_18 RUP_G06_19 -1.0
    P_G06_18 RDN_G06_19 1.0
    P_G06_18 DEM_18 1.0
    M6284 'MARKER' 'INTORG'
    U_G06_19 OBJ 149.45577834288184
    U_G06_19 PMIN_G06_19 -109.7603277837362
    U_G06_19 PMAX_G06_19 -227.70103767896063
    U_G06_19 LOGIC_G06_19 1.0
    U_G06_19 MINUP_G06_19 -1.0
    U_G06_19 MINDN_G06_19 1.0
    U_G06_19 LOGIC_G06_20 -1.0
    U_G06_19 RES_19 227.70103767896063
    V_G06_19 OBJ 2925.6639336864737
    V_G06_19 LOGIC_G06_19 -1.0
    V_G06_19 MINUP_G06_19 1.0
    V_G06_19 MINUP_G06_20 1.0
    V_G06_19 MINUP_G06_21 1.0
    V_G06_19 MINUP_G06_22 1.0
    V_G06_19 MINUP_G06_23 1.0
    W_G06_19 LOGIC_G06_19 1.0
    W_G06_19 MINDN_G06_19 1.0
    W_G06_19 MINDN_G06_20 1.0
    W_G06_19 MINDN_G06_21 1.0
    W_G06_19 MINDN_G06_22 1.0
    M6305 'MARKER' 'INTEND'
    P_G06_19 OBJ 23.543237810221186
    P_G06_19 PMIN_G06_19 1.0
    P_G06_19 PMAX_G06_19 1.0
    P_G06_19 RUP_G06_19 1.0
    P_G06_19 RDN_G06_19 -1.0
    P_G06_19 RUP_G06_20 -1.0
    P_G06_19 RDN_G06_20 1.0
    P_G06_19 DEM_19 1.0
    M6314 'MARKER' 'INTORG'
    U_G06_20 OBJ 149.45577834288184
    U_G06_20 PMIN_G06_20 -109.7603277837362
    U_G06_20 PMAX_G06_20 -227.70103767896063
    U_G06_20 LOGIC_G06_20 1.0
    U_G06_20 MINUP_G06_20 -1.0
    U_G06_20 MINDN_G06_20 1.0
    U_G06_20 LOGIC_G06_21 -1.0
    U_G06_20 RES_20 227.70103767896063
    V_G06_20 OBJ 2925.6639336864737
    V_G06_20 LOGIC_G06_20 -1.0
    V_G06_20 MINUP_G06_20 1.0
    V_G06_20 MINUP_G06_21 1.0
    V_G06_20 MINUP_G06_22 1.0
    V_G06_20 MINUP_G06_23 1.0
    W_G06_20 LOGIC_G06_20 1.0
    W_G06_20 MINDN_G06_20 1.0
    W_G06_20 MINDN_G06_21 1.0
    W_G06_20 MINDN_G06_22 1.0
    W_G06_20 MINDN_G06_23 1.0
    M6334 'MARKER' 'INTEND'
    P_G06_20 OBJ 23.543237810221186
    P_G06_20 PMIN_G06_20 1.0
    P_G06_20 PMAX_G06_20 1.0
    P_G06_20 RUP_G06_20 1.0
    P_G06_20 RDN_G06_20 -1.0
    P_G06_20 RUP_G06_21 -1.0
    P_G06_20 RDN_G06_21 1.0
    P_G06_20 DEM_20 1.0
    M6343 'MARKER' 'INTORG'
    U_G06_21 OBJ 149.45577834288184
    U_G06_21 PMIN_G06_21 -109.7603277837362
    U_G06_21 PMAX_G06_21 -227.70103767896063
    U_G06_21 LOGIC_G06_21 1.0
    U_G06_21 MINUP_G06_21 -1.0
    U_G06_21 MINDN_G06_21 1.0
    U_G06_21 LOGIC_G06_22 -1.0
    U_G06_21 RES_21 227.70103767896063
    V_G06_21 OBJ 2925.6639336864737
    V_G06_21 LOGIC_G06_21 -1.0
    V_G06_21 MINUP_G06_21 1.0
    V_G06_21 MINUP_G06_22 1.0
    V_G06_21 MINUP_G06_23 1.0
    W_G06_21 LOGIC_G06_21 1.0
    W_G06_21 MINDN_G06_21 1.0
    W_G06_21 MINDN_G06_22 1.0
    W_G06_21 MINDN_G06_23 1.0
    M6361 'MARKER' 'INTEND'
    P_G06_21 OBJ 23.543237810221186
    P_G06_21 PMIN_G06_21 1.0
    P_G06_21 PMAX_G06_21 1.0
    P_G06_21 RUP_G06_21 1.0
    P_G06_21 RDN_G06_21 -1.0
    P_G06_21 RUP_G06_22 -1.0
    P_G06_21 RDN_G06_22 1.0
    P_G06_21 DEM_21 1.0
    M6370 'MARKER' 'INTORG'
    U_G06_22 OBJ 149.45577834288184
    U_G06_22 PMIN_G06_22 -109.7603277837362
    U_G06_22 PMAX_G06_22 -227.70103767896063
    U_G06_22 LOGIC_G06_22 1.0
    U_G06_22 MINUP_G06_22 -1.0
    U_G06_22 MINDN_G06_22 1.0
    U_G06_22 LOGIC_G06_23 -1.0
    U_G06_22 RES_22 227.70103767896063
    V_G06_22 OBJ 2925.6639336864737
    V_G06_22 LOGIC_G06_22 -1.0
    V_G06_22 MINUP_G06_22 1.0
    V_G06_22 MINUP_G06_23 1.0
    W_G06_22 LOGIC_G06_22 1.0
    W_G06_22 MINDN_G06_22 1.0
    W_G06_22 MINDN_G06_23 1.0
    M6386 'MARKER' 'INTEND'
    P_G06_22 OBJ 23.543237810221186
    P_G06_22 PMIN_G06_22 1.0
    P_G06_22 PMAX_G06_22 1.0
    P_G06_22 RUP_G06_22 1.0
    P_G06_22 RDN_G06_22 -1.0
    P_G06_22 RUP_G06_23 -1.0
    P_G06_22 RDN_G06_23 1.0
    P_G06_22 DEM_22 1.0
    M6395 'MARKER' 'INTORG'
    U_G06_23 OBJ 149.45577834288184
    U_G06_23 PMIN_G06_23 -109.7603277837362
    U_G06_23 PMAX_G06_23 -227.70103767896063
    U_G06_23 LOGIC_G06_23 1.0
    U_G06_23 MINUP_G06_23 -1.0
    U_G06_23 MINDN_G06_23 1.0
    U_G06_23 RES_23 227.70103767896063
    V_G06_23 OBJ 2925.6639336864737
    V_G06_23 LOGIC_G06_23 -1.0
    V_G06_23 MINUP_G06_23 1.0
    W_G06_23 LOGIC_G06_23 1.0
    W_G06_23 MINDN_G06_23 1.0
    M6408 'MARKER' 'INTEND'
    P_G06_23 OBJ 23.543237810221186
    P_G06_23 PMIN_G06_23 1.0
    P_G06_23 PMAX_G06_23 1.0
    P_G06_23 RUP_G06_23 1.0
    P_G06_23 RDN_G06_23 -1.0
    P_G06_23 DEM_23 1.0
    M6415 'MARKER' 'INTORG'
    U_G07_0 OBJ 329.091486644006
    U_G07_0 PMIN_G07_0 -78.6140008239317
    U_G07_0 PMAX_G07_0 -256.1507902938931
    U_G07_0 LOGIC_G07_0 1.0
    U_G07_0 MINUP_G07_0 -1.0
    U_G07_0 MINDN_G07_0 1.0
    U_G07_0 LOGIC_G07_1 -1.0
    U_G07_0 RES_0 256.1507902938931
    V_G07_0 OBJ 1360.079198042168
    V_G07_0 LOGIC_G07_0 -1.0
    V_G07_0 MINUP_G07_0 1.0
    V_G07_0 MINUP_G07_1 1.0
    V_G07_0 MINUP_G07_2 1.0
    V_G07_0 MINUP_G07_3 1.0
    V_G07_0 MINUP_G07_4 1.0
    W_G07_0 LOGIC_G07_0 1.0
    W_G07_0 MINDN_G07_0 1.0
    W_G07_0 MINDN_G07_1 1.0
    W_G07_0 MINDN_G07_2 1.0
    M6435 'MARKER' 'INTEND'
    P_G07_0 OBJ 25.923298809438045
    P_G07_0 PMIN_G07_0 1.0
    P_G07_0 PMAX_G07_0 1.0
    P_G07_0 RUP_G07_1 -1.0
    P_G07_0 RDN_G07_1 1.0
    P_G07_0 DEM_0 1.0
    M6442 'MARKER' 'INTORG'
    U_G07_1 OBJ 329.091486644006
    U_G07_1 PMIN_G07_1 -78.6140008239317
    U_G07_1 PMAX_G07_1 -256.1507902938931
    U_G07_1 LOGIC_G07_1 1.0
    U_G07_1 MINUP_G07_1 -1.0
    U_G07_1 MINDN_G07_1 1.0
    U_G07_1 LOGIC_G07_2 -1.0
    U_G07_1 RES_1 256.1507902938931
    V_G07_1 OBJ 1360.079198042168
    V_G07_1 LOGIC_G07_1 -1.0
    V_G07_1 MINUP_G07_1 1.0
    V_G07_1 MINUP_G07_2 1.0
    V_G07_1 MINUP_G07_3 1.0
    V_G07_1 MINUP_G07_4 1.0
    V_G07_1 MINUP_G07_5 1.0
    W_G07_1 LOGIC_G07_1 1.0
    W_G07_1 MINDN_G07_1 1.0
    W_G07_1 MINDN_G07_2 1.0
    W_G07_1 MINDN_G07_3 1.0
    M6462 'MARKER' 'INTEND'
    P_G07_1 OBJ 25.923298809438045
    P_G07_1 PMIN_G07_1 1.0
    P_G07_1 PMAX_G07_1 1.0
    P_G07_1 RUP_G07_1 1.0
    P_G07_1 RDN_G07_1 -1.0
    P_G07_1 RUP_G07_2 -1.0
    P_G07_1 RDN_G07_2 1.0
    P_G07_1 DEM_1 1.0
    M6471 'MARKER' 'INTORG'
    U_G07_2 OBJ 329.091486644006
    U_G07_2 PMIN_G07_2 -78.6140008239317
    U_G07_2 PMAX_G07_2 -256.1507902938931
    U_G07_2 LOGIC_G07_2 1.0
    U_G07_2 MINUP_G07_2 -1.0
    U_G07_2 MINDN_G07_2 1.0
    U_G07_2 LOGIC_G07_3 -1.0
    U_G07_2 RES_2 256.1507902938931
    V_G07_2 OBJ 1360.079198042168
    V_G07_2 LOGIC_G07_2 -1.0
    V_G07_2 MINUP_G07_2 1.0
    V_G07_2 MINUP_G07_3 1.0
    V_G07_2 MINUP_G07_4 1.0
    V_G07_2 MINUP_G07_5 1.0
    V_G07_2 MINUP_G07_6 1.0
    W_G07_2 LOGIC_G07_2 1.0
    W_G07_2 MINDN_G07_2 1.0
    W_G07_2 MINDN_G07_3 1.0
    W_G07_2 MINDN_G07_4 1.0
    M6491 'MARKER' 'INTEND'
    P_G07_2 OBJ 25.923298809438045
    P_G07_2 PMIN_G07_2 1.0
    P_G07_2 PMAX_G07_2 1.0
    P_G07_2 RUP_G07_2 1.0
    P_G07_2 RDN_G07_2 -1.0
    P_G07_2 RUP_G07_3 -1.0
    P_G07_2 RDN_G07_3 1.0
    P_G07_2 DEM_2 1.0
    M6500 'MARKER' 'INTORG'
    U_G07_3 OBJ 329.091486644006
    U_G07_3 PMIN_G07_3 -78.6140008239317
    U_G07_3 PMAX_G07_3 -256.1507902938931
    U_G07_3 LOGIC_G07_3 1.0
    U_G07_3 MINUP_G07_3 -1.0
    U_G07_3 MINDN_G07_3 1.0
    U_G07_3 LOGIC_G07_4 -1.0
    U_G07_3 RES_3 256.1507902938931
    V_G07_3 OBJ 1360.079198042168
    V_G07_3 LOGIC_G07_3 -1.0
    V_G07_3 MINUP_G07_3 1.0
    V_G07_3 MINUP_G07_4 1.0
    V_G07_3 MINUP_G07_5 1.0
    V_G07_3 MINUP_G07_6 1.0
    V_G07_3 MINUP_G07_7 1.0
    W_G07_3 LOGIC_G07_3 1.0
    W_G07_3 MINDN_G07_3 1.0
    W_G07_3 MINDN_G07_4 1.0
    W_G07_3 MINDN_G07_5 1.0
    M6520 'MARKER' 'INTEND'
    P_G07_3 OBJ 25.923298809438045
    P_G07_3 PMIN_G07_3 1.0
    P_G07_3 PMAX_G07_3 1.0
    P_G07_3 RUP_G07_3 1.0
    P_G07_3 RDN_G07_3 -1.0
    P_G07_3 RUP_G07_4 -1.0
    P_G07_3 RDN_G07_4 1.0
    P_G07_3 DEM_3 1.0
    M6529 'MARKER' 'INTORG'
    U_G07_4 OBJ 329.091486644006
    U_G07_4 PMIN_G07_4 -78.6140008239317
    U_G07_4 PMAX_G07_4 -256.1507902938931
    U_G07_4 LOGIC_G07_4 1.0
    U_G07_4 MINUP_G07_4 -1.0
    U_G07_4 MINDN_G07_4 1.0
    U_G07_4 LOGIC_G07_5 -1.0
    U_G07_4 RES_4 256.1507902938931
    V_G07_4 OBJ 1360.079198042168
    V_G07_4 LOGIC_G07_4 -1.0
    V_G07_4 MINUP_G07_4 1.0
    V_G07_4 MINUP_G07_5 1.0
    V_G07_4 MINUP_G07_6 1.0
    V_G07_4 MINUP_G07_7 1.0
    V_G07_4 MINUP_G07_8 1.0
    W_G07_4 LOGIC_G07_4 1.0
    W_G07_4 MINDN_G07_4 1.0
    W_G07_4 MINDN_G07_5 1.0
    W_G07_4 MINDN_G07_6 1.0
    M6549 'MARKER' 'INTEND'
    P_G07_4 OBJ 25.923298809438045
    P_G07_4 PMIN_G07_4 1.0
    P_G07_4 PMAX_G07_4 1.0
    P_G07_4 RUP_G07_4 1.0
    P_G07_4 RDN_G07_4 -1.0
    P_G07_4 RUP_G07_5 -1.0
    P_G07_4 RDN_G07_5 1.0
    P_G07_4 DEM_4 1.0
    M6558 'MARKER' 'INTORG'
    U_G07_5 OBJ 329.091486644006
    U_G07_5 PMIN_G07_5 -78.6140008239317
    U_G07_5 PMAX_G07_5 -256.1507902938931
    U_G07_5 LOGIC_G07_5 1.0
    U_G07_5 MINUP_G07_5 -1.0
    U_G07_5 MINDN_G07_5 1.0
    U_G07_5 LOGIC_G07_6 -1.0
    U_G07_5 RES_5 256.1507902938931
    V_G07_5 OBJ 1360.079198042168
    V_G07_5 LOGIC_G07_5 -1.0
    V_G07_5 MINUP_G07_5 1.0
    V_G07_5 MINUP_G07_6 1.0
    V_G07_5 MINUP_G07_7 1.0
    V_G07_5 MINUP_G07_8 1.0
    V_G07_5 MINUP_G07_9 1.0
    W_G07_5 LOGIC_G07_5 1.0
    W_G07_5 MINDN_G07_5 1.0
    W_G07_5 MINDN_G07_6 1.0
    W_G07_5 MINDN_G07_7 1.0
    M6578 'MARKER' 'INTEND'
    P_G07_5 OBJ 25.923298809438045
    P_G07_5 PMIN_G07_5 1.0
    P_G07_5 PMAX_G07_5 1.0
    P_G07_5 RUP_G07_5 1.0
    P_G07_5 RDN_G07_5 -1.0
    P_G07_5 RUP_G07_6 -1.0
    P_G07_5 RDN_G07_6 1.0
    P_G07_5 DEM_5 1.0
    M6587 'MARKER' 'INTORG'
    U_G07_6 OBJ 329.091486644006
    U_G07_6 PMIN_G07_6 -78.6140008239317
    U_G07_6 PMAX_G07_6 -256.1507902938931
    U_G07_6 LOGIC_G07_6 1.0
    U_G07_6 MINUP_G07_6 -1.0
    U_G07_6 MINDN_G07_6 1.0
    U_G07_6 LOGIC_G07_7 -1.0
    U_G07_6 RES_6 256.1507902938931
    V_G07_6 OBJ 1360.079198042168
    V_G07_6 LOGIC_G07_6 -1.0
    V_G07_6 MINUP_G07_6 1.0
    V_G07_6 MINUP_G07_7 1.0
    V_G07_6 MINUP_G07_8 1.0
    V_G07_6 MINUP_G07_9 1.0
    V_G07_6 MINUP_G07_10 1.0
    W_G07_6 LOGIC_G07_6 1.0
    W_G07_6 MINDN_G07_6 1.0
    W_G07_6 MINDN_G07_7 1.0
    W_G07_6 MINDN_G07_8 1.0
    M6607 'MARKER' 'INTEND'
    P_G07_6 OBJ 25.923298809438045
    P_G07_6 PMIN_G07_6 1.0
    P_G07_6 PMAX_G07_6 1.0
    P_G07_6 RUP_G07_6 1.0
    P_G07_6 RDN_G07_6 -1.0
    P_G07_6 RUP_G07_7 -1.0
    P_G07_6 RDN_G07_7 1.0
    P_G07_6 DEM_6 1.0
    M6616 'MARKER' 'INTORG'
    U_G07_7 OBJ 329.091486644006
    U_G07_7 PMIN_G07_7 -78.6140008239317
    U_G07_7 PMAX_G07_7 -256.1507902938931
    U_G07_7 LOGIC_G07_7 1.0
    U_G07_7 MINUP_G07_7 -1.0
    U_G07_7 MINDN_G07_7 1.0
    U_G07_7 LOGIC_G07_8 -1.0
    U_G07_7 RES_7 256.1507902938931
    V_G07_7 OBJ 1360.079198042168
    V_G07_7 LOGIC_G07_7 -1.0
    V_G07_7 MINUP_G07_7 1.0
    V_G07_7 MINUP_G07_8 1.0
    V_G07_7 MINUP_G07_9 1.0
    V_G07_7 MINUP_G07_10 1.0
    V_G07_7 MINUP_G07_11 1.0
    W_G07_7 LOGIC_G07_7 1.0
    W_G07_7 MINDN_G07_7 1.0
    W_G07_7 MINDN_G07_8 1.0
    W_G07_7 MINDN_G07_9 1.0
    M6636 'MARKER' 'INTEND'
    P_G07_7 OBJ 25.923298809438045
    P_G07_7 PMIN_G07_7 1.0
    P_G07_7 PMAX_G07_7 1.0
    P_G07_7 RUP_G07_7 1.0
    P_G07_7 RDN_G07_7 -1.0
    P_G07_7 RUP_G07_8 -1.0
    P_G07_7 RDN_G07_8 1.0
    P_G07_7 DEM_7 1.0
    M6645 'MARKER' 'INTORG'
    U_G07_8 OBJ 329.091486644006
    U_G07_8 PMIN_G07_8 -78.6140008239317
    U_G07_8 PMAX_G07_8 -256.1507902938931
    U_G07_8 LOGIC_G07_8 1.0
    U_G07_8 MINUP_G07_8 -1.0
    U_G07_8 MINDN_G07_8 1.0
    U_G07_8 LOGIC_G07_9 -1.0
    U_G07_8 RES_8 256.1507902938931
    V_G07_8 OBJ 1360.079198042168
    V_G07_8 LOGIC_G07_8 -1.0
    V_G07_8 MINUP_G07_8 1.0
    V_G07_8 MINUP_G07_9 1.0
    V_G07_8 MINUP_G07_10 1.0
    V_G07_8 MINUP_G07_11 1.0
    V_G07_8 MINUP_G07_12 1.0
    W_G07_8 LOGIC_G07_8 1.0
    W_G07_8 MINDN_G07_8 1.0
    W_G07_8 MINDN_G07_9 1.0
    W_G07_8 MINDN_G07_10 1.0
    M6665 'MARKER' 'INTEND'
    P_G07_8 OBJ 25.923298809438045
    P_G07_8 PMIN_G07_8 1.0
    P_G07_8 PMAX_G07_8 1.0
    P_G07_8 RUP_G07_8 1.0
    P_G07_8 RDN_G07_8 -1.0
    P_G07_8 RUP_G07_9 -1.0
    P_G07_8 RDN_G07_9 1.0
    P_G07_8 DEM_8 1.0
    M6674 'MARKER' 'INTORG'
    U_G07_9 OBJ 329.091486644006
    U_G07_9 PMIN_G07_9 -78.6140008239317
    U_G07_9 PMAX_G07_9 -256.1507902938931
    U_G07_9 LOGIC_G07_9 1.0
    U_G07_9 MINUP_G07_9 -1.0
    U_G07_9 MINDN_G07_9 1.0
    U_G07_9 LOGIC_G07_10 -1.0
    U_G07_9 RES_9 256.1507902938931
    V_G07_9 OBJ 1360.079198042168
    V_G07_9 LOGIC_G07_9 -1.0
    V_G07_9 MINUP_G07_9 1.0
    V_G07_9 MINUP_G07_10 1.0
    V_G07_9 MINUP_G07_11 1.0
    V_G07_9 MINUP_G07_12 1.0
    V_G07_9 MINUP_G07_13 1.0
    W_G07_9 LOGIC_G07_9 1.0
    W_G07_9 MINDN_G07_9 1.0
    W_G07_9 MINDN_G07_10 1.0
    W_G07_9 MINDN_G07_11 1.0
    M6694 'MARKER' 'INTEND'
    P_G07_9 OBJ 25.923298809438045
    P_G07_9 PMIN_G07_9 1.0
    P_G07_9 PMAX_G07_9 1.0
    P_G07_9 RUP_G07_9 1.0
    P_G07_9 RDN_G07_9 -1.0
    P_G07_9 RUP_G07_10 -1.0
    P_G07_9 RDN_G07_10 1.0
    P_G07_9 DEM_9 1.0
    M6703 'MARKER' 'INTORG'
    U_G07_10 OBJ 329.091486644006
    U_G07_10 PMIN_G07_10 -78.6140008239317
    U_G07_10 PMAX_G07_10 -256.1507902938931
    U_G07_10 LOGIC_G07_10 1.0
    U_G07_10 MINUP_G07_10 -1.0
    U_G07_10 MINDN_G07_10 1.0
    U_G07_10 LOGIC_G07_11 -1.0
    U_G07_10 RES_10 256.1507902938931
    V_G07_10 OBJ 1360.079198042168
    V_G07_10 LOGIC_G07_10 -1.0
    V_G07_10 MINUP_G07_10 1.0
    V_G07_10 MINUP_G07_11 1.0
    V_G07_10 MINUP_G07_12 1.0
    V_G07_10 MINUP_G07_13 1.0
    V_G07_10 MINUP_G07_14 1.0
    W_G07_10 LOGIC_G07_10 1.0
    W_G07_10 MINDN_G07_10 1.0
    W_G07_10 MINDN_G07_11 1.0
    W_G07_10 MINDN_G07_12 1.0
    M6723 'MARKER' 'INTEND'
    P_G07_10 OBJ 25.923298809438045
    P_G07_10 PMIN_G07_10 1.0
    P_G07_10 PMAX_G07_10 1.0
    P_G07_10 RUP_G07_10 1.0
    P_G07_10 RDN_G07_10 -1.0
    P_G07_10 RUP_G07_11 -1.0
    P_G07_10 RDN_G07_11 1.0
    P_G07_10 DEM_10 1.0
    M6732 'MARKER' 'INTORG'
    U_G07_11 OBJ 329.091486644006
    U_G07_11 PMIN_G07_11 -78.6140008239317
    U_G07_11 PMAX_G07_11 -256.1507902938931
    U_G07_11 LOGIC_G07_11 1.0
    U_G07_11 MINUP_G07_11 -1.0
    U_G07_11 MINDN_G07_11 1.0
    U_G07_11 LOGIC_G07_12 -1.0
    U_G07_11 RES_11 256.1507902938931
    V_G07_11 OBJ 1360.079198042168
    V_G07_11 LOGIC_G07_11 -1.0
    V_G07_11 MINUP_G07_11 1.0
    V_G07_11 MINUP_G07_12 1.0
    V_G07_11 MINUP_G07_13 1.0
    V_G07_11 MINUP_G07_14 1.0
    V_G07_11 MINUP_G07_15 1.0
    W_G07_11 LOGIC_G07_11 1.0
    W_G07_11 MINDN_G07_11 1.0
    W_G07_11 MINDN_G07_12 1.0
    W_G07_11 MINDN_G07_13 1.0
    M6752 'MARKER' 'INTEND'
    P_G07_11 OBJ 25.923298809438045
    P_G07_11 PMIN_G07_11 1.0
    P_G07_11 PMAX_G07_11 1.0
    P_G07_11 RUP_G07_11 1.0
    P_G07_11 RDN_G07_11 -1.0
    P_G07_11 RUP_G07_12 -1.0
    P_G07_11 RDN_G07_12 1.0
    P_G07_11 DEM_11 1.0
    M6761 'MARKER' 'INTORG'
    U_G07_12 OBJ 329.091486644006
    U_G07_12 PMIN_G07_12 -78.6140008239317
    U_G07_12 PMAX_G07_12 -256.1507902938931
    U_G07_12 LOGIC_G07_12 1.0
    U_G07_12 MINUP_G07_12 -1.0
    U_G07_12 MINDN_G07_12 1.0
    U_G07_12 LOGIC_G07_13 -1.0
    U_G07_12 RES_12 256.1507902938931
    V_G07_12 OBJ 1360.079198042168
    V_G07_12 LOGIC_G07_12 -1.0
    V_G07_12 MINUP_G07_12 1.0
    V_G07_12 MINUP_G07_13 1.0
    V_G07_12 MINUP_G07_14 1.0
    V_G07_12 MINUP_G07_15 1.0
    V_G07_12 MINUP_G07_16 1.0
    W_G07_12 LOGIC_G07_12 1.0
    W_G07_12 MINDN_G07_12 1.0
    W_G07_12 MINDN_G07_13 1.0
    W_G07_12 MINDN_G07_14 1.0
    M6781 'MARKER' 'INTEND'
    P_G07_12 OBJ 25.923298809438045
    P_G07_12 PMIN_G07_12 1.0
    P_G07_12 PMAX_G07_12 1.0
    P_G07_12 RUP_G07_12 1.0
    P_G07_12 RDN_G07_12 -1.0
    P_G07_12 RUP_G07_13 -1.0
    P_G07_12 RDN_G07_13 1.0
    P_G07_12 DEM_12 1.0
    M6790 'MARKER' 'INTORG'
    U_G07_13 OBJ 329.091486644006
    U_G07_13 PMIN_G07_13 -78.6140008239317
    U_G07_13 PMAX_G07_13 -256.1507902938931
    U_G07_13 LOGIC_G07_13 1.0
    U_G07_13 MINUP_G07_13 -1.0
    U_G07_13 MINDN_G07_13 1.0
    U_G07_13 LOGIC_G07_14 -1.0
    U_G07_13 RES_13 256.1507902938931
    V_G07_13 OBJ 1360.079198042168
    V_G07_13 LOGIC_G07_13 -1.0
    V_G07_13 MINUP_G07_13 1.0
    V_G07_13 MINUP_G07_14 1.0
    V_G07_13 MINUP_G07_15 1.0
    V_G07_13 MINUP_G07_16 1.0
    V_G07_13 MINUP_G07_17 1.0
    W_G07_13 LOGIC_G07_13 1.0
    W_G07_13 MINDN_G07_13 1.0
    W_G07_13 MINDN_G07_14 1.0
    W_G07_13 MINDN_G07_15 1.0
    M6810 'MARKER' 'INTEND'
    P_G07_13 OBJ 25.923298809438045
    P_G07_13 PMIN_G07_13 1.0
    P_G07_13 PMAX_G07_13 1.0
    P_G07_13 RUP_G07_13 1.0
    P_G07_13 RDN_G07_13 -1.0
    P_G07_13 RUP_G07_14 -1.0
    P_G07_13 RDN_G07_14 1.0
    P_G07_13 DEM_13 1.0
    M6819 'MARKER' 'INTORG'
    U_G07_14 OBJ 329.091486644006
    U_G07_14 PMIN_G07_14 -78.6140008239317
    U_G07_14 PMAX_G07_14 -256.1507902938931
    U_G07_14 LOGIC_G07_14 1.0
    U_G07_14 MINUP_G07_14 -1.0
    U_G07_14 MINDN_G07_14 1.0
    U_G07_14 LOGIC_G07_15 -1.0
    U_G07_14 RES_14 256.1507902938931
    V_G07_14 OBJ 1360.079198042168
    V_G07_14 LOGIC_G07_14 -1.0
    V_G07_14 MINUP_G07_14 1.0
    V_G07_14 MINUP_G07_15 1.0
    V_G07_14 MINUP_G07_16 1.0
    V_G07_14 MINUP_G07_17 1.0
    V_G07_14 MINUP_G07_18 1.0
    W_G07_14 LOGIC_G07_14 1.0
    W_G07_14 MINDN_G07_14 1.0
    W_G07_14 MINDN_G07_15 1.0
    W_G07_14 MINDN_G07_16 1.0
    M6839 'MARKER' 'INTEND'
    P_G07_14 OBJ 25.923298809438045
    P_G07_14 PMIN_G07_14 1.0
    P_G07_14 PMAX_G07_14 1.0
    P_G07_14 RUP_G07_14 1.0
    P_G07_14 RDN_G07_14 -1.0
    P_G07_14 RUP_G07_15 -1.0
    P_G07_14 RDN_G07_15 1.0
    P_G07_14 DEM_14 1.0
    M6848 'MARKER' 'INTORG'
    U_G07_15 OBJ 329.091486644006
    U_G07_15 PMIN_G07_15 -78.6140008239317
    U_G07_15 PMAX_G07_15 -256.1507902938931
    U_G07_15 LOGIC_G07_15 1.0
    U_G07_15 MINUP_G07_15 -1.0
    U_G07_15 MINDN_G07_15 1.0
    U_G07_15 LOGIC_G07_16 -1.0
    U_G07_15 RES_15 256.1507902938931
    V_G07_15 OBJ 1360.079198042168
    V_G07_15 LOGIC_G07_15 -1.0
    V_G07_15 MINUP_G07_15 1.0
    V_G07_15 MINUP_G07_16 1.0
    V_G07_15 MINUP_G07_17 1.0
    V_G07_15 MINUP_G07_18 1.0
    V_G07_15 MINUP_G07_19 1.0
    W_G07_15 LOGIC_G07_15 1.0
    W_G07_15 MINDN_G07_15 1.0
    W_G07_15 MINDN_G07_16 1.0
    W_G07_15 MINDN_G07_17 1.0
    M6868 'MARKER' 'INTEND'
    P_G07_15 OBJ 25.923298809438045
    P_G07_15 PMIN_G07_15 1.0
    P_G07_15 PMAX_G07_15 1.0
    P_G07_15 RUP_G07_15 1.0
    P_G07_15 RDN_G07_15 -1.0
    P_G07_15 RUP_G07_16 -1.0
    P_G07_15 RDN_G07_16 1.0
    P_G07_15 DEM_15 1.0
    M6877 'MARKER' 'INTORG'
    U_G07_16 OBJ 329.091486644006
    U_G07_16 PMIN_G07_16 -78.6140008239317
    U_G07_16 PMAX_G07_16 -256.1507902938931
    U_G07_16 LOGIC_G07_16 1.0
    U_G07_16 MINUP_G07_16 -1.0
    U_G07_16 MINDN_G07_16 1.0
    U_G07_16 LOGIC_G07_17 -1.0
    U_G07_16 RES_16 256.1507902938931
    V_G07_16 OBJ 1360.079198042168
    V_G07_16 LOGIC_G07_16 -1.0
    V_G07_16 MINUP_G07_16 1.0
    V_G07_16 MINUP_G07_17 1.0
    V_G07_16 MINUP_G07_18 1.0
    V_G07_16 MINUP_G07_19 1.0
    V_G07_16 MINUP_G07_20 1.0
    W_G07_16 LOGIC_G07_16 1.0
    W_G07_16 MINDN_G07_16 1.0
    W_G07_16 MINDN_G07_17 1.0
    W_G07_16 MINDN_G07_18 1.0
    M6897 'MARKER' 'INTEND'
    P_G07_16 OBJ 25.923298809438045
    P_G07_16 PMIN_G07_16 1.0
    P_G07_16 PMAX_G07_16 1.0
    P_G07_16 RUP_G07_16 1.0
    P_G07_16 RDN_G07_16 -1.0
    P_G07_16 RUP_G07_17 -1.0
    P_G07_16 RDN_G07_17 1.0
    P_G07_16 DEM_16 1.0
    M6906 'MARKER' 'INTORG'
    U_G07_17 OBJ 329.091486644006
    U_G07_17 PMIN_G07_17 -78.6140008239317
    U_G07_17 PMAX_G07_17 -256.1507902938931
    U_G07_17 LOGIC_G07_17 1.0
    U_G07_17 MINUP_G07_17 -1.0
    U_G07_17 MINDN_G07_17 1.0
    U_G07_17 LOGIC_G07_18 -1.0
    U_G07_17 RES_17 256.1507902938931
    V_G07_17 OBJ 1360.079198042168
    V_G07_17 LOGIC_G07_17 -1.0
    V_G07_17 MINUP_G07_17 1.0
    V_G07_17 MINUP_G07_18 1.0
    V_G07_17 MINUP_G07_19 1.0
    V_G07_17 MINUP_G07_20 1.0
    V_G07_17 MINUP_G07_21 1.0
    W_G07_17 LOGIC_G07_17 1.0
    W_G07_17 MINDN_G07_17 1.0
    W_G07_17 MINDN_G07_18 1.0
    W_G07_17 MINDN_G07_19 1.0
    M6926 'MARKER' 'INTEND'
    P_G07_17 OBJ 25.923298809438045
    P_G07_17 PMIN_G07_17 1.0
    P_G07_17 PMAX_G07_17 1.0
    P_G07_17 RUP_G07_17 1.0
    P_G07_17 RDN_G07_17 -1.0
    P_G07_17 RUP_G07_18 -1.0
    P_G07_17 RDN_G07_18 1.0
    P_G07_17 DEM_17 1.0
    M6935 'MARKER' 'INTORG'
    U_G07_18 OBJ 329.091486644006
    U_G07_18 PMIN_G07_18 -78.6140008239317
    U_G07_18 PMAX_G07_18 -256.1507902938931
    U_G07_18 LOGIC_G07_18 1.0
    U_G07_18 MINUP_G07_18 -1.0
    U_G07_18 MINDN_G07_18 1.0
    U_G07_18 LOGIC_G07_19 -1.0
    U_G07_18 RES_18 256.1507902938931
    V_G07_18 OBJ 1360.079198042168
    V_G07_18 LOGIC_G07_18 -1.0
    V_G07_18 MINUP_G07_18 1.0
    V_G07_18 MINUP_G07_19 1.0
    V_G07_18 MINUP_G07_20 1.0
    V_G07_18 MINUP_G07_21 1.0
    V_G07_18 MINUP_G07_22 1.0
    W_G07_18 LOGIC_G07_18 1.0
    W_G07_18 MINDN_G07_18 1.0
    W_G07_18 MINDN_G07_19 1.0
    W_G07_18 MINDN_G07_20 1.0
    M6955 'MARKER' 'INTEND'
    P_G07_18 OBJ 25.923298809438045
    P_G07_18 PMIN_G07_18 1.0
    P_G07_18 PMAX_G07_18 1.0
    P_G07_18 RUP_G07_18 1.0
    P_G07_18 RDN_G07_18 -1.0
    P_G07_18 RUP_G07_19 -1.0
    P_G07_18 RDN_G07_19 1.0
    P_G07_18 DEM_18 1.0
    M6964 'MARKER' 'INTORG'
    U_G07_19 OBJ 329.091486644006
    U_G07_19 PMIN_G07_19 -78.6140008239317
    U_G07_19 PMAX_G07_19 -256.1507902938931
    U_G07_19 LOGIC_G07_19 1.0
    U_G07_19 MINUP_G07_19 -1.0
    U_G07_19 MINDN_G07_19 1.0
    U_G07_19 LOGIC_G07_20 -1.0
    U_G07_19 RES_19 256.1507902938931
    V_G07_19 OBJ 1360.079198042168
    V_G07_19 LOGIC_G07_19 -1.0
    V_G07_19 MINUP_G07_19 1.0
    V_G07_19 MINUP_G07_20 1.0
    V_G07_19 MINUP_G07_21 1.0
    V_G07_19 MINUP_G07_22 1.0
    V_G07_19 MINUP_G07_23 1.0
    W_G07_19 LOGIC_G07_19 1.0
    W_G07_19 MINDN_G07_19 1.0
    W_G07_19 MINDN_G07_20 1.0
    W_G07_19 MINDN_G07_21 1.0
    M6984 'MARKER' 'INTEND'
    P_G07_19 OBJ 25.923298809438045
    P_G07_19 PMIN_G07_19 1.0
    P_G07_19 PMAX_G07_19 1.0
    P_G07_19 RUP_G07_19 1.0
    P_G07_19 RDN_G07_19 -1.0
    P_G07_19 RUP_G07_20 -1.0
    P_G07_19 RDN_G07_20 1.0
    P_G07_19 DEM_19 1.0
    M6993 'MARKER' 'INTORG'
    U_G07_20 OBJ 329.091486644006
    U_G07_20 PMIN_G07_20 -78.6140008239317
    U_G07_20 PMAX_G07_20 -256.1507902938931
    U_G07_20 LOGIC_G07_20 1.0
    U_G07_20 MINUP_G07_20 -1.0
    U_G07_20 MINDN_G07_20 1.0
    U_G07_20 LOGIC_G07_21 -1.0
    U_G07_20 RES_20 256.1507902938931
    V_G07_20 OBJ 1360.079198042168
    V_G07_20 LOGIC_G07_20 -1.0
    V_G07_20 MINUP_G07_20 1.0
    V_G07_20 MINUP_G07_21 1.0
    V_G07_20 MINUP_G07_22 1.0
    V_G07_20 MINUP_G07_23 1.0
    W_G07_20 LOGIC_G07_20 1.0
    W_G07_20 MINDN_G07_20 1.0
    W_G07_20 MINDN_G07_21 1.0
    W_G07_20 MINDN_G07_22 1.0
    M7012 'MARKER' 'INTEND'
    P_G07_20 OBJ 25.923298809438045
    P_G07_20 PMIN_G07_20 1.0
    P_G07_20 PMAX_G07_20 1.0
    P_G07_20 RUP_G07_20 1.0
    P_G07_20 RDN_G07_20 -1.0
    P_G07_20 RUP_G07_21 -1.0
    P_G07_20 RDN_G07_21 1.0
    P_G07_20 DEM_20 1.0
    M7021 'MARKER' 'INTORG'
    U_G07_21 OBJ 329.091486644006
    U_G07_21 PMIN_G07_21 -78.6140008239317
    U_G07_21 PMAX_G07_21 -256.1507902938931
    U_G07_21 LOGIC_G07_21 1.0
    U_G07_21 MINUP_G07_21 -1.0
    U_G07_21 MINDN_G07_21 1.0
    U_G07_21 LOGIC_G07_22 -1.0
    U_G07_21 RES_21 256.1507902938931
    V_G07_21 OBJ 1360.079198042168
    V_G07_21 LOGIC_G07_21 -1.0
    V_G07_21 MINUP_G07_21 1.0
    V_G07_21 MINUP_G07_22 1.0
    V_G07_21 MINUP_G07_23 1.0
    W_G07_21 LOGIC_G07_21 1.0
    W_G07_21 MINDN_G07_21 1.0
    W_G07_21 MINDN_G07_22 1.0
    W_G07_21 MINDN_G07_23 1.0
    M7039 'MARKER' 'INTEND'
    P_G07_21 OBJ 25.923298809438045
    P_G07_21 PMIN_G07_21 1.0
    P_G07_21 PMAX_G07_21 1.0
    P_G07_21 RUP_G07_21 1.0
    P_G07_21 RDN_G07_21 -1.0
    P_G07_21 RUP_G07_22 -1.0
    P_G07_21 RDN_G07_22 1.0
    P_G07_21 DEM_21 1.0
    M7048 'MARKER' 'INTORG'
    U_G07_22 OBJ 329.091486644006
    U_G07_22 PMIN_G07_22 -78.6140008239317
    U_G07_22 PMAX_G07_22 -256.1507902938931
    U_G07_22 LOGIC_G07_22 1.0
    U_G07_22 MINUP_G07_22 -1.0
    U_G07_22 MINDN_G07_22 1.0
    U_G07_22 LOGIC_G07_23 -1.0
    U_G07_22 RES_22 256.1507902938931
    V_G07_22 OBJ 1360.079198042168
    V_G07_22 LOGIC_G07_22 -1.0
    V_G07_22 MINUP_G07_22 1.0
    V_G07_22 MINUP_G07_23 1.0
    W_G07_22 LOGIC_G07_22 1.0
    W_G07_22 MINDN_G07_22 1.0
    W_G07_22 MINDN_G07_23 1.0
    M7064 'MARKER' 'INTEND'
    P_G07_22 OBJ 25.923298809438045
    P_G07_22 PMIN_G07_22 1.0
    P_G07_22 PMAX_G07_22 1.0
    P_G07_22 RUP_G07_22 1.0
    P_G07_22 RDN_G07_22 -1.0
    P_G07_22 RUP_G07_23 -1.0
    P_G07_22 RDN_G07_23 1.0
    P_G07_22 DEM_22 1.0
    M7073 'MARKER' 'INTORG'
    U_G07_23 OBJ 329.091486644006
    U_G07_23 PMIN_G07_23 -78.6140008239317
    U_G07_23 PMAX_G07_23 -256.1507902938931
    U_G07_23 LOGIC_G07_23 1.0
    U_G07_23 MINUP_G07_23 -1.0
    U_G07_23 MINDN_G07_23 1.0
    U_G07_23 RES_23 256.1507902938931
    V_G07_23 OBJ 1360.079198042168
    V_G07_23 LOGIC_G07_23 -1.0
    V_G07_23 MINUP_G07_23 1.0
    W_G07_23 LOGIC_G07_23 1.0
    W_G07_23 MINDN_G07_23 1.0
    M7086 'MARKER' 'INTEND'
    P_G07_23 OBJ 25.923298809438045
    P_G07_23 PMIN_G07_23 1.0
    P_G07_23 PMAX_G07_23 1.0
    P_G07_23 RUP_G07_23 1.0
    P_G07_23 RDN_G07_23 -1.0
    P_G07_23 DEM_23 1.0
    M7093 'MARKER' 'INTORG'
    U_G08_0 OBJ 107.29440400249096
    U_G08_0 PMIN_G08_0 -34.734222598277924
    U_G08_0 PMAX_G08_0 -80.26365640488692
    U_G08_0 LOGIC_G08_0 1.0
    U_G08_0 MINUP_G08_0 -1.0
    U_G08_0 MINDN_G08_0 1.0
    U_G08_0 LOGIC_G08_1 -1.0
    U_G08_0 RES_0 80.26365640488692
    V_G08_0 OBJ 2551.8643133425285
    V_G08_0 LOGIC_G08_0 -1.0
    V_G08_0 MINUP_G08_0 1.0
    W_G08_0 LOGIC_G08_0 1.0
    W_G08_0 MINDN_G08_0 1.0
    W_G08_0 MINDN_G08_1 1.0
    W_G08_0 MINDN_G08_2 1.0
    W_G08_0 MINDN_G08_3 1.0
    M7110 'MARKER' 'INTEND'
    P_G08_0 OBJ 19.856906794234494
    P_G08_0 PMIN_G08_0 1.0
    P_G08_0 PMAX_G08_0 1.0
    P_G08_0 RUP_G08_1 -1.0
    P_G08_0 RDN_G08_1 1.0
    P_G08_0 DEM_0 1.0
    M7117 'MARKER' 'INTORG'
    U_G08_1 OBJ 107.29440400249096
    U_G08_1 PMIN_G08_1 -34.734222598277924
    U_G08_1 PMAX_G08_1 -80.26365640488692
    U_G08_1 LOGIC_G08_1 1.0
    U_G08_1 MINUP_G08_1 -1.0
    U_G08_1 MINDN_G08_1 1.0
    U_G08_1 LOGIC_G08_2 -1.0
    U_G08_1 RES_1 80.26365640488692
    V_G08_1 OBJ 2551.8643133425285
    V_G08_1 LOGIC_G08_1 -1.0
    V_G08_1 MINUP_G08_1 1.0
    W_G08_1 LOGIC_G08_1 1.0
    W_G08_1 MINDN_G08_1 1.0
    W_G08_1 MINDN_G08_2 1.0
    W_G08_1 MINDN_G08_3 1.0
    W_G08_1 MINDN_G08_4 1.0
    M7134 'MARKER' 'INTEND'
    P_G08_1 OBJ 19.856906794234494
    P_G08_1 PMIN_G08_1 1.0
    P_G08_1 PMAX_G08_1 1.0
    P_G08_1 RUP_G08_1 1.0
    P_G08_1 RDN_G08_1 -1.0
    P_G08_1 RUP_G08_2 -1.0
    P_G08_1 RDN_G08_2 1.0
    P_G08_1 DEM_1 1.0
    M7143 'MARKER' 'INTORG'
    U_G08_2 OBJ 107.29440400249096
    U_G08_2 PMIN_G08_2 -34.734222598277924
    U_G08_2 PMAX_G08_2 -80.26365640488692
    U_G08_2 LOGIC_G08_2 1.0
    U_G08_2 MINUP_G08_2 -1.0
    U_G08_2 MINDN_G08_2 1.0
    U_G08_2 LOGIC_G08_3 -1.0
    U_G08_2 RES_2 80.26365640488692
    V_G08_2 OBJ 2551.8643133425285
    V_G08_2 LOGIC_G08_2 -1.0
    V_G08_2 MINUP_G08_2 1.0
    W_G08_2 LOGIC_G08_2 1.0
    W_G08_2 MINDN_G08_2 1.0
    W_G08_2 MINDN_G08_3 1.0
    W_G08_2 MINDN_G08_4 1.0
    W_G08_2 MINDN_G08_5 1.0
    M7160 'MARKER' 'INTEND'
    P_G08_2 OBJ 19.856906794234494
    P_G08_2 PMIN_G08_2 1.0
    P_G08_2 PMAX_G08_2 1.0
    P_G08_2 RUP_G08_2 1.0
    P_G08_2 RDN_G08_2 -1.0
    P_G08_2 RUP_G08_3 -1.0
    P_G08_2 RDN_G08_3 1.0
    P_G08_2 DEM_2 1.0
    M7169 'MARKER' 'INTORG'
    U_G08_3 OBJ 107.29440400249096
    U_G08_3 PMIN_G08_3 -34.734222598277924
    U_G08_3 PMAX_G08_3 -80.26365640488692
    U_G08_3 LOGIC_G08_3 1.0
    U_G08_3 MINUP_G08_3 -1.0
    U_G08_3 MINDN_G08_3 1.0
    U_G08_3 LOGIC_G08_4 -1.0
    U_G08_3 RES_3 80.26365640488692
    V_G08_3 OBJ 2551.8643133425285
    V_G08_3 LOGIC_G08_3 -1.0
    V_G08_3 MINUP_G08_3 1.0
    W_G08_3 LOGIC_G08_3 1.0
    W_G08_3 MINDN_G08_3 1.0
    W_G08_3 MINDN_G08_4 1.0
    W_G08_3 MINDN_G08_5 1.0
    W_G08_3 MINDN_G08_6 1.0
    M7186 'MARKER' 'INTEND'
    P_G08_3 OBJ 19.856906794234494
    P_G08_3 PMIN_G08_3 1.0
    P_G08_3 PMAX_G08_3 1.0
    P_G08_3 RUP_G08_3 1.0
    P_G08_3 RDN_G08_3 -1.0
    P_G08_3 RUP_G08_4 -1.0
    P_G08_3 RDN_G08_4 1.0
    P_G08_3 DEM_3 1.0
    M7195 'MARKER' 'INTORG'
    U_G08_4 OBJ 107.29440400249096
    U_G08_4 PMIN_G08_4 -34.734222598277924
    U_G08_4 PMAX_G08_4 -80.26365640488692
    U_G08_4 LOGIC_G08_4 1.0
    U_G08_4 MINUP_G08_4 -1.0
    U_G08_4 MINDN_G08_4 1.0
    U_G08_4 LOGIC_G08_5 -1.0
    U_G08_4 RES_4 80.26365640488692
    V_G08_4 OBJ 2551.8643133425285
    V_G08_4 LOGIC_G08_4 -1.0
    V_G08_4 MINUP_G08_4 1.0
    W_G08_4 LOGIC_G08_4 1.0
    W_G08_4 MINDN_G08_4 1.0
    W_G08_4 MINDN_G08_5 1.0
    W_G08_4 MINDN_G08_6 1.0
    W_G08_4 MINDN_G08_7 1.0
    M7212 'MARKER' 'INTEND'
    P_G08_4 OBJ 19.856906794234494
    P_G08_4 PMIN_G08_4 1.0
    P_G08_4 PMAX_G08_4 1.0
    P_G08_4 RUP_G08_4 1.0
    P_G08_4 RDN_G08_4 -1.0
    P_G08_4 RUP_G08_5 -1.0
    P_G08_4 RDN_G08_5 1.0
    P_G08_4 DEM_4 1.0
    M7221 'MARKER' 'INTORG'
    U_G08_5 OBJ 107.29440400249096
    U_G08_5 PMIN_G08_5 -34.734222598277924
    U_G08_5 PMAX_G08_5 -80.26365640488692
    U_G08_5 LOGIC_G08_5 1.0
    U_G08_5 MINUP_G08_5 -1.0
    U_G08_5 MINDN_G08_5 1.0
    U_G08_5 LOGIC_G08_6 -1.0
    U_G08_5 RES_5 80.26365640488692
    V_G08_5 OBJ 2551.8643133425285
    V_G08_5 LOGIC_G08_5 -1.0
    V_G08_5 MINUP_G08_5 1.0
    W_G08_5 LOGIC_G08_5 1.0
    W_G08_5 MINDN_G08_5 1.0
    W_G08_5 MINDN_G08_6 1.0
    W_G08_5 MINDN_G08_7 1.0
    W_G08_5 MINDN_G08_8 1.0
    M7238 'MARKER' 'INTEND'
    P_G08_5 OBJ 19.856906794234494
    P_G08_5 PMIN_G08_5 1.0
    P_G08_5 PMAX_G08_5 1.0
    P_G08_5 RUP_G08_5 1.0
    P_G08_5 RDN_G08_5 -1.0
    P_G08_5 RUP_G08_6 -1.0
    P_G08_5 RDN_G08_6 1.0
    P_G08_5 DEM_5 1.0
    M7247 'MARKER' 'INTORG'
    U_G08_6 OBJ 107.29440400249096
    U_G08_6 PMIN_G08_6 -34.734222598277924
    U_G08_6 PMAX_G08_6 -80.26365640488692
    U_G08_6 LOGIC_G08_6 1.0
    U_G08_6 MINUP_G08_6 -1.0
    U_G08_6 MINDN_G08_6 1.0
    U_G08_6 LOGIC_G08_7 -1.0
    U_G08_6 RES_6 80.26365640488692
    V_G08_6 OBJ 2551.8643133425285
    V_G08_6 LOGIC_G08_6 -1.0
    V_G08_6 MINUP_G08_6 1.0
    W_G08_6 LOGIC_G08_6 1.0
    W_G08_6 MINDN_G08_6 1.0
    W_G08_6 MINDN_G08_7 1.0
    W_G08_6 MINDN_G08_8 1.0
    W_G08_6 MINDN_G08_9 1.0
    M7264 'MARKER' 'INTEND'
    P_G08_6 OBJ 19.856906794234494
    P_G08_6 PMIN_G08_6 1.0
    P_G08_6 PMAX_G08_6 1.0
    P_G08_6 RUP_G08_6 1.0
    P_G08_6 RDN_G08_6 -1.0
    P_G08_6 RUP_G08_7 -1.0
    P_G08_6 RDN_G08_7 1.0
    P_G08_6 DEM_6 1.0
    M7273 'MARKER' 'INTORG'
    U_G08_7 OBJ 107.29440400249096
    U_G08_7 PMIN_G08_7 -34.734222598277924
    U_G08_7 PMAX_G08_7 -80.26365640488692
    U_G08_7 LOGIC_G08_7 1.0
    U_G08_7 MINUP_G08_7 -1.0
    U_G08_7 MINDN_G08_7 1.0
    U_G08_7 LOGIC_G08_8 -1.0
    U_G08_7 RES_7 80.26365640488692
    V_G08_7 OBJ 2551.8643133425285
    V_G08_7 LOGIC_G08_7 -1.0
    V_G08_7 MINUP_G08_7 1.0
    W_G08_7 LOGIC_G08_7 1.0
    W_G08_7 MINDN_G08_7 1.0
    W_G08_7 MINDN_G08_8 1.0
    W_G08_7 MINDN_G08_9 1.0
    W_G08_7 MINDN_G08_10 1.0
    M7290 'MARKER' 'INTEND'
    P_G08_7 OBJ 19.856906794234494
    P_G08_7 PMIN_G08_7 1.0
    P_G08_7 PMAX_G08_7 1.0
    P_G08_7 RUP_G08_7 1.0
    P_G08_7 RDN_G08_7 -1.0
    P_G08_7 RUP_G08_8 -1.0
    P_G08_7 RDN_G08_8 1.0
    P_G08_7 DEM_7 1.0
    M7299 'MARKER' 'INTORG'
    U_G08_8 OBJ 107.29440400249096
    U_G08_8 PMIN_G08_8 -34.734222598277924
    U_G08_8 PMAX_G08_8 -80.26365640488692
    U_G08_8 LOGIC_G08_8 1.0
    U_G08_8 MINUP_G08_8 -1.0
    U_G08_8 MINDN_G08_8 1.0
    U_G08_8 LOGIC_G08_9 -1.0
    U_G08_8 RES_8 80.26365640488692
    V_G08_8 OBJ 2551.8643133425285
    V_G08_8 LOGIC_G08_8 -1.0
    V_G08_8 MINUP_G08_8 1.0
    W_G08_8 LOGIC_G08_8 1.0
    W_G08_8 MINDN_G08_8 1.0
    W_G08_8 MINDN_G08_9 1.0
    W_G08_8 MINDN_G08_10 1.0
    W_G08_8 MINDN_G08_11 1.0
    M7316 'MARKER' 'INTEND'
    P_G08_8 OBJ 19.856906794234494
    P_G08_8 PMIN_G08_8 1.0
    P_G08_8 PMAX_G08_8 1.0
    P_G08_8 RUP_G08_8 1.0
    P_G08_8 RDN_G08_8 -1.0
    P_G08_8 RUP_G08_9 -1.0
    P_G08_8 RDN_G08_9 1.0
    P_G08_8 DEM_8 1.0
    M7325 'MARKER' 'INTORG'
    U_G08_9 OBJ 107.29440400249096
    U_G08_9 PMIN_G08_9 -34.734222598277924
    U_G08_9 PMAX_G08_9 -80.26365640488692
    U_G08_9 LOGIC_G08_9 1.0
    U_G08_9 MINUP_G08_9 -1.0
    U_G08_9 MINDN_G08_9 1.0
    U_G08_9 LOGIC_G08_10 -1.0
    U_G08_9 RES_9 80.26365640488692
    V_G08_9 OBJ 2551.8643133425285
    V_G08_9 LOGIC_G08_9 -1.0
    V_G08_9 MINUP_G08_9 1.0
    W_G08_9 LOGIC_G08_9 1.0
    W_G08_9 MINDN_G08_9 1.0
    W_G08_9 MINDN_G08_10 1.0
    W_G08_9 MINDN_G08_11 1.0
    W_G08_9 MINDN_G08_12 1.0
    M7342 'MARKER' 'INTEND'
    P_G08_9 OBJ 19.856906794234494
    P_G08_9 PMIN_G08_9 1.0
    P_G08_9 PMAX_G08_9 1.0
    P_G08_9 RUP_G08_9 1.0
    P_G08_9 RDN_G08_9 -1.0
    P_G08_9 RUP_G08_10 -1.0
    P_G08_9 RDN_G08_10 1.0
    P_G08_9 DEM_9 1.0
    M7351 'MARKER' 'INTORG'
    U_G08_10 OBJ 107.29440400249096
    U_G08_10 PMIN_G08_10 -34.734222598277924
    U_G08_10 PMAX_G08_10 -80.26365640488692
    U_G08_10 LOGIC_G08_10 1.0
    U_G08_10 MINUP_G08_10 -1.0
    U_G08_10 MINDN_G08_10 1.0
    U_G08_10 LOGIC_G08_11 -1.0
    U_G08_10 RES_10 80.26365640488692
    V_G08_10 OBJ 2551.8643133425285
    V_G08_10 LOGIC_G08_10 -1.0
    V_G08_10 MINUP_G08_10 1.0
    W_G08_10 LOGIC_G08_10 1.0
    W_G08_10 MINDN_G08_10 1.0
    W_G08_10 MINDN_G08_11 1.0
    W_G08_10 MINDN_G08_12 1.0
    W_G08_10 MINDN_G08_13 1.0
    M7368 'MARKER' 'INTEND'
    P_G08_10 OBJ 19.856906794234494
    P_G08_10 PMIN_G08_10 1.0
    P_G08_10 PMAX_G08_10 1.0
    P_G08_10 RUP_G08_10 1.0
    P_G08_10 RDN_G08_10 -1.0
    P_G08_10 RUP_G08_11 -1.0
    P_G08_10 RDN_G08_11 1.0
    P_G08_10 DEM_10 1.0
    M7377 'MARKER' 'INTORG'
    U_G08_11 OBJ 107.29440400249096
    U_G08_11 PMIN_G08_11 -34.734222598277924
    U_G08_11 PMAX_G08_11 -80.26365640488692
    U_G08_11 LOGIC_G08_11 1.0
    U_G08_11 MINUP_G08_11 -1.0
    U_G08_11 MINDN_G08_11 1.0
    U_G08_11 LOGIC_G08_12 -1.0
    U_G08_11 RES_11 80.26365640488692
    V_G08_11 OBJ 2551.8643133425285
    V_G08_11 LOGIC_G08_11 -1.0
    V_G08_11 MINUP_G08_11 1.0
    W_G08_11 LOGIC_G08_11 1.0
    W_G08_11 MINDN_G08_11 1.0
    W_G08_11 MINDN_G08_12 1.0
    W_G08_11 MINDN_G08_13 1.0
    W_G08_11 MINDN_G08_14 1.0
    M7394 'MARKER' 'INTEND'
    P_G08_11 OBJ 19.856906794234494
    P_G08_11 PMIN_G08_11 1.0
    P_G08_11 PMAX_G08_11 1.0
    P_G08_11 RUP_G08_11 1.0
    P_G08_11 RDN_G08_11 -1.0
    P_G08_11 RUP_G08_12 -1.0
    P_G08_11 RDN_G08_12 1.0
    P_G08_11 DEM_11 1.0
    M7403 'MARKER' 'INTORG'
    U_G08_12 OBJ 107.29440400249096
    U_G08_12 PMIN_G08_12 -34.734222598277924
    U_G08_12 PMAX_G08_12 -80.26365640488692
    U_G08_12 LOGIC_G08_12 1.0
    U_G08_12 MINUP_G08_12 -1.0
    U_G08_12 MINDN_G08_12 1.0
    U_G08_12 LOGIC_G08_13 -1.0
    U_G08_12 RES_12 80.26365640488692
    V_G08_12 OBJ 2551.8643133425285
    V_G08_12 LOGIC_G08_12 -1.0
    V_G08_12 MINUP_G08_12 1.0
    W_G08_12 LOGIC_G08_12 1.0
    W_G08_12 MINDN_G08_12 1.0
    W_G08_12 MINDN_G08_13 1.0
    W_G08_12 MINDN_G08_14 1.0
    W_G08_12 MINDN_G08_15 1.0
    M7420 'MARKER' 'INTEND'
    P_G08_12 OBJ 19.856906794234494
    P_G08_12 PMIN_G08_12 1.0
    P_G08_12 PMAX_G08_12 1.0
    P_G08_12 RUP_G08_12 1.0
    P_G08_12 RDN_G08_12 -1.0
    P_G08_12 RUP_G08_13 -1.0
    P_G08_12 RDN_G08_13 1.0
    P_G08_12 DEM_12 1.0
    M7429 'MARKER' 'INTORG'
    U_G08_13 OBJ 107.29440400249096
    U_G08_13 PMIN_G08_13 -34.734222598277924
    U_G08_13 PMAX_G08_13 -80.26365640488692
    U_G08_13 LOGIC_G08_13 1.0
    U_G08_13 MINUP_G08_13 -1.0
    U_G08_13 MINDN_G08_13 1.0
    U_G08_13 LOGIC_G08_14 -1.0
    U_G08_13 RES_13 80.26365640488692
    V_G08_13 OBJ 2551.8643133425285
    V_G08_13 LOGIC_G08_13 -1.0
    V_G08_13 MINUP_G08_13 1.0
    W_G08_13 LOGIC_G08_13 1.0
    W_G08_13 MINDN_G08_13 1.0
    W_G08_13 MINDN_G08_14 1.0
    W_G08_13 MINDN_G08_15 1.0
    W_G08_13 MINDN_G08_16 1.0
    M7446 'MARKER' 'INTEND'
    P_G08_13 OBJ 19.856906794234494
    P_G08_13 PMIN_G08_13 1.0
    P_G08_13 PMAX_G08_13 1.0
    P_G08_13 RUP_G08_13 1.0
    P_G08_13 RDN_G08_13 -1.0
    P_G08_13 RUP_G08_14 -1.0
    P_G08_13 RDN_G08_14 1.0
    P_G08_13 DEM_13 1.0
    M7455 'MARKER' 'INTORG'
    U_G08_14 OBJ 107.29440400249096
    U_G08_14 PMIN_G08_14 -34.734222598277924
    U_G08_14 PMAX_G08_14 -80.26365640488692
    U_G08_14 LOGIC_G08_14 1.0
    U_G08_14 MINUP_G08_14 -1.0
    U_G08_14 MINDN_G08_14 1.0
    U_G08_14 LOGIC_G08_15 -1.0
    U_G08_14 RES_14 80.26365640488692
    V_G08_14 OBJ 2551.8643133425285
    V_G08_14 LOGIC_G08_14 -1.0
    V_G08_14 MINUP_G08_14 1.0
    W_G08_14 LOGIC_G08_14 1.0
    W_G08_14 MINDN_G08_14 1.0
    W_G08_14 MINDN_G08_15 1.0
    W_G08_14 MINDN_G08_16 1.0
    W_G08_14 MINDN_G08_17 1.0
    M7472 'MARKER' 'INTEND'
    P_G08_14 OBJ 19.856906794234494
    P_G08_14 PMIN_G08_14 1.0
    P_G08_14 PMAX_G08_14 1.0
    P_G08_14 RUP_G08_14 1.0
    P_G08_14 RDN_G08_14 -1.0
    P_G08_14 RUP_G08_15 -1.0
    P_G08_14 RDN_G08_15 1.0
    P_G08_14 DEM_14 1.0
    M7481 'MARKER' 'INTORG'
    U_G08_15 OBJ 107.29440400249096
    U_G08_15 PMIN_G08_15 -34.734222598277924
    U_G08_15 PMAX_G08_15 -80.26365640488692
    U_G08_15 LOGIC_G08_15 1.0
    U_G08_15 MINUP_G08_15 -1.0
    U_G08_15 MINDN_G08_15 1.0
    U_G08_15 LOGIC_G08_16 -1.0
    U_G08_15 RES_15 80.26365640488692
    V_G08_15 OBJ 2551.8643133425285
    V_G08_15 LOGIC_G08_15 -1.0
    V_G08_15 MINUP_G08_15 1.0
    W_G08_15 LOGIC_G08_15 1.0
    W_G08_15 MINDN_G08_15 1.0
    W_G08_15 MINDN_G08_16 1.0
    W_G08_15 MINDN_G08_17 1.0
    W_G08_15 MINDN_G08_18 1.0
    M7498 'MARKER' 'INTEND'
    P_G08_15 OBJ 19.856906794234494
    P_G08_15 PMIN_G08_15 1.0
    P_G08_15 PMAX_G08_15 1.0
    P_G08_15 RUP_G08_15 1.0
    P_G08_15 RDN_G08_15 -1.0
    P_G08_15 RUP_G08_16 -1.0
    P_G08_15 RDN_G08_16 1.0
    P_G08_15 DEM_15 1.0
    M7507 'MARKER' 'INTORG'
    U_G08_16 OBJ 107.29440400249096
    U_G08_16 PMIN_G08_16 -34.734222598277924
    U_G08_16 PMAX_G08_16 -80.26365640488692
    U_G08_16 LOGIC_G08_16 1.0
    U_G08_16 MINUP_G08_16 -1.0
    U_G08_16 MINDN_G08_16 1.0
    U_G08_16 LOGIC_G08_17 -1.0
    U_G08_16 RES_16 80.26365640488692
    V_G08_16 OBJ 2551.8643133425285
    V_G08_16 LOGIC_G08_16 -1.0
    V_G08_16 MINUP_G08_16 1.0
    W_G08_16 LOGIC_G08_16 1.0
    W_G08_16 MINDN_G08_16 1.0
    W_G08_16 MINDN_G08_17 1.0
    W_G08_16 MINDN_G08_18 1.0
    W_G08_16 MINDN_G08_19 1.0
    M7524 'MARKER' 'INTEND'
    P_G08_16 OBJ 19.856906794234494
    P_G08_16 PMIN_G08_16 1.0
    P_G08_16 PMAX_G08_16 1.0
    P_G08_16 RUP_G08_16 1.0
    P_G08_16 RDN_G08_16 -1.0
    P_G08_16 RUP_G08_17 -1.0
    P_G08_16 RDN_G08_17 1.0
    P_G08_16 DEM_16 1.0
    M7533 'MARKER' 'INTORG'
    U_G08_17 OBJ 107.29440400249096
    U_G08_17 PMIN_G08_17 -34.734222598277924
    U_G08_17 PMAX_G08_17 -80.26365640488692
    U_G08_17 LOGIC_G08_17 1.0
    U_G08_17 MINUP_G08_17 -1.0
    U_G08_17 MINDN_G08_17 1.0
    U_G08_17 LOGIC_G08_18 -1.0
    U_G08_17 RES_17 80.26365640488692
    V_G08_17 OBJ 2551.8643133425285
    V_G08_17 LOGIC_G08_17 -1.0
    V_G08_17 MINUP_G08_17 1.0
    W_G08_17 LOGIC_G08_17 1.0
    W_G08_17 MINDN_G08_17 1.0
    W_G08_17 MINDN_G08_18 1.0
    W_G08_17 MINDN_G08_19 1.0
    W_G08_17 MINDN_G08_20 1.0
    M7550 'MARKER' 'INTEND'
    P_G08_17 OBJ 19.856906794234494
    P_G08_17 PMIN_G08_17 1.0
    P_G08_17 PMAX_G08_17 1.0
    P_G08_17 RUP_G08_17 1.0
    P_G08_17 RDN_G08_17 -1.0
    P_G08_17 RUP_G08_18 -1.0
    P_G08_17 RDN_G08_18 1.0
    P_G08_17 DEM_17 1.0
    M7559 'MARKER' 'INTORG'
    U_G08_18 OBJ 107.29440400249096
    U_G08_18 PMIN_G08_18 -34.734222598277924
    U_G08_18 PMAX_G08_18 -80.26365640488692
    U_G08_18 LOGIC_G08_18 1.0
    U_G08_18 MINUP_G08_18 -1.0
    U_G08_18 MINDN_G08_18 1.0
    U_G08_18 LOGIC_G08_19 -1.0
    U_G08_18 RES_18 80.26365640488692
    V_G08_18 OBJ 2551.8643133425285
    V_G08_18 LOGIC_G08_18 -1.0
    V_G08_18 MINUP_G08_18 1.0
    W_G08_18 LOGIC_G08_18 1.0
    W_G08_18 MINDN_G08_18 1.0
    W_G08_18 MINDN_G08_19 1.0
    W_G08_18 MINDN_G08_20 1.0
    W_G08_18 MINDN_G08_21 1.0
    M7576 'MARKER' 'INTEND'
    P_G08_18 OBJ 19.856906794234494
    P_G08_18 PMIN_G08_18 1.0
    P_G08_18 PMAX_G08_18 1.0
    P_G08_18 RUP_G08_18 1.0
    P_G08_18 RDN_G08_18 -1.0
    P_G08_18 RUP_G08_19 -1.0
    P_G08_18 RDN_G08_19 1.0
    P_G08_18 DEM_18 1.0
    M7585 'MARKER' 'INTORG'
    U_G08_19 OBJ 107.29440400249096
    U_G08_19 PMIN_G08_19 -34.734222598277924
    U_G08_19 PMAX_G08_19 -80.26365640488692
    U_G08_19 LOGIC_G08_19 1.0
    U_G08_19 MINUP_G08_19 -1.0
    U_G08_19 MINDN_G08_19 1.0
    U_G08_19 LOGIC_G08_20 -1.0
    U_G08_19 RES_19 80.26365640488692
    V_G08_19 OBJ 2551.8643133425285
    V_G08_19 LOGIC_G08_19 -1.0
    V_G08_19 MINUP_G08_19 1.0
    W_G08_19 LOGIC_G08_19 1.0
    W_G08_19 MINDN_G08_19 1.0
    W_G08_19 MINDN_G08_20 1.0
    W_G08_19 MINDN_G08_21 1.0
    W_G08_19 MINDN_G08_22 1.0
    M7602 'MARKER' 'INTEND'
    P_G08_19 OBJ 19.856906794234494
    P_G08_19 PMIN_G08_19 1.0
    P_G08_19 PMAX_G08_19 1.0
    P_G08_19 RUP_G08_19 1.0
    P_G08_19 RDN_G08_19 -1.0
    P_G08_19 RUP_G08_20 -1.0
    P_G08_19 RDN_G08_20 1.0
    P_G08_19 DEM_19 1.0
    M7611 'MARKER' 'INTORG'
    U_G08_20 OBJ 107.29440400249096
    U_G08_20 PMIN_G08_20 -34.734222598277924
    U_G08_20 PMAX_G08_20 -80.26365640488692
    U_G08_20 LOGIC_G08_20 1.0
    U_G08_20 MINUP_G08_20 -1.0
    U_G08_20 MINDN_G08_20 1.0
    U_G08_20 LOGIC_G08_21 -1.0
    U_G08_20 RES_20 80.26365640488692
    V_G08_20 OBJ 2551.8643133425285
    V_G08_20 LOGIC_G08_20 -1.0
    V_G08_20 MINUP_G08_20 1.0
    W_G08_20 LOGIC_G08_20 1.0
    W_G08_20 MINDN_G08_20 1.0
    W_G08_20 MINDN_G08_21 1.0
    W_G08_20 MINDN_G08_22 1.0
    W_G08_20 MINDN_G08_23 1.0
    M7628 'MARKER' 'INTEND'
    P_G08_20 OBJ 19.856906794234494
    P_G08_20 PMIN_G08_20 1.0
    P_G08_20 PMAX_G08_20 1.0
    P_G08_20 RUP_G08_20 1.0
    P_G08_20 RDN_G08_20 -1.0
    P_G08_20 RUP_G08_21 -1.0
    P_G08_20 RDN_G08_21 1.0
    P_G08_20 DEM_20 1.0
    M7637 'MARKER' 'INTORG'
    U_G08_21 OBJ 107.29440400249096
    U_G08_21 PMIN_G08_21 -34.734222598277924
    U_G08_21 PMAX_G08_21 -80.26365640488692
    U_G08_21 LOGIC_G08_21 1.0
    U_G08_21 MINUP_G08_21 -1.0
    U_G08_21 MINDN_G08_21 1.0
    U_G08_21 LOGIC_G08_22 -1.0
    U_G08_21 RES_21 80.26365640488692
    V_G08_21 OBJ 2551.8643133425285
    V_G08_21 LOGIC_G08_21 -1.0
    V_G08_21 MINUP_G08_21 1.0
    W_G08_21 LOGIC_G08_21 1.0
    W_G08_21 MINDN_G08_21 1.0
    W_G08_21 MINDN_G08_22 1.0
    W_G08_21 MINDN_G08_23 1.0
    M7653 'MARKER' 'INTEND'
    P_G08_21 OBJ 19.856906794234494
    P_G08_21 PMIN_G08_21 1.0
    P_G08_21 PMAX_G08_21 1.0
    P_G08_21 RUP_G08_21 1.0
    P_G08_21 RDN_G08_21 -1.0
    P_G08_21 RUP_G08_22 -1.0
    P_G08_21 RDN_G08_22 1.0
    P_G08_21 DEM_21 1.0
    M7662 'MARKER' 'INTORG'
    U_G08_22 OBJ 107.29440400249096
    U_G08_22 PMIN_G08_22 -34.734222598277924
    U_G08_22 PMAX_G08_22 -80.26365640488692
    U_G08_22 LOGIC_G08_22 1.0
    U_G08_22 MINUP_G08_22 -1.0
    U_G08_22 MINDN_G08_22 1.0
    U_G08_22 LOGIC_G08_23 -1.0
    U_G08_22 RES_22 80.26365640488692
    V_G08_22 OBJ 2551.8643133425285
    V_G08_22 LOGIC_G08_22 -1.0
    V_G08_22 MINUP_G08_22 1.0
    W_G08_22 LOGIC_G08_22 1.0
    W_G08_22 MINDN_G08_22 1.0
    W_G08_22 MINDN_G08_23 1.0
    M7677 'MARKER' 'INTEND'
    P_G08_22 OBJ 19.856906794234494
    P_G08_22 PMIN_G08_22 1.0
    P_G08_22 PMAX_G08_22 1.0
    P_G08_22 RUP_G08_22 1.0
    P_G08_22 RDN_G08_22 -1.0
    P_G08_22 RUP_G08_23 -1.0
    P_G08_22 RDN_G08_23 1.0
    P_G08_22 DEM_22 1.0
    M7686 'MARKER' 'INTORG'
    U_G08_23 OBJ 107.29440400249096
    U_G08_23 PMIN_G08_23 -34.734222598277924
    U_G08_23 PMAX_G08_23 -80.26365640488692
    U_G08_23 LOGIC_G08_23 1.0
    U_G08_23 MINUP_G08_23 -1.0
    U_G08_23 MINDN_G08_23 1.0
    U_G08_23 RES_23 80.26365640488692
    V_G08_23 OBJ 2551.8643133425285
    V_G08_23 LOGIC_G08_23 -1.0
    V_G08_23 MINUP_G08_23 1.0
    W_G08_23 LOGIC_G08_23 1.0
    W_G08_23 MINDN_G08_23 1.0
    M7699 'MARKER' 'INTEND'
    P_G08_23 OBJ 19.856906794234494
    P_G08_23 PMIN_G08_23 1.0
    P_G08_23 PMAX_G08_23 1.0
    P_G08_23 RUP_G08_23 1.0
    P_G08_23 RDN_G08_23 -1.0
    P_G08_23 DEM_23 1.0
    M7706 'MARKER' 'INTORG'
    U_G09_0 OBJ 257.61430563302014
    U_G09_0 PMIN_G09_0 -28.74115905178244
    U_G09_0 PMAX_G09_0 -65.2205516247846
    U_G09_0 LOGIC_G09_0 1.0
    U_G09_0 MINUP_G09_0 -1.0
    U_G09_0 MINDN_G09_0 1.0
    U_G09_0 LOGIC_G09_1 -1.0
    U_G09_0 RES_0 65.2205516247846
    V_G09_0 OBJ 1302.0791218581592
    V_G09_0 LOGIC_G09_0 -1.0
    V_G09_0 MINUP_G09_0 1.0
    V_G09_0 MINUP_G09_1 1.0
    V_G09_0 MINUP_G09_2 1.0
    V_G09_0 MINUP_G09_3 1.0
    V_G09_0 MINUP_G09_4 1.0
    W_G09_0 LOGIC_G09_0 1.0
    W_G09_0 MINDN_G09_0 1.0
    W_G09_0 MINDN_G09_1 1.0
    M7725 'MARKER' 'INTEND'
    P_G09_0 OBJ 59.24344727893533
    P_G09_0 PMIN_G09_0 1.0
    P_G09_0 PMAX_G09_0 1.0
    P_G09_0 RUP_G09_1 -1.0
    P_G09_0 RDN_G09_1 1.0
    P_G09_0 DEM_0 1.0
    M7732 'MARKER' 'INTORG'
    U_G09_1 OBJ 257.61430563302014
    U_G09_1 PMIN_G09_1 -28.74115905178244
    U_G09_1 PMAX_G09_1 -65.2205516247846
    U_G09_1 LOGIC_G09_1 1.0
    U_G09_1 MINUP_G09_1 -1.0
    U_G09_1 MINDN_G09_1 1.0
    U_G09_1 LOGIC_G09_2 -1.0
    U_G09_1 RES_1 65.2205516247846
    V_G09_1 OBJ 1302.0791218581592
    V_G09_1 LOGIC_G09_1 -1.0
    V_G09_1 MINUP_G09_1 1.0
    V_G09_1 MINUP_G09_2 1.0
    V_G09_1 MINUP_G09_3 1.0
    V_G09_1 MINUP_G09_4 1.0
    V_G09_1 MINUP_G09_5 1.0
    W_G09_1 LOGIC_G09_1 1.0
    W_G09_1 MINDN_G09_1 1.0
    W_G09_1 MINDN_G09_2 1.0
    M7751 'MARKER' 'INTEND'
    P_G09_1 OBJ 59.24344727893533
    P_G09_1 PMIN_G09_1 1.0
    P_G09_1 PMAX_G09_1 1.0
    P_G09_1 RUP_G09_1 1.0
    P_G09_1 RDN_G09_1 -1.0
    P_G09_1 RUP_G09_2 -1.0
    P_G09_1 RDN_G09_2 1.0
    P_G09_1 DEM_1 1.0
    M7760 'MARKER' 'INTORG'
    U_G09_2 OBJ 257.61430563302014
    U_G09_2 PMIN_G09_2 -28.74115905178244
    U_G09_2 PMAX_G09_2 -65.2205516247846
    U_G09_2 LOGIC_G09_2 1.0
    U_G09_2 MINUP_G09_2 -1.0
    U_G09_2 MINDN_G09_2 1.0
    U_G09_2 LOGIC_G09_3 -1.0
    U_G09_2 RES_2 65.2205516247846
    V_G09_2 OBJ 1302.0791218581592
    V_G09_2 LOGIC_G09_2 -1.0
    V_G09_2 MINUP_G09_2 1.0
    V_G09_2 MINUP_G09_3 1.0
    V_G09_2 MINUP_G09_4 1.0
    V_G09_2 MINUP_G09_5 1.0
    V_G09_2 MINUP_G09_6 1.0
    W_G09_2 LOGIC_G09_2 1.0
    W_G09_2 MINDN_G09_2 1.0
    W_G09_2 MINDN_G09_3 1.0
    M7779 'MARKER' 'INTEND'
    P_G09_2 OBJ 59.24344727893533
    P_G09_2 PMIN_G09_2 1.0
    P_G09_2 PMAX_G09_2 1.0
    P_G09_2 RUP_G09_2 1.0
    P_G09_2 RDN_G09_2 -1.0
    P_G09_2 RUP_G09_3 -1.0
    P_G09_2 RDN_G09_3 1.0
    P_G09_2 DEM_2 1.0
    M7788 'MARKER' 'INTORG'
    U_G09_3 OBJ 257.61430563302014
    U_G09_3 PMIN_G09_3 -28.74115905178244
    U_G09_3 PMAX_G09_3 -65.2205516247846
    U_G09_3 LOGIC_G09_3 1.0
    U_G09_3 MINUP_G09_3 -1.0
    U_G09_3 MINDN_G09_3 1.0
    U_G09_3 LOGIC_G09_4 -1.0
    U_G09_3 RES_3 65.2205516247846
    V_G09_3 OBJ 1302.0791218581592
    V_G09_3 LOGIC_G09_3 -1.0
    V_G09_3 MINUP_G09_3 1.0
    V_G09_3 MINUP_G09_4 1.0
    V_G09_3 MINUP_G09_5 1.0
    V_G09_3 MINUP_G09_6 1.0
    V_G09_3 MINUP_G09_7 1.0
    W_G09_3 LOGIC_G09_3 1.0
    W_G09_3 MINDN_G09_3 1.0
    W_G09_3 MINDN_G09_4 1.0
    M7807 'MARKER' 'INTEND'
    P_G09_3 OBJ 59.24344727893533
    P_G09_3 PMIN_G09_3 1.0
    P_G09_3 PMAX_G09_3 1.0
    P_G09_3 RUP_G09_3 1.0
    P_G09_3 RDN_G09_3 -1.0
    P_G09_3 RUP_G09_4 -1.0
    P_G09_3 RDN_G09_4 1.0
    P_G09_3 DEM_3 1.0
    M7816 'MARKER' 'INTORG'
    U_G09_4 OBJ 257.61430563302014
    U_G09_4 PMIN_G09_4 -28.74115905178244
    U_G09_4 PMAX_G09_4 -65.2205516247846
    U_G09_4 LOGIC_G09_4 1.0
    U_G09_4 MINUP_G09_4 -1.0
    U_G09_4 MINDN_G09_4 1.0
    U_G09_4 LOGIC_G09_5 -1.0
    U_G09_4 RES_4 65.2205516247846
    V_G09_4 OBJ 1302.0791218581592
    V_G09_4 LOGIC_G09_4 -1.0
    V_G09_4 MINUP_G09_4 1.0
    V_G09_4 MINUP_G09_5 1.0
    V_G09_4 MINUP_G09_6 1.0
    V_G09_4 MINUP_G09_7 1.0
    V_G09_4 MINUP_G09_8 1.0
    W_G09_4 LOGIC_G09_4 1.0
    W_G09_4 MINDN_G09_4 1.0
    W_G09_4 MINDN_G09_5 1.0
    M7835 'MARKER' 'INTEND'
    P_G09_4 OBJ 59.24344727893533
    P_G09_4 PMIN_G09_4 1.0
    P_G09_4 PMAX_G09_4 1.0
    P_G09_4 RUP_G09_4 1.0
    P_G09_4 RDN_G09_4 -1.0
    P_G09_4 RUP_G09_5 -1.0
    P_G09_4 RDN_G09_5 1.0
    P_G09_4 DEM_4 1.0
    M7844 'MARKER' 'INTORG'
    U_G09_5 OBJ 257.61430563302014
    U_G09_5 PMIN_G09_5 -28.74115905178244
    U_G09_5 PMAX_G09_5 -65.2205516247846
    U_G09_5 LOGIC_G09_5 1.0
    U_G09_5 MINUP_G09_5 -1.0
    U_G09_5 MINDN_G09_5 1.0
    U_G09_5 LOGIC_G09_6 -1.0
    U_G09_5 RES_5 65.2205516247846
    V_G09_5 OBJ 1302.0791218581592
    V_G09_5 LOGIC_G09_5 -1.0
    V_G09_5 MINUP_G09_5 1.0
    V_G09_5 MINUP_G09_6 1.0
    V_G09_5 MINUP_G09_7 1.0
    V_G09_5 MINUP_G09_8 1.0
    V_G09_5 MINUP_G09_9 1.0
    W_G09_5 LOGIC_G09_5 1.0
    W_G09_5 MINDN_G09_5 1.0
    W_G09_5 MINDN_G09_6 1.0
    M7863 'MARKER' 'INTEND'
    P_G09_5 OBJ 59.24344727893533
    P_G09_5 PMIN_G09_5 1.0
    P_G09_5 PMAX_G09_5 1.0
    P_G09_5 RUP_G09_5 1.0
    P_G09_5 RDN_G09_5 -1.0
    P_G09_5 RUP_G09_6 -1.0
    P_G09_5 RDN_G09_6 1.0
    P_G09_5 DEM_5 1.0
    M7872 'MARKER' 'INTORG'
    U_G09_6 OBJ 257.61430563302014
    U_G09_6 PMIN_G09_6 -28.74115905178244
    U_G09_6 PMAX_G09_6 -65.2205516247846
    U_G09_6 LOGIC_G09_6 1.0
    U_G09_6 MINUP_G09_6 -1.0
    U_G09_6 MINDN_G09_6 1.0
    U_G09_6 LOGIC_G09_7 -1.0
    U_G09_6 RES_6 65.2205516247846
    V_G09_6 OBJ 1302.0791218581592
    V_G09_6 LOGIC_G09_6 -1.0
    V_G09_6 MINUP_G09_6 1.0
    V_G09_6 MINUP_G09_7 1.0
    V_G09_6 MINUP_G09_8 1.0
    V_G09_6 MINUP_G09_9 1.0
    V_G09_6 MINUP_G09_10 1.0
    W_G09_6 LOGIC_G09_6 1.0
    W_G09_6 MINDN_G09_6 1.0
    W_G09_6 MINDN_G09_7 1.0
    M7891 'MARKER' 'INTEND'
    P_G09_6 OBJ 59.24344727893533
    P_G09_6 PMIN_G09_6 1.0
    P_G09_6 PMAX_G09_6 1.0
    P_G09_6 RUP_G09_6 1.0
    P_G09_6 RDN_G09_6 -1.0
    P_G09_6 RUP_G09_7 -1.0
    P_G09_6 RDN_G09_7 1.0
    P_G09_6 DEM_6 1.0
    M7900 'MARKER' 'INTORG'
    U_G09_7 OBJ 257.61430563302014
    U_G09_7 PMIN_G09_7 -28.74115905178244
    U_G09_7 PMAX_G09_7 -65.2205516247846
    U_G09_7 LOGIC_G09_7 1.0
    U_G09_7 MINUP_G09_7 -1.0
    U_G09_7 MINDN_G09_7 1.0
    U_G09_7 LOGIC_G09_8 -1.0
    U_G09_7 RES_7 65.2205516247846
    V_G09_7 OBJ 1302.0791218581592
    V_G09_7 LOGIC_G09_7 -1.0
    V_G09_7 MINUP_G09_7 1.0
    V_G09_7 MINUP_G09_8 1.0
    V_G09_7 MINUP_G09_9 1.0
    V_G09_7 MINUP_G09_10 1.0
    V_G09_7 MINUP_G09_11 1.0
    W_G09_7 LOGIC_G09_7 1.0
    W_G09_7 MINDN_G09_7 1.0
    W_G09_7 MINDN_G09_8 1.0
    M7919 'MARKER' 'INTEND'
    P_G09_7 OBJ 59.24344727893533
    P_G09_7 PMIN_G09_7 1.0
    P_G09_7 PMAX_G09_7 1.0
    P_G09_7 RUP_G09_7 1.0
    P_G09_7 RDN_G09_7 -1.0
    P_G09_7 RUP_G09_8 -1.0
    P_G09_7 RDN_G09_8 1.0
    P_G09_7 DEM_7 1.0
    M7928 'MARKER' 'INTORG'
    U_G09_8 OBJ 257.61430563302014
    U_G09_8 PMIN_G09_8 -28.74115905178244
    U_G09_8 PMAX_G09_8 -65.2205516247846
    U_G09_8 LOGIC_G09_8 1.0
    U_G09_8 MINUP_G09_8 -1.0
    U_G09_8 MINDN_G09_8 1.0
    U_G09_8 LOGIC_G09_9 -1.0
    U_G09_8 RES_8 65.2205516247846
    V_G09_8 OBJ 1302.0791218581592
    V_G09_8 LOGIC_G09_8 -1.0
    V_G09_8 MINUP_G09_8 1.0
    V_G09_8 MINUP_G09_9 1.0
    V_G09_8 MINUP_G09_10 1.0
    V_G09_8 MINUP_G09_11 1.0
    V_G09_8 MINUP_G09_12 1.0
    W_G09_8 LOGIC_G09_8 1.0
    W_G09_8 MINDN_G09_8 1.0
    W_G09_8 MINDN_G09_9 1.0
    M7947 'MARKER' 'INTEND'
    P_G09_8 OBJ 59.24344727893533
    P_G09_8 PMIN_G09_8 1.0
    P_G09_8 PMAX_G09_8 1.0
    P_G09_8 RUP_G09_8 1.0
    P_G09_8 RDN_G09_8 -1.0
    P_G09_8 RUP_G09_9 -1.0
    P_G09_8 RDN_G09_9 1.0
    P_G09_8 DEM_8 1.0
    M7956 'MARKER' 'INTORG'
    U_G09_9 OBJ 257.61430563302014
    U_G09_9 PMIN_G09_9 -28.74115905178244
    U_G09_9 PMAX_G09_9 -65.2205516247846
    U_G09_9 LOGIC_G09_9 1.0
    U_G09_9 MINUP_G09_9 -1.0
    U_G09_9 MINDN_G09_9 1.0
    U_G09_9 LOGIC_G09_10 -1.0
    U_G09_9 RES_9 65.2205516247846
    V_G09_9 OBJ 1302.0791218581592
    V_G09_9 LOGIC_G09_9 -1.0
    V_G09_9 MINUP_G09_9 1.0
    V_G09_9 MINUP_G09_10 1.0
    V_G09_9 MINUP_G09_11 1.0
    V_G09_9 MINUP_G09_12 1.0
    V_G09_9 MINUP_G09_13 1.0
    W_G09_9 LOGIC_G09_9 1.0
    W_G09_9 MINDN_G09_9 1.0
    W_G09_9 MINDN_G09_10 1.0
    M7975 'MARKER' 'INTEND'
    P_G09_9 OBJ 59.24344727893533
    P_G09_9 PMIN_G09_9 1.0
    P_G09_9 PMAX_G09_9 1.0
    P_G09_9 RUP_G09_9 1.0
    P_G09_9 RDN_G09_9 -1.0
    P_G09_9 RUP_G09_10 -1.0
    P_G09_9 RDN_G09_10 1.0
    P_G09_9 DEM_9 1.0
    M7984 'MARKER' 'INTORG'
    U_G09_10 OBJ 257.61430563302014
    U_G09_10 PMIN_G09_10 -28.74115905178244
    U_G09_10 PMAX_G09_10 -65.2205516247846
    U_G09_10 LOGIC_G09_10 1.0
    U_G09_10 MINUP_G09_10 -1.0
    U_G09_10 MINDN_G09_10 1.0
    U_G09_10 LOGIC_G09_11 -1.0
    U_G09_10 RES_10 65.2205516247846
    V_G09_10 OBJ 1302.0791218581592
    V_G09_10 LOGIC_G09_10 -1.0
    V_G09_10 MINUP_G09_10 1.0
    V_G09_10 MINUP_G09_11 1.0
    V_G09_10 MINUP_G09_12 1.0
    V_G09_10 MINUP_G09_13 1.0
    V_G09_10 MINUP_G09_14 1.0
    W_G09_10 LOGIC_G09_10 1.0
    W_G09_10 MINDN_G09_10 1.0
    W_G09_10 MINDN_G09_11 1.0
    M8003 'MARKER' 'INTEND'
    P_G09_10 OBJ 59.24344727893533
    P_G09_10 PMIN_G09_10 1.0
    P_G09_10 PMAX_G09_10 1.0
    P_G09_10 RUP_G09_10 1.0
    P_G09_10 RDN_G09_10 -1.0
    P_G09_10 RUP_G09_11 -1.0
    P_G09_10 RDN_G09_11 1.0
    P_G09_10 DEM_10 1.0
    M8012 'MARKER' 'INTORG'
    U_G09_11 OBJ 257.61430563302014
    U_G09_11 PMIN_G09_11 -28.74115905178244
    U_G09_11 PMAX_G09_11 -65.2205516247846
    U_G09_11 LOGIC_G09_11 1.0
    U_G09_11 MINUP_G09_11 -1.0
    U_G09_11 MINDN_G09_11 1.0
    U_G09_11 LOGIC_G09_12 -1.0
    U_G09_11 RES_11 65.2205516247846
    V_G09_11 OBJ 1302.0791218581592
    V_G09_11 LOGIC_G09_11 -1.0
    V_G09_11 MINUP_G09_11 1.0
    V_G09_11 MINUP_G09_12 1.0
    V_G09_11 MINUP_G09_13 1.0
    V_G09_11 MINUP_G09_14 1.0
    V_G09_11 MINUP_G09_15 1.0
    W_G09_11 LOGIC_G09_11 1.0
    W_G09_11 MINDN_G09_11 1.0
    W_G09_11 MINDN_G09_12 1.0
    M8031 'MARKER' 'INTEND'
    P_G09_11 OBJ 59.24344727893533
    P_G09_11 PMIN_G09_11 1.0
    P_G09_11 PMAX_G09_11 1.0
    P_G09_11 RUP_G09_11 1.0
    P_G09_11 RDN_G09_11 -1.0
    P_G09_11 RUP_G09_12 -1.0
    P_G09_11 RDN_G09_12 1.0
    P_G09_11 DEM_11 1.0
    M8040 'MARKER' 'INTORG'
    U_G09_12 OBJ 257.61430563302014
    U_G09_12 PMIN_G09_12 -28.74115905178244
    U_G09_12 PMAX_G09_12 -65.2205516247846
    U_G09_12 LOGIC_G09_12 1.0
    U_G09_12 MINUP_G09_12 -1.0
    U_G09_12 MINDN_G09_12 1.0
    U_G09_12 LOGIC_G09_13 -1.0
    U_G09_12 RES_12 65.2205516247846
    V_G09_12 OBJ 1302.0791218581592
    V_G09_12 LOGIC_G09_12 -1.0
    V_G09_12 MINUP_G09_12 1.0
    V_G09_12 MINUP_G09_13 1.0
    V_G09_12 MINUP_G09_14 1.0
    V_G09_12 MINUP_G09_15 1.0
    V_G09_12 MINUP_G09_16 1.0
    W_G09_12 LOGIC_G09_12 1.0
    W_G09_12 MINDN_G09_12 1.0
    W_G09_12 MINDN_G09_13 1.0
    M8059 'MARKER' 'INTEND'
    P_G09_12 OBJ 59.24344727893533
    P_G09_12 PMIN_G09_12 1.0
    P_G09_12 PMAX_G09_12 1.0
    P_G09_12 RUP_G09_12 1.0
    P_G09_12 RDN_G09_12 -1.0
    P_G09_12 RUP_G09_13 -1.0
    P_G09_12 RDN_G09_13 1.0
    P_G09_12 DEM_12 1.0
    M8068 'MARKER' 'INTORG'
    U_G09_13 OBJ 257.61430563302014
    U_G09_13 PMIN_G09_13 -28.74115905178244
    U_G09_13 PMAX_G09_13 -65.2205516247846
    U_G09_13 LOGIC_G09_13 1.0
    U_G09_13 MINUP_G09_13 -1.0
    U_G09_13 MINDN_G09_13 1.0
    U_G09_13 LOGIC_G09_14 -1.0
    U_G09_13 RES_13 65.2205516247846
    V_G09_13 OBJ 1302.0791218581592
    V_G09_13 LOGIC_G09_13 -1.0
    V_G09_13 MINUP_G09_13 1.0
    V_G09_13 MINUP_G09_14 1.0
    V_G09_13 MINUP_G09_15 1.0
    V_G09_13 MINUP_G09_16 1.0
    V_G09_13 MINUP_G09_17 1.0
    W_G09_13 LOGIC_G09_13 1.0
    W_G09_13 MINDN_G09_13 1.0
    W_G09_13 MINDN_G09_14 1.0
    M8087 'MARKER' 'INTEND'
    P_G09_13 OBJ 59.24344727893533
    P_G09_13 PMIN_G09_13 1.0
    P_G09_13 PMAX_G09_13 1.0
    P_G09_13 RUP_G09_13 1.0
    P_G09_13 RDN_G09_13 -1.0
    P_G09_13 RUP_G09_14 -1.0
    P_G09_13 RDN_G09_14 1.0
    P_G09_13 DEM_13 1.0
    M8096 'MARKER' 'INTORG'
    U_G09_14 OBJ 257.61430563302014
    U_G09_14 PMIN_G09_14 -28.74115905178244
    U_G09_14 PMAX_G09_14 -65.2205516247846
    U_G09_14 LOGIC_G09_14 1.0
    U_G09_14 MINUP_G09_14 -1.0
    U_G09_14 MINDN_G09_14 1.0
    U_G09_14 LOGIC_G09_15 -1.0
    U_G09_14 RES_14 65.2205516247846
    V_G09_14 OBJ 1302.0791218581592
    V_G09_14 LOGIC_G09_14 -1.0
    V_G09_14 MINUP_G09_14 1.0
    V_G09_14 MINUP_G09_15 1.0
    V_G09_14 MINUP_G09_16 1.0
    V_G09_14 MINUP_G09_17 1.0
    V_G09_14 MINUP_G09_18 1.0
    W_G09_14 LOGIC_G09_14 1.0
    W_G09_14 MINDN_G09_14 1.0
    W_G09_14 MINDN_G09_15 1.0
    M8115 'MARKER' 'INTEND'
    P_G09_14 OBJ 59.24344727893533
    P_G09_14 PMIN_G09_14 1.0
    P_G09_14 PMAX_G09_14 1.0
    P_G09_14 RUP_G09_14 1.0
    P_G09_14 RDN_G09_14 -1.0
    P_G09_14 RUP_G09_15 -1.0
    P_G09_14 RDN_G09_15 1.0
    P_G09_14 DEM_14 1.0
    M8124 'MARKER' 'INTORG'
    U_G09_15 OBJ 257.61430563302014
    U_G09_15 PMIN_G09_15 -28.74115905178244
    U_G09_15 PMAX_G09_15 -65.2205516247846
    U_G09_15 LOGIC_G09_15 1.0
    U_G09_15 MINUP_G09_15 -1.0
    U_G09_15 MINDN_G09_15 1.0
    U_G09_15 LOGIC_G09_16 -1.0
    U_G09_15 RES_15 65.2205516247846
    V_G09_15 OBJ 1302.0791218581592
    V_G09_15 LOGIC_G09_15 -1.0
    V_G09_15 MINUP_G09_15 1.0
    V_G09_15 MINUP_G09_16 1.0
    V_G09_15 MINUP_G09_17 1.0
    V_G09_15 MINUP_G09_18 1.0
    V_G09_15 MINUP_G09_19 1.0
    W_G09_15 LOGIC_G09_15 1.0
    W_G09_15 MINDN_G09_15 1.0
    W_G09_15 MINDN_G09_16 1.0
    M8143 'MARKER' 'INTEND'
    P_G09_15 OBJ 59.24344727893533
    P_G09_15 PMIN_G09_15 1.0
    P_G09_15 PMAX_G09_15 1.0
    P_G09_15 RUP_G09_15 1.0
    P_G09_15 RDN_G09_15 -1.0
    P_G09_15 RUP_G09_16 -1.0
    P_G09_15 RDN_G09_16 1.0
    P_G09_15 DEM_15 1.0
    M8152 'MARKER' 'INTORG'
    U_G09_16 OBJ 257.61430563302014
    U_G09_16 PMIN_G09_16 -28.74115905178244
    U_G09_16 PMAX_G09_16 -65.2205516247846
    U_G09_16 LOGIC_G09_16 1.0
    U_G09_16 MINUP_G09_16 -1.0
    U_G09_16 MINDN_G09_16 1.0
    U_G09_16 LOGIC_G09_17 -1.0
    U_G09_16 RES_16 65.2205516247846
    V_G09_16 OBJ 1302.0791218581592
    V_G09_16 LOGIC_G09_16 -1.0
    V_G09_16 MINUP_G09_16 1.0
    V_G09_16 MINUP_G09_17 1.0
    V_G09_16 MINUP_G09_18 1.0
    V_G09_16 MINUP_G09_19 1.0
    V_G09_16 MINUP_G09_20 1.0
    W_G09_16 LOGIC_G09_16 1.0
    W_G09_16 MINDN_G09_16 1.0
    W_G09_16 MINDN_G09_17 1.0
    M8171 'MARKER' 'INTEND'
    P_G09_16 OBJ 59.24344727893533
    P_G09_16 PMIN_G09_16 1.0
    P_G09_16 PMAX_G09_16 1.0
    P_G09_16 RUP_G09_16 1.0
    P_G09_16 RDN_G09_16 -1.0
    P_G09_16 RUP_G09_17 -1.0
    P_G09_16 RDN_G09_17 1.0
    P_G09_16 DEM_16 1.0
    M8180 'MARKER' 'INTORG'
    U_G09_17 OBJ 257.61430563302014
    U_G09_17 PMIN_G09_17 -28.74115905178244
    U_G09_17 PMAX_G09_17 -65.2205516247846
    U_G09_17 LOGIC_G09_17 1.0
    U_G09_17 MINUP_G09_17 -1.0
    U_G09_17 MINDN_G09_17 1.0
    U_G09_17 LOGIC_G09_18 -1.0
    U_G09_17 RES_17 65.2205516247846
    V_G09_17 OBJ 1302.0791218581592
    V_G09_17 LOGIC_G09_17 -1.0
    V_G09_17 MINUP_G09_17 1.0
    V_G09_17 MINUP_G09_18 1.0
    V_G09_17 MINUP_G09_19 1.0
    V_G09_17 MINUP_G09_20 1.0
    V_G09_17 MINUP_G09_21 1.0
    W_G09_17 LOGIC_G09_17 1.0
    W_G09_17 MINDN_G09_17 1.0
    W_G09_17 MINDN_G09_18 1.0
    M8199 'MARKER' 'INTEND'
    P_G09_17 OBJ 59.24344727893533
    P_G09_17 PMIN_G09_17 1.0
    P_G09_17 PMAX_G09_17 1.0
    P_G09_17 RUP_G09_17 1.0
    P_G09_17 RDN_G09_17 -1.0
    P_G09_17 RUP_G09_18 -1.0
    P_G09_17 RDN_G09_18 1.0
    P_G09_17 DEM_17 1.0
    M8208 'MARKER' 'INTORG'
    U_G09_18 OBJ 257.61430563302014
    U_G09_18 PMIN_G09_18 -28.74115905178244
    U_G09_18 PMAX_G09_18 -65.2205516247846
    U_G09_18 LOGIC_G09_18 1.0
    U_G09_18 MINUP_G09_18 -1.0
    U_G09_18 MINDN_G09_18 1.0
    U_G09_18 LOGIC_G09_19 -1.0
    U_G09_18 RES_18 65.2205516247846
    V_G09_18 OBJ 1302.0791218581592
    V_G09_18 LOGIC_G09_18 -1.0
    V_G09_18 MINUP_G09_18 1.0
    V_G09_18 MINUP_G09_19 1.0
    V_G09_18 MINUP_G09_20 1.0
    V_G09_18 MINUP_G09_21 1.0
    V_G09_18 MINUP_G09_22 1.0
    W_G09_18 LOGIC_G09_18 1.0
    W_G09_18 MINDN_G09_18 1.0
    W_G09_18 MINDN_G09_19 1.0
    M8227 'MARKER' 'INTEND'
    P_G09_18 OBJ 59.24344727893533
    P_G09_18 PMIN_G09_18 1.0
    P_G09_18 PMAX_G09_18 1.0
    P_G09_18 RUP_G09_18 1.0
    P_G09_18 RDN_G09_18 -1.0
    P_G09_18 RUP_G09_19 -1.0
    P_G09_18 RDN_G09_19 1.0
    P_G09_18 DEM_18 1.0
    M8236 'MARKER' 'INTORG'
    U_G09_19 OBJ 257.61430563302014
    U_G09_19 PMIN_G09_19 -28.74115905178244
    U_G09_19 PMAX_G09_19 -65.2205516247846
    U_G09_19 LOGIC_G09_19 1.0
    U_G09_19 MINUP_G09_19 -1.0
    U_G09_19 MINDN_G09_19 1.0
    U_G09_19 LOGIC_G09_20 -1.0
    U_G09_19 RES_19 65.2205516247846
    V_G09_19 OBJ 1302.0791218581592
    V_G09_19 LOGIC_G09_19 -1.0
    V_G09_19 MINUP_G09_19 1.0
    V_G09_19 MINUP_G09_20 1.0
    V_G09_19 MINUP_G09_21 1.0
    V_G09_19 MINUP_G09_22 1.0
    V_G09_19 MINUP_G09_23 1.0
    W_G09_19 LOGIC_G09_19 1.0
    W_G09_19 MINDN_G09_19 1.0
    W_G09_19 MINDN_G09_20 1.0
    M8255 'MARKER' 'INTEND'
    P_G09_19 OBJ 59.24344727893533
    P_G09_19 PMIN_G09_19 1.0
    P_G09_19 PMAX_G09_19 1.0
    P_G09_19 RUP_G09_19 1.0
    P_G09_19 RDN_G09_19 -1.0
    P_G09_19 RUP_G09_20 -1.0
    P_G09_19 RDN_G09_20 1.0
    P_G09_19 DEM_19 1.0
    M8264 'MARKER' 'INTORG'
    U_G09_20 OBJ 257.61430563302014
    U_G09_20 PMIN_G09_20 -28.74115905178244
    U_G09_20 PMAX_G09_20 -65.2205516247846
    U_G09_20 LOGIC_G09_20 1.0
    U_G09_20 MINUP_G09_20 -1.0
    U_G09_20 MINDN_G09_20 1.0
    U_G09_20 LOGIC_G09_21 -1.0
    U_G09_20 RES_20 65.2205516247846
    V_G09_20 OBJ 1302.0791218581592
    V_G09_20 LOGIC_G09_20 -1.0
    V_G09_20 MINUP_G09_20 1.0
    V_G09_20 MINUP_G09_21 1.0
    V_G09_20 MINUP_G09_22 1.0
    V_G09_20 MINUP_G09_23 1.0
    W_G09_20 LOGIC_G09_20 1.0
    W_G09_20 MINDN_G09_20 1.0
    W_G09_20 MINDN_G09_21 1.0
    M8282 'MARKER' 'INTEND'
    P_G09_20 OBJ 59.24344727893533
    P_G09_20 PMIN_G09_20 1.0
    P_G09_20 PMAX_G09_20 1.0
    P_G09_20 RUP_G09_20 1.0
    P_G09_20 RDN_G09_20 -1.0
    P_G09_20 RUP_G09_21 -1.0
    P_G09_20 RDN_G09_21 1.0
    P_G09_20 DEM_20 1.0
    M8291 'MARKER' 'INTORG'
    U_G09_21 OBJ 257.61430563302014
    U_G09_21 PMIN_G09_21 -28.74115905178244
    U_G09_21 PMAX_G09_21 -65.2205516247846
    U_G09_21 LOGIC_G09_21 1.0
    U_G09_21 MINUP_G09_21 -1.0
    U_G09_21 MINDN_G09_21 1.0
    U_G09_21 LOGIC_G09_22 -1.0
    U_G09_21 RES_21 65.2205516247846
    V_G09_21 OBJ 1302.0791218581592
    V_G09_21 LOGIC_G09_21 -1.0
    V_G09_21 MINUP_G09_21 1.0
    V_G09_21 MINUP_G09_22 1.0
    V_G09_21 MINUP_G09_23 1.0
    W_G09_21 LOGIC_G09_21 1.0
    W_G09_21 MINDN_G09_21 1.0
    W_G09_21 MINDN_G09_22 1.0
    M8308 'MARKER' 'INTEND'
    P_G09_21 OBJ 59.24344727893533
    P_G09_21 PMIN_G09_21 1.0
    P_G09_21 PMAX_G09_21 1.0
    P_G09_21 RUP_G09_21 1.0
    P_G09_21 RDN_G09_21 -1.0
    P_G09_21 RUP_G09_22 -1.0
    P_G09_21 RDN_G09_22 1.0
    P_G09_21 DEM_21 1.0
    M8317 'MARKER' 'INTORG'
    U_G09_22 OBJ 257.61430563302014
    U_G09_22 PMIN_G09_22 -28.74115905178244
    U_G09_22 PMAX_G09_22 -65.2205516247846
    U_G09_22 LOGIC_G09_22 1.0
    U_G09_22 MINUP_G09_22 -1.0
    U_G09_22 MINDN_G09_22 1.0
    U_G09_22 LOGIC_G09_23 -1.0
    U_G09_22 RES_22 65.2205516247846
    V_G09_22 OBJ 1302.0791218581592
    V_G09_22 LOGIC_G09_22 -1.0
    V_G09_22 MINUP_G09_22 1.0
    V_G09_22 MINUP_G09_23 1.0
    W_G09_22 LOGIC_G09_22 1.0
    W_G09_22 MINDN_G09_22 1.0
    W_G09_22 MINDN_G09_23 1.0
    M8333 'MARKER' 'INTEND'
    P_G09_22 OBJ 59.24344727893533
    P_G09_22 PMIN_G09_22 1.0
    P_G09_22 PMAX_G09_22 1.0
    P_G09_22 RUP_G09_22 1.0
    P_G09_22 RDN_G09_22 -1.0
    P_G09_22 RUP_G09_23 -1.0
    P_G09_22 RDN_G09_23 1.0
    P_G09_22 DEM_22 1.0
    M8342 'MARKER' 'INTORG'
    U_G09_23 OBJ 257.61430563302014
    U_G09_23 PMIN_G09_23 -28.74115905178244
    U_G09_23 PMAX_G09_23 -65.2205516247846
    U_G09_23 LOGIC_G09_23 1.0
    U_G09_23 MINUP_G09_23 -1.0
    U_G09_23 MINDN_G09_23 1.0
    U_G09_23 RES_23 65.2205516247846
    V_G09_23 OBJ 1302.0791218581592
    V_G09_23 LOGIC_G09_23 -1.0
    V_G09_23 MINUP_G09_23 1.0
    W_G09_23 LOGIC_G09_23 1.0
    W_G09_23 MINDN_G09_23 1.0
    M8355 'MARKER' 'INTEND'
    P_G09_23 OBJ 59.24344727893533
    P_G09_23 PMIN_G09_23 1.0
    P_G09_23 PMAX_G09_23 1.0
    P_G09_23 RUP_G09_23 1.0
    P_G09_23 RDN_G09_23 -1.0
    P_G09_23 DEM_23 1.0
RHS
    RHS MINDN_G00_0 1.0
    RHS RUP_G00_1 96.46785804985234
    RHS RDN_G00_1 96.46785804985234
    RHS MINDN_G00_1 1.0
    RHS RUP_G00_2 96.46785804985234
    RHS RDN_G00_2 96.46785804985234
    RHS MINDN_G00_2 1.0
    RHS RUP_G00_3 96.46785804985234
    RHS RDN_G00_3 96.46785804985234
    RHS MINDN_G00_3 1.0
    RHS RUP_G00_4 96.46785804985234
    RHS RDN_G00_4 96.46785804985234
    RHS MINDN_G00_4 1.0
    RHS RUP_G00_5 96.46785804985234
    RHS RDN_G00_5 96.46785804985234
    RHS MINDN_G00_5 1.0
    RHS RUP_G00_6 96.46785804985234
    RHS RDN_G00_6 96.46785804985234
    RHS MINDN_G00_6 1.0
    RHS RUP_G00_7 96.46785804985234
    RHS RDN_G00_7 96.46785804985234
    RHS MINDN_G00_7 1.0
    RHS RUP_G00_8 96.46785804985234
    RHS RDN_G00_8 96.46785804985234
    RHS MINDN_G00_8 1.0
    RHS RUP_G00_9 96.46785804985234
    RHS RDN_G00_9 96.46785804985234
    RHS MINDN_G00_9 1.0
    RHS RUP_G00_10 96.46785804985234
    RHS RDN_G00_10 96.46785804985234
    RHS MINDN_G00_10 1.0
    RHS RUP_G00_11 96.46785804985234
    RHS RDN_G00_11 96.46785804985234
    RHS MINDN_G00_11 1.0
    RHS RUP_G00_12 96.46785804985234
    RHS RDN_G00_12 96.46785804985234
    RHS MINDN_G00_12 1.0
    RHS RUP_G00_13 96.46785804985234
    RHS RDN_G00_13 96.46785804985234
    RHS MINDN_G00_13 1.0
    RHS RUP_G00_14 96.46785804985234
    RHS RDN_G00_14 96.46785804985234
    RHS MINDN_G00_14 1.0
    RHS RUP_G00_15 96.46785804985234
    RHS RDN_G00_15 96.46785804985234
    RHS MINDN_G00_15 1.0
    RHS RUP_G00_16 96.46785804985234
    RHS RDN_G00_16 96.46785804985234
    RHS MINDN_G00_16 1.0
    RHS RUP_G00_17 96.46785804985234
    RHS RDN_G00_17 96.46785804985234
    RHS MINDN_G00_17 1.0
    RHS RUP_G00_18 96.46785804985234
    RHS RDN_G00_18 96.46785804985234
    RHS MINDN_G00_18 1.0
    RHS RUP_G00_19 96.46785804985234
    RHS RDN_G00_19 96.46785804985234
    RHS MINDN_G00_19 1.0
    RHS RUP_G00_20 96.46785804985234
    RHS RDN_G00_20 96.46785804985234
    RHS MINDN_G00_20 1.0
    RHS RUP_G00_21 96.46785804985234
    RHS RDN_G00_21 96.46785804985234
    RHS MINDN_G00_21 1.0
    RHS RUP_G00_22 96.46785804985234
    RHS RDN_G00_22 96.46785804985234
    RHS MINDN_G00_22 1.0
    RHS RUP_G00_23 96.46785804985234
    RHS RDN_G00_23 96.46785804985234
    RHS MINDN_G00_23 1.0
    RHS MINDN_G01_0 1.0
    RHS RUP_G01_1 50.26747991887895
    RHS RDN_G01_1 50.26747991887895
    RHS MINDN_G01_1 1.0
    RHS RUP_G01_2 50.26747991887895
    RHS RDN_G01_2 50.26747991887895
    RHS MINDN_G01_2 1.0
    RHS RUP_G01_3 50.26747991887895
    RHS RDN_G01_3 50.26747991887895
    RHS MINDN_G01_3 1.0
    RHS RUP_G01_4 50.26747991887895
    RHS RDN_G01_4 50.26747991887895
    RHS MINDN_G01_4 1.0
    RHS RUP_G01_5 50.26747991887895
    RHS RDN_G01_5 50.26747991887895
    RHS MINDN_G01_5 1.0
    RHS RUP_G01_6 50.26747991887895
    RHS RDN_G01_6 50.26747991887895
    RHS MINDN_G01_6 1.0
    RHS RUP_G01_7 50.26747991887895
    RHS RDN_G01_7 50.26747991887895
    RHS MINDN_G01_7 1.0
    RHS RUP_G01_8 50.26747991887895
    RHS RDN_G01_8 50.26747991887895
    RHS MINDN_G01_8 1.0
    RHS RUP_G01_9 50.26747991887895
    RHS RDN_G01_9 50.26747991887895
    RHS MINDN_G01_9 1.0
    RHS RUP_G01_10 50.26747991887895
    RHS RDN_G01_10 50.26747991887895
    RHS MINDN_G01_10 1.0
    RHS RUP_G01_11 50.26747991887895
    RHS RDN_G01_11 50.26747991887895
    RHS MINDN_G01_11 1.0
    RHS RUP_G01_12 50.26747991887895
    RHS RDN_G01_12 50.26747991887895
    RHS MINDN_G01_12 1.0
    RHS RUP_G01_13 50.26747991887895
    RHS RDN_G01_13 50.26747991887895
    RHS MINDN_G01_13 1.0
    RHS RUP_G01_14 50.26747991887895
    RHS RDN_G01_14 50.26747991887895
    RHS MINDN_G01_14 1.0
    RHS RUP_G01_15 50.26747991887895
    RHS RDN_G01_15 50.26747991887895
    RHS MINDN_G01_15 1.0
    RHS RUP_G01_16 50.26747991887895
    RHS RDN_G01_16 50.26747991887895
    RHS MINDN_G01_16 1.0
    RHS RUP_G01_17 50.26747991887895
    RHS RDN_G01_17 50.26747991887895
    RHS MINDN_G01_17 1.0
    RHS RUP_G01_18 50.26747991887895
    RHS RDN_G01_18 50.26747991887895
    RHS MINDN_G01_18 1.0
    RHS RUP_G01_19 50.26747991887895
    RHS RDN_G01_19 50.26747991887895
    RHS MINDN_G01_19 1.0
    RHS RUP_G01_20 50.26747991887895
    RHS RDN_G01_20 50.26747991887895
    RHS MINDN_G01_20 1.0
    RHS RUP_G01_21 50.26747991887895
    RHS RDN_G01_21 50.26747991887895
    RHS MINDN_G01_21 1.0
    RHS RUP_G01_22 50.26747991887895
    RHS RDN_G01_22 50.26747991887895
    RHS MINDN_G01_22 1.0
    RHS RUP_G01_23 50.26747991887895
    RHS RDN_G01_23 50.26747991887895
    RHS MINDN_G01_23 1.0
    RHS MINDN_G02_0 1.0
    RHS RUP_G02_1 199.2144888552017
    RHS RDN_G02_1 199.2144888552017
    RHS MINDN_G02_1 1.0
    RHS RUP_G02_2 199.2144888552017
    RHS RDN_G02_2 199.2144888552017
    RHS MINDN_G02_2 1.0
    RHS RUP_G02_3 199.2144888552017
    RHS RDN_G02_3 199.2144888552017
    RHS MINDN_G02_3 1.0
    RHS RUP_G02_4 199.2144888552017
    RHS RDN_G02_4 199.2144888552017
    RHS MINDN_G02_4 1.0
    RHS RUP_G02_5 199.2144888552017
    RHS RDN_G02_5 199.2144888552017
    RHS MINDN_G02_5 1.0
    RHS RUP_G02_6 199.2144888552017
    RHS RDN_G02_6 199.2144888552017
    RHS MINDN_G02_6 1.0
    RHS RUP_G02_7 199.2144888552017
    RHS RDN_G02_7 199.2144888552017
    RHS MINDN_G02_7 1.0
    RHS RUP_G02_8 199.2144888552017
    RHS RDN_G02_8 199.2144888552017
    RHS MINDN_G02_8 1.0
    RHS RUP_G02_9 199.2144888552017
    RHS RDN_G02_9 199.2144888552017
    RHS MINDN_G02_9 1.0
    RHS RUP_G02_10 199.2144888552017
    RHS RDN_G02_10 199.2144888552017
    RHS MINDN_G02_10 1.0
    RHS RUP_G02_11 199.2144888552017
    RHS RDN_G02_11 199.2144888552017
    RHS MINDN_G02_11 1.0
    RHS RUP_G02_12 199.2144888552017
    RHS RDN_G02_12 199.2144888552017
    RHS MINDN_G02_12 1.0
    RHS RUP_G02_13 199.2144888552017
    RHS RDN_G02_13 199.2144888552017
    RHS MINDN_G02_13 1.0
    RHS RUP_G02_14 199.2144888552017
    RHS RDN_G02_14 199.2144888552017
    RHS MINDN_G02_14 1.0
    RHS RUP_G02_15 199.2144888552017
    RHS RDN_G02_15 199.2144888552017
    RHS MINDN_G02_15 1.0
    RHS RUP_G02_16 199.2144888552017
    RHS RDN_G02_16 199.2144888552017
    RHS MINDN_G02_16 1.0
    RHS RUP_G02_17 199.2144888552017
    RHS RDN_G02_17 199.2144888552017
    RHS MINDN_G02_17 1.0
    RHS RUP_G02_18 199.2144888552017
    RHS RDN_G02_18 199.2144888552017
    RHS MINDN_G02_18 1.0
    RHS RUP_G02_19 199.2144888552017
    RHS RDN_G02_19 199.2144888552017
    RHS MINDN_G02_19 1.0
    RHS RUP_G02_20 199.2144888552017
    RHS RDN_G02_20 199.2144888552017
    RHS MINDN_G02_20 1.0
    RHS RUP_G02_21 199.2144888552017
    RHS RDN_G02_21 199.2144888552017
    RHS MINDN_G02_21 1.0
    RHS RUP_G02_22 199.2144888552017
    RHS RDN_G02_22 199.2144888552017
    RHS MINDN_G02_22 1.0
    RHS RUP_G02_23 199.2144888552017
    RHS RDN_G02_23 199.2144888552017
    RHS MINDN_G02_23 1.0
    RHS MINDN_G03_0 1.0
    RHS RUP_G03_1 298.07146304994694
    RHS RDN_G03_1 298.07146304994694
    RHS MINDN_G03_1 1.0
    RHS RUP_G03_2 298.07146304994694
    RHS RDN_G03_2 298.07146304994694
    RHS MINDN_G03_2 1.0
    RHS RUP_G03_3 298.07146304994694
    RHS RDN_G03_3 298.07146304994694
    RHS MINDN_G03_3 1.0
    RHS RUP_G03_4 298.07146304994694
    RHS RDN_G03_4 298.07146304994694
    RHS MINDN_G03_4 1.0
    RHS RUP_G03_5 298.07146304994694
    RHS RDN_G03_5 298.07146304994694
    RHS MINDN_G03_5 1.0
    RHS RUP_G03_6 298.07146304994694
    RHS RDN_G03_6 298.07146304994694
    RHS MINDN_G03_6 1.0
    RHS RUP_G03_7 298.07146304994694
    RHS RDN_G03_7 298.07146304994694
    RHS MINDN_G03_7 1.0
    RHS RUP_G03_8 298.07146304994694
    RHS RDN_G03_8 298.07146304994694
    RHS MINDN_G03_8 1.0
    RHS RUP_G03_9 298.07146304994694
    RHS RDN_G03_9 298.07146304994694
    RHS MINDN_G03_9 1.0
    RHS RUP_G03_10 298.07146304994694
    RHS RDN_G03_10 298.07146304994694
    RHS MINDN_G03_10 1.0
    RHS RUP_G03_11 298.07146304994694
    RHS RDN_G03_11 298.07146304994694
    RHS MINDN_G03_11 1.0
    RHS RUP_G03_12 298.07146304994694
    RHS RDN_G03_12 298.07146304994694
    RHS MINDN_G03_12 1.0
    RHS RUP_G03_13 298.07146304994694
    RHS RDN_G03_13 298.07146304994694
    RHS MINDN_G03_13 1.0
    RHS RUP_G03_14 298.07146304994694
    RHS RDN_G03_14 298.07146304994694
    RHS MINDN_G03_14 1.0
    RHS RUP_G03_15 298.07146304994694
    RHS RDN_G03_15 298.07146304994694
    RHS MINDN_G03_15 1.0
    RHS RUP_G03_16 298.07146304994694
    RHS RDN_G03_16 298.07146304994694
    RHS MINDN_G03_16 1.0
    RHS RUP_G03_17 298.07146304994694
    RHS RDN_G03_17 298.07146304994694
    RHS MINDN_G03_17 1.0
    RHS RUP_G03_18 298.07146304994694
    RHS RDN_G03_18 298.07146304994694
    RHS MINDN_G03_18 1.0
    RHS RUP_G03_19 298.07146304994694
    RHS RDN_G03_19 298.07146304994694
    RHS MINDN_G03_19 1.0
    RHS RUP_G03_20 298.07146304994694
    RHS RDN_G03_20 298.07146304994694
    RHS MINDN_G03_20 1.0
    RHS RUP_G03_21 298.07146304994694
    RHS RDN_G03_21 298.07146304994694
    RHS MINDN_G03_21 1.0
    RHS RUP_G03_22 298.07146304994694
    RHS RDN_G03_22 298.07146304994694
    RHS MINDN_G03_22 1.0
    RHS RUP_G03_23 298.07146304994694
    RHS RDN_G03_23 298.07146304994694
    RHS MINDN_G03_23 1.0
    RHS MINDN_G04_0 1.0
    RHS RUP_G04_1 275.7387561045736
    RHS RDN_G04_1 275.7387561045736
    RHS MINDN_G04_1 1.0
    RHS RUP_G04_2 275.7387561045736
    RHS RDN_G04_2 275.7387561045736
    RHS MINDN_G04_2 1.0
    RHS RUP_G04_3 275.7387561045736
    RHS RDN_G04_3 275.7387561045736
    RHS MINDN_G04_3 1.0
    RHS RUP_G04_4 275.7387561045736
    RHS RDN_G04_4 275.7387561045736
    RHS MINDN_G04_4 1.0
    RHS RUP_G04_5 275.7387561045736
    RHS RDN_G04_5 275.7387561045736
    RHS MINDN_G04_5 1.0
    RHS RUP_G04_6 275.7387561045736
    RHS RDN_G04_6 275.7387561045736
    RHS MINDN_G04_6 1.0
    RHS RUP_G04_7 275.7387561045736
    RHS RDN_G04_7 275.7387561045736
    RHS MINDN_G04_7 1.0
    RHS RUP_G04_8 275.7387561045736
    RHS RDN_G04_8 275.7387561045736
    RHS MINDN_G04_8 1.0
    RHS RUP_G04_9 275.7387561045736
    RHS RDN_G04_9 275.7387561045736
    RHS MINDN_G04_9 1.0
    RHS RUP_G04_10 275.7387561045736
    RHS RDN_G04_10 275.7387561045736
    RHS MINDN_G04_10 1.0
    RHS RUP_G04_11 275.7387561045736
    RHS RDN_G04_11 275.7387561045736
    RHS MINDN_G04_11 1.0
    RHS RUP_G04_12 275.7387561045736
    RHS RDN_G04_12 275.7387561045736
    RHS MINDN_G04_12 1.0
    RHS RUP_G04_13 275.7387561045736
    RHS RDN_G04_13 275.7387561045736
    RHS MINDN_G04_13 1.0
    RHS RUP_G04_14 275.7387561045736
    RHS RDN_G04_14 275.7387561045736
    RHS MINDN_G04_14 1.0
    RHS RUP_G04_15 275.7387561045736
    RHS RDN_G04_15 275.7387561045736
    RHS MINDN_G04_15 1.0
    RHS RUP_G04_16 275.7387561045736
    RHS RDN_G04_16 275.7387561045736
    RHS MINDN_G04_16 1.0
    RHS RUP_G04_17 275.7387561045736
    RHS RDN_G04_17 275.7387561045736
    RHS MINDN_G04_17 1.0
    RHS RUP_G04_18 275.7387561045736
    RHS RDN_G04_18 275.7387561045736
    RHS MINDN_G04_18 1.0
    RHS RUP_G04_19 275.7387561045736
    RHS RDN_G04_19 275.7387561045736
    RHS MINDN_G04_19 1.0
    RHS RUP_G04_20 275.7387561045736
    RHS RDN_G04_20 275.7387561045736
    RHS MINDN_G04_20 1.0
    RHS RUP_G04_21 275.7387561045736
    RHS RDN_G04_21 275.7387561045736
    RHS MINDN_G04_21 1.0
    RHS RUP_G04_22 275.7387561045736
    RHS RDN_G04_22 275.7387561045736
    RHS MINDN_G04_22 1.0
    RHS RUP_G04_23 275.7387561045736
    RHS RDN_G04_23 275.7387561045736
    RHS MINDN_G04_23 1.0
    RHS MINDN_G05_0 1.0
    RHS RUP_G05_1 369.62484111149274
    RHS RDN_G05_1 369.62484111149274
    RHS MINDN_G05_1 1.0
    RHS RUP_G05_2 369.62484111149274
    RHS RDN_G05_2 369.62484111149274
    RHS MINDN_G05_2 1.0
    RHS RUP_G05_3 369.62484111149274
    RHS RDN_G05_3 369.62484111149274
    RHS MINDN_G05_3 1.0
    RHS RUP_G05_4 369.62484111149274
    RHS RDN_G05_4 369.62484111149274
    RHS MINDN_G05_4 1.0
    RHS RUP_G05_5 369.62484111149274
    RHS RDN_G05_5 369.62484111149274
    RHS MINDN_G05_5 1.0
    RHS RUP_G05_6 369.62484111149274
    RHS RDN_G05_6 369.62484111149274
    RHS MINDN_G05_6 1.0
    RHS RUP_G05_7 369.62484111149274
    RHS RDN_G05_7 369.62484111149274
    RHS MINDN_G05_7 1.0
    RHS RUP_G05_8 369.62484111149274
    RHS RDN_G05_8 369.62484111149274
    RHS MINDN_G05_8 1.0
    RHS RUP_G05_9 369.62484111149274
    RHS RDN_G05_9 369.62484111149274
    RHS MINDN_G05_9 1.0
    RHS RUP_G05_10 369.62484111149274
    RHS RDN_G05_10 369.62484111149274
    RHS MINDN_G05_10 1.0
    RHS RUP_G05_11 369.62484111149274
    RHS RDN_G05_11 369.62484111149274
    RHS MINDN_G05_11 1.0
    RHS RUP_G05_12 369.62484111149274
    RHS RDN_G05_12 369.62484111149274
    RHS MINDN_G05_12 1.0
    RHS RUP_G05_13 369.62484111149274
    RHS RDN_G05_13 369.62484111149274
    RHS MINDN_G05_13 1.0
    RHS RUP_G05_14 369.62484111149274
    RHS RDN_G05_14 369.62484111149274
    RHS MINDN_G05_14 1.0
    RHS RUP_G05_15 369.62484111149274
    RHS RDN_G05_15 369.62484111149274
    RHS MINDN_G05_15 1.0
    RHS RUP_G05_16 369.62484111149274
    RHS RDN_G05_16 369.62484111149274
    RHS MINDN_G05_16 1.0
    RHS RUP_G05_17 369.62484111149274
    RHS RDN_G05_17 369.62484111149274
    RHS MINDN_G05_17 1.0
    RHS RUP_G05_18 369.62484111149274
    RHS RDN_G05_18 369.62484111149274
    RHS MINDN_G05_18 1.0
    RHS RUP_G05_19 369.62484111149274
    RHS RDN_G05_19 369.62484111149274
    RHS MINDN_G05_19 1.0
    RHS RUP_G05_20 369.62484111149274
    RHS RDN_G05_20 369.62484111149274
    RHS MINDN_G05_20 1.0
    RHS RUP_G05_21 369.62484111149274
    RHS RDN_G05_21 369.62484111149274
    RHS MINDN_G05_21 1.0
    RHS RUP_G05_22 369.62484111149274
    RHS RDN_G05_22 369.62484111149274
    RHS MINDN_G05_22 1.0
    RHS RUP_G05_23 369.62484111149274
    RHS RDN_G05_23 369.62484111149274
    RHS MINDN_G05_23 1.0
    RHS MINDN_G06_0 1.0
    RHS RUP_G06_1 234.92326845575212
    RHS RDN_G06_1 234.92326845575212
    RHS MINDN_G06_1 1.0
    RHS RUP_G06_2 234.92326845575212
    RHS RDN_G06_2 234.92326845575212
    RHS MINDN_G06_2 1.0
    RHS RUP_G06_3 234.92326845575212
    RHS RDN_G06_3 234.92326845575212
    RHS MINDN_G06_3 1.0
    RHS RUP_G06_4 234.92326845575212
    RHS RDN_G06_4 234.92326845575212
    RHS MINDN_G06_4 1.0
    RHS RUP_G06_5 234.92326845575212
    RHS RDN_G06_5 234.92326845575212
    RHS MINDN_G06_5 1.0
    RHS RUP_G06_6 234.92326845575212
    RHS RDN_G06_6 234.92326845575212
    RHS MINDN_G06_6 1.0
    RHS RUP_G06_7 234.92326845575212
    RHS RDN_G06_7 234.92326845575212
    RHS MINDN_G06_7 1.0
    RHS RUP_G06_8 234.92326845575212
    RHS RDN_G06_8 234.92326845575212
    RHS MINDN_G06_8 1.0
    RHS RUP_G06_9 234.92326845575212
    RHS RDN_G06_9 234.92326845575212
    RHS MINDN_G06_9 1.0
    RHS RUP_G06_10 234.92326845575212
    RHS RDN_G06_10 234.92326845575212
    RHS MINDN_G06_10 1.0
    RHS RUP_G06_11 234.92326845575212
    RHS RDN_G06_11 234.92326845575212
    RHS MINDN_G06_11 1.0
    RHS RUP_G06_12 234.92326845575212
    RHS RDN_G06_12 234.92326845575212
    RHS MINDN_G06_12 1.0
    RHS RUP_G06_13 234.92326845575212
    RHS RDN_G06_13 234.92326845575212
    RHS MINDN_G06_13 1.0
    RHS RUP_G06_14 234.92326845575212
    RHS RDN_G06_14 234.92326845575212
    RHS MINDN_G06_14 1.0
    RHS RUP_G06_15 234.92326845575212
    RHS RDN_G06_15 234.92326845575212
    RHS MINDN_G06_15 1.0
    RHS RUP_G06_16 234.92326845575212
    RHS RDN_G06_16 234.92326845575212
    RHS MINDN_G06_16 1.0
    RHS RUP_G06_17 234.92326845575212
    RHS RDN_G06_17 234.92326845575212
    RHS MINDN_G06_17 1.0
    RHS RUP_G06_18 234.92326845575212
    RHS RDN_G06_18 234.92326845575212
    RHS MINDN_G06_18 1.0
    RHS RUP_G06_19 234.92326845575212
    RHS RDN_G06_19 234.92326845575212
    RHS MINDN_G06_19 1.0
    RHS RUP_G06_20 234.92326845575212
    RHS RDN_G06_20 234.92326845575212
    RHS MINDN_G06_20 1.0
    RHS RUP_G06_21 234.92326845575212
    RHS RDN_G06_21 234.92326845575212
    RHS MINDN_G06_21 1.0
    RHS RUP_G06_22 234.92326845575212
    RHS RDN_G06_22 234.92326845575212
    RHS MINDN_G06_22 1.0
    RHS RUP_G06_23 234.92326845575212
    RHS RDN_G06_23 234.92326845575212
    RHS MINDN_G06_23 1.0
    RHS MINDN_G07_0 1.0
    RHS RUP_G07_1 177.61722923268306
    RHS RDN_G07_1 177.61722923268306
    RHS MINDN_G07_1 1.0
    RHS RUP_G07_2 177.61722923268306
    RHS RDN_G07_2 177.61722923268306
    RHS MINDN_G07_2 1.0
    RHS RUP_G07_3 177.61722923268306
    RHS RDN_G07_3 177.61722923268306
    RHS MINDN_G07_3 1.0
    RHS RUP_G07_4 177.61722923268306
    RHS RDN_G07_4 177.61722923268306
    RHS MINDN_G07_4 1.0
    RHS RUP_G07_5 177.61722923268306
    RHS RDN_G07_5 177.61722923268306
    RHS MINDN_G07_5 1.0
    RHS RUP_G07_6 177.61722923268306
    RHS RDN_G07_6 177.61722923268306
    RHS MINDN_G07_6 1.0
    RHS RUP_G07_7 177.61722923268306
    RHS RDN_G07_7 177.61722923268306
    RHS MINDN_G07_7 1.0
    RHS RUP_G07_8 177.61722923268306
    RHS RDN_G07_8 177.61722923268306
    RHS MINDN_G07_8 1.0
    RHS RUP_G07_9 177.61722923268306
    RHS RDN_G07_9 177.61722923268306
    RHS MINDN_G07_9 1.0
    RHS RUP_G07_10 177.61722923268306
    RHS RDN_G07_10 177.61722923268306
    RHS MINDN_G07_10 1.0
    RHS RUP_G07_11 177.61722923268306
    RHS RDN_G07_11 177.61722923268306
    RHS MINDN_G07_11 1.0
    RHS RUP_G07_12 177.61722923268306
    RHS RDN_G07_12 177.61722923268306
    RHS MINDN_G07_12 1.0
    RHS RUP_G07_13 177.61722923268306
    RHS RDN_G07_13 177.61722923268306
    RHS MINDN_G07_13 1.0
    RHS RUP_G07_14 177.61722923268306
    RHS RDN_G07_14 177.61722923268306
    RHS MINDN_G07_14 1.0
    RHS RUP_G07_15 177.61722923268306
    RHS RDN_G07_15 177.61722923268306
    RHS MINDN_G07_15 1.0
    RHS RUP_G07_16 177.61722923268306
    RHS RDN_G07_16 177.61722923268306
    RHS MINDN_G07_16 1.0
    RHS RUP_G07_17 177.61722923268306
    RHS RDN_G07_17 177.61722923268306
    RHS MINDN_G07_17 1.0
    RHS RUP_G07_18 177.61722923268306
    RHS RDN_G07_18 177.61722923268306
    RHS MINDN_G07_18 1.0
    RHS RUP_G07_19 177.61722923268306
    RHS RDN_G07_19 177.61722923268306
    RHS MINDN_G07_19 1.0
    RHS RUP_G07_20 177.61722923268306
    RHS RDN_G07_20 177.61722923268306
    RHS MINDN_G07_20 1.0
    RHS RUP_G07_21 177.61722923268306
    RHS RDN_G07_21 177.61722923268306
    RHS MINDN_G07_21 1.0
    RHS RUP_G07_22 177.61722923268306
    RHS RDN_G07_22 177.61722923268306
    RHS MINDN_G07_22 1.0
    RHS RUP_G07_23 177.61722923268306
    RHS RDN_G07_23 177.61722923268306
    RHS MINDN_G07_23 1.0
    RHS MINDN_G08_0 1.0
    RHS RUP_G08_1 73.68307152268233
    RHS RDN_G08_1 73.68307152268233
    RHS MINDN_G08_1 1.0
    RHS RUP_G08_2 73.68307152268233
    RHS RDN_G08_2 73.68307152268233
    RHS MINDN_G08_2 1.0
    RHS RUP_G08_3 73.68307152268233
    RHS RDN_G08_3 73.68307152268233
    RHS MINDN_G08_3 1.0
    RHS RUP_G08_4 73.68307152268233
    RHS RDN_G08_4 73.68307152268233
    RHS MINDN_G08_4 1.0
    RHS RUP_G08_5 73.68307152268233
    RHS RDN_G08_5 73.68307152268233
    RHS MINDN_G08_5 1.0
    RHS RUP_G08_6 73.68307152268233
    RHS RDN_G08_6 73.68307152268233
    RHS MINDN_G08_6 1.0
    RHS RUP_G08_7 73.68307152268233
    RHS RDN_G08_7 73.68307152268233
    RHS MINDN_G08_7 1.0
    RHS RUP_G08_8 73.68307152268233
    RHS RDN_G08_8 73.68307152268233
    RHS MINDN_G08_8 1.0
    RHS RUP_G08_9 73.68307152268233
    RHS RDN_G08_9 73.68307152268233
    RHS MINDN_G08_9 1.0
    RHS RUP_G08_10 73.68307152268233
    RHS RDN_G08_10 73.68307152268233
    RHS MINDN_G08_10 1.0
    RHS RUP_G08_11 73.68307152268233
    RHS RDN_G08_11 73.68307152268233
    RHS MINDN_G08_11 1.0
    RHS RUP_G08_12 73.68307152268233
    RHS RDN_G08_12 73.68307152268233
    RHS MINDN_G08_12 1.0
    RHS RUP_G08_13 73.68307152268233
    RHS RDN_G08_13 73.68307152268233
    RHS MINDN_G08_13 1.0
    RHS RUP_G08_14 73.68307152268233
    RHS RDN_G08_14 73.68307152268233
    RHS MINDN_G08_14 1.0
    RHS RUP_G08_15 73.68307152268233
    RHS RDN_G08_15 73.68307152268233
    RHS MINDN_G08_15 1.0
    RHS RUP_G08_16 73.68307152268233
    RHS RDN_G08_16 73.68307152268233
    RHS MINDN_G08_16 1.0
    RHS RUP_G08_17 73.68307152268233
    RHS RDN_G08_17 73.68307152268233
    RHS MINDN_G08_17 1.0
    RHS RUP_G08_18 73.68307152268233
    RHS RDN_G08_18 73.68307152268233
    RHS MINDN_G08_18 1.0
    RHS RUP_G08_19 73.68307152268233
    RHS RDN_G08_19 73.68307152268233
    RHS MINDN_G08_19 1.0
    RHS RUP_G08_20 73.68307152268233
    RHS RDN_G08_20 73.68307152268233
    RHS MINDN_G08_20 1.0
    RHS RUP_G08_21 73.68307152268233
    RHS RDN_G08_21 73.68307152268233
    RHS MINDN_G08_21 1.0
    RHS RUP_G08_22 73.68307152268233
    RHS RDN_G08_22 73.68307152268233
    RHS MINDN_G08_22 1.0
    RHS RUP_G08_23 73.68307152268233
    RHS RDN_G08_23 73.68307152268233
    RHS MINDN_G08_23 1.0
    RHS MINDN_G09_0 1.0
    RHS RUP_G09_1 53.8624588331011
    RHS RDN_G09_1 53.8624588331011
    RHS MINDN_G09_1 1.0
    RHS RUP_G09_2 53.8624588331011
    RHS RDN_G09_2 53.8624588331011
    RHS MINDN_G09_2 1.0
    RHS RUP_G09_3 53.8624588331011
    RHS RDN_G09_3 53.8624588331011
    RHS MINDN_G09_3 1.0
    RHS RUP_G09_4 53.8624588331011
    RHS RDN_G09_4 53.8624588331011
    RHS MINDN_G09_4 1.0
    RHS RUP_G09_5 53.8624588331011
    RHS RDN_G09_5 53.8624588331011
    RHS MINDN_G09_5 1.0
    RHS RUP_G09_6 53.8624588331011
    RHS RDN_G09_6 53.8624588331011
    RHS MINDN_G09_6 1.0
    RHS RUP_G09_7 53.8624588331011
    RHS RDN_G09_7 53.8624588331011
    RHS MINDN_G09_7 1.0
    RHS RUP_G09_8 53.8624588331011
    RHS RDN_G09_8 53.8624588331011
    RHS MINDN_G09_8 1.0
    RHS RUP_G09_9 53.8624588331011
    RHS RDN_G09_9 53.8624588331011
    RHS MINDN_G09_9 1.0
    RHS RUP_G09_10 53.8624588331011
    RHS RDN_G09_10 53.8624588331011
    RHS MINDN_G09_10 1.0
    RHS RUP_G09_11 53.8624588331011
    RHS RDN_G09_11 53.8624588331011
    RHS MINDN_G09_11 1.0
    RHS RUP_G09_12 53.8624588331011
    RHS RDN_G09_12 53.8624588331011
    RHS MINDN_G09_12 1.0
    RHS RUP_G09_13 53.8624588331011
    RHS RDN_G09_13 53.8624588331011
    RHS MINDN_G09_13 1.0
    RHS RUP_G09_14 53.8624588331011
    RHS RDN_G09_14 53.8624588331011
    RHS MINDN_G09_14 1.0
    RHS RUP_G09_15 53.8624588331011
    RHS RDN_G09_15 53.8624588331011
    RHS MINDN_G09_15 1.0
    RHS RUP_G09_16 53.8624588331011
    RHS RDN_G09_16 53.8624588331011
    RHS MINDN_G09_16 1.0
    RHS RUP_G09_17 53.8624588331011
    RHS RDN_G09_17 53.8624588331011
    RHS MINDN_G09_17 1.0
    RHS RUP_G09_18 53.8624588331011
    RHS RDN_G09_18 53.8624588331011
    RHS MINDN_G09_18 1.0
    RHS RUP_G09_19 53.8624588331011
    RHS RDN_G09_19 53.8624588331011
    RHS MINDN_G09_19 1.0
    RHS RUP_G09_20 53.8624588331011
    RHS RDN_G09_20 53.8624588331011
    RHS MINDN_G09_20 1.0
    RHS RUP_G09_21 53.8624588331011
    RHS RDN_G09_21 53.8624588331011
    RHS MINDN_G09_21 1.0
    RHS RUP_G09_22 53.8624588331011
    RHS RDN_G09_22 53.8624588331011
    RHS MINDN_G09_22 1.0
    RHS RUP_G09_23 53.8624588331011
    RHS RDN_G09_23 53.8624588331011
    RHS MINDN_G09_23 1.0
    RHS DEM_0 616.2163147739426
    RHS RES_0 677.8379462513369
    RHS DEM_1 627.5224249486982
    RHS RES_1 690.2746674435681
    RHS DEM_2 660.670262748786
    RHS RES_2 726.7372890236646
    RHS DEM_3 713.4008578075216
    RHS RES_3 784.7409435882738
    RHS DEM_4 782.1207072130811
    RHS RES_4 860.3327779343894
    RHS DEM_5 862.1466667933961
    RHS RES_5 948.3613334727357
    RHS DEM_6 948.0250996522194
    RHS RES_6 1042.8276096174413
    RHS DEM_7 1033.9035325110428
    RHS RES_7 1137.2938857621473
    RHS DEM_8 1113.9294920913578
    RHS RES_8 1225.3224413004937
    RHS DEM_9 1182.6493414969173
    RHS RES_9 1300.914275646609
    RHS DEM_10 1235.3799365556529
    RHS RES_10 1358.9179302112182
    RHS DEM_11 1268.5277743557406
    RHS RES_11 1395.3805517913147
    RHS DEM_12 1279.8338845304963
    RHS RES_12 1407.817272983546
    RHS DEM_13 1268.5277743557406
    RHS RES_13 1395.3805517913147
    RHS DEM_14 1235.379936555653
    RHS RES_14 1358.9179302112186
    RHS DEM_15 1182.6493414969173
    RHS RES_15 1300.914275646609
    RHS DEM_16 1113.9294920913578
    RHS RES_16 1225.3224413004937
    RHS DEM_17 1033.9035325110428
    RHS RES_17 1137.2938857621473
    RHS DEM_18 948.0250996522194
    RHS RES_18 1042.8276096174413
    RHS DEM_19 862.1466667933961
    RHS RES_19 948.3613334727357
    RHS DEM_20 782.1207072130811
    RHS RES_20 860.3327779343894
    RHS DEM_21 713.4008578075217
    RHS RES_21 784.7409435882739
    RHS DEM_22 660.670262748786
    RHS RES_22 726.7372890236646
    RHS DEM_23 627.5224249486982
    RHS RES_23 690.2746674435681
BOUNDS
 UP BND U_G00_0 1.0
 UP BND V_G00_0 1.0
 UP BND W_G00_0 1.0
 UP BND P_G00_0 97.02748543934042
 UP BND U_G00_1 1.0
 UP BND V_G00_1 1.0
 UP BND W_G00_1 1.0
 UP BND P_G00_1 97.02748543934042
 UP BND U_G00_2 1.0
 UP BND V_G00_2 1.0
 UP BND W_G00_2 1.0
 UP BND P_G00_2 97.02748543934042
 UP BND U_G00_3 1.0
 UP BND V_G00_3 1.0
 UP BND W_G00_3 1.0
 UP BND P_G00_3 97.02748543934042
 UP BND U_G00_4 1.0
 UP BND V_G00_4 1.0
 UP BND W_G00_4 1.0
 UP BND P_G00_4 97.02748543934042
 UP BND U_G00_5 1.0
 UP BND V_G00_5 1.0
 UP BND W_G00_5 1.0
 UP BND P_G00_5 97.02748543934042
 UP BND U_G00_6 1.0
 UP BND V_G00_6 1.0
 UP BND W_G00_6 1.0
 UP BND P_G00_6 97.02748543934042
 UP BND U_G00_7 1.0
 UP BND V_G00_7 1.0
 UP BND W_G00_7 1.0
 UP BND P_G00_7 97.02748543934042
 UP BND U_G00_8 1.0
 UP BND V_G00_8 1.0
 UP BND W_G00_8 1.0
 UP BND P_G00_8 97.02748543934042
 UP BND U_G00_9 1.0
 UP BND V_G00_9 1.0
 UP BND W_G00_9 1.0
 UP BND P_G00_9 97.02748543934042
 UP BND U_G00_10 1.0
 UP BND V_G00_10 1.0
 UP BND W_G00_10 1.0
 UP BND P_G00_10 97.02748543934042
 UP BND U_G00_11 1.0
 UP BND V_G00_11 1.0
 UP BND W_G00_11 1.0
 UP BND P_G00_11 97.02748543934042
 UP BND U_G00_12 1.0
 UP BND V_G00_12 1.0
 UP BND W_G00_12 1.0
 UP BND P_G00_12 97.02748543934042
 UP BND U_G00_13 1.0
 UP BND V_G00_13 1.0
 UP BND W_G00_13 1.0
 UP BND P_G00_13 97.02748543934042
 UP BND U_G00_14 1.0
 UP BND V_G00_14 1.0
 UP BND W_G00_14 1.0
 UP BND P_G00_14 97.02748543934042
 UP BND U_G00_15 1.0
 UP BND V_G00_15 1.0
 UP BND W_G00_15 1.0
 UP BND P_G00_15 97.02748543934042
 UP BND U_G00_16 1.0
 UP BND V_G00_16 1.0
 UP BND W_G00_16 1.0
 UP BND P_G00_16 97.02748543934042
 UP BND U_G00_17 1.0
 UP BND V_G00_17 1.0
 UP BND W_G00_17 1.0
 UP BND P_G00_17 97.02748543934042
 UP BND U_G00_18 1.0
 UP BND V_G00_18 1.0
 UP BND W_G00_18 1.0
 UP BND P_G00_18 97.02748543934042
 UP BND U_G00_19 1.0
 UP BND V_G00_19 1.0
 UP BND W_G00_19 1.0
 UP BND P_G00_19 97.02748543934042
 UP BND U_G00_20 1.0
 UP BND V_G00_20 1.0
 UP BND W_G00_20 1.0
 UP BND P_G00_20 97.02748543934042
 UP BND U_G00_21 1.0
 UP BND V_G00_21 1.0
 UP BND W_G00_21 1.0
 UP BND P_G00_21 97.02748543934042
 UP BND U_G00_22 1.0
 UP BND V_G00_22 1.0
 UP BND W_G00_22 1.0
 UP BND P_G00_22 97.02748543934042
 UP BND U_G00_23 1.0
 UP BND V_G00_23 1.0
 UP BND W_G00_23 1.0
 UP BND P_G00_23 97.02748543934042
 UP BND U_G01_0 1.0
 UP BND V_G01_0 1.0
 UP BND W_G01_0 1.0
 UP BND P_G01_0 82.8508553709822
 UP BND U_G01_1 1.0
 UP BND V_G01_1 1.0
 UP BND W_G01_1 1.0
 UP BND P_G01_1 82.8508553709822
 UP BND U_G01_2 1.0
 UP BND V_G01_2 1.0
 UP BND W_G01_2 1.0
 UP BND P_G01_2 82.8508553709822
 UP BND U_G01_3 1.0
 UP BND V_G01_3 1.0
 UP BND W_G01_3 1.0
 UP BND P_G01_3 82.8508553709822
 UP BND U_G01_4 1.0
 UP BND V_G01_4 1.0
 UP BND W_G01_4 1.0
 UP BND P_G01_4 82.8508553709822
 UP BND U_G01_5 1.0
 UP BND V_G01_5 1.0
 UP BND W_G01_5 1.0
 UP BND P_G01_5 82.8508553709822
 UP BND U_G01_6 1.0
 UP BND V_G01_6 1.0
 UP BND W_G01_6 1.0
 UP BND P_G01_6 82.8508553709822
 UP BND U_G01_7 1.0
 UP BND V_G01_7 1.0
 UP BND W_G01_7 1.0
 UP BND P_G01_7 82.8508553709822
 UP BND U_G01_8 1.0
 UP BND V_G01_8 1.0
 UP BND W_G01_8 1.0
 UP BND P_G01_8 82.8508553709822
 UP BND U_G01_9 1.0
 UP BND V_G01_9 1.0
 UP BND W_G01_9 1.0
 UP BND P_G01_9 82.8508553709822
 UP BND U_G01_10 1.0
 UP BND V_G01_10 1.0
 UP BND W_G01_10 1.0
 UP BND P_G01_10 82.8508553709822
 UP BND U_G01_11 1.0
 UP BND V_G01_11 1.0
 UP BND W_G01_11 1.0
 UP BND P_G01_11 82.8508553709822
 UP BND U_G01_12 1.0
 UP BND V_G01_12 1.0
 UP BND W_G01_12 1.0
 UP BND P_G01_12 82.8508553709822
 UP BND U_G01_13 1.0
 UP BND V_G01_13 1.0
 UP BND W_G01_13 1.0
 UP BND P_G01_13 82.8508553709822
 UP BND U_G01_14 1.0
 UP BND V_G01_14 1.0
 UP BND W_G01_14 1.0
 UP BND P_G01_14 82.8508553709822
 UP BND U_G01_15 1.0
 UP BND V_G01_15 1.0
 UP BND W_G01_15 1.0
 UP BND P_G01_15 82.8508553709822
 UP BND U_G01_16 1.0
 UP BND V_G01_16 1.0
 UP BND W_G01_16 1.0
 UP BND P_G01_16 82.8508553709822
 UP BND U_G01_17 1.0
 UP BND V_G01_17 1.0
 UP BND W_G01_17 1.0
 UP BND P_G01_17 82.8508553709822
 UP BND U_G01_18 1.0
 UP BND V_G01_18 1.0
 UP BND W_G01_18 1.0
 UP BND P_G01_18 82.8508553709822
 UP BND U_G01_19 1.0
 UP BND V_G01_19 1.0
 UP BND W_G01_19 1.0
 UP BND P_G01_19 82.8508553709822
 UP BND U_G01_20 1.0
 UP BND V_G01_20 1.0
 UP BND W_G01_20 1.0
 UP BND P_G01_20 82.8508553709822
 UP BND U_G01_21 1.0
 UP BND V_G01_21 1.0
 UP BND W_G01_21 1.0
 UP BND P_G01_21 82.8508553709822
 UP BND U_G01_22 1.0
 UP BND V_G01_22 1.0
 UP BND W_G01_22 1.0
 UP BND P_G01_22 82.8508553709822
 UP BND U_G01_23 1.0
 UP BND V_G01_23 1.0
 UP BND W_G01_23 1.0
 UP BND P_G01_23 82.8508553709822
 UP BND U_G02_0 1.0
 UP BND V_G02_0 1.0
 UP BND W_G02_0 1.0
 UP BND P_G02_0 302.53901131927387
 UP BND U_G02_1 1.0
 UP BND V_G02_1 1.0
 UP BND W_G02_1 1.0
 UP BND P_G02_1 302.53901131927387
 UP BND U_G02_2 1.0
 UP BND V_G02_2 1.0
 UP BND W_G02_2 1.0
 UP BND P_G02_2 302.53901131927387
 UP BND U_G02_3 1.0
 UP BND V_G02_3 1.0
 UP BND W_G02_3 1.0
 UP BND P_G02_3 302.53901131927387
 UP BND U_G02_4 1.0
 UP BND V_G02_4 1.0
 UP BND W_G02_4 1.0
 UP BND P_G02_4 302.53901131927387
 UP BND U_G02_5 1.0
 UP BND V_G02_5 1.0
 UP BND W_G02_5 1.0
 UP BND P_G02_5 302.53901131927387
 UP BND U_G02_6 1.0
 UP BND V_G02_6 1.0
 UP BND W_G02_6 1.0
 UP BND P_G02_6 302.53901131927387
 UP BND U_G02_7 1.0
 UP BND V_G02_7 1.0
 UP BND W_G02_7 1.0
 UP BND P_G02_7 302.53901131927387
 UP BND U_G02_8 1.0
 UP BND V_G02_8 1.0
 UP BND W_G02_8 1.0
 UP BND P_G02_8 302.53901131927387
 UP BND U_G02_9 1.0
 UP BND V_G02_9 1.0
 UP BND W_G02_9 1.0
 UP BND P_G02_9 302.53901131927387
 UP BND U_G02_10 1.0
 UP BND V_G02_10 1.0
 UP BND W_G02_10 1.0
 UP BND P_G02_10 302.53901131927387
 UP BND U_G02_11 1.0
 UP BND V_G02_11 1.0
 UP BND W_G02_11 1.0
 UP BND P_G02_11 302.53901131927387
 UP BND U_G02_12 1.0
 UP BND V_G02_12 1.0
 UP BND W_G02_12 1.0
 UP BND P_G02_12 302.53901131927387
 UP BND U_G02_13 1.0
 UP BND V_G02_13 1.0
 UP BND W_G02_13 1.0
 UP BND P_G02_13 302.53901131927387
 UP BND U_G02_14 1.0
 UP BND V_G02_14 1.0
 UP BND W_G02_14 1.0
 UP BND P_G02_14 302.53901131927387
 UP BND U_G02_15 1.0
 UP BND V_G02_15 1.0
 UP BND W_G02_15 1.0
 UP BND P_G02_15 302.53901131927387
 UP BND U_G02_16 1.0
 UP BND V_G02_16 1.0
 UP BND W_G02_16 1.0
 UP BND P_G02_16 302.53901131927387
 UP BND U_G02_17 1.0
 UP BND V_G02_17 1.0
 UP BND W_G02_17 1.0
 UP BND P_G02_17 302.53901131927387
 UP BND U_G02_18 1.0
 UP BND V_G02_18 1.0
 UP BND W_G02_18 1.0
 UP BND P_G02_18 302.53901131927387
 UP BND U_G02_19 1.0
 UP BND V_G02_19 1.0
 UP BND W_G02_19 1.0
 UP BND P_G02_19 302.53901131927387
 UP BND U_G02_20 1.0
 UP BND V_G02_20 1.0
 UP BND W_G02_20 1.0
 UP BND P_G02_20 302.53901131927387
 UP BND U_G02_21 1.0
 UP BND V_G02_21 1.0
 UP BND W_G02_21 1.0
 UP BND P_G02_21 302.53901131927387
 UP BND U_G02_22 1.0
 UP BND V_G02_22 1.0
 UP BND W_G02_22 1.0
 UP BND P_G02_22 302.53901131927387
 UP BND U_G02_23 1.0
 UP BND V_G02_23 1.0
 UP BND W_G02_23 1.0
 UP BND P_G02_23 302.53901131927387
 UP BND U_G03_0 1.0
 UP BND V_G03_0 1.0
 UP BND W_G03_0 1.0
 UP BND P_G03_0 378.7022069724787
 UP BND U_G03_1 1.0
 UP BND V_G03_1 1.0
 UP BND W_G03_1 1.0
 UP BND P_G03_1 378.7022069724787
 UP BND U_G03_2 1.0
 UP BND V_G03_2 1.0
 UP BND W_G03_2 1.0
 UP BND P_G03_2 378.7022069724787
 UP BND U_G03_3 1.0
 UP BND V_G03_3 1.0
 UP BND W_G03_3 1.0
 UP BND P_G03_3 378.7022069724787
 UP BND U_G03_4 1.0
 UP BND V_G03_4 1.0
 UP BND W_G03_4 1.0
 UP BND P_G03_4 378.7022069724787
 UP BND U_G03_5 1.0
 UP BND V_G03_5 1.0
 UP BND W_G03_5 1.0
 UP BND P_G03_5 378.7022069724787
 UP BND U_G03_6 1.0
 UP BND V_G03_6 1.0
 UP BND W_G03_6 1.0
 UP BND P_G03_6 378.7022069724787
 UP BND U_G03_7 1.0
 UP BND V_G03_7 1.0
 UP BND W_G03_7 1.0
 UP BND P_G03_7 378.7022069724787
 UP BND U_G03_8 1.0
 UP BND V_G03_8 1.0
 UP BND W_G03_8 1.0
 UP BND P_G03_8 378.7022069724787
 UP BND U_G03_9 1.0
 UP BND V_G03_9 1.0
 UP BND W_G03_9 1.0
 UP BND P_G03_9 378.7022069724787
 UP BND U_G03_10 1.0
 UP BND V_G03_10 1.0
 UP BND W_G03_10 1.0
 UP BND P_G03_10 378.7022069724787
 UP BND U_G03_11 1.0
 UP BND V_G03_11 1.0
 UP BND W_G03_11 1.0
 UP BND P_G03_11 378.7022069724787
 UP BND U_G03_12 1.0
 UP BND V_G03_12 1.0
 UP BND W_G03_12 1.0
 UP BND P_G03_12 378.7022069724787
 UP BND U_G03_13 1.0
 UP BND V_G03_13 1.0
 UP BND W_G03_13 1.0
 UP BND P_G03_13 378.7022069724787
 UP BND U_G03_14 1.0
 UP BND V_G03_14 1.0
 UP BND W_G03_14 1.0
 UP BND P_G03_14 378.7022069724787
 UP BND U_G03_15 1.0
 UP BND V_G03_15 1.0
 UP BND W_G03_15 1.0
 UP BND P_G03_15 378.7022069724787
 UP BND U_G03_16 1.0
 UP BND V_G03_16 1.0
 UP BND W_G03_16 1.0
 UP BND P_G03_16 378.7022069724787
 UP BND U_G03_17 1.0
 UP BND V_G03_17 1.0
 UP BND W_G03_17 1.0
 UP BND P_G03_17 378.7022069724787
 UP BND U_G03_18 1.0
 UP BND V_G03_18 1.0
 UP BND W_G03_18 1.0
 UP BND P_G03_18 378.7022069724787
 UP BND U_G03_19 1.0
 UP BND V_G03_19 1.0
 UP BND W_G03_19 1.0
 UP BND P_G03_19 378.7022069724787
 UP BND U_G03_20 1.0
 UP BND V_G03_20 1.0
 UP BND W_G03_20 1.0
 UP BND P_G03_20 378.7022069724787
 UP BND U_G03_21 1.0
 UP BND V_G03_21 1.0
 UP BND W_G03_21 1.0
 UP BND P_G03_21 378.7022069724787
 UP BND U_G03_22 1.0
 UP BND V_G03_22 1.0
 UP BND W_G03_22 1.0
 UP BND P_G03_22 378.7022069724787
 UP BND U_G03_23 1.0
 UP BND V_G03_23 1.0
 UP BND W_G03_23 1.0
 UP BND P_G03_23 378.7022069724787
 UP BND U_G04_0 1.0
 UP BND V_G04_0 1.0
 UP BND W_G04_0 1.0
 UP BND P_G04_0 243.5008517025378
 UP BND U_G04_1 1.0
 UP BND V_G04_1 1.0
 UP BND W_G04_1 1.0
 UP BND P_G04_1 243.5008517025378
 UP BND U_G04_2 1.0
 UP BND V_G04_2 1.0
 UP BND W_G04_2 1.0
 UP BND P_G04_2 243.5008517025378
 UP BND U_G04_3 1.0
 UP BND V_G04_3 1.0
 UP BND W_G04_3 1.0
 UP BND P_G04_3 243.5008517025378
 UP BND U_G04_4 1.0
 UP BND V_G04_4 1.0
 UP BND W_G04_4 1.0
 UP BND P_G04_4 243.5008517025378
 UP BND U_G04_5 1.0
 UP BND V_G04_5 1.0
 UP BND W_G04_5 1.0
 UP BND P_G04_5 243.5008517025378
 UP BND U_G04_6 1.0
 UP BND V_G04_6 1.0
 UP BND W_G04_6 1.0
 UP BND P_G04_6 243.5008517025378
 UP BND U_G04_7 1.0
 UP BND V_G04_7 1.0
 UP BND W_G04_7 1.0
 UP BND P_G04_7 243.5008517025378
 UP BND U_G04_8 1.0
 UP BND V_G04_8 1.0
 UP BND W_G04_8 1.0
 UP BND P_G04_8 243.5008517025378
 UP BND U_G04_9 1.0
 UP BND V_G04_9 1.0
 UP BND W_G04_9 1.0
 UP BND P_G04_9 243.5008517025378
 UP BND U_G04_10 1.0
 UP BND V_G04_10 1.0
 UP BND W_G04_10 1.0
 UP BND P_G04_10 243.5008517025378
 UP BND U_G04_11 1.0
 UP BND V_G04_11 1.0
 UP BND W_G04_11 1.0
 UP BND P_G04_11 243.5008517025378
 UP BND U_G04_12 1.0
 UP BND V_G04_12 1.0
 UP BND W_G04_12 1.0
 UP BND P_G04_12 243.5008517025378
 UP BND U_G04_13 1.0
 UP BND V_G04_13 1.0
 UP BND W_G04_13 1.0
 UP BND P_G04_13 243.5008517025378
 UP BND U_G04_14 1.0
 UP BND V_G04_14 1.0
 UP BND W_G04_14 1.0
 UP BND P_G04_14 243.5008517025378
 UP BND U_G04_15 1.0
 UP BND V_G04_15 1.0
 UP BND W_G04_15 1.0
 UP BND P_G04_15 243.5008517025378
 UP BND U_G04_16 1.0
 UP BND V_G04_16 1.0
 UP BND W_G04_16 1.0
 UP BND P_G04_16 243.5008517025378
 UP BND U_G04_17 1.0
 UP BND V_G04_17 1.0
 UP BND W_G04_17 1.0
 UP BND P_G04_17 243.5008517025378
 UP BND U_G04_18 1.0
 UP BND V_G04_18 1.0
 UP BND W_G04_18 1.0
 UP BND P_G04_18 243.5008517025378
 UP BND U_G04_19 1.0
 UP BND V_G04_19 1.0
 UP BND W_G04_19 1.0
 UP BND P_G04_19 243.5008517025378
 UP BND U_G04_20 1.0
 UP BND V_G04_20 1.0
 UP BND W_G04_20 1.0
 UP BND P_G04_20 243.5008517025378
 UP BND U_G04_21 1.0
 UP BND V_G04_21 1.0
 UP BND W_G04_21 1.0
 UP BND P_G04_21 243.5008517025378
 UP BND U_G04_22 1.0
 UP BND V_G04_22 1.0
 UP BND W_G04_22 1.0
 UP BND P_G04_22 243.5008517025378
 UP BND U_G04_23 1.0
 UP BND V_G04_23 1.0
 UP BND W_G04_23 1.0
 UP BND P_G04_23 243.5008517025378
 UP BND U_G05_0 1.0
 UP BND V_G05_0 1.0
 UP BND W_G05_0 1.0
 UP BND P_G05_0 372.7659968644606
 UP BND U_G05_1 1.0
 UP BND V_G05_1 1.0
 UP BND W_G05_1 1.0
 UP BND P_G05_1 372.7659968644606
 UP BND U_G05_2 1.0
 UP BND V_G05_2 1.0
 UP BND W_G05_2 1.0
 UP BND P_G05_2 372.7659968644606
 UP BND U_G05_3 1.0
 UP BND V_G05_3 1.0
 UP BND W_G05_3 1.0
 UP BND P_G05_3 372.7659968644606
 UP BND U_G05_4 1.0
 UP BND V_G05_4 1.0
 UP BND W_G05_4 1.0
 UP BND P_G05_4 372.7659968644606
 UP BND U_G05_5 1.0
 UP BND V_G05_5 1.0
 UP BND W_G05_5 1.0
 UP BND P_G05_5 372.7659968644606
 UP BND U_G05_6 1.0
 UP BND V_G05_6 1.0
 UP BND W_G05_6 1.0
 UP BND P_G05_6 372.7659968644606
 UP BND U_G05_7 1.0
 UP BND V_G05_7 1.0
 UP BND W_G05_7 1.0
 UP BND P_G05_7 372.7659968644606
 UP BND U_G05_8 1.0
 UP BND V_G05_8 1.0
 UP BND W_G05_8 1.0
 UP BND P_G05_8 372.7659968644606
 UP BND U_G05_9 1.0
 UP BND V_G05_9 1.0
 UP BND W_G05_9 1.0
 UP BND P_G05_9 372.7659968644606
 UP BND U_G05_10 1.0
 UP BND V_G05_10 1.0
 UP BND W_G05_10 1.0
 UP BND P_G05_10 372.7659968644606
 UP BND U_G05_11 1.0
 UP BND V_G05_11 1.0
 UP BND W_G05_11 1.0
 UP BND P_G05_11 372.7659968644606
 UP BND U_G05_12 1.0
 UP BND V_G05_12 1.0
 UP BND W_G05_12 1.0
 UP BND P_G05_12 372.7659968644606
 UP BND U_G05_13 1.0
 UP BND V_G05_13 1.0
 UP BND W_G05_13 1.0
 UP BND P_G05_13 372.7659968644606
 UP BND U_G05_14 1.0
 UP BND V_G05_14 1.0
 UP BND W_G05_14 1.0
 UP BND P_G05_14 372.7659968644606
 UP BND U_G05_15 1.0
 UP BND V_G05_15 1.0
 UP BND W_G05_15 1.0
 UP BND P_G05_15 372.7659968644606
 UP BND U_G05_16 1.0
 UP BND V_G05_16 1.0
 UP BND W_G05_16 1.0
 UP BND P_G05_16 372.7659968644606
 UP BND U_G05_17 1.0
 UP BND V_G05_17 1.0
 UP BND W_G05_17 1.0
 UP BND P_G05_17 372.7659968644606
 UP BND U_G05_18 1.0
 UP BND V_G05_18 1.0
 UP BND W_G05_18 1.0
 UP BND P_G05_18 372.7659968644606
 UP BND U_G05_19 1.0
 UP BND V_G05_19 1.0
 UP BND W_G05_19 1.0
 UP BND P_G05_19 372.7659968644606
 UP BND U_G05_20 1.0
 UP BND V_G05_20 1.0
 UP BND W_G05_20 1.0
 UP BND P_G05_20 372.7659968644606
 UP BND U_G05_21 1.0
 UP BND V_G05_21 1.0
 UP BND W_G05_21 1.0
 UP BND P_G05_21 372.7659968644606
 UP BND U_G05_22 1.0
 UP BND V_G05_22 1.0
 UP BND W_G05_22 1.0
 UP BND P_G05_22 372.7659968644606
 UP BND U_G05_23 1.0
 UP BND V_G05_23 1.0
 UP BND W_G05_23 1.0
 UP BND P_G05_23 372.7659968644606
 UP BND U_G06_0 1.0
 UP BND V_G06_0 1.0
 UP BND W_G06_0 1.0
 UP BND P_G06_0 227.70103767896063
 UP BND U_G06_1 1.0
 UP BND V_G06_1 1.0
 UP BND W_G06_1 1.0
 UP BND P_G06_1 227.70103767896063
 UP BND U_G06_2 1.0
 UP BND V_G06_2 1.0
 UP BND W_G06_2 1.0
 UP BND P_G06_2 227.70103767896063
 UP BND U_G06_3 1.0
 UP BND V_G06_3 1.0
 UP BND W_G06_3 1.0
 UP BND P_G06_3 227.70103767896063
 UP BND U_G06_4 1.0
 UP BND V_G06_4 1.0
 UP BND W_G06_4 1.0
 UP BND P_G06_4 227.70103767896063
 UP BND U_G06_5 1.0
 UP BND V_G06_5 1.0
 UP BND W_G06_5 1.0
 UP BND P_G06_5 227.70103767896063
 UP BND U_G06_6 1.0
 UP BND V_G06_6 1.0
 UP BND W_G06_6 1.0
 UP BND P_G06_6 227.70103767896063
 UP BND U_G06_7 1.0
 UP BND V_G06_7 1.0
 UP BND W_G06_7 1.0
 UP BND P_G06_7 227.70103767896063
 UP BND U_G06_8 1.0
 UP BND V_G06_8 1.0
 UP BND W_G06_8 1.0
 UP BND P_G06_8 227.70103767896063
 UP BND U_G06_9 1.0
 UP BND V_G06_9 1.0
 UP BND W_G06_9 1.0
 UP BND P_G06_9 227.70103767896063
 UP BND U_G06_10 1.0
 UP BND V_G06_10 1.0
 UP BND W_G06_10 1.0
 UP BND P_G06_10 227.70103767896063
 UP BND U_G06_11 1.0
 UP BND V_G06_11 1.0
 UP BND W_G06_11 1.0
 UP BND P_G06_11 227.70103767896063
 UP BND U_G06_12 1.0
 UP BND V_G06_12 1.0
 UP BND W_G06_12 1.0
 UP BND P_G06_12 227.70103767896063
 UP BND U_G06_13 1.0
 UP BND V_G06_13 1.0
 UP BND W_G06_13 1.0
 UP BND P_G06_13 227.70103767896063
 UP BND U_G06_14 1.0
 UP BND V_G06_14 1.0
 UP BND W_G06_14 1.0
 UP BND P_G06_14 227.70103767896063
 UP BND U_G06_15 1.0
 UP BND V_G06_15 1.0
 UP BND W_G06_15 1.0
 UP BND P_G06_15 227.70103767896063
 UP BND U_G06_16 1.0
 UP BND V_G06_16 1.0
 UP BND W_G06_16 1.0
 UP BND P_G06_16 227.70103767896063
 UP BND U_G06_17 1.0
 UP BND V_G06_17 1.0
 UP BND W_G06_17 1.0
 UP BND P_G06_17 227.70103767896063
 UP BND U_G06_18 1.0
 UP BND V_G06_18 1.0
 UP BND W_G06_18 1.0
 UP BND P_G06_18 227.70103767896063
 UP BND U_G06_19 1.0
 UP BND V_G06_19 1.0
 UP BND W_G06_19 1.0
 UP BND P_G06_19 227.70103767896063
 UP BND U_G06_20 1.0
 UP BND V_G06_20 1.0
 UP BND W_G06_20 1.0
 UP BND P_G06_20 227.70103767896063
 UP BND U_G06_21 1.0
 UP BND V_G06_21 1.0
 UP BND W_G06_21 1.0
 UP BND P_G06_21 227.70103767896063
 UP BND U_G06_22 1.0
 UP BND V_G06_22 1.0
 UP BND W_G06_22 1.0
 UP BND P_G06_22 227.70103767896063
 UP BND U_G06_23 1.0
 UP BND V_G06_23 1.0
 UP BND W_G06_23 1.0
 UP BND P_G06_23 227.70103767896063
 UP BND U_G07_0 1.0
 UP BND V_G07_0 1.0
 UP BND W_G07_0 1.0
 UP BND P_G07_0 256.1507902938931
 UP BND U_G07_1 1.0
 UP BND V_G07_1 1.0
 UP BND W_G07_1 1.0
 UP BND P_G07_1 256.1507902938931
 UP BND U_G07_2 1.0
 UP BND V_G07_2 1.0
 UP BND W_G07_2 1.0
 UP BND P_G07_2 256.1507902938931
 UP BND U_G07_3 1.0
 UP BND V_G07_3 1.0
 UP BND W_G07_3 1.0
 UP BND P_G07_3 256.1507902938931
 UP BND U_G07_4 1.0
 UP BND V_G07_4 1.0
 UP BND W_G07_4 1.0
 UP BND P_G07_4 256.1507902938931
 UP BND U_G07_5 1.0
 UP BND V_G07_5 1.0
 UP BND W_G07_5 1.0
 UP BND P_G07_5 256.1507902938931
 UP BND U_G07_6 1.0
 UP BND V_G07_6 1.0
 UP BND W_G07_6 1.0
 UP BND P_G07_6 256.1507902938931
 UP BND U_G07_7 1.0
 UP BND V_G07_7 1.0
 UP BND W_G07_7 1.0
 UP BND P_G07_7 256.1507902938931
 UP BND U_G07_8 1.0
 UP BND V_G07_8 1.0
 UP BND W_G07_8 1.0
 UP BND P_G07_8 256.1507902938931
 UP BND U_G07_9 1.0
 UP BND V_G07_9 1.0
 UP BND W_G07_9 1.0
 UP BND P_G07_9 256.1507902938931
 UP BND U_G07_10 1.0
 UP BND V_G07_10 1.0
 UP BND W_G07_10 1.0
 UP BND P_G07_10 256.1507902938931
 UP BND U_G07_11 1.0
 UP BND V_G07_11 1.0
 UP BND W_G07_11 1.0
 UP BND P_G07_11 256.1507902938931
 UP BND U_G07_12 1.0
 UP BND V_G07_12 1.0
 UP BND W_G07_12 1.0
 UP BND P_G07_12 256.1507902938931
 UP BND U_G07_13 1.0
 UP BND V_G07_13 1.0
 UP BND W_G07_13 1.0
 UP BND P_G07_13 256.1507902938931
 UP BND U_G07_14 1.0
 UP BND V_G07_14 1.0
 UP BND W_G07_14 1.0
 UP BND P_G07_14 256.1507902938931
 UP BND U_G07_15 1.0
 UP BND V_G07_15 1.0
 UP BND W_G07_15 1.0
 UP BND P_G07_15 256.1507902938931
 UP BND U_G07_16 1.0
 UP BND V_G07_16 1.0
 UP BND W_G07_16 1.0
 UP BND P_G07_16 256.1507902938931
 UP BND U_G07_17 1.0
 UP BND V_G07_17 1.0
 UP BND W_G07_17 1.0
 UP BND P_G07_17 256.1507902938931
 UP BND U_G07_18 1.0
 UP BND V_G07_18 1.0
 UP BND W_G07_18 1.0
 UP BND P_G07_18 256.1507902938931
 UP BND U_G07_19 1.0
 UP BND V_G07_19 1.0
 UP BND W_G07_19 1.0
 UP BND P_G07_19 256.1507902938931
 UP BND U_G07_20 1.0
 UP BND V_G07_20 1.0
 UP BND W_G07_20 1.0
 UP BND P_G07_20 256.1507902938931
 UP BND U_G07_21 1.0
 UP BND V_G07_21 1.0
 UP BND W_G07_21 1.0
 UP BND P_G07_21 256.1507902938931
 UP BND U_G07_22 1.0
 UP BND V_G07_22 1.0
 UP BND W_G07_22 1.0
 UP BND P_G07_22 256.1507902938931
 UP BND U_G07_23 1.0
 UP BND V_G07_23 1.0
 UP BND W_G07_23 1.0
 UP BND P_G07_23 256.1507902938931
 UP BND U_G08_0 1.0
 UP BND V_G08_0 1.0
 UP BND W_G08_0 1.0
 UP BND P_G08_0 80.26365640488692
 UP BND U_G08_1 1.0
 UP BND V_G08_1 1.0
 UP BND W_G08_1 1.0
 UP BND P_G08_1 80.26365640488692
 UP BND U_G08_2 1.0
 UP BND V_G08_2 1.0
 UP BND W_G08_2 1.0
 UP BND P_G08_2 80.26365640488692
 UP BND U_G08_3 1.0
 UP BND V_G08_3 1.0
 UP BND W_G08_3 1.0
 UP BND P_G08_3 80.26365640488692
 UP BND U_G08_4 1.0
 UP BND V_G08_4 1.0
 UP BND W_G08_4 1.0
 UP BND P_G08_4 80.26365640488692
 UP BND U_G08_5 1.0
 UP BND V_G08_5 1.0
 UP BND W_G08_5 1.0
 UP BND P_G08_5 80.26365640488692
 UP BND U_G08_6 1.0
 UP BND V_G08_6 1.0
 UP BND W_G08_6 1.0
 UP BND P_G08_6 80.26365640488692
 UP BND U_G08_7 1.0
 UP BND V_G08_7 1.0
 UP BND W_G08_7 1.0
 UP BND P_G08_7 80.26365640488692
 UP BND U_G08_8 1.0
 UP BND V_G08_8 1.0
 UP BND W_G08_8 1.0
 UP BND P_G08_8 80.26365640488692
 UP BND U_G08_9 1.0
 UP BND V_G08_9 1.0
 UP BND W_G08_9 1.0
 UP BND P_G08_9 80.26365640488692
 UP BND U_G08_10 1.0
 UP BND V_G08_10 1.0
 UP BND W_G08_10 1.0
 UP BND P_G08_10 80.26365640488692
 UP BND U_G08_11 1.0
 UP BND V_G08_11 1.0
 UP BND W_G08_11 1.0
 UP BND P_G08_11 80.26365640488692
 UP BND U_G08_12 1.0
 UP BND V_G08_12 1.0
 UP BND W_G08_12 1.0
 UP BND P_G08_12 80.26365640488692
 UP BND U_G08_13 1.0
 UP BND V_G08_13 1.0
 UP BND W_G08_13 1.0
 UP BND P_G08_13 80.26365640488692
 UP BND U_G08_14 1.0
 UP BND V_G08_14 1.0
 UP BND W_G08_14 1.0
 UP BND P_G08_14 80.26365640488692
 UP BND U_G08_15 1.0
 UP BND V_G08_15 1.0
 UP BND W_G08_15 1.0
 UP BND P_G08_15 80.26365640488692
 UP BND U_G08_16 1.0
 UP BND V_G08_16 1.0
 UP BND W_G08_16 1.0
 UP BND P_G08_16 80.26365640488692
 UP BND U_G08_17 1.0
 UP BND V_G08_17 1.0
 UP BND W_G08_17 1.0
 UP BND P_G08_17 80.26365640488692
 UP BND U_G08_18 1.0
 UP BND V_G08_18 1.0
 UP BND W_G08_18 1.0
 UP BND P_G08_18 80.26365640488692
 UP BND U_G08_19 1.0
 UP BND V_G08_19 1.0
 UP BND W_G08_19 1.0
 UP BND P_G08_19 80.26365640488692
 UP BND U_G08_20 1.0
 UP BND V_G08_20 1.0
 UP BND W_G08_20 1.0
 UP BND P_G08_20 80.26365640488692
 UP BND U_G08_21 1.0
 UP BND V_G08_21 1.0
 UP BND W_G08_21 1.0
 UP BND P_G08_21 80.26365640488692
 UP BND U_G08_22 1.0
 UP BND V_G08_22 1.0
 UP BND W_G08_22 1.0
 UP BND P_G08_22 80.26365640488692
 UP BND U_G08_23 1.0
 UP BND V_G08_23 1.0
 UP BND W_G08_23 1.0
 UP BND P_G08_23 80.26365640488692
 UP BND U_G09_0 1.0
 UP BND V_G09_0 1.0
 UP BND W_G09_0 1.0
 UP BND P_G09_0 65.2205516247846
 UP BND U_G09_1 1.0
 UP BND V_G09_1 1.0
 UP BND W_G09_1 1.0
 UP BND P_G09_1 65.2205516247846
 UP BND U_G09_2 1.0
 UP BND V_G09_2 1.0
 UP BND W_G09_2 1.0
 UP BND P_G09_2 65.2205516247846
 UP BND U_G09_3 1.0
 UP BND V_G09_3 1.0
 UP BND W_G09_3 1.0
 UP BND P_G09_3 65.2205516247846
 UP BND U_G09_4 1.0
 UP BND V_G09_4 1.0
 UP BND W_G09_4 1.0
 UP BND P_G09_4 65.2205516247846
 UP BND U_G09_5 1.0
 UP BND V_G09_5 1.0
 UP BND W_G09_5 1.0
 UP BND P_G09_5 65.2205516247846
 UP BND U_G09_6 1.0
 UP BND V_G09_6 1.0
 UP BND W_G09_6 1.0
 UP BND P_G09_6 65.2205516247846
 UP BND U_G09_7 1.0
 UP BND V_G09_7 1.0
 UP BND W_G09_7 1.0
 UP BND P_G09_7 65.2205516247846
 UP BND U_G09_8 1.0
 UP BND V_G09_8 1.0
 UP BND W_G09_8 1.0
 UP BND P_G09_8 65.2205516247846
 UP BND U_G09_9 1.0
 UP BND V_G09_9 1.0
 UP BND W_G09_9 1.0
 UP BND P_G09_9 65.2205516247846
 UP BND U_G09_10 1.0
 UP BND V_G09_10 1.0
 UP BND W_G09_10 1.0
 UP BND P_G09_10 65.2205516247846
 UP BND U_G09_11 1.0
 UP BND V_G09_11 1.0
 UP BND W_G09_11 1.0
 UP BND P_G09_11 65.2205516247846
 UP BND U_G09_12 1.0
 UP BND V_G09_12 1.0
 UP BND W_G09_12 1.0
 UP BND P_G09_12 65.2205516247846
 UP BND U_G09_13 1.0
 UP BND V_G09_13 1.0
 UP BND W_G09_13 1.0
 UP BND P_G09_13 65.2205516247846
 UP BND U_G09_14 1.0
 UP BND V_G09_14 1.0
 UP BND W_G09_14 1.0
 UP BND P_G09_14 65.2205516247846
 UP BND U_G09_15 1.0
 UP BND V_G09_15 1.0
 UP BND W_G09_15 1.0
 UP BND P_G09_15 65.2205516247846
 UP BND U_G09_16 1.0
 UP BND V_G09_16 1.0
 UP BND W_G09_16 1.0
 UP BND P_G09_16 65.2205516247846
 UP BND U_G09_17 1.0
 UP BND V_G09_17 1.0
 UP BND W_G09_17 1.0
 UP BND P_G09_17 65.2205516247846
 UP BND U_G09_18 1.0
 UP BND V_G09_18 1.0
 UP BND W_G09_18 1.0
 UP BND P_G09_18 65.2205516247846
 UP BND U_G09_19 1.0
 UP BND V_G09_19 1.0
 UP BND W_G09_19 1.0
 UP BND P_G09_19 65.2205516247846
 UP BND U_G09_20 1.0
 UP BND V_G09_20 1.0
 UP BND W_G09_20 1.0
 UP BND P_G09_20 65.2205516247846
 UP BND U_G09_21 1.0
 UP BND V_G09_21 1.0
 UP BND W_G09_21 1.0
 UP BND P_G09_21 65.2205516247846
 UP BND U_G09_22 1.0
 UP BND V_G09_22 1.0
 UP BND W_G09_22 1.0
 UP BND P_G09_22 65.2205516247846
 UP BND U_G09_23 1.0
 UP BND V_G09_23 1.0
 UP BND W_G09_23 1.0
 UP BND P_G09_23 65.2205516247846
ENDATA
