NAME UC_G30H24
ROWS
 N  OBJ
 G  PMIN_G00_0
 L  PMAX_G00_0
 E  LOGIC_G00_0
 L  MINUP_G00_0
 L  MINDN_G00_0
 G  PMIN_G00_1
 L  PMAX_G00_1
 E  LOGIC_G00_1
 L  RUP_G00_1
 L  RDN_G00_1
 L  MINUP_G00_1
 L  MINDN_G00_1
 G  PMIN_G00_2
 L  PMAX_G00_2
 E  LOGIC_G00_2
 L  RUP_G00_2
 L  RDN_G00_2
 L  MINUP_G00_2
 L  MINDN_G00_2
 G  PMIN_G00_3
 L  PMAX_G00_3
 E  LOGIC_G00_3
 L  RUP_G00_3
 L  RDN_G00_3
 L  MINUP_G00_3
 L  MINDN_G00_3
 G  PMIN_G00_4
 L  PMAX_G00_4
 E  LOGIC_G00_4
 L  RUP_G00_4
 L  RDN_G00_4
 L  MINUP_G00_4
 L  MINDN_G00_4
 G  PMIN_G00_5
 L  PMAX_G00_5
 E  LOGIC_G00_5
 L  RUP_G00_5
 L  RDN_G00_5
 L  MINUP_G00_5
 L  MINDN_G00_5
 G  PMIN_G00_6
 L  PMAX_G00_6
 E  LOGIC_G00_6
 L  RUP_G00_6
 L  RDN_G00_6
 L  MINUP_G00_6
 L  MINDN_G00_6
 G  PMIN_G00_7
 L  PMAX_G00_7
 E  LOGIC_G00_7
 L  RUP_G00_7
 L  RDN_G00_7
 L  MINUP_G00_7
 L  MINDN_G00_7
 G  PMIN_G00_8
 L  PMAX_G00_8
 E  LOGIC_G00_8
 L  RUP_G00_8
 L  RDN_G00_8
 L  MINUP_G00_8
 L  MINDN_G00_8
 G  PMIN_G00_9
 L  PMAX_G00_9
 E  LOGIC_G00_9
 L  RUP_G00_9
 L  RDN_G00_9
 L  MINUP_G00_9
 L  MINDN_G00_9
 G  PMIN_G00_10
 L  PMAX_G00_10
 E  LOGIC_G00_10
 L  RUP_G00_10
 L  RDN_G00_10
 L  MINUP_G00_10
 L  MINDN_G00_10
 G  PMIN_G00_11
 L  PMAX_G00_11
 E  LOGIC_G00_11
 L  RUP_G00_11
 L  RDN_G00_11
 L  MINUP_G00_11
 L  MINDN_G00_11
 G  PMIN_G00_12
 L  PMAX_G00_12
 E  LOGIC_G00_12
 L  RUP_G00_12
 L  RDN_G00_12
 L  MINUP_G00_12
 L  MINDN_G00_12
 G  PMIN_G00_13
 L  PMAX_G00_13
 E  LOGIC_G00_13
 L  RUP_G00_13
 L  RDN_G00_13
 L  MINUP_G00_13
 L  MINDN_G00_13
 G  PMIN_G00_14
 L  PMAX_G00_14
 E  LOGIC_G00_14
 L  RUP_G00_14
 L  RDN_G00_14
 L  MINUP_G00_14
 L  MINDN_G00_14
 G  PMIN_G00_15
 L  PMAX_G00_15
 E  LOGIC_G00_15
 L  RUP_G00_15
 L  RDN_G00_15
 L  MINUP_G00_15
 L  MINDN_G00_15
 G  PMIN_G00_16
 L  PMAX_G00_16
 E  LOGIC_G00_16
 L  RUP_G00_16
 L  RDN_G00_16
 L  MINUP_G00_16
 L  MINDN_G00_16
 G  PMIN_G00_17
 L  PMAX_G00_17
 E  LOGIC_G00_17
 L  RUP_G00_17
 L  RDN_G00_17
 L  MINUP_G00_17
 L  MINDN_G00_17
 G  PMIN_G00_18
 L  PMAX_G00_18
 E  LOGIC_G00_18
 L  RUP_G00_18
 L  RDN_G00_18
 L  MINUP_G00_18
 L  MINDN_G00_18
 G  PMIN_G00_19
 L  PMAX_G00_19
 E  LOGIC_G00_19
 L  RUP_G00_19
 L  RDN_G00_19
 L  MINUP_G00_19
 L  MINDN_G00_19
 G  PMIN_G00_20
 L  PMAX_G00_20
 E  LOGIC_G00_20
 L  RUP_G00_20
 L  RDN_G00_20
 L  MINUP_G00_20
 L  MINDN_G00_20
 G  PMIN_G00_21
 L  PMAX_G00_21
 E  LOGIC_G00_21
 L  RUP_G00_21
 L  RDN_G00_21
 L  MINUP_G00_21
 L  MINDN_G00_21
 G  PMIN_G00_22
 L  PMAX_G00_22
 E  LOGIC_G00_22
 L  RUP_G00_22
 L  RDN_G00_22
 L  MINUP_G00_22
 L  MINDN_G00_22
 G  PMIN_G00_23
 L  PMAX_G00_23
 E  LOGIC_G00_23
 L  RUP_G00_23
 L  RDN_G00_23
 L  MINUP_G00_23
 L  MINDN_G00_23
 G  PMIN_G01_0
 L  PMAX_G01_0
 E  LOGIC_G01_0
 L  MINUP_G01_0
 L  MINDN_G01_0
 G  PMIN_G01_1
 L  PMAX_G01_1
 E  LOGIC_G01_1
 L  RUP_G01_1
 L  RDN_G01_1
 L  MINUP_G01_1
 L  MINDN_G01_1
 G  PMIN_G01_2
 L  PMAX_G01_2
 E  LOGIC_G01_2
 L  RUP_G01_2
 L  RDN_G01_2
 L  MINUP_G01_2
 L  MINDN_G01_2
 G  PMIN_G01_3
 L  PMAX_G01_3
 E  LOGIC_G01_3
 L  RUP_G01_3
 L  RDN_G01_3
 L  MINUP_G01_3
 L  MINDN_G01_3
 G  PMIN_G01_4
 L  PMAX_G01_4
 E  LOGIC_G01_4
 L  RUP_G01_4
 L  RDN_G01_4
 L  MINUP_G01_4
 L  MINDN_G01_4
 G  PMIN_G01_5
 L  PMAX_G01_5
 E  LOGIC_G01_5
 L  RUP_G01_5
 L  RDN_G01_5
 L  MINUP_G01_5
 L  MINDN_G01_5
 G  PMIN_G01_6
 L  PMAX_G01_6
 E  LOGIC_G01_6
 L  RUP_G01_6
 L  RDN_G01_6
 L  MINUP_G01_6
 L  MINDN_G01_6
 G  PMIN_G01_7
 L  PMAX_G01_7
 E  LOGIC_G01_7
 L  RUP_G01_7
 L  RDN_G01_7
 L  MINUP_G01_7
 L  MINDN_G01_7
 G  PMIN_G01_8
 L  PMAX_G01_8
 E  LOGIC_G01_8
 L  RUP_G01_8
 L  RDN_G01_8
 L  MINUP_G01_8
 L  MINDN_G01_8
 G  PMIN_G01_9
 L  PMAX_G01_9
 E  LOGIC_G01_9
 L  RUP_G01_9
 L  RDN_G01_9
 L  MINUP_G01_9
 L  MINDN_G01_9
 G  PMIN_G01_10
 L  PMAX_G01_10
 E  LOGIC_G01_10
 L  RUP_G01_10
 L  RDN_G01_10
 L  MINUP_G01_10
 L  MINDN_G01_10
 G  PMIN_G01_11
 L  PMAX_G01_11
 E  LOGIC_G01_11
 L  RUP_G01_11
 L  RDN_G01_11
 L  MINUP_G01_11
 L  MINDN_G01_11
 G  PMIN_G01_12
 L  PMAX_G01_12
 E  LOGIC_G01_12
 L  RUP_G01_12
 L  RDN_G01_12
 L  MINUP_G01_12
 L  MINDN_G01_12
 G  PMIN_G01_13
 L  PMAX_G01_13
 E  LOGIC_G01_13
 L  RUP_G01_13
 L  RDN_G01_13
 L  MINUP_G01_13
 L  MINDN_G01_13
 G  PMIN_G01_14
 L  PMAX_G01_14
 E  LOGIC_G01_14
 L  RUP_G01_14
 L  RDN_G01_14
 L  MINUP_G01_14
 L  MINDN_G01_14
 G  PMIN_G01_15
 L  PMAX_G01_15
 E  LOGIC_G01_15
 L  RUP_G01_15
 L  RDN_G01_15
 L  MINUP_G01_15
 L  MINDN_G01_15
 G  PMIN_G01_16
 L  PMAX_G01_16
 E  LOGIC_G01_16
 L  RUP_G01_16
 L  RDN_G01_16
 L  MINUP_G01_16
 L  MINDN_G01_16
 G  PMIN_G01_17
 L  PMAX_G01_17
 E  LOGIC_G01_17
 L  RUP_G01_17
 L  RDN_G01_17
 L  MINUP_G01_17
 L  MINDN_G01_17
 G  PMIN_G01_18
 L  PMAX_G01_18
 E  LOGIC_G01_18
 L  RUP_G01_18
 L  RDN_G01_18
 L  MINUP_G01_18
 L  MINDN_G01_18
 G  PMIN_G01_19
 L  PMAX_G01_19
 E  LOGIC_G01_19
 L  RUP_G01_19
 L  RDN_G01_19
 L  MINUP_G01_19
 L  MINDN_G01_19
 G  PMIN_G01_20
 L  PMAX_G01_20
 E  LOGIC_G01_20
 L  RUP_G01_20
 L  RDN_G01_20
 L  MINUP_G01_20
 L  MINDN_G01_20
 G  PMIN_G01_21
 L  PMAX_G01_21
 E  LOGIC_G01_21
 L  RUP_G01_21
 L  RDN_G01_21
 L  MINUP_G01_21
 L  MINDN_G01_21
 G  PMIN_G01_22
 L  PMAX_G01_22
 E  LOGIC_G01_22
 L  RUP_G01_22
 L  RDN_G01_22
 L  MINUP_G01_22
 L  MINDN_G01_22
 G  PMIN_G01_23
 L  PMAX_G01_23
 E  LOGIC_G01_23
 L  RUP_G01_23
 L  RDN_G01_23
 L  MINUP_G01_23
 L  MINDN_G01_23
 G  PMIN_G02_0
 L  PMAX_G02_0
 E  LOGIC_G02_0
 L  MINUP_G02_0
 L  MINDN_G02_0
 G  PMIN_G02_1
 L  PMAX_G02_1
 E  LOGIC_G02_1
 L  RUP_G02_1
 L  RDN_G02_1
 L  MINUP_G02_1
 L  MINDN_G02_1
 G  PMIN_G02_2
 L  PMAX_G02_2
 E  LOGIC_G02_2
 L  RUP_G02_2
 L  RDN_G02_2
 L  MINUP_G02_2
 L  MINDN_G02_2
 G  PMIN_G02_3
 L  PMAX_G02_3
 E  LOGIC_G02_3
 L  RUP_G02_3
 L  RDN_G02_3
 L  MINUP_G02_3
 L  MINDN_G02_3
 G  PMIN_G02_4
 L  PMAX_G02_4
 E  LOGIC_G02_4
 L  RUP_G02_4
 L  RDN_G02_4
 L  MINUP_G02_4
 L  MINDN_G02_4
 G  PMIN_G02_5
 L  PMAX_G02_5
 E  LOGIC_G02_5
 L  RUP_G02_5
 L  RDN_G02_5
 L  MINUP_G02_5
 L  MINDN_G02_5
 G  PMIN_G02_6
 L  PMAX_G02_6
 E  LOGIC_G02_6
 L  RUP_G02_6
 L  RDN_G02_6
 L  MINUP_G02_6
 L  MINDN_G02_6
 G  PMIN_G02_7
 L  PMAX_G02_7
 E  LOGIC_G02_7
 L  RUP_G02_7
 L  RDN_G02_7
 L  MINUP_G02_7
 L  MINDN_G02_7
 G  PMIN_G02_8
 L  PMAX_G02_8
 E  LOGIC_G02_8
 L  RUP_G02_8
 L  RDN_G02_8
 L  MINUP_G02_8
 L  MINDN_G02_8
 G  PMIN_G02_9
 L  PMAX_G02_9
 E  LOGIC_G02_9
 L  RUP_G02_9
 L  RDN_G02_9
 L  MINUP_G02_9
 L  MINDN_G02_9
 G  PMIN_G02_10
 L  PMAX_G02_10
 E  LOGIC_G02_10
 L  RUP_G02_10
 L  RDN_G02_10
 L  MINUP_G02_10
 L  MINDN_G02_10
 G  PMIN_G02_11
 L  PMAX_G02_11
 E  LOGIC_G02_11
 L  RUP_G02_11
 L  RDN_G02_11
 L  MINUP_G02_11
 L  MINDN_G02_11
 G  PMIN_G02_12
 L  PMAX_G02_12
 E  LOGIC_G02_12
 L  RUP_G02_12
 L  RDN_G02_12
 L  MINUP_G02_12
 L  MINDN_G02_12
 G  PMIN_G02_13
 L  PMAX_G02_13
 E  LOGIC_G02_13
 L  RUP_G02_13
 L  RDN_G02_13
 L  MINUP_G02_13
 L  MINDN_G02_13
 G  PMIN_G02_14
 L  PMAX_G02_14
 E  LOGIC_G02_14
 L  RUP_G02_14
 L  RDN_G02_14
 L  MINUP_G02_14
 L  MINDN_G02_14
 G  PMIN_G02_15
 L  PMAX_G02_15
 E  LOGIC_G02_15
 L  RUP_G02_15
 L  RDN_G02_15
 L  MINUP_G02_15
 L  MINDN_G02_15
 G  PMIN_G02_16
 L  PMAX_G02_16
 E  LOGIC_G02_16
 L  RUP_G02_16
 L  RDN_G02_16
 L  MINUP_G02_16
 L  MINDN_G02_16
 G  PMIN_G02_17
 L  PMAX_G02_17
 E  LOGIC_G02_17
 L  RUP_G02_17
 L  RDN_G02_17
 L  MINUP_G02_17
 L  MINDN_G02_17
 G  PMIN_G02_18
 L  PMAX_G02_18
 E  LOGIC_G02_18
 L  RUP_G02_18
 L  RDN_G02_18
 L  MINUP_G02_18
 L  MINDN_G02_18
 G  PMIN_G02_19
 L  PMAX_G02_19
 E  LOGIC_G02_19
 L  RUP_G02_19
 L  RDN_G02_19
 L  MINUP_G02_19
 L  MINDN_G02_19
 G  PMIN_G02_20
 L  PMAX_G02_20
 E  LOGIC_G02_20
 L  RUP_G02_20
 L  RDN_G02_20
 L  MINUP_G02_20
 L  MINDN_G02_20
 G  PMIN_G02_21
 L  PMAX_G02_21
 E  LOGIC_G02_21
 L  RUP_G02_21
 L  RDN_G02_21
 L  MINUP_G02_21
 L  MINDN_G02_21
 G  PMIN_G02_22
 L  PMAX_G02_22
 E  LOGIC_G02_22
 L  RUP_G02_22
 L  RDN_G02_22
 L  MINUP_G02_22
 L  MINDN_G02_22
 G  PMIN_G02_23
 L  PMAX_G02_23
 E  LOGIC_G02_23
 L  RUP_G02_23
 L  RDN_G02_23
 L  MINUP_G02_23
 L  MINDN_G02_23
 G  PMIN_G03_0
 L  PMAX_G03_0
 E  LOGIC_G03_0
 L  MINUP_G03_0
 L  MINDN_G03_0
 G  PMIN_G03_1
 L  PMAX_G03_1
 E  LOGIC_G03_1
 L  RUP_G03_1
 L  RDN_G03_1
 L  MINUP_G03_1
 L  MINDN_G03_1
 G  PMIN_G03_2
 L  PMAX_G03_2
 E  LOGIC_G03_2
 L  RUP_G03_2
 L  RDN_G03_2
 L  MINUP_G03_2
 L  MINDN_G03_2
 G  PMIN_G03_3
 L  PMAX_G03_3
 E  LOGIC_G03_3
 L  RUP_G03_3
 L  RDN_G03_3
 L  MINUP_G03_3
 L  MINDN_G03_3
 G  PMIN_G03_4
 L  PMAX_G03_4
 E  LOGIC_G03_4
 L  RUP_G03_4
 L  RDN_G03_4
 L  MINUP_G03_4
 L  MINDN_G03_4
 G  PMIN_G03_5
 L  PMAX_G03_5
 E  LOGIC_G03_5
 L  RUP_G03_5
 L  RDN_G03_5
 L  MINUP_G03_5
 L  MINDN_G03_5
 G  PMIN_G03_6
 L  PMAX_G03_6
 E  LOGIC_G03_6
 L  RUP_G03_6
 L  RDN_G03_6
 L  MINUP_G03_6
 L  MINDN_G03_6
 G  PMIN_G03_7
 L  PMAX_G03_7
 E  LOGIC_G03_7
 L  RUP_G03_7
 L  RDN_G03_7
 L  MINUP_G03_7
 L  MINDN_G03_7
 G  PMIN_G03_8
 L  PMAX_G03_8
 E  LOGIC_G03_8
 L  RUP_G03_8
 L  RDN_G03_8
 L  MINUP_G03_8
 L  MINDN_G03_8
 G  PMIN_G03_9
 L  PMAX_G03_9
 E  LOGIC_G03_9
 L  RUP_G03_9
 L  RDN_G03_9
 L  MINUP_G03_9
 L  MINDN_G03_9
 G  PMIN_G03_10
 L  PMAX_G03_10
 E  LOGIC_G03_10
 L  RUP_G03_10
 L  RDN_G03_10
 L  MINUP_G03_10
 L  MINDN_G03_10
 G  PMIN_G03_11
 L  PMAX_G03_11
 E  LOGIC_G03_11
 L  RUP_G03_11
 L  RDN_G03_11
 L  MINUP_G03_11
 L  MINDN_G03_11
 G  PMIN_G03_12
 L  PMAX_G03_12
 E  LOGIC_G03_12
 L  RUP_G03_12
 L  RDN_G03_12
 L  MINUP_G03_12
 L  MINDN_G03_12
 G  PMIN_G03_13
 L  PMAX_G03_13
 E  LOGIC_G03_13
 L  RUP_G03_13
 L  RDN_G03_13
 L  MINUP_G03_13
 L  MINDN_G03_13
 G  PMIN_G03_14
 L  PMAX_G03_14
 E  LOGIC_G03_14
 L  RUP_G03_14
 L  RDN_G03_14
 L  MINUP_G03_14
 L  MINDN_G03_14
 G  PMIN_G03_15
 L  PMAX_G03_15
 E  LOGIC_G03_15
 L  RUP_G03_15
 L  RDN_G03_15
 L  MINUP_G03_15
 L  MINDN_G03_15
 G  PMIN_G03_16
 L  PMAX_G03_16
 E  LOGIC_G03_16
 L  RUP_G03_16
 L  RDN_G03_16
 L  MINUP_G03_16
 L  MINDN_G03_16
 G  PMIN_G03_17
 L  PMAX_G03_17
 E  LOGIC_G03_17
 L  RUP_G03_17
 L  RDN_G03_17
 L  MINUP_G03_17
 L  MINDN_G03_17
 G  PMIN_G03_18
 L  PMAX_G03_18
 E  LOGIC_G03_18
 L  RUP_G03_18
 L  RDN_G03_18
 L  MINUP_G03_18
 L  MINDN_G03_18
 G  PMIN_G03_19
 L  PMAX_G03_19
 E  LOGIC_G03_19
 L  RUP_G03_19
 L  RDN_G03_19
 L  MINUP_G03_19
 L  MINDN_G03_19
 G  PMIN_G03_20
 L  PMAX_G03_20
 E  LOGIC_G03_20
 L  RUP_G03_20
 L  RDN_G03_20
 L  MINUP_G03_20
 L  MINDN_G03_20
 G  PMIN_G03_21
 L  PMAX_G03_21
 E  LOGIC_G03_21
 L  RUP_G03_21
 L  RDN_G03_21
 L  MINUP_G03_21
 L  MINDN_G03_21
 G  PMIN_G03_22
 L  PMAX_G03_22
 E  LOGIC_G03_22
 L  RUP_G03_22
 L  RDN_G03_22
 L  MINUP_G03_22
 L  MINDN_G03_22
 G  PMIN_G03_23
 L  PMAX_G03_23
 E  LOGIC_G03_23
 L  RUP_G03_23
 L  RDN_G03_23
 L  MINUP_G03_23
 L  MINDN_G03_23
 G  PMIN_G04_0
 L  PMAX_G04_0
 E  LOGIC_G04_0
 L  MINUP_G04_0
 L  MINDN_G04_0
 G  PMIN_G04_1
 L  PMAX_G04_1
 E  LOGIC_G04_1
 L  RUP_G04_1
 L  RDN_G04_1
 L  MINUP_G04_1
 L  MINDN_G04_1
 G  PMIN_G04_2
 L  PMAX_G04_2
 E  LOGIC_G04_2
 L  RUP_G04_2
 L  RDN_G04_2
 L  MINUP_G04_2
 L  MINDN_G04_2
 G  PMIN_G04_3
 L  PMAX_G04_3
 E  LOGIC_G04_3
 L  RUP_G04_3
 L  RDN_G04_3
 L  MINUP_G04_3
 L  MINDN_G04_3
 G  PMIN_G04_4
 L  PMAX_G04_4
 E  LOGIC_G04_4
 L  RUP_G04_4
 L  RDN_G04_4
 L  MINUP_G04_4
 L  MINDN_G04_4
 G  PMIN_G04_5
 L  PMAX_G04_5
 E  LOGIC_G04_5
 L  RUP_G04_5
 L  RDN_G04_5
 L  MINUP_G04_5
 L  MINDN_G04_5
 G  PMIN_G04_6
 L  PMAX_G04_6
 E  LOGIC_G04_6
 L  RUP_G04_6
 L  RDN_G04_6
 L  MINUP_G04_6
 L  MINDN_G04_6
 G  PMIN_G04_7
 L  PMAX_G04_7
 E  LOGIC_G04_7
 L  RUP_G04_7
 L  RDN_G04_7
 L  MINUP_G04_7
 L  MINDN_G04_7
 G  PMIN_G04_8
 L  PMAX_G04_8
 E  LOGIC_G04_8
 L  RUP_G04_8
 L  RDN_G04_8
 L  MINUP_G04_8
 L  MINDN_G04_8
 G  PMIN_G04_9
 L  PMAX_G04_9
 E  LOGIC_G04_9
 L  RUP_G04_9
 L  RDN_G04_9
 L  MINUP_G04_9
 L  MINDN_G04_9
 G  PMIN_G04_10
 L  PMAX_G04_10
 E  LOGIC_G04_10
 L  RUP_G04_10
 L  RDN_G04_10
 L  MINUP_G04_10
 L  MINDN_G04_10
 G  PMIN_G04_11
 L  PMAX_G04_11
 E  LOGIC_G04_11
 L  RUP_G04_11
 L  RDN_G04_11
 L  MINUP_G04_11
 L  MINDN_G04_11
 G  PMIN_G04_12
 L  PMAX_G04_12
 E  LOGIC_G04_12
 L  RUP_G04_12
 L  RDN_G04_12
 L  MINUP_G04_12
 L  MINDN_G04_12
 G  PMIN_G04_13
 L  PMAX_G04_13
 E  LOGIC_G04_13
 L  RUP_G04_13
 L  RDN_G04_13
 L  MINUP_G04_13
 L  MINDN_G04_13
 G  PMIN_G04_14
 L  PMAX_G04_14
 E  LOGIC_G04_14
 L  RUP_G04_14
 L  RDN_G04_14
 L  MINUP_G04_14
 L  MINDN_G04_14
 G  PMIN_G04_15
 L  PMAX_G04_15
 E  LOGIC_G04_15
 L  RUP_G04_15
 L  RDN_G04_15
 L  MINUP_G04_15
 L  MINDN_G04_15
 G  PMIN_G04_16
 L  PMAX_G04_16
 E  LOGIC_G04_16
 L  RUP_G04_16
 L  RDN_G04_16
 L  MINUP_G04_16
 L  MINDN_G04_16
 G  PMIN_G04_17
 L  PMAX_G04_17
 E  LOGIC_G04_17
 L  RUP_G04_17
 L  RDN_G04_17
 L  MINUP_G04_17
 L  MINDN_G04_17
 G  PMIN_G04_18
 L  PMAX_G04_18
 E  LOGIC_G04_18
 L  RUP_G04_18
 L  RDN_G04_18
 L  MINUP_G04_18
 L  MINDN_G04_18
 G  PMIN_G04_19
 L  PMAX_G04_19
 E  LOGIC_G04_19
 L  RUP_G04_19
 L  RDN_G04_19
 L  MINUP_G04_19
 L  MINDN_G04_19
 G  PMIN_G04_20
 L  PMAX_G04_20
 E  LOGIC_G04_20
 L  RUP_G04_20
 L  RDN_G04_20
 L  MINUP_G04_20
 L  MINDN_G04_20
 G  PMIN_G04_21
 L  PMAX_G04_21
 E  LOGIC_G04_21
 L  RUP_G04_21
 L  RDN_G04_21
 L  MINUP_G04_21
 L  MINDN_G04_21
 G  PMIN_G04_22
 L  PMAX_G04_22
 E  LOGIC_G04_22
 L  RUP_G04_22
 L  RDN_G04_22
 L  MINUP_G04_22
 L  MINDN_G04_22
 G  PMIN_G04_23
 L  PMAX_G04_23
 E  LOGIC_G04_23
 L  RUP_G04_23
 L  RDN_G04_23
 L  MINUP_G04_23
 L  MINDN_G04_23
 G  PMIN_G05_0
 L  PMAX_G05_0
 E  LOGIC_G05_0
 L  MINUP_G05_0
 L  MINDN_G05_0
 G  PMIN_G05_1
 L  PMAX_G05_1
 E  LOGIC_G05_1
 L  RUP_G05_1
 L  RDN_G05_1
 L  MINUP_G05_1
 L  MINDN_G05_1
 G  PMIN_G05_2
 L  PMAX_G05_2
 E  LOGIC_G05_2
 L  RUP_G05_2
 L  RDN_G05_2
 L  MINUP_G05_2
 L  MINDN_G05_2
 G  PMIN_G05_3
 L  PMAX_G05_3
 E  LOGIC_G05_3
 L  RUP_G05_3
 L  RDN_G05_3
 L  MINUP_G05_3
 L  MINDN_G05_3
 G  PMIN_G05_4
 L  PMAX_G05_4
 E  LOGIC_G05_4
 L  RUP_G05_4
 L  RDN_G05_4
 L  MINUP_G05_4
 L  MINDN_G05_4
 G  PMIN_G05_5
 L  PMAX_G05_5
 E  LOGIC_G05_5
 L  RUP_G05_5
 L  RDN_G05_5
 L  MINUP_G05_5
 L  MINDN_G05_5
 G  PMIN_G05_6
 L  PMAX_G05_6
 E  LOGIC_G05_6
 L  RUP_G05_6
 L  RDN_G05_6
 L  MINUP_G05_6
 L  MINDN_G05_6
 G  PMIN_G05_7
 L  PMAX_G05_7
 E  LOGIC_G05_7
 L  RUP_G05_7
 L  RDN_G05_7
 L  MINUP_G05_7
 L  MINDN_G05_7
 G  PMIN_G05_8
 L  PMAX_G05_8
 E  LOGIC_G05_8
 L  RUP_G05_8
 L  RDN_G05_8
 L  MINUP_G05_8
 L  MINDN_G05_8
 G  PMIN_G05_9
 L  PMAX_G05_9
 E  LOGIC_G05_9
 L  RUP_G05_9
 L  RDN_G05_9
 L  MINUP_G05_9
 L  MINDN_G05_9
 G  PMIN_G05_10
 L  PMAX_G05_10
 E  LOGIC_G05_10
 L  RUP_G05_10
 L  RDN_G05_10
 L  MINUP_G05_10
 L  MINDN_G05_10
 G  PMIN_G05_11
 L  PMAX_G05_11
 E  LOGIC_G05_11
 L  RUP_G05_11
 L  RDN_G05_11
 L  MINUP_G05_11
 L  MINDN_G05_11
 G  PMIN_G05_12
 L  PMAX_G05_12
 E  LOGIC_G05_12
 L  RUP_G05_12
 L  RDN_G05_12
 L  MINUP_G05_12
 L  MINDN_G05_12
 G  PMIN_G05_13
 L  PMAX_G05_13
 E  LOGIC_G05_13
 L  RUP_G05_13
 L  RDN_G05_13
 L  MINUP_G05_13
 L  MINDN_G05_13
 G  PMIN_G05_14
 L  PMAX_G05_14
 E  LOGIC_G05_14
 L  RUP_G05_14
 L  RDN_G05_14
 L  MINUP_G05_14
 L  MINDN_G05_14
 G  PMIN_G05_15
 L  PMAX_G05_15
 E  LOGIC_G05_15
 L  RUP_G05_15
 L  RDN_G05_15
 L  MINUP_G05_15
 L  MINDN_G05_15
 G  PMIN_G05_16
 L  PMAX_G05_16
 E  LOGIC_G05_16
 L  RUP_G05_16
 L  RDN_G05_16
 L  MINUP_G05_16
 L  MINDN_G05_16
 G  PMIN_G05_17
 L  PMAX_G05_17
 E  LOGIC_G05_17
 L  RUP_G05_17
 L  RDN_G05_17
 L  MINUP_G05_17
 L  MINDN_G05_17
 G  PMIN_G05_18
 L  PMAX_G05_18
 E  LOGIC_G05_18
 L  RUP_G05_18
 L  RDN_G05_18
 L  MINUP_G05_18
 L  MINDN_G05_18
 G  PMIN_G05_19
 L  PMAX_G05_19
 E  LOGIC_G05_19
 L  RUP_G05_19
 L  RDN_G05_19
 L  MINUP_G05_19
 L  MINDN_G05_19
 G  PMIN_G05_20
 L  PMAX_G05_20
 E  LOGIC_G05_20
 L  RUP_G05_20
 L  RDN_G05_20
 L  MINUP_G05_20
 L  MINDN_G05_20
 G  PMIN_G05_21
 L  PMAX_G05_21
 E  LOGIC_G05_21
 L  RUP_G05_21
 L  RDN_G05_21
 L  MINUP_G05_21
 L  MINDN_G05_21
 G  PMIN_G05_22
 L  PMAX_G05_22
 E  LOGIC_G05_22
 L  RUP_G05_22
 L  RDN_G05_22
 L  MINUP_G05_22
 L  MINDN_G05_22
 G  PMIN_G05_23
 L  PMAX_G05_23
 E  LOGIC_G05_23
 L  RUP_G05_23
 L  RDN_G05_23
 L  MINUP_G05_23
 L  MINDN_G05_23
 G  PMIN_G06_0
 L  PMAX_G06_0
 E  LOGIC_G06_0
 L  MINUP_G06_0
 L  MINDN_G06_0
 G  PMIN_G06_1
 L  PMAX_G06_1
 E  LOGIC_G06_1
 L  RUP_G06_1
 L  RDN_G06_1
 L  MINUP_G06_1
 L  MINDN_G06_1
 G  PMIN_G06_2
 L  PMAX_G06_2
 E  LOGIC_G06_2
 L  RUP_G06_2
 L  RDN_G06_2
 L  MINUP_G06_2
 L  MINDN_G06_2
 G  PMIN_G06_3
 L  PMAX_G06_3
 E  LOGIC_G06_3
 L  RUP_G06_3
 L  RDN_G06_3
 L  MINUP_G06_3
 L  MINDN_G06_3
 G  PMIN_G06_4
 L  PMAX_G06_4
 E  LOGIC_G06_4
 L  RUP_G06_4
 L  RDN_G06_4
 L  MINUP_G06_4
 L  MINDN_G06_4
 G  PMIN_G06_5
 L  PMAX_G06_5
 E  LOGIC_G06_5
 L  RUP_G06_5
 L  RDN_G06_5
 L  MINUP_G06_5
 L  MINDN_G06_5
 G  PMIN_G06_6
 L  PMAX_G06_6
 E  LOGIC_G06_6
 L  RUP_G06_6
 L  RDN_G06_6
 L  MINUP_G06_6
 L  MINDN_G06_6
 G  PMIN_G06_7
 L  PMAX_G06_7
 E  LOGIC_G06_7
 L  RUP_G06_7
 L  RDN_G06_7
 L  MINUP_G06_7
 L  MINDN_G06_7
 G  PMIN_G06_8
 L  PMAX_G06_8
 E  LOGIC_G06_8
 L  RUP_G06_8
 L  RDN_G06_8
 L  MINUP_G06_8
 L  MINDN_G06_8
 G  PMIN_G06_9
 L  PMAX_G06_9
 E  LOGIC_G06_9
 L  RUP_G06_9
 L  RDN_G06_9
 L  MINUP_G06_9
 L  MINDN_G06_9
 G  PMIN_G06_10
 L  PMAX_G06_10
 E  LOGIC_G06_10
 L  RUP_G06_10
 L  RDN_G06_10
 L  MINUP_G06_10
 L  MINDN_G06_10
 G  PMIN_G06_11
 L  PMAX_G06_11
 E  LOGIC_G06_11
 L  RUP_G06_11
 L  RDN_G06_11
 L  MINUP_G06_11
 L  MINDN_G06_11
 G  PMIN_G06_12
 L  PMAX_G06_12
 E  LOGIC_G06_12
 L  RUP_G06_12
 L  RDN_G06_12
 L  MINUP_G06_12
 L  MINDN_G06_12
 G  PMIN_G06_13
 L  PMAX_G06_13
 E  LOGIC_G06_13
 L  RUP_G06_13
 L  RDN_G06_13
 L  MINUP_G06_13
 L  MINDN_G06_13
 G  PMIN_G06_14
 L  PMAX_G06_14
 E  LOGIC_G06_14
 L  RUP_G06_14
 L  RDN_G06_14
 L  MINUP_G06_14
 L  MINDN_G06_14
 G  PMIN_G06_15
 L  PMAX_G06_15
 E  LOGIC_G06_15
 L  RUP_G06_15
 L  RDN_G06_15
 L  MINUP_G06_15
 L  MINDN_G06_15
 G  PMIN_G06_16
 L  PMAX_G06_16
 E  LOGIC_G06_16
 L  RUP_G06_16
 L  RDN_G06_16
 L  MINUP_G06_16
 L  MINDN_G06_16
 G  PMIN_G06_17
 L  PMAX_G06_17
 E  LOGIC_G06_17
 L  RUP_G06_17
 L  RDN_G06_17
 L  MINUP_G06_17
 L  MINDN_G06_17
 G  PMIN_G06_18
 L  PMAX_G06_18
 E  LOGIC_G06_18
 L  RUP_G06_18
 L  RDN_G06_18
 L  MINUP_G06_18
 L  MINDN_G06_18
 G  PMIN_G06_19
 L  PMAX_G06_19
 E  LOGIC_G06_19
 L  RUP_G06_19
 L  RDN_G06_19
 L  MINUP_G06_19
 L  MINDN_G06_19
 G  PMIN_G06_20
 L  PMAX_G06_20
 E  LOGIC_G06_20
 L  RUP_G06_20
 L  RDN_G06_20
 L  MINUP_G06_20
 L  MINDN_G06_20
 G  PMIN_G06_21
 L  PMAX_G06_21
 E  LOGIC_G06_21
 L  RUP_G06_21
 L  RDN_G06_21
 L  MINUP_G06_21
 L  MINDN_G06_21
 G  PMIN_G06_22
 L  PMAX_G06_22
 E  LOGIC_G06_22
 L  RUP_G06_22
 L  RDN_G06_22
 L  MINUP_G06_22
 L  MINDN_G06_22
 G  PMIN_G06_23
 L  PMAX_G06_23
 E  LOGIC_G06_23
 L  RUP_G06_23
 L  RDN_G06_23
 L  MINUP_G06_23
 L  MINDN_G06_23
 G  PMIN_G07_0
 L  PMAX_G07_0
 E  LOGIC_G07_0
 L  MINUP_G07_0
 L  MINDN_G07_0
 G  PMIN_G07_1
 L  PMAX_G07_1
 E  LOGIC_G07_1
 L  RUP_G07_1
 L  RDN_G07_1
 L  MINUP_G07_1
 L  MINDN_G07_1
 G  PMIN_G07_2
 L  PMAX_G07_2
 E  LOGIC_G07_2
 L  RUP_G07_2
 L  RDN_G07_2
 L  MINUP_G07_2
 L  MINDN_G07_2
 G  PMIN_G07_3
 L  PMAX_G07_3
 E  LOGIC_G07_3
 L  RUP_G07_3
 L  RDN_G07_3
 L  MINUP_G07_3
 L  MINDN_G07_3
 G  PMIN_G07_4
 L  PMAX_G07_4
 E  LOGIC_G07_4
 L  RUP_G07_4
 L  RDN_G07_4
 L  MINUP_G07_4
 L  MINDN_G07_4
 G  PMIN_G07_5
 L  PMAX_G07_5
 E  LOGIC_G07_5
 L  RUP_G07_5
 L  RDN_G07_5
 L  MINUP_G07_5
 L  MINDN_G07_5
 G  PMIN_G07_6
 L  PMAX_G07_6
 E  LOGIC_G07_6
 L  RUP_G07_6
 L  RDN_G07_6
 L  MINUP_G07_6
 L  MINDN_G07_6
 G  PMIN_G07_7
 L  PMAX_G07_7
 E  LOGIC_G07_7
 L  RUP_G07_7
 L  RDN_G07_7
 L  MINUP_G07_7
 L  MINDN_G07_7
 G  PMIN_G07_8
 L  PMAX_G07_8
 E  LOGIC_G07_8
 L  RUP_G07_8
 L  RDN_G07_8
 L  MINUP_G07_8
 L  MINDN_G07_8
 G  PMIN_G07_9
 L  PMAX_G07_9
 E  LOGIC_G07_9
 L  RUP_G07_9
 L  RDN_G07_9
 L  MINUP_G07_9
 L  MINDN_G07_9
 G  PMIN_G07_10
 L  PMAX_G07_10
 E  LOGIC_G07_10
 L  RUP_G07_10
 L  RDN_G07_10
 L  MINUP_G07_10
 L  MINDN_G07_10
 G  PMIN_G07_11
 L  PMAX_G07_11
 E  LOGIC_G07_11
 L  RUP_G07_11
 L  RDN_G07_11
 L  MINUP_G07_11
 L  MINDN_G07_11
 G  PMIN_G07_12
 L  PMAX_G07_12
 E  LOGIC_G07_12
 L  RUP_G07_12
 L  RDN_G07_12
 L  MINUP_G07_12
 L  MINDN_G07_12
 G  PMIN_G07_13
 L  PMAX_G07_13
 E  LOGIC_G07_13
 L  RUP_G07_13
 L  RDN_G07_13
 L  MINUP_G07_13
 L  MINDN_G07_13
 G  PMIN_G07_14
 L  PMAX_G07_14
 E  LOGIC_G07_14
 L  RUP_G07_14
 L  RDN_G07_14
 L  MINUP_G07_14
 L  MINDN_G07_14
 G  PMIN_G07_15
 L  PMAX_G07_15
 E  LOGIC_G07_15
 L  RUP_G07_15
 L  RDN_G07_15
 L  MINUP_G07_15
 L  MINDN_G07_15
 G  PMIN_G07_16
 L  PMAX_G07_16
 E  LOGIC_G07_16
 L  RUP_G07_16
 L  RDN_G07_16
 L  MINUP_G07_16
 L  MINDN_G07_16
 G  PMIN_G07_17
 L  PMAX_G07_17
 E  LOGIC_G07_17
 L  RUP_G07_17
 L  RDN_G07_17
 L  MINUP_G07_17
 L  MINDN_G07_17
 G  PMIN_G07_18
 L  PMAX_G07_18
 E  LOGIC_G07_18
 L  RUP_G07_18
 L  RDN_G07_18
 L  MINUP_G07_18
 L  MINDN_G07_18
 G  PMIN_G07_19
 L  PMAX_G07_19
 E  LOGIC_G07_19
 L  RUP_G07_19
 L  RDN_G07_19
 L  MINUP_G07_19
 L  MINDN_G07_19
 G  PMIN_G07_20
 L  PMAX_G07_20
 E  LOGIC_G07_20
 L  RUP_G07_20
 L  RDN_G07_20
 L  MINUP_G07_20
 L  MINDN_G07_20
 G  PMIN_G07_21
 L  PMAX_G07_21
 E  LOGIC_G07_21
 L  RUP_G07_21
 L  RDN_G07_21
 L  MINUP_G07_21
 L  MINDN_G07_21
 G  PMIN_G07_22
 L  PMAX_G07_22
 E  LOGIC_G07_22
 L  RUP_G07_22
 L  RDN_G07_22
 L  MINUP_G07_22
 L  MINDN_G07_22
 G  PMIN_G07_23
 L  PMAX_G07_23
 E  LOGIC_G07_23
 L  RUP_G07_23
 L  RDN_G07_23
 L  MINUP_G07_23
 L  MINDN_G07_23
 G  PMIN_G08_0
 L  PMAX_G08_0
 E  LOGIC_G08_0
 L  MINUP_G08_0
 L  MINDN_G08_0
 G  PMIN_G08_1
 L  PMAX_G08_1
 E  LOGIC_G08_1
 L  RUP_G08_1
 L  RDN_G08_1
 L  MINUP_G08_1
 L  MINDN_G08_1
 G  PMIN_G08_2
 L  PMAX_G08_2
 E  LOGIC_G08_2
 L  RUP_G08_2
 L  RDN_G08_2
 L  MINUP_G08_2
 L  MINDN_G08_2
 G  PMIN_G08_3
 L  PMAX_G08_3
 E  LOGIC_G08_3
 L  RUP_G08_3
 L  RDN_G08_3
 L  MINUP_G08_3
 L  MINDN_G08_3
 G  PMIN_G08_4
 L  PMAX_G08_4
 E  LOGIC_G08_4
 L  RUP_G08_4
 L  RDN_G08_4
 L  MINUP_G08_4
 L  MINDN_G08_4
 G  PMIN_G08_5
 L  PMAX_G08_5
 E  LOGIC_G08_5
 L  RUP_G08_5
 L  RDN_G08_5
 L  MINUP_G08_5
 L  MINDN_G08_5
 G  PMIN_G08_6
 L  PMAX_G08_6
 E  LOGIC_G08_6
 L  RUP_G08_6
 L  RDN_G08_6
 L  MINUP_G08_6
 L  MINDN_G08_6
 G  PMIN_G08_7
 L  PMAX_G08_7
 E  LOGIC_G08_7
 L  RUP_G08_7
 L  RDN_G08_7
 L  MINUP_G08_7
 L  MINDN_G08_7
 G  PMIN_G08_8
 L  PMAX_G08_8
 E  LOGIC_G08_8
 L  RUP_G08_8
 L  RDN_G08_8
 L  MINUP_G08_8
 L  MINDN_G08_8
 G  PMIN_G08_9
 L  PMAX_G08_9
 E  LOGIC_G08_9
 L  RUP_G08_9
 L  RDN_G08_9
 L  MINUP_G08_9
 L  MINDN_G08_9
 G  PMIN_G08_10
 L  PMAX_G08_10
 E  LOGIC_G08_10
 L  RUP_G08_10
 L  RDN_G08_10
 L  MINUP_G08_10
 L  MINDN_G08_10
 G  PMIN_G08_11
 L  PMAX_G08_11
 E  LOGIC_G08_11
 L  RUP_G08_11
 L  RDN_G08_11
 L  MINUP_G08_11
 L  MINDN_G08_11
 G  PMIN_G08_12
 L  PMAX_G08_12
 E  LOGIC_G08_12
 L  RUP_G08_12
 L  RDN_G08_12
 L  MINUP_G08_12
 L  MINDN_G08_12
 G  PMIN_G08_13
 L  PMAX_G08_13
 E  LOGIC_G08_13
 L  RUP_G08_13
 L  RDN_G08_13
 L  MINUP_G08_13
 L  MINDN_G08_13
 G  PMIN_G08_14
 L  PMAX_G08_14
 E  LOGIC_G08_14
 L  RUP_G08_14
 L  RDN_G08_14
 L  MINUP_G08_14
 L  MINDN_G08_14
 G  PMIN_G08_15
 L  PMAX_G08_15
 E  LOGIC_G08_15
 L  RUP_G08_15
 L  RDN_G08_15
 L  MINUP_G08_15
 L  MINDN_G08_15
 G  PMIN_G08_16
 L  PMAX_G08_16
 E  LOGIC_G08_16
 L  RUP_G08_16
 L  RDN_G08_16
 L  MINUP_G08_16
 L  MINDN_G08_16
 G  PMIN_G08_17
 L  PMAX_G08_17
 E  LOGIC_G08_17
 L  RUP_G08_17
 L  RDN_G08_17
 L  MINUP_G08_17
 L  MINDN_G08_17
 G  PMIN_G08_18
 L  PMAX_G08_18
 E  LOGIC_G08_18
 L  RUP_G08_18
 L  RDN_G08_18
 L  MINUP_G08_18
 L  MINDN_G08_18
 G  PMIN_G08_19
 L  PMAX_G08_19
 E  LOGIC_G08_19
 L  RUP_G08_19
 L  RDN_G08_19
 L  MINUP_G08_19
 L  MINDN_G08_19
 G  PMIN_G08_20
 L  PMAX_G08_20
 E  LOGIC_G08_20
 L  RUP_G08_20
 L  RDN_G08_20
 L  MINUP_G08_20
 L  MINDN_G08_20
 G  PMIN_G08_21
 L  PMAX_G08_21
 E  LOGIC_G08_21
 L  RUP_G08_21
 L  RDN_G08_21
 L  MINUP_G08_21
 L  MINDN_G08_21
 G  PMIN_G08_22
 L  PMAX_G08_22
 E  LOGIC_G08_22
 L  RUP_G08_22
 L  RDN_G08_22
 L  MINUP_G08_22
 L  MINDN_G08_22
 G  PMIN_G08_23
 L  PMAX_G08_23
 E  LOGIC_G08_23
 L  RUP_G08_23
 L  RDN_G08_23
 L  MINUP_G08_23
 L  MINDN_G08_23
 G  PMIN_G09_0
 L  PMAX_G09_0
 E  LOGIC_G09_0
 L  MINUP_G09_0
 L  MINDN_G09_0
 G  PMIN_G09_1
 L  PMAX_G09_1
 E  LOGIC_G09_1
 L  RUP_G09_1
 L  RDN_G09_1
 L  MINUP_G09_1
 L  MINDN_G09_1
 G  PMIN_G09_2
 L  PMAX_G09_2
 E  LOGIC_G09_2
 L  RUP_G09_2
 L  RDN_G09_2
 L  MINUP_G09_2
 L  MINDN_G09_2
 G  PMIN_G09_3
 L  PMAX_G09_3
 E  LOGIC_G09_3
 L  RUP_G09_3
 L  RDN_G09_3
 L  MINUP_G09_3
 L  MINDN_G09_3
 G  PMIN_G09_4
 L  PMAX_G09_4
 E  LOGIC_G09_4
 L  RUP_G09_4
 L  RDN_G09_4
 L  MINUP_G09_4
 L  MINDN_G09_4
 G  PMIN_G09_5
 L  PMAX_G09_5
 E  LOGIC_G09_5
 L  RUP_G09_5
 L  RDN_G09_5
 L  MINUP_G09_5
 L  MINDN_G09_5
 G  PMIN_G09_6
 L  PMAX_G09_6
 E  LOGIC_G09_6
 L  RUP_G09_6
 L  RDN_G09_6
 L  MINUP_G09_6
 L  MINDN_G09_6
 G  PMIN_G09_7
 L  PMAX_G09_7
 E  LOGIC_G09_7
 L  RUP_G09_7
 L  RDN_G09_7
 L  MINUP_G09_7
 L  MINDN_G09_7
 G  PMIN_G09_8
 L  PMAX_G09_8
 E  LOGIC_G09_8
 L  RUP_G09_8
 L  RDN_G09_8
 L  MINUP_G09_8
 L  MINDN_G09_8
 G  PMIN_G09_9
 L  PMAX_G09_9
 E  LOGIC_G09_9
 L  RUP_G09_9
 L  RDN_G09_9
 L  MINUP_G09_9
 L  MINDN_G09_9
 G  PMIN_G09_10
 L  PMAX_G09_10
 E  LOGIC_G09_10
 L  RUP_G09_10
 L  RDN_G09_10
 L  MINUP_G09_10
 L  MINDN_G09_10
 G  PMIN_G09_11
 L  PMAX_G09_11
 E  LOGIC_G09_11
 L  RUP_G09_11
 L  RDN_G09_11
 L  MINUP_G09_11
 L  MINDN_G09_11
 G  PMIN_G09_12
 L  PMAX_G09_12
 E  LOGIC_G09_12
 L  RUP_G09_12
 L  RDN_G09_12
 L  MINUP_G09_12
 L  MINDN_G09_12
 G  PMIN_G09_13
 L  PMAX_G09_13
 E  LOGIC_G09_13
 L  RUP_G09_13
 L  RDN_G09_13
 L  MINUP_G09_13
 L  MINDN_G09_13
 G  PMIN_G09_14
 L  PMAX_G09_14
 E  LOGIC_G09_14
 L  RUP_G09_14
 L  RDN_G09_14
 L  MINUP_G09_14
 L  MINDN_G09_14
 G  PMIN_G09_15
 L  PMAX_G09_15
 E  LOGIC_G09_15
 L  RUP_G09_15
 L  RDN_G09_15
 L  MINUP_G09_15
 L  MINDN_G09_15
 G  PMIN_G09_16
 L  PMAX_G09_16
 E  LOGIC_G09_16
 L  RUP_G09_16
 L  RDN_G09_16
 L  MINUP_G09_16
 L  MINDN_G09_16
 G  PMIN_G09_17
 L  PMAX_G09_17
 E  LOGIC_G09_17
 L  RUP_G09_17
 L  RDN_G09_17
 L  MINUP_G09_17
 L  MINDN_G09_17
 G  PMIN_G09_18
 L  PMAX_G09_18
 E  LOGIC_G09_18
 L  RUP_G09_18
 L  RDN_G09_18
 L  MINUP_G09_18
 L  MINDN_G09_18
 G  PMIN_G09_19
 L  PMAX_G09_19
 E  LOGIC_G09_19
 L  RUP_G09_19
 L  RDN_G09_19
 L  MINUP_G09_19
 L  MINDN_G09_19
 G  PMIN_G09_20
 L  PMAX_G09_20
 E  LOGIC_G09_20
 L  RUP_G09_20
 L  RDN_G09_20
 L  MINUP_G09_20
 L  MINDN_G09_20
 G  PMIN_G09_21
 L  PMAX_G09_21
 E  LOGIC_G09_21
 L  RUP_G09_21
 L  RDN_G09_21
 L  MINUP_G09_21
 L  MINDN_G09_21
 G  PMIN_G09_22
 L  PMAX_G09_22
 E  LOGIC_G09_22
 L  RUP_G09_22
 L  RDN_G09_22
 L  MINUP_G09_22
 L  MINDN_G09_22
 G  PMIN_G09_23
 L  PMAX_G09_23
 E  LOGIC_G09_23
 L  RUP_G09_23
 L  RDN_G09_23
 L  MINUP_G09_23
 L  MINDN_G09_23
 G  PMIN_G10_0
 L  PMAX_G10_0
 E  LOGIC_G10_0
 L  MINUP_G10_0
 L  MINDN_G10_0
 G  PMIN_G10_1
 L  PMAX_G10_1
 E  LOGIC_G10_1
 L  RUP_G10_1
 L  RDN_G10_1
 L  MINUP_G10_1
 L  MINDN_G10_1
 G  PMIN_G10_2
 L  PMAX_G10_2
 E  LOGIC_G10_2
 L  RUP_G10_2
 L  RDN_G10_2
 L  MINUP_G10_2
 L  MINDN_G10_2
 G  PMIN_G10_3
 L  PMAX_G10_3
 E  LOGIC_G10_3
 L  RUP_G10_3
 L  RDN_G10_3
 L  MINUP_G10_3
 L  MINDN_G10_3
 G  PMIN_G10_4
 L  PMAX_G10_4
 E  LOGIC_G10_4
 L  RUP_G10_4
 L  RDN_G10_4
 L  MINUP_G10_4
 L  MINDN_G10_4
 G  PMIN_G10_5
 L  PMAX_G10_5
 E  LOGIC_G10_5
 L  RUP_G10_5
 L  RDN_G10_5
 L  MINUP_G10_5
 L  MINDN_G10_5
 G  PMIN_G10_6
 L  PMAX_G10_6
 E  LOGIC_G10_6
 L  RUP_G10_6
 L  RDN_G10_6
 L  MINUP_G10_6
 L  MINDN_G10_6
 G  PMIN_G10_7
 L  PMAX_G10_7
 E  LOGIC_G10_7
 L  RUP_G10_7
 L  RDN_G10_7
 L  MINUP_G10_7
 L  MINDN_G10_7
 G  PMIN_G10_8
 L  PMAX_G10_8
 E  LOGIC_G10_8
 L  RUP_G10_8
 L  RDN_G10_8
 L  MINUP_G10_8
 L  MINDN_G10_8
 G  PMIN_G10_9
 L  PMAX_G10_9
 E  LOGIC_G10_9
 L  RUP_G10_9
 L  RDN_G10_9
 L  MINUP_G10_9
 L  MINDN_G10_9
 G  PMIN_G10_10
 L  PMAX_G10_10
 E  LOGIC_G10_10
 L  RUP_G10_10
 L  RDN_G10_10
 L  MINUP_G10_10
 L  MINDN_G10_10
 G  PMIN_G10_11
 L  PMAX_G10_11
 E  LOGIC_G10_11
 L  RUP_G10_11
 L  RDN_G10_11
 L  MINUP_G10_11
 L  MINDN_G10_11
 G  PMIN_G10_12
 L  PMAX_G10_12
 E  LOGIC_G10_12
 L  RUP_G10_12
 L  RDN_G10_12
 L  MINUP_G10_12
 L  MINDN_G10_12
 G  PMIN_G10_13
 L  PMAX_G10_13
 E  LOGIC_G10_13
 L  RUP_G10_13
 L  RDN_G10_13
 L  MINUP_G10_13
 L  MINDN_G10_13
 G  PMIN_G10_14
 L  PMAX_G10_14
 E  LOGIC_G10_14
 L  RUP_G10_14
 L  RDN_G10_14
 L  MINUP_G10_14
 L  MINDN_G10_14
 G  PMIN_G10_15
 L  PMAX_G10_15
 E  LOGIC_G10_15
 L  RUP_G10_15
 L  RDN_G10_15
 L  MINUP_G10_15
 L  MINDN_G10_15
 G  PMIN_G10_16
 L  PMAX_G10_16
 E  LOGIC_G10_16
 L  RUP_G10_16
 L  RDN_G10_16
 L  MINUP_G10_16
 L  MINDN_G10_16
 G  PMIN_G10_17
 L  PMAX_G10_17
 E  LOGIC_G10_17
 L  RUP_G10_17
 L  RDN_G10_17
 L  MINUP_G10_17
 L  MINDN_G10_17
 G  PMIN_G10_18
 L  PMAX_G10_18
 E  LOGIC_G10_18
 L  RUP_G10_18
 L  RDN_G10_18
 L  MINUP_G10_18
 L  MINDN_G10_18
 G  PMIN_G10_19
 L  PMAX_G10_19
 E  LOGIC_G10_19
 L  RUP_G10_19
 L  RDN_G10_19
 L  MINUP_G10_19
 L  MINDN_G10_19
 G  PMIN_G10_20
 L  PMAX_G10_20
 E  LOGIC_G10_20
 L  RUP_G10_20
 L  RDN_G10_20
 L  MINUP_G10_20
 L  MINDN_G10_20
 G  PMIN_G10_21
 L  PMAX_G10_21
 E  LOGIC_G10_21
 L  RUP_G10_21
 L  RDN_G10_21
 L  MINUP_G10_21
 L  MINDN_G10_21
 G  PMIN_G10_22
 L  PMAX_G10_22
 E  LOGIC_G10_22
 L  RUP_G10_22
 L  RDN_G10_22
 L  MINUP_G10_22
 L  MINDN_G10_22
 G  PMIN_G10_23
 L  PMAX_G10_23
 E  LOGIC_G10_23
 L  RUP_G10_23
 L  RDN_G10_23
 L  MINUP_G10_23
 L  MINDN_G10_23
 G  PMIN_G11_0
 L  PMAX_G11_0
 E  LOGIC_G11_0
 L  MINUP_G11_0
 L  MINDN_G11_0
 G  PMIN_G11_1
 L  PMAX_G11_1
 E  LOGIC_G11_1
 L  RUP_G11_1
 L  RDN_G11_1
 L  MINUP_G11_1
 L  MINDN_G11_1
 G  PMIN_G11_2
 L  PMAX_G11_2
 E  LOGIC_G11_2
 L  RUP_G11_2
 L  RDN_G11_2
 L  MINUP_G11_2
 L  MINDN_G11_2
 G  PMIN_G11_3
 L  PMAX_G11_3
 E  LOGIC_G11_3
 L  RUP_G11_3
 L  RDN_G11_3
 L  MINUP_G11_3
 L  MINDN_G11_3
 G  PMIN_G11_4
 L  PMAX_G11_4
 E  LOGIC_G11_4
 L  RUP_G11_4
 L  RDN_G11_4
 L  MINUP_G11_4
 L  MINDN_G11_4
 G  PMIN_G11_5
 L  PMAX_G11_5
 E  LOGIC_G11_5
 L  RUP_G11_5
 L  RDN_G11_5
 L  MINUP_G11_5
 L  MINDN_G11_5
 G  PMIN_G11_6
 L  PMAX_G11_6
 E  LOGIC_G11_6
 L  RUP_G11_6
 L  RDN_G11_6
 L  MINUP_G11_6
 L  MINDN_G11_6
 G  PMIN_G11_7
 L  PMAX_G11_7
 E  LOGIC_G11_7
 L  RUP_G11_7
 L  RDN_G11_7
 L  MINUP_G11_7
 L  MINDN_G11_7
 G  PMIN_G11_8
 L  PMAX_G11_8
 E  LOGIC_G11_8
 L  RUP_G11_8
 L  RDN_G11_8
 L  MINUP_G11_8
 L  MINDN_G11_8
 G  PMIN_G11_9
 L  PMAX_G11_9
 E  LOGIC_G11_9
 L  RUP_G11_9
 L  RDN_G11_9
 L  MINUP_G11_9
 L  MINDN_G11_9
 G  PMIN_G11_10
 L  PMAX_G11_10
 E  LOGIC_G11_10
 L  RUP_G11_10
 L  RDN_G11_10
 L  MINUP_G11_10
 L  MINDN_G11_10
 G  PMIN_G11_11
 L  PMAX_G11_11
 E  LOGIC_G11_11
 L  RUP_G11_11
 L  RDN_G11_11
 L  MINUP_G11_11
 L  MINDN_G11_11
 G  PMIN_G11_12
 L  PMAX_G11_12
 E  LOGIC_G11_12
 L  RUP_G11_12
 L  RDN_G11_12
 L  MINUP_G11_12
 L  MINDN_G11_12
 G  PMIN_G11_13
 L  PMAX_G11_13
 E  LOGIC_G11_13
 L  RUP_G11_13
 L  RDN_G11_13
 L  MINUP_G11_13
 L  MINDN_G11_13
 G  PMIN_G11_14
 L  PMAX_G11_14
 E  LOGIC_G11_14
 L  RUP_G11_14
 L  RDN_G11_14
 L  MINUP_G11_14
 L  MINDN_G11_14
 G  PMIN_G11_15
 L  PMAX_G11_15
 E  LOGIC_G11_15
 L  RUP_G11_15
 L  RDN_G11_15
 L  MINUP_G11_15
 L  MINDN_G11_15
 G  PMIN_G11_16
 L  PMAX_G11_16
 E  LOGIC_G11_16
 L  RUP_G11_16
 L  RDN_G11_16
 L  MINUP_G11_16
 L  MINDN_G11_16
 G  PMIN_G11_17
 L  PMAX_G11_17
 E  LOGIC_G11_17
 L  RUP_G11_17
 L  RDN_G11_17
 L  MINUP_G11_17
 L  MINDN_G11_17
 G  PMIN_G11_18
 L  PMAX_G11_18
 E  LOGIC_G11_18
 L  RUP_G11_18
 L  RDN_G11_18
 L  MINUP_G11_18
 L  MINDN_G11_18
 G  PMIN_G11_19
 L  PMAX_G11_19
 E  LOGIC_G11_19
 L  RUP_G11_19
 L  RDN_G11_19
 L  MINUP_G11_19
 L  MINDN_G11_19
 G  PMIN_G11_20
 L  PMAX_G11_20
 E  LOGIC_G11_20
 L  RUP_G11_20
 L  RDN_G11_20
 L  MINUP_G11_20
 L  MINDN_G11_20
 G  PMIN_G11_21
 L  PMAX_G11_21
 E  LOGIC_G11_21
 L  RUP_G11_21
 L  RDN_G11_21
 L  MINUP_G11_21
 L  MINDN_G11_21
 G  PMIN_G11_22
 L  PMAX_G11_22
 E  LOGIC_G11_22
 L  RUP_G11_22
 L  RDN_G11_22
 L  MINUP_G11_22
 L  MINDN_G11_22
 G  PMIN_G11_23
 L  PMAX_G11_23
 E  LOGIC_G11_23
 L  RUP_G11_23
 L  RDN_G11_23
 L  MINUP_G11_23
 L  MINDN_G11_23
 G  PMIN_G12_0
 L  PMAX_G12_0
 E  LOGIC_G12_0
 L  MINUP_G12_0
 L  MINDN_G12_0
 G  PMIN_G12_1
 L  PMAX_G12_1
 E  LOGIC_G12_1
 L  RUP_G12_1
 L  RDN_G12_1
 L  MINUP_G12_1
 L  MINDN_G12_1
 G  PMIN_G12_2
 L  PMAX_G12_2
 E  LOGIC_G12_2
 L  RUP_G12_2
 L  RDN_G12_2
 L  MINUP_G12_2
 L  MINDN_G12_2
 G  PMIN_G12_3
 L  PMAX_G12_3
 E  LOGIC_G12_3
 L  RUP_G12_3
 L  RDN_G12_3
 L  MINUP_G12_3
 L  MINDN_G12_3
 G  PMIN_G12_4
 L  PMAX_G12_4
 E  LOGIC_G12_4
 L  RUP_G12_4
 L  RDN_G12_4
 L  MINUP_G12_4
 L  MINDN_G12_4
 G  PMIN_G12_5
 L  PMAX_G12_5
 E  LOGIC_G12_5
 L  RUP_G12_5
 L  RDN_G12_5
 L  MINUP_G12_5
 L  MINDN_G12_5
 G  PMIN_G12_6
 L  PMAX_G12_6
 E  LOGIC_G12_6
 L  RUP_G12_6
 L  RDN_G12_6
 L  MINUP_G12_6
 L  MINDN_G12_6
 G  PMIN_G12_7
 L  PMAX_G12_7
 E  LOGIC_G12_7
 L  RUP_G12_7
 L  RDN_G12_7
 L  MINUP_G12_7
 L  MINDN_G12_7
 G  PMIN_G12_8
 L  PMAX_G12_8
 E  LOGIC_G12_8
 L  RUP_G12_8
 L  RDN_G12_8
 L  MINUP_G12_8
 L  MINDN_G12_8
 G  PMIN_G12_9
 L  PMAX_G12_9
 E  LOGIC_G12_9
 L  RUP_G12_9
 L  RDN_G12_9
 L  MINUP_G12_9
 L  MINDN_G12_9
 G  PMIN_G12_10
 L  PMAX_G12_10
 E  LOGIC_G12_10
 L  RUP_G12_10
 L  RDN_G12_10
 L  MINUP_G12_10
 L  MINDN_G12_10
 G  PMIN_G12_11
 L  PMAX_G12_11
 E  LOGIC_G12_11
 L  RUP_G12_11
 L  RDN_G12_11
 L  MINUP_G12_11
 L  MINDN_G12_11
 G  PMIN_G12_12
 L  PMAX_G12_12
 E  LOGIC_G12_12
 L  RUP_G12_12
 L  RDN_G12_12
 L  MINUP_G12_12
 L  MINDN_G12_12
 G  PMIN_G12_13
 L  PMAX_G12_13
 E  LOGIC_G12_13
 L  RUP_G12_13
 L  RDN_G12_13
 L  MINUP_G12_13
 L  MINDN_G12_13
 G  PMIN_G12_14
 L  PMAX_G12_14
 E  LOGIC_G12_14
 L  RUP_G12_14
 L  RDN_G12_14
 L  MINUP_G12_14
 L  MINDN_G12_14
 G  PMIN_G12_15
 L  PMAX_G12_15
 E  LOGIC_G12_15
 L  RUP_G12_15
 L  RDN_G12_15
 L  MINUP_G12_15
 L  MINDN_G12_15
 G  PMIN_G12_16
 L  PMAX_G12_16
 E  LOGIC_G12_16
 L  RUP_G12_16
 L  RDN_G12_16
 L  MINUP_G12_16
 L  MINDN_G12_16
 G  PMIN_G12_17
 L  PMAX_G12_17
 E  LOGIC_G12_17
 L  RUP_G12_17
 L  RDN_G12_17
 L  MINUP_G12_17
 L  MINDN_G12_17
 G  PMIN_G12_18
 L  PMAX_G12_18
 E  LOGIC_G12_18
 L  RUP_G12_18
 L  RDN_G12_18
 L  MINUP_G12_18
 L  MINDN_G12_18
 G  PMIN_G12_19
 L  PMAX_G12_19
 E  LOGIC_G12_19
 L  RUP_G12_19
 L  RDN_G12_19
 L  MINUP_G12_19
 L  MINDN_G12_19
 G  PMIN_G12_20
 L  PMAX_G12_20
 E  LOGIC_G12_20
 L  RUP_G12_20
 L  RDN_G12_20
 L  MINUP_G12_20
 L  MINDN_G12_20
 G  PMIN_G12_21
 L  PMAX_G12_21
 E  LOGIC_G12_21
 L  RUP_G12_21
 L  RDN_G12_21
 L  MINUP_G12_21
 L  MINDN_G12_21
 G  PMIN_G12_22
 L  PMAX_G12_22
 E  LOGIC_G12_22
 L  RUP_G12_22
 L  RDN_G12_22
 L  MINUP_G12_22
 L  MINDN_G12_22
 G  PMIN_G12_23
 L  PMAX_G12_23
 E  LOGIC_G12_23
 L  RUP_G12_23
 L  RDN_G12_23
 L  MINUP_G12_23
 L  MINDN_G12_23
 G  PMIN_G13_0
 L  PMAX_G13_0
 E  LOGIC_G13_0
 L  MINUP_G13_0
 L  MINDN_G13_0
 G  PMIN_G13_1
 L  PMAX_G13_1
 E  LOGIC_G13_1
 L  RUP_G13_1
 L  RDN_G13_1
 L  MINUP_G13_1
 L  MINDN_G13_1
 G  PMIN_G13_2
 L  PMAX_G13_2
 E  LOGIC_G13_2
 L  RUP_G13_2
 L  RDN_G13_2
 L  MINUP_G13_2
 L  MINDN_G13_2
 G  PMIN_G13_3
 L  PMAX_G13_3
 E  LOGIC_G13_3
 L  RUP_G13_3
 L  RDN_G13_3
 L  MINUP_G13_3
 L  MINDN_G13_3
 G  PMIN_G13_4
 L  PMAX_G13_4
 E  LOGIC_G13_4
 L  RUP_G13_4
 L  RDN_G13_4
 L  MINUP_G13_4
 L  MINDN_G13_4
 G  PMIN_G13_5
 L  PMAX_G13_5
 E  LOGIC_G13_5
 L  RUP_G13_5
 L  RDN_G13_5
 L  MINUP_G13_5
 L  MINDN_G13_5
 G  PMIN_G13_6
 L  PMAX_G13_6
 E  LOGIC_G13_6
 L  RUP_G13_6
 L  RDN_G13_6
 L  MINUP_G13_6
 L  MINDN_G13_6
 G  PMIN_G13_7
 L  PMAX_G13_7
 E  LOGIC_G13_7
 L  RUP_G13_7
 L  RDN_G13_7
 L  MINUP_G13_7
 L  MINDN_G13_7
 G  PMIN_G13_8
 L  PMAX_G13_8
 E  LOGIC_G13_8
 L  RUP_G13_8
 L  RDN_G13_8
 L  MINUP_G13_8
 L  MINDN_G13_8
 G  PMIN_G13_9
 L  PMAX_G13_9
 E  LOGIC_G13_9
 L  RUP_G13_9
 L  RDN_G13_9
 L  MINUP_G13_9
 L  MINDN_G13_9
 G  PMIN_G13_10
 L  PMAX_G13_10
 E  LOGIC_G13_10
 L  RUP_G13_10
 L  RDN_G13_10
 L  MINUP_G13_10
 L  MINDN_G13_10
 G  PMIN_G13_11
 L  PMAX_G13_11
 E  LOGIC_G13_11
 L  RUP_G13_11
 L  RDN_G13_11
 L  MINUP_G13_11
 L  MINDN_G13_11
 G  PMIN_G13_12
 L  PMAX_G13_12
 E  LOGIC_G13_12
 L  RUP_G13_12
 L  RDN_G13_12
 L  MINUP_G13_12
 L  MINDN_G13_12
 G  PMIN_G13_13
 L  PMAX_G13_13
 E  LOGIC_G13_13
 L  RUP_G13_13
 L  RDN_G13_13
 L  MINUP_G13_13
 L  MINDN_G13_13
 G  PMIN_G13_14
 L  PMAX_G13_14
 E  LOGIC_G13_14
 L  RUP_G13_14
 L  RDN_G13_14
 L  MINUP_G13_14
 L  MINDN_G13_14
 G  PMIN_G13_15
 L  PMAX_G13_15
 E  LOGIC_G13_15
 L  RUP_G13_15
 L  RDN_G13_15
 L  MINUP_G13_15
 L  MINDN_G13_15
 G  PMIN_G13_16
 L  PMAX_G13_16
 E  LOGIC_G13_16
 L  RUP_G13_16
 L  RDN_G13_16
 L  MINUP_G13_16
 L  MINDN_G13_16
 G  PMIN_G13_17
 L  PMAX_G13_17
 E  LOGIC_G13_17
 L  RUP_G13_17
 L  RDN_G13_17
 L  MINUP_G13_17
 L  MINDN_G13_17
 G  PMIN_G13_18
 L  PMAX_G13_18
 E  LOGIC_G13_18
 L  RUP_G13_18
 L  RDN_G13_18
 L  MINUP_G13_18
 L  MINDN_G13_18
 G  PMIN_G13_19
 L  PMAX_G13_19
 E  LOGIC_G13_19
 L  RUP_G13_19
 L  RDN_G13_19
 L  MINUP_G13_19
 L  MINDN_G13_19
 G  PMIN_G13_20
 L  PMAX_G13_20
 E  LOGIC_G13_20
 L  RUP_G13_20
 L  RDN_G13_20
 L  MINUP_G13_20
 L  MINDN_G13_20
 G  PMIN_G13_21
 L  PMAX_G13_21
 E  LOGIC_G13_21
 L  RUP_G13_21
 L  RDN_G13_21
 L  MINUP_G13_21
 L  MINDN_G13_21
 G  PMIN_G13_22
 L  PMAX_G13_22
 E  LOGIC_G13_22
 L  RUP_G13_22
 L  RDN_G13_22
 L  MINUP_G13_22
 L  MINDN_G13_22
 G  PMIN_G13_23
 L  PMAX_G13_23
 E  LOGIC_G13_23
 L  RUP_G13_23
 L  RDN_G13_23
 L  MINUP_G13_23
 L  MINDN_G13_23
 G  PMIN_G14_0
 L  PMAX_G14_0
 E  LOGIC_G14_0
 L  MINUP_G14_0
 L  MINDN_G14_0
 G  PMIN_G14_1
 L  PMAX_G14_1
 E  LOGIC_G14_1
 L  RUP_G14_1
 L  RDN_G14_1
 L  MINUP_G14_1
 L  MINDN_G14_1
 G  PMIN_G14_2
 L  PMAX_G14_2
 E  LOGIC_G14_2
 L  RUP_G14_2
 L  RDN_G14_2
 L  MINUP_G14_2
 L  MINDN_G14_2
 G  PMIN_G14_3
 L  PMAX_G14_3
 E  LOGIC_G14_3
 L  RUP_G14_3
 L  RDN_G14_3
 L  MINUP_G14_3
 L  MINDN_G14_3
 G  PMIN_G14_4
 L  PMAX_G14_4
 E  LOGIC_G14_4
 L  RUP_G14_4
 L  RDN_G14_4
 L  MINUP_G14_4
 L  MINDN_G14_4
 G  PMIN_G14_5
 L  PMAX_G14_5
 E  LOGIC_G14_5
 L  RUP_G14_5
 L  RDN_G14_5
 L  MINUP_G14_5
 L  MINDN_G14_5
 G  PMIN_G14_6
 L  PMAX_G14_6
 E  LOGIC_G14_6
 L  RUP_G14_6
 L  RDN_G14_6
 L  MINUP_G14_6
 L  MINDN_G14_6
 G  PMIN_G14_7
 L  PMAX_G14_7
 E  LOGIC_G14_7
 L  RUP_G14_7
 L  RDN_G14_7
 L  MINUP_G14_7
 L  MINDN_G14_7
 G  PMIN_G14_8
 L  PMAX_G14_8
 E  LOGIC_G14_8
 L  RUP_G14_8
 L  RDN_G14_8
 L  MINUP_G14_8
 L  MINDN_G14_8
 G  PMIN_G14_9
 L  PMAX_G14_9
 E  LOGIC_G14_9
 L  RUP_G14_9
 L  RDN_G14_9
 L  MINUP_G14_9
 L  MINDN_G14_9
 G  PMIN_G14_10
 L  PMAX_G14_10
 E  LOGIC_G14_10
 L  RUP_G14_10
 L  RDN_G14_10
 L  MINUP_G14_10
 L  MINDN_G14_10
 G  PMIN_G14_11
 L  PMAX_G14_11
 E  LOGIC_G14_11
 L  RUP_G14_11
 L  RDN_G14_11
 L  MINUP_G14_11
 L  MINDN_G14_11
 G  PMIN_G14_12
 L  PMAX_G14_12
 E  LOGIC_G14_12
 L  RUP_G14_12
 L  RDN_G14_12
 L  MINUP_G14_12
 L  MINDN_G14_12
 G  PMIN_G14_13
 L  PMAX_G14_13
 E  LOGIC_G14_13
 L  RUP_G14_13
 L  RDN_G14_13
 L  MINUP_G14_13
 L  MINDN_G14_13
 G  PMIN_G14_14
 L  PMAX_G14_14
 E  LOGIC_G14_14
 L  RUP_G14_14
 L  RDN_G14_14
 L  MINUP_G14_14
 L  MINDN_G14_14
 G  PMIN_G14_15
 L  PMAX_G14_15
 E  LOGIC_G14_15
 L  RUP_G14_15
 L  RDN_G14_15
 L  MINUP_G14_15
 L  MINDN_G14_15
 G  PMIN_G14_16
 L  PMAX_G14_16
 E  LOGIC_G14_16
 L  RUP_G14_16
 L  RDN_G14_16
 L  MINUP_G14_16
 L  MINDN_G14_16
 G  PMIN_G14_17
 L  PMAX_G14_17
 E  LOGIC_G14_17
 L  RUP_G14_17
 L  RDN_G14_17
 L  MINUP_G14_17
 L  MINDN_G14_17
 G  PMIN_G14_18
 L  PMAX_G14_18
 E  LOGIC_G14_18
 L  RUP_G14_18
 L  RDN_G14_18
 L  MINUP_G14_18
 L  MINDN_G14_18
 G  PMIN_G14_19
 L  PMAX_G14_19
 E  LOGIC_G14_19
 L  RUP_G14_19
 L  RDN_G14_19
 L  MINUP_G14_19
 L  MINDN_G14_19
 G  PMIN_G14_20
 L  PMAX_G14_20
 E  LOGIC_G14_20
 L  RUP_G14_20
 L  RDN_G14_20
 L  MINUP_G14_20
 L  MINDN_G14_20
 G  PMIN_G14_21
 L  PMAX_G14_21
 E  LOGIC_G14_21
 L  RUP_G14_21
 L  RDN_G14_21
 L  MINUP_G14_21
 L  MINDN_G14_21
 G  PMIN_G14_22
 L  PMAX_G14_22
 E  LOGIC_G14_22
 L  RUP_G14_22
 L  RDN_G14_22
 L  MINUP_G14_22
 L  MINDN_G14_22
 G  PMIN_G14_23
 L  PMAX_G14_23
 E  LOGIC_G14_23
 L  RUP_G14_23
 L  RDN_G14_23
 L  MINUP_G14_23
 L  MINDN_G14_23
 G  PMIN_G15_0
 L  PMAX_G15_0
 E  LOGIC_G15_0
 L  MINUP_G15_0
 L  MINDN_G15_0
 G  PMIN_G15_1
 L  PMAX_G15_1
 E  LOGIC_G15_1
 L  RUP_G15_1
 L  RDN_G15_1
 L  MINUP_G15_1
 L  MINDN_G15_1
 G  PMIN_G15_2
 L  PMAX_G15_2
 E  LOGIC_G15_2
 L  RUP_G15_2
 L  RDN_G15_2
 L  MINUP_G15_2
 L  MINDN_G15_2
 G  PMIN_G15_3
 L  PMAX_G15_3
 E  LOGIC_G15_3
 L  RUP_G15_3
 L  RDN_G15_3
 L  MINUP_G15_3
 L  MINDN_G15_3
 G  PMIN_G15_4
 L  PMAX_G15_4
 E  LOGIC_G15_4
 L  RUP_G15_4
 L  RDN_G15_4
 L  MINUP_G15_4
 L  MINDN_G15_4
 G  PMIN_G15_5
 L  PMAX_G15_5
 E  LOGIC_G15_5
 L  RUP_G15_5
 L  RDN_G15_5
 L  MINUP_G15_5
 L  MINDN_G15_5
 G  PMIN_G15_6
 L  PMAX_G15_6
 E  LOGIC_G15_6
 L  RUP_G15_6
 L  RDN_G15_6
 L  MINUP_G15_6
 L  MINDN_G15_6
 G  PMIN_G15_7
 L  PMAX_G15_7
 E  LOGIC_G15_7
 L  RUP_G15_7
 L  RDN_G15_7
 L  MINUP_G15_7
 L  MINDN_G15_7
 G  PMIN_G15_8
 L  PMAX_G15_8
 E  LOGIC_G15_8
 L  RUP_G15_8
 L  RDN_G15_8
 L  MINUP_G15_8
 L  MINDN_G15_8
 G  PMIN_G15_9
 L  PMAX_G15_9
 E  LOGIC_G15_9
 L  RUP_G15_9
 L  RDN_G15_9
 L  MINUP_G15_9
 L  MINDN_G15_9
 G  PMIN_G15_10
 L  PMAX_G15_10
 E  LOGIC_G15_10
 L  RUP_G15_10
 L  RDN_G15_10
 L  MINUP_G15_10
 L  MINDN_G15_10
 G  PMIN_G15_11
 L  PMAX_G15_11
 E  LOGIC_G15_11
 L  RUP_G15_11
 L  RDN_G15_11
 L  MINUP_G15_11
 L  MINDN_G15_11
 G  PMIN_G15_12
 L  PMAX_G15_12
 E  LOGIC_G15_12
 L  RUP_G15_12
 L  RDN_G15_12
 L  MINUP_G15_12
 L  MINDN_G15_12
 G  PMIN_G15_13
 L  PMAX_G15_13
 E  LOGIC_G15_13
 L  RUP_G15_13
 L  RDN_G15_13
 L  MINUP_G15_13
 L  MINDN_G15_13
 G  PMIN_G15_14
 L  PMAX_G15_14
 E  LOGIC_G15_14
 L  RUP_G15_14
 L  RDN_G15_14
 L  MINUP_G15_14
 L  MINDN_G15_14
 G  PMIN_G15_15
 L  PMAX_G15_15
 E  LOGIC_G15_15
 L  RUP_G15_15
 L  RDN_G15_15
 L  MINUP_G15_15
 L  MINDN_G15_15
 G  PMIN_G15_16
 L  PMAX_G15_16
 E  LOGIC_G15_16
 L  RUP_G15_16
 L  RDN_G15_16
 L  MINUP_G15_16
 L  MINDN_G15_16
 G  PMIN_G15_17
 L  PMAX_G15_17
 E  LOGIC_G15_17
 L  RUP_G15_17
 L  RDN_G15_17
 L  MINUP_G15_17
 L  MINDN_G15_17
 G  PMIN_G15_18
 L  PMAX_G15_18
 E  LOGIC_G15_18
 L  RUP_G15_18
 L  RDN_G15_18
 L  MINUP_G15_18
 L  MINDN_G15_18
 G  PMIN_G15_19
 L  PMAX_G15_19
 E  LOGIC_G15_19
 L  RUP_G15_19
 L  RDN_G15_19
 L  MINUP_G15_19
 L  MINDN_G15_19
 G  PMIN_G15_20
 L  PMAX_G15_20
 E  LOGIC_G15_20
 L  RUP_G15_20
 L  RDN_G15_20
 L  MINUP_G15_20
 L  MINDN_G15_20
 G  PMIN_G15_21
 L  PMAX_G15_21
 E  LOGIC_G15_21
 L  RUP_G15_21
 L  RDN_G15_21
 L  MINUP_G15_21
 L  MINDN_G15_21
 G  PMIN_G15_22
 L  PMAX_G15_22
 E  LOGIC_G15_22
 L  RUP_G15_22
 L  RDN_G15_22
 L  MINUP_G15_22
 L  MINDN_G15_22
 G  PMIN_G15_23
 L  PMAX_G15_23
 E  LOGIC_G15_23
 L  RUP_G15_23
 L  RDN_G15_23
 L  MINUP_G15_23
 L  MINDN_G15_23
 G  PMIN_G16_0
 L  PMAX_G16_0
 E  LOGIC_G16_0
 L  MINUP_G16_0
 L  MINDN_G16_0
 G  PMIN_G16_1
 L  PMAX_G16_1
 E  LOGIC_G16_1
 L  RUP_G16_1
 L  RDN_G16_1
 L  MINUP_G16_1
 L  MINDN_G16_1
 G  PMIN_G16_2
 L  PMAX_G16_2
 E  LOGIC_G16_2
 L  RUP_G16_2
 L  RDN_G16_2
 L  MINUP_G16_2
 L  MINDN_G16_2
 G  PMIN_G16_3
 L  PMAX_G16_3
 E  LOGIC_G16_3
 L  RUP_G16_3
 L  RDN_G16_3
 L  MINUP_G16_3
 L  MINDN_G16_3
 G  PMIN_G16_4
 L  PMAX_G16_4
 E  LOGIC_G16_4
 L  RUP_G16_4
 L  RDN_G16_4
 L  MINUP_G16_4
 L  MINDN_G16_4
 G  PMIN_G16_5
 L  PMAX_G16_5
 E  LOGIC_G16_5
 L  RUP_G16_5
 L  RDN_G16_5
 L  MINUP_G16_5
 L  MINDN_G16_5
 G  PMIN_G16_6
 L  PMAX_G16_6
 E  LOGIC_G16_6
 L  RUP_G16_6
 L  RDN_G16_6
 L  MINUP_G16_6
 L  MINDN_G16_6
 G  PMIN_G16_7
 L  PMAX_G16_7
 E  LOGIC_G16_7
 L  RUP_G16_7
 L  RDN_G16_7
 L  MINUP_G16_7
 L  MINDN_G16_7
 G  PMIN_G16_8
 L  PMAX_G16_8
 E  LOGIC_G16_8
 L  RUP_G16_8
 L  RDN_G16_8
 L  MINUP_G16_8
 L  MINDN_G16_8
 G  PMIN_G16_9
 L  PMAX_G16_9
 E  LOGIC_G16_9
 L  RUP_G16_9
 L  RDN_G16_9
 L  MINUP_G16_9
 L  MINDN_G16_9
 G  PMIN_G16_10
 L  PMAX_G16_10
 E  LOGIC_G16_10
 L  RUP_G16_10
 L  RDN_G16_10
 L  MINUP_G16_10
 L  MINDN_G16_10
 G  PMIN_G16_11
 L  PMAX_G16_11
 E  LOGIC_G16_11
 L  RUP_G16_11
 L  RDN_G16_11
 L  MINUP_G16_11
 L  MINDN_G16_11
 G  PMIN_G16_12
 L  PMAX_G16_12
 E  LOGIC_G16_12
 L  RUP_G16_12
 L  RDN_G16_12
 L  MINUP_G16_12
 L  MINDN_G16_12
 G  PMIN_G16_13
 L  PMAX_G16_13
 E  LOGIC_G16_13
 L  RUP_G16_13
 L  RDN_G16_13
 L  MINUP_G16_13
 L  MINDN_G16_13
 G  PMIN_G16_14
 L  PMAX_G16_14
 E  LOGIC_G16_14
 L  RUP_G16_14
 L  RDN_G16_14
 L  MINUP_G16_14
 L  MINDN_G16_14
 G  PMIN_G16_15
 L  PMAX_G16_15
 E  LOGIC_G16_15
 L  RUP_G16_15
 L  RDN_G16_15
 L  MINUP_G16_15
 L  MINDN_G16_15
 G  PMIN_G16_16
 L  PMAX_G16_16
 E  LOGIC_G16_16
 L  RUP_G16_16
 L  RDN_G16_16
 L  MINUP_G16_16
 L  MINDN_G16_16
 G  PMIN_G16_17
 L  PMAX_G16_17
 E  LOGIC_G16_17
 L  RUP_G16_17
 L  RDN_G16_17
 L  MINUP_G16_17
 L  MINDN_G16_17
 G  PMIN_G16_18
 L  PMAX_G16_18
 E  LOGIC_G16_18
 L  RUP_G16_18
 L  RDN_G16_18
 L  MINUP_G16_18
 L  MINDN_G16_18
 G  PMIN_G16_19
 L  PMAX_G16_19
 E  LOGIC_G16_19
 L  RUP_G16_19
 L  RDN_G16_19
 L  MINUP_G16_19
 L  MINDN_G16_19
 G  PMIN_G16_20
 L  PMAX_G16_20
 E  LOGIC_G16_20
 L  RUP_G16_20
 L  RDN_G16_20
 L  MINUP_G16_20
 L  MINDN_G16_20
 G  PMIN_G16_21
 L  PMAX_G16_21
 E  LOGIC_G16_21
 L  RUP_G16_21
 L  RDN_G16_21
 L  MINUP_G16_21
 L  MINDN_G16_21
 G  PMIN_G16_22
 L  PMAX_G16_22
 E  LOGIC_G16_22
 L  RUP_G16_22
 L  RDN_G16_22
 L  MINUP_G16_22
 L  MINDN_G16_22
 G  PMIN_G16_23
 L  PMAX_G16_23
 E  LOGIC_G16_23
 L  RUP_G16_23
 L  RDN_G16_23
 L  MINUP_G16_23
 L  MINDN_G16_23
 G  PMIN_G17_0
 L  PMAX_G17_0
 E  LOGIC_G17_0
 L  MINUP_G17_0
 L  MINDN_G17_0
 G  PMIN_G17_1
 L  PMAX_G17_1
 E  LOGIC_G17_1
 L  RUP_G17_1
 L  RDN_G17_1
 L  MINUP_G17_1
 L  MINDN_G17_1
 G  PMIN_G17_2
 L  PMAX_G17_2
 E  LOGIC_G17_2
 L  RUP_G17_2
 L  RDN_G17_2
 L  MINUP_G17_2
 L  MINDN_G17_2
 G  PMIN_G17_3
 L  PMAX_G17_3
 E  LOGIC_G17_3
 L  RUP_G17_3
 L  RDN_G17_3
 L  MINUP_G17_3
 L  MINDN_G17_3
 G  PMIN_G17_4
 L  PMAX_G17_4
 E  LOGIC_G17_4
 L  RUP_G17_4
 L  RDN_G17_4
 L  MINUP_G17_4
 L  MINDN_G17_4
 G  PMIN_G17_5
 L  PMAX_G17_5
 E  LOGIC_G17_5
 L  RUP_G17_5
 L  RDN_G17_5
 L  MINUP_G17_5
 L  MINDN_G17_5
 G  PMIN_G17_6
 L  PMAX_G17_6
 E  LOGIC_G17_6
 L  RUP_G17_6
 L  RDN_G17_6
 L  MINUP_G17_6
 L  MINDN_G17_6
 G  PMIN_G17_7
 L  PMAX_G17_7
 E  LOGIC_G17_7
 L  RUP_G17_7
 L  RDN_G17_7
 L  MINUP_G17_7
 L  MINDN_G17_7
 G  PMIN_G17_8
 L  PMAX_G17_8
 E  LOGIC_G17_8
 L  RUP_G17_8
 L  RDN_G17_8
 L  MINUP_G17_8
 L  MINDN_G17_8
 G  PMIN_G17_9
 L  PMAX_G17_9
 E  LOGIC_G17_9
 L  RUP_G17_9
 L  RDN_G17_9
 L  MINUP_G17_9
 L  MINDN_G17_9
 G  PMIN_G17_10
 L  PMAX_G17_10
 E  LOGIC_G17_10
 L  RUP_G17_10
 L  RDN_G17_10
 L  MINUP_G17_10
 L  MINDN_G17_10
 G  PMIN_G17_11
 L  PMAX_G17_11
 E  LOGIC_G17_11
 L  RUP_G17_11
 L  RDN_G17_11
 L  MINUP_G17_11
 L  MINDN_G17_11
 G  PMIN_G17_12
 L  PMAX_G17_12
 E  LOGIC_G17_12
 L  RUP_G17_12
 L  RDN_G17_12
 L  MINUP_G17_12
 L  MINDN_G17_12
 G  PMIN_G17_13
 L  PMAX_G17_13
 E  LOGIC_G17_13
 L  RUP_G17_13
 L  RDN_G17_13
 L  MINUP_G17_13
 L  MINDN_G17_13
 G  PMIN_G17_14
 L  PMAX_G17_14
 E  LOGIC_G17_14
 L  RUP_G17_14
 L  RDN_G17_14
 L  MINUP_G17_14
 L  MINDN_G17_14
 G  PMIN_G17_15
 L  PMAX_G17_15
 E  LOGIC_G17_15
 L  RUP_G17_15
 L  RDN_G17_15
 L  MINUP_G17_15
 L  MINDN_G17_15
 G  PMIN_G17_16
 L  PMAX_G17_16
 E  LOGIC_G17_16
 L  RUP_G17_16
 L  RDN_G17_16
 L  MINUP_G17_16
 L  MINDN_G17_16
 G  PMIN_G17_17
 L  PMAX_G17_17
 E  LOGIC_G17_17
 L  RUP_G17_17
 L  RDN_G17_17
 L  MINUP_G17_17
 L  MINDN_G17_17
 G  PMIN_G17_18
 L  PMAX_G17_18
 E  LOGIC_G17_18
 L  RUP_G17_18
 L  RDN_G17_18
 L  MINUP_G17_18
 L  MINDN_G17_18
 G  PMIN_G17_19
 L  PMAX_G17_19
 E  LOGIC_G17_19
 L  RUP_G17_19
 L  RDN_G17_19
 L  MINUP_G17_19
 L  MINDN_G17_19
 G  PMIN_G17_20
 L  PMAX_G17_20
 E  LOGIC_G17_20
 L  RUP_G17_20
 L  RDN_G17_20
 L  MINUP_G17_20
 L  MINDN_G17_20
 G  PMIN_G17_21
 L  PMAX_G17_21
 E  LOGIC_G17_21
 L  RUP_G17_21
 L  RDN_G17_21
 L  MINUP_G17_21
 L  MINDN_G17_21
 G  PMIN_G17_22
 L  PMAX_G17_22
 E  LOGIC_G17_22
 L  RUP_G17_22
 L  RDN_G17_22
 L  MINUP_G17_22
 L  MINDN_G17_22
 G  PMIN_G17_23
 L  PMAX_G17_23
 E  LOGIC_G17_23
 L  RUP_G17_23
 L  RDN_G17_23
 L  MINUP_G17_23
 L  MINDN_G17_23
 G  PMIN_G18_0
 L  PMAX_G18_0
 E  LOGIC_G18_0
 L  MINUP_G18_0
 L  MINDN_G18_0
 G  PMIN_G18_1
 L  PMAX_G18_1
 E  LOGIC_G18_1
 L  RUP_G18_1
 L  RDN_G18_1
 L  MINUP_G18_1
 L  MINDN_G18_1
 G  PMIN_G18_2
 L  PMAX_G18_2
 E  LOGIC_G18_2
 L  RUP_G18_2
 L  RDN_G18_2
 L  MINUP_G18_2
 L  MINDN_G18_2
 G  PMIN_G18_3
 L  PMAX_G18_3
 E  LOGIC_G18_3
 L  RUP_G18_3
 L  RDN_G18_3
 L  MINUP_G18_3
 L  MINDN_G18_3
 G  PMIN_G18_4
 L  PMAX_G18_4
 E  LOGIC_G18_4
 L  RUP_G18_4
 L  RDN_G18_4
 L  MINUP_G18_4
 L  MINDN_G18_4
 G  PMIN_G18_5
 L  PMAX_G18_5
 E  LOGIC_G18_5
 L  RUP_G18_5
 L  RDN_G18_5
 L  MINUP_G18_5
 L  MINDN_G18_5
 G  PMIN_G18_6
 L  PMAX_G18_6
 E  LOGIC_G18_6
 L  RUP_G18_6
 L  RDN_G18_6
 L  MINUP_G18_6
 L  MINDN_G18_6
 G  PMIN_G18_7
 L  PMAX_G18_7
 E  LOGIC_G18_7
 L  RUP_G18_7
 L  RDN_G18_7
 L  MINUP_G18_7
 L  MINDN_G18_7
 G  PMIN_G18_8
 L  PMAX_G18_8
 E  LOGIC_G18_8
 L  RUP_G18_8
 L  RDN_G18_8
 L  MINUP_G18_8
 L  MINDN_G18_8
 G  PMIN_G18_9
 L  PMAX_G18_9
 E  LOGIC_G18_9
 L  RUP_G18_9
 L  RDN_G18_9
 L  MINUP_G18_9
 L  MINDN_G18_9
 G  PMIN_G18_10
 L  PMAX_G18_10
 E  LOGIC_G18_10
 L  RUP_G18_10
 L  RDN_G18_10
 L  MINUP_G18_10
 L  MINDN_G18_10
 G  PMIN_G18_11
 L  PMAX_G18_11
 E  LOGIC_G18_11
 L  RUP_G18_11
 L  RDN_G18_11
 L  MINUP_G18_11
 L  MINDN_G18_11
 G  PMIN_G18_12
 L  PMAX_G18_12
 E  LOGIC_G18_12
 L  RUP_G18_12
 L  RDN_G18_12
 L  MINUP_G18_12
 L  MINDN_G18_12
 G  PMIN_G18_13
 L  PMAX_G18_13
 E  LOGIC_G18_13
 L  RUP_G18_13
 L  RDN_G18_13
 L  MINUP_G18_13
 L  MINDN_G18_13
 G  PMIN_G18_14
 L  PMAX_G18_14
 E  LOGIC_G18_14
 L  RUP_G18_14
 L  RDN_G18_14
 L  MINUP_G18_14
 L  MINDN_G18_14
 G  PMIN_G18_15
 L  PMAX_G18_15
 E  LOGIC_G18_15
 L  RUP_G18_15
 L  RDN_G18_15
 L  MINUP_G18_15
 L  MINDN_G18_15
 G  PMIN_G18_16
 L  PMAX_G18_16
 E  LOGIC_G18_16
 L  RUP_G18_16
 L  RDN_G18_16
 L  MINUP_G18_16
 L  MINDN_G18_16
 G  PMIN_G18_17
 L  PMAX_G18_17
 E  LOGIC_G18_17
 L  RUP_G18_17
 L  RDN_G18_17
 L  MINUP_G18_17
 L  MINDN_G18_17
 G  PMIN_G18_18
 L  PMAX_G18_18
 E  LOGIC_G18_18
 L  RUP_G18_18
 L  RDN_G18_18
 L  MINUP_G18_18
 L  MINDN_G18_18
 G  PMIN_G18_19
 L  PMAX_G18_19
 E  LOGIC_G18_19
 L  RUP_G18_19
 L  RDN_G18_19
 L  MINUP_G18_19
 L  MINDN_G18_19
 G  PMIN_G18_20
 L  PMAX_G18_20
 E  LOGIC_G18_20
 L  RUP_G18_20
 L  RDN_G18_20
 L  MINUP_G18_20
 L  MINDN_G18_20
 G  PMIN_G18_21
 L  PMAX_G18_21
 E  LOGIC_G18_21
 L  RUP_G18_21
 L  RDN_G18_21
 L  MINUP_G18_21
 L  MINDN_G18_21
 G  PMIN_G18_22
 L  PMAX_G18_22
 E  LOGIC_G18_22
 L  RUP_G18_22
 L  RDN_G18_22
 L  MINUP_G18_22
 L  MINDN_G18_22
 G  PMIN_G18_23
 L  PMAX_G18_23
 E  LOGIC_G18_23
 L  RUP_G18_23
 L  RDN_G18_23
 L  MINUP_G18_23
 L  MINDN_G18_23
 G  PMIN_G19_0
 L  PMAX_G19_0
 E  LOGIC_G19_0
 L  MINUP_G19_0
 L  MINDN_G19_0
 G  PMIN_G19_1
 L  PMAX_G19_1
 E  LOGIC_G19_1
 L  RUP_G19_1
 L  RDN_G19_1
 L  MINUP_G19_1
 L  MINDN_G19_1
 G  PMIN_G19_2
 L  PMAX_G19_2
 E  LOGIC_G19_2
 L  RUP_G19_2
 L  RDN_G19_2
 L  MINUP_G19_2
 L  MINDN_G19_2
 G  PMIN_G19_3
 L  PMAX_G19_3
 E  LOGIC_G19_3
 L  RUP_G19_3
 L  RDN_G19_3
 L  MINUP_G19_3
 L  MINDN_G19_3
 G  PMIN_G19_4
 L  PMAX_G19_4
 E  LOGIC_G19_4
 L  RUP_G19_4
 L  RDN_G19_4
 L  MINUP_G19_4
 L  MINDN_G19_4
 G  PMIN_G19_5
 L  PMAX_G19_5
 E  LOGIC_G19_5
 L  RUP_G19_5
 L  RDN_G19_5
 L  MINUP_G19_5
 L  MINDN_G19_5
 G  PMIN_G19_6
 L  PMAX_G19_6
 E  LOGIC_G19_6
 L  RUP_G19_6
 L  RDN_G19_6
 L  MINUP_G19_6
 L  MINDN_G19_6
 G  PMIN_G19_7
 L  PMAX_G19_7
 E  LOGIC_G19_7
 L  RUP_G19_7
 L  RDN_G19_7
 L  MINUP_G19_7
 L  MINDN_G19_7
 G  PMIN_G19_8
 L  PMAX_G19_8
 E  LOGIC_G19_8
 L  RUP_G19_8
 L  RDN_G19_8
 L  MINUP_G19_8
 L  MINDN_G19_8
 G  PMIN_G19_9
 L  PMAX_G19_9
 E  LOGIC_G19_9
 L  RUP_G19_9
 L  RDN_G19_9
 L  MINUP_G19_9
 L  MINDN_G19_9
 G  PMIN_G19_10
 L  PMAX_G19_10
 E  LOGIC_G19_10
 L  RUP_G19_10
 L  RDN_G19_10
 L  MINUP_G19_10
 L  MINDN_G19_10
 G  PMIN_G19_11
 L  PMAX_G19_11
 E  LOGIC_G19_11
 L  RUP_G19_11
 L  RDN_G19_11
 L  MINUP_G19_11
 L  MINDN_G19_11
 G  PMIN_G19_12
 L  PMAX_G19_12
 E  LOGIC_G19_12
 L  RUP_G19_12
 L  RDN_G19_12
 L  MINUP_G19_12
 L  MINDN_G19_12
 G  PMIN_G19_13
 L  PMAX_G19_13
 E  LOGIC_G19_13
 L  RUP_G19_13
 L  RDN_G19_13
 L  MINUP_G19_13
 L  MINDN_G19_13
 G  PMIN_G19_14
 L  PMAX_G19_14
 E  LOGIC_G19_14
 L  RUP_G19_14
 L  RDN_G19_14
 L  MINUP_G19_14
 L  MINDN_G19_14
 G  PMIN_G19_15
 L  PMAX_G19_15
 E  LOGIC_G19_15
 L  RUP_G19_15
 L  RDN_G19_15
 L  MINUP_G19_15
 L  MINDN_G19_15
 G  PMIN_G19_16
 L  PMAX_G19_16
 E  LOGIC_G19_16
 L  RUP_G19_16
 L  RDN_G19_16
 L  MINUP_G19_16
 L  MINDN_G19_16
 G  PMIN_G19_17
 L  PMAX_G19_17
 E  LOGIC_G19_17
 L  RUP_G19_17
 L  RDN_G19_17
 L  MINUP_G19_17
 L  MINDN_G19_17
 G  PMIN_G19_18
 L  PMAX_G19_18
 E  LOGIC_G19_18
 L  RUP_G19_18
 L  RDN_G19_18
 L  MINUP_G19_18
 L  MINDN_G19_18
 G  PMIN_G19_19
 L  PMAX_G19_19
 E  LOGIC_G19_19
 L  RUP_G19_19
 L  RDN_G19_19
 L  MINUP_G19_19
 L  MINDN_G19_19
 G  PMIN_G19_20
 L  PMAX_G19_20
 E  LOGIC_G19_20
 L  RUP_G19_20
 L  RDN_G19_20
 L  MINUP_G19_20
 L  MINDN_G19_20
 G  PMIN_G19_21
 L  PMAX_G19_21
 E  LOGIC_G19_21
 L  RUP_G19_21
 L  RDN_G19_21
 L  MINUP_G19_21
 L  MINDN_G19_21
 G  PMIN_G19_22
 L  PMAX_G19_22
 E  LOGIC_G19_22
 L  RUP_G19_22
 L  RDN_G19_22
 L  MINUP_G19_22
 L  MINDN_G19_22
 G  PMIN_G19_23
 L  PMAX_G19_23
 E  LOGIC_G19_23
 L  RUP_G19_23
 L  RDN_G19_23
 L  MINUP_G19_23
 L  MINDN_G19_23
 G  PMIN_G20_0
 L  PMAX_G20_0
 E  LOGIC_G20_0
 L  MINUP_G20_0
 L  MINDN_G20_0
 G  PMIN_G20_1
 L  PMAX_G20_1
 E  LOGIC_G20_1
 L  RUP_G20_1
 L  RDN_G20_1
 L  MINUP_G20_1
 L  MINDN_G20_1
 G  PMIN_G20_2
 L  PMAX_G20_2
 E  LOGIC_G20_2
 L  RUP_G20_2
 L  RDN_G20_2
 L  MINUP_G20_2
 L  MINDN_G20_2
 G  PMIN_G20_3
 L  PMAX_G20_3
 E  LOGIC_G20_3
 L  RUP_G20_3
 L  RDN_G20_3
 L  MINUP_G20_3
 L  MINDN_G20_3
 G  PMIN_G20_4
 L  PMAX_G20_4
 E  LOGIC_G20_4
 L  RUP_G20_4
 L  RDN_G20_4
 L  MINUP_G20_4
 L  MINDN_G20_4
 G  PMIN_G20_5
 L  PMAX_G20_5
 E  LOGIC_G20_5
 L  RUP_G20_5
 L  RDN_G20_5
 L  MINUP_G20_5
 L  MINDN_G20_5
 G  PMIN_G20_6
 L  PMAX_G20_6
 E  LOGIC_G20_6
 L  RUP_G20_6
 L  RDN_G20_6
 L  MINUP_G20_6
 L  MINDN_G20_6
 G  PMIN_G20_7
 L  PMAX_G20_7
 E  LOGIC_G20_7
 L  RUP_G20_7
 L  RDN_G20_7
 L  MINUP_G20_7
 L  MINDN_G20_7
 G  PMIN_G20_8
 L  PMAX_G20_8
 E  LOGIC_G20_8
 L  RUP_G20_8
 L  RDN_G20_8
 L  MINUP_G20_8
 L  MINDN_G20_8
 G  PMIN_G20_9
 L  PMAX_G20_9
 E  LOGIC_G20_9
 L  RUP_G20_9
 L  RDN_G20_9
 L  MINUP_G20_9
 L  MINDN_G20_9
 G  PMIN_G20_10
 L  PMAX_G20_10
 E  LOGIC_G20_10
 L  RUP_G20_10
 L  RDN_G20_10
 L  MINUP_G20_10
 L  MINDN_G20_10
 G  PMIN_G20_11
 L  PMAX_G20_11
 E  LOGIC_G20_11
 L  RUP_G20_11
 L  RDN_G20_11
 L  MINUP_G20_11
 L  MINDN_G20_11
 G  PMIN_G20_12
 L  PMAX_G20_12
 E  LOGIC_G20_12
 L  RUP_G20_12
 L  RDN_G20_12
 L  MINUP_G20_12
 L  MINDN_G20_12
 G  PMIN_G20_13
 L  PMAX_G20_13
 E  LOGIC_G20_13
 L  RUP_G20_13
 L  RDN_G20_13
 L  MINUP_G20_13
 L  MINDN_G20_13
 G  PMIN_G20_14
 L  PMAX_G20_14
 E  LOGIC_G20_14
 L  RUP_G20_14
 L  RDN_G20_14
 L  MINUP_G20_14
 L  MINDN_G20_14
 G  PMIN_G20_15
 L  PMAX_G20_15
 E  LOGIC_G20_15
 L  RUP_G20_15
 L  RDN_G20_15
 L  MINUP_G20_15
 L  MINDN_G20_15
 G  PMIN_G20_16
 L  PMAX_G20_16
 E  LOGIC_G20_16
 L  RUP_G20_16
 L  RDN_G20_16
 L  MINUP_G20_16
 L  MINDN_G20_16
 G  PMIN_G20_17
 L  PMAX_G20_17
 E  LOGIC_G20_17
 L  RUP_G20_17
 L  RDN_G20_17
 L  MINUP_G20_17
 L  MINDN_G20_17
 G  PMIN_G20_18
 L  PMAX_G20_18
 E  LOGIC_G20_18
 L  RUP_G20_18
 L  RDN_G20_18
 L  MINUP_G20_18
 L  MINDN_G20_18
 G  PMIN_G20_19
 L  PMAX_G20_19
 E  LOGIC_G20_19
 L  RUP_G20_19
 L  RDN_G20_19
 L  MINUP_G20_19
 L  MINDN_G20_19
 G  PMIN_G20_20
 L  PMAX_G20_20
 E  LOGIC_G20_20
 L  RUP_G20_20
 L  RDN_G20_20
 L  MINUP_G20_20
 L  MINDN_G20_20
 G  PMIN_G20_21
 L  PMAX_G20_21
 E  LOGIC_G20_21
 L  RUP_G20_21
 L  RDN_G20_21
 L  MINUP_G20_21
 L  MINDN_G20_21
 G  PMIN_G20_22
 L  PMAX_G20_22
 E  LOGIC_G20_22
 L  RUP_G20_22
 L  RDN_G20_22
 L  MINUP_G20_22
 L  MINDN_G20_22
 G  PMIN_G20_23
 L  PMAX_G20_23
 E  LOGIC_G20_23
 L  RUP_G20_23
 L  RDN_G20_23
 L  MINUP_G20_23
 L  MINDN_G20_23
 G  PMIN_G21_0
 L  PMAX_G21_0
 E  LOGIC_G21_0
 L  MINUP_G21_0
 L  MINDN_G21_0
 G  PMIN_G21_1
 L  PMAX_G21_1
 E  LOGIC_G21_1
 L  RUP_G21_1
 L  RDN_G21_1
 L  MINUP_G21_1
 L  MINDN_G21_1
 G  PMIN_G21_2
 L  PMAX_G21_2
 E  LOGIC_G21_2
 L  RUP_G21_2
 L  RDN_G21_2
 L  MINUP_G21_2
 L  MINDN_G21_2
 G  PMIN_G21_3
 L  PMAX_G21_3
 E  LOGIC_G21_3
 L  RUP_G21_3
 L  RDN_G21_3
 L  MINUP_G21_3
 L  MINDN_G21_3
 G  PMIN_G21_4
 L  PMAX_G21_4
 E  LOGIC_G21_4
 L  RUP_G21_4
 L  RDN_G21_4
 L  MINUP_G21_4
 L  MINDN_G21_4
 G  PMIN_G21_5
 L  PMAX_G21_5
 E  LOGIC_G21_5
 L  RUP_G21_5
 L  RDN_G21_5
 L  MINUP_G21_5
 L  MINDN_G21_5
 G  PMIN_G21_6
 L  PMAX_G21_6
 E  LOGIC_G21_6
 L  RUP_G21_6
 L  RDN_G21_6
 L  MINUP_G21_6
 L  MINDN_G21_6
 G  PMIN_G21_7
 L  PMAX_G21_7
 E  LOGIC_G21_7
 L  RUP_G21_7
 L  RDN_G21_7
 L  MINUP_G21_7
 L  MINDN_G21_7
 G  PMIN_G21_8
 L  PMAX_G21_8
 E  LOGIC_G21_8
 L  RUP_G21_8
 L  RDN_G21_8
 L  MINUP_G21_8
 L  MINDN_G21_8
 G  PMIN_G21_9
 L  PMAX_G21_9
 E  LOGIC_G21_9
 L  RUP_G21_9
 L  RDN_G21_9
 L  MINUP_G21_9
 L  MINDN_G21_9
 G  PMIN_G21_10
 L  PMAX_G21_10
 E  LOGIC_G21_10
 L  RUP_G21_10
 L  RDN_G21_10
 L  MINUP_G21_10
 L  MINDN_G21_10
 G  PMIN_G21_11
 L  PMAX_G21_11
 E  LOGIC_G21_11
 L  RUP_G21_11
 L  RDN_G21_11
 L  MINUP_G21_11
 L  MINDN_G21_11
 G  PMIN_G21_12
 L  PMAX_G21_12
 E  LOGIC_G21_12
 L  RUP_G21_12
 L  RDN_G21_12
 L  MINUP_G21_12
 L  MINDN_G21_12
 G  PMIN_G21_13
 L  PMAX_G21_13
 E  LOGIC_G21_13
 L  RUP_G21_13
 L  RDN_G21_13
 L  MINUP_G21_13
 L  MINDN_G21_13
 G  PMIN_G21_14
 L  PMAX_G21_14
 E  LOGIC_G21_14
 L  RUP_G21_14
 L  RDN_G21_14
 L  MINUP_G21_14
 L  MINDN_G21_14
 G  PMIN_G21_15
 L  PMAX_G21_15
 E  LOGIC_G21_15
 L  RUP_G21_15
 L  RDN_G21_15
 L  MINUP_G21_15
 L  MINDN_G21_15
 G  PMIN_G21_16
 L  PMAX_G21_16
 E  LOGIC_G21_16
 L  RUP_G21_16
 L  RDN_G21_16
 L  MINUP_G21_16
 L  MINDN_G21_16
 G  PMIN_G21_17
 L  PMAX_G21_17
 E  LOGIC_G21_17
 L  RUP_G21_17
 L  RDN_G21_17
 L  MINUP_G21_17
 L  MINDN_G21_17
 G  PMIN_G21_18
 L  PMAX_G21_18
 E  LOGIC_G21_18
 L  RUP_G21_18
 L  RDN_G21_18
 L  MINUP_G21_18
 L  MINDN_G21_18
 G  PMIN_G21_19
 L  PMAX_G21_19
 E  LOGIC_G21_19
 L  RUP_G21_19
 L  RDN_G21_19
 L  MINUP_G21_19
 L  MINDN_G21_19
 G  PMIN_G21_20
 L  PMAX_G21_20
 E  LOGIC_G21_20
 L  RUP_G21_20
 L  RDN_G21_20
 L  MINUP_G21_20
 L  MINDN_G21_20
 G  PMIN_G21_21
 L  PMAX_G21_21
 E  LOGIC_G21_21
 L  RUP_G21_21
 L  RDN_G21_21
 L  MINUP_G21_21
 L  MINDN_G21_21
 G  PMIN_G21_22
 L  PMAX_G21_22
 E  LOGIC_G21_22
 L  RUP_G21_22
 L  RDN_G21_22
 L  MINUP_G21_22
 L  MINDN_G21_22
 G  PMIN_G21_23
 L  PMAX_G21_23
 E  LOGIC_G21_23
 L  RUP_G21_23
 L  RDN_G21_23
 L  MINUP_G21_23
 L  MINDN_G21_23
 G  PMIN_G22_0
 L  PMAX_G22_0
 E  LOGIC_G22_0
 L  MINUP_G22_0
 L  MINDN_G22_0
 G  PMIN_G22_1
 L  PMAX_G22_1
 E  LOGIC_G22_1
 L  RUP_G22_1
 L  RDN_G22_1
 L  MINUP_G22_1
 L  MINDN_G22_1
 G  PMIN_G22_2
 L  PMAX_G22_2
 E  LOGIC_G22_2
 L  RUP_G22_2
 L  RDN_G22_2
 L  MINUP_G22_2
 L  MINDN_G22_2
 G  PMIN_G22_3
 L  PMAX_G22_3
 E  LOGIC_G22_3
 L  RUP_G22_3
 L  RDN_G22_3
 L  MINUP_G22_3
 L  MINDN_G22_3
 G  PMIN_G22_4
 L  PMAX_G22_4
 E  LOGIC_G22_4
 L  RUP_G22_4
 L  RDN_G22_4
 L  MINUP_G22_4
 L  MINDN_G22_4
 G  PMIN_G22_5
 L  PMAX_G22_5
 E  LOGIC_G22_5
 L  RUP_G22_5
 L  RDN_G22_5
 L  MINUP_G22_5
 L  MINDN_G22_5
 G  PMIN_G22_6
 L  PMAX_G22_6
 E  LOGIC_G22_6
 L  RUP_G22_6
 L  RDN_G22_6
 L  MINUP_G22_6
 L  MINDN_G22_6
 G  PMIN_G22_7
 L  PMAX_G22_7
 E  LOGIC_G22_7
 L  RUP_G22_7
 L  RDN_G22_7
 L  MINUP_G22_7
 L  MINDN_G22_7
 G  PMIN_G22_8
 L  PMAX_G22_8
 E  LOGIC_G22_8
 L  RUP_G22_8
 L  RDN_G22_8
 L  MINUP_G22_8
 L  MINDN_G22_8
 G  PMIN_G22_9
 L  PMAX_G22_9
 E  LOGIC_G22_9
 L  RUP_G22_9
 L  RDN_G22_9
 L  MINUP_G22_9
 L  MINDN_G22_9
 G  PMIN_G22_10
 L  PMAX_G22_10
 E  LOGIC_G22_10
 L  RUP_G22_10
 L  RDN_G22_10
 L  MINUP_G22_10
 L  MINDN_G22_10
 G  PMIN_G22_11
 L  PMAX_G22_11
 E  LOGIC_G22_11
 L  RUP_G22_11
 L  RDN_G22_11
 L  MINUP_G22_11
 L  MINDN_G22_11
 G  PMIN_G22_12
 L  PMAX_G22_12
 E  LOGIC_G22_12
 L  RUP_G22_12
 L  RDN_G22_12
 L  MINUP_G22_12
 L  MINDN_G22_12
 G  PMIN_G22_13
 L  PMAX_G22_13
 E  LOGIC_G22_13
 L  RUP_G22_13
 L  RDN_G22_13
 L  MINUP_G22_13
 L  MINDN_G22_13
 G  PMIN_G22_14
 L  PMAX_G22_14
 E  LOGIC_G22_14
 L  RUP_G22_14
 L  RDN_G22_14
 L  MINUP_G22_14
 L  MINDN_G22_14
 G  PMIN_G22_15
 L  PMAX_G22_15
 E  LOGIC_G22_15
 L  RUP_G22_15
 L  RDN_G22_15
 L  MINUP_G22_15
 L  MINDN_G22_15
 G  PMIN_G22_16
 L  PMAX_G22_16
 E  LOGIC_G22_16
 L  RUP_G22_16
 L  RDN_G22_16
 L  MINUP_G22_16
 L  MINDN_G22_16
 G  PMIN_G22_17
 L  PMAX_G22_17
 E  LOGIC_G22_17
 L  RUP_G22_17
 L  RDN_G22_17
 L  MINUP_G22_17
 L  MINDN_G22_17
 G  PMIN_G22_18
 L  PMAX_G22_18
 E  LOGIC_G22_18
 L  RUP_G22_18
 L  RDN_G22_18
 L  MINUP_G22_18
 L  MINDN_G22_18
 G  PMIN_G22_19
 L  PMAX_G22_19
 E  LOGIC_G22_19
 L  RUP_G22_19
 L  RDN_G22_19
 L  MINUP_G22_19
 L  MINDN_G22_19
 G  PMIN_G22_20
 L  PMAX_G22_20
 E  LOGIC_G22_20
 L  RUP_G22_20
 L  RDN_G22_20
 L  MINUP_G22_20
 L  MINDN_G22_20
 G  PMIN_G22_21
 L  PMAX_G22_21
 E  LOGIC_G22_21
 L  RUP_G22_21
 L  RDN_G22_21
 L  MINUP_G22_21
 L  MINDN_G22_21
 G  PMIN_G22_22
 L  PMAX_G22_22
 E  LOGIC_G22_22
 L  RUP_G22_22
 L  RDN_G22_22
 L  MINUP_G22_22
 L  MINDN_G22_22
 G  PMIN_G22_23
 L  PMAX_G22_23
 E  LOGIC_G22_23
 L  RUP_G22_23
 L  RDN_G22_23
 L  MINUP_G22_23
 L  MINDN_G22_23
 G  PMIN_G23_0
 L  PMAX_G23_0
 E  LOGIC_G23_0
 L  MINUP_G23_0
 L  MINDN_G23_0
 G  PMIN_G23_1
 L  PMAX_G23_1
 E  LOGIC_G23_1
 L  RUP_G23_1
 L  RDN_G23_1
 L  MINUP_G23_1
 L  MINDN_G23_1
 G  PMIN_G23_2
 L  PMAX_G23_2
 E  LOGIC_G23_2
 L  RUP_G23_2
 L  RDN_G23_2
 L  MINUP_G23_2
 L  MINDN_G23_2
 G  PMIN_G23_3
 L  PMAX_G23_3
 E  LOGIC_G23_3
 L  RUP_G23_3
 L  RDN_G23_3
 L  MINUP_G23_3
 L  MINDN_G23_3
 G  PMIN_G23_4
 L  PMAX_G23_4
 E  LOGIC_G23_4
 L  RUP_G23_4
 L  RDN_G23_4
 L  MINUP_G23_4
 L  MINDN_G23_4
 G  PMIN_G23_5
 L  PMAX_G23_5
 E  LOGIC_G23_5
 L  RUP_G23_5
 L  RDN_G23_5
 L  MINUP_G23_5
 L  MINDN_G23_5
 G  PMIN_G23_6
 L  PMAX_G23_6
 E  LOGIC_G23_6
 L  RUP_G23_6
 L  RDN_G23_6
 L  MINUP_G23_6
 L  MINDN_G23_6
 G  PMIN_G23_7
 L  PMAX_G23_7
 E  LOGIC_G23_7
 L  RUP_G23_7
 L  RDN_G23_7
 L  MINUP_G23_7
 L  MINDN_G23_7
 G  PMIN_G23_8
 L  PMAX_G23_8
 E  LOGIC_G23_8
 L  RUP_G23_8
 L  RDN_G23_8
 L  MINUP_G23_8
 L  MINDN_G23_8
 G  PMIN_G23_9
 L  PMAX_G23_9
 E  LOGIC_G23_9
 L  RUP_G23_9
 L  RDN_G23_9
 L  MINUP_G23_9
 L  MINDN_G23_9
 G  PMIN_G23_10
 L  PMAX_G23_10
 E  LOGIC_G23_10
 L  RUP_G23_10
 L  RDN_G23_10
 L  MINUP_G23_10
 L  MINDN_G23_10
 G  PMIN_G23_11
 L  PMAX_G23_11
 E  LOGIC_G23_11
 L  RUP_G23_11
 L  RDN_G23_11
 L  MINUP_G23_11
 L  MINDN_G23_11
 G  PMIN_G23_12
 L  PMAX_G23_12
 E  LOGIC_G23_12
 L  RUP_G23_12
 L  RDN_G23_12
 L  MINUP_G23_12
 L  MINDN_G23_12
 G  PMIN_G23_13
 L  PMAX_G23_13
 E  LOGIC_G23_13
 L  RUP_G23_13
 L  RDN_G23_13
 L  MINUP_G23_13
 L  MINDN_G23_13
 G  PMIN_G23_14
 L  PMAX_G23_14
 E  LOGIC_G23_14
 L  RUP_G23_14
 L  RDN_G23_14
 L  MINUP_G23_14
 L  MINDN_G23_14
 G  PMIN_G23_15
 L  PMAX_G23_15
 E  LOGIC_G23_15
 L  RUP_G23_15
 L  RDN_G23_15
 L  MINUP_G23_15
 L  MINDN_G23_15
 G  PMIN_G23_16
 L  PMAX_G23_16
 E  LOGIC_G23_16
 L  RUP_G23_16
 L  RDN_G23_16
 L  MINUP_G23_16
 L  MINDN_G23_16
 G  PMIN_G23_17
 L  PMAX_G23_17
 E  LOGIC_G23_17
 L  RUP_G23_17
 L  RDN_G23_17
 L  MINUP_G23_17
 L  MINDN_G23_17
 G  PMIN_G23_18
 L  PMAX_G23_18
 E  LOGIC_G23_18
 L  RUP_G23_18
 L  RDN_G23_18
 L  MINUP_G23_18
 L  MINDN_G23_18
 G  PMIN_G23_19
 L  PMAX_G23_19
 E  LOGIC_G23_19
 L  RUP_G23_19
 L  RDN_G23_19
 L  MINUP_G23_19
 L  MINDN_G23_19
 G  PMIN_G23_20
 L  PMAX_G23_20
 E  LOGIC_G23_20
 L  RUP_G23_20
 L  RDN_G23_20
 L  MINUP_G23_20
 L  MINDN_G23_20
 G  PMIN_G23_21
 L  PMAX_G23_21
 E  LOGIC_G23_21
 L  RUP_G23_21
 L  RDN_G23_21
 L  MINUP_G23_21
 L  MINDN_G23_21
 G  PMIN_G23_22
 L  PMAX_G23_22
 E  LOGIC_G23_22
 L  RUP_G23_22
 L  RDN_G23_22
 L  MINUP_G23_22
 L  MINDN_G23_22
 G  PMIN_G23_23
 L  PMAX_G23_23
 E  LOGIC_G23_23
 L  RUP_G23_23
 L  RDN_G23_23
 L  MINUP_G23_23
 L  MINDN_G23_23
 G  PMIN_G24_0
 L  PMAX_G24_0
 E  LOGIC_G24_0
 L  MINUP_G24_0
 L  MINDN_G24_0
 G  PMIN_G24_1
 L  PMAX_G24_1
 E  LOGIC_G24_1
 L  RUP_G24_1
 L  RDN_G24_1
 L  MINUP_G24_1
 L  MINDN_G24_1
 G  PMIN_G24_2
 L  PMAX_G24_2
 E  LOGIC_G24_2
 L  RUP_G24_2
 L  RDN_G24_2
 L  MINUP_G24_2
 L  MINDN_G24_2
 G  PMIN_G24_3
 L  PMAX_G24_3
 E  LOGIC_G24_3
 L  RUP_G24_3
 L  RDN_G24_3
 L  MINUP_G24_3
 L  MINDN_G24_3
 G  PMIN_G24_4
 L  PMAX_G24_4
 E  LOGIC_G24_4
 L  RUP_G24_4
 L  RDN_G24_4
 L  MINUP_G24_4
 L  MINDN_G24_4
 G  PMIN_G24_5
 L  PMAX_G24_5
 E  LOGIC_G24_5
 L  RUP_G24_5
 L  RDN_G24_5
 L  MINUP_G24_5
 L  MINDN_G24_5
 G  PMIN_G24_6
 L  PMAX_G24_6
 E  LOGIC_G24_6
 L  RUP_G24_6
 L  RDN_G24_6
 L  MINUP_G24_6
 L  MINDN_G24_6
 G  PMIN_G24_7
 L  PMAX_G24_7
 E  LOGIC_G24_7
 L  RUP_G24_7
 L  RDN_G24_7
 L  MINUP_G24_7
 L  MINDN_G24_7
 G  PMIN_G24_8
 L  PMAX_G24_8
 E  LOGIC_G24_8
 L  RUP_G24_8
 L  RDN_G24_8
 L  MINUP_G24_8
 L  MINDN_G24_8
 G  PMIN_G24_9
 L  PMAX_G24_9
 E  LOGIC_G24_9
 L  RUP_G24_9
 L  RDN_G24_9
 L  MINUP_G24_9
 L  MINDN_G24_9
 G  PMIN_G24_10
 L  PMAX_G24_10
 E  LOGIC_G24_10
 L  RUP_G24_10
 L  RDN_G24_10
 L  MINUP_G24_10
 L  MINDN_G24_10
 G  PMIN_G24_11
 L  PMAX_G24_11
 E  LOGIC_G24_11
 L  RUP_G24_11
 L  RDN_G24_11
 L  MINUP_G24_11
 L  MINDN_G24_11
 G  PMIN_G24_12
 L  PMAX_G24_12
 E  LOGIC_G24_12
 L  RUP_G24_12
 L  RDN_G24_12
 L  MINUP_G24_12
 L  MINDN_G24_12
 G  PMIN_G24_13
 L  PMAX_G24_13
 E  LOGIC_G24_13
 L  RUP_G24_13
 L  RDN_G24_13
 L  MINUP_G24_13
 L  MINDN_G24_13
 G  PMIN_G24_14
 L  PMAX_G24_14
 E  LOGIC_G24_14
 L  RUP_G24_14
 L  RDN_G24_14
 L  MINUP_G24_14
 L  MINDN_G24_14
 G  PMIN_G24_15
 L  PMAX_G24_15
 E  LOGIC_G24_15
 L  RUP_G24_15
 L  RDN_G24_15
 L  MINUP_G24_15
 L  MINDN_G24_15
 G  PMIN_G24_16
 L  PMAX_G24_16
 E  LOGIC_G24_16
 L  RUP_G24_16
 L  RDN_G24_16
 L  MINUP_G24_16
 L  MINDN_G24_16
 G  PMIN_G24_17
 L  PMAX_G24_17
 E  LOGIC_G24_17
 L  RUP_G24_17
 L  RDN_G24_17
 L  MINUP_G24_17
 L  MINDN_G24_17
 G  PMIN_G24_18
 L  PMAX_G24_18
 E  LOGIC_G24_18
 L  RUP_G24_18
 L  RDN_G24_18
 L  MINUP_G24_18
 L  MINDN_G24_18
 G  PMIN_G24_19
 L  PMAX_G24_19
 E  LOGIC_G24_19
 L  RUP_G24_19
 L  RDN_G24_19
 L  MINUP_G24_19
 L  MINDN_G24_19
 G  PMIN_G24_20
 L  PMAX_G24_20
 E  LOGIC_G24_20
 L  RUP_G24_20
 L  RDN_G24_20
 L  MINUP_G24_20
 L  MINDN_G24_20
 G  PMIN_G24_21
 L  PMAX_G24_21
 E  LOGIC_G24_21
 L  RUP_G24_21
 L  RDN_G24_21
 L  MINUP_G24_21
 L  MINDN_G24_21
 G  PMIN_G24_22
 L  PMAX_G24_22
 E  LOGIC_G24_22
 L  RUP_G24_22
 L  RDN_G24_22
 L  MINUP_G24_22
 L  MINDN_G24_22
 G  PMIN_G24_23
 L  PMAX_G24_23
 E  LOGIC_G24_23
 L  RUP_G24_23
 L  RDN_G24_23
 L  MINUP_G24_23
 L  MINDN_G24_23
 G  PMIN_G25_0
 L  PMAX_G25_0
 E  LOGIC_G25_0
 L  MINUP_G25_0
 L  MINDN_G25_0
 G  PMIN_G25_1
 L  PMAX_G25_1
 E  LOGIC_G25_1
 L  RUP_G25_1
 L  RDN_G25_1
 L  MINUP_G25_1
 L  MINDN_G25_1
 G  PMIN_G25_2
 L  PMAX_G25_2
 E  LOGIC_G25_2
 L  RUP_G25_2
 L  RDN_G25_2
 L  MINUP_G25_2
 L  MINDN_G25_2
 G  PMIN_G25_3
 L  PMAX_G25_3
 E  LOGIC_G25_3
 L  RUP_G25_3
 L  RDN_G25_3
 L  MINUP_G25_3
 L  MINDN_G25_3
 G  PMIN_G25_4
 L  PMAX_G25_4
 E  LOGIC_G25_4
 L  RUP_G25_4
 L  RDN_G25_4
 L  MINUP_G25_4
 L  MINDN_G25_4
 G  PMIN_G25_5
 L  PMAX_G25_5
 E  LOGIC_G25_5
 L  RUP_G25_5
 L  RDN_G25_5
 L  MINUP_G25_5
 L  MINDN_G25_5
 G  PMIN_G25_6
 L  PMAX_G25_6
 E  LOGIC_G25_6
 L  RUP_G25_6
 L  RDN_G25_6
 L  MINUP_G25_6
 L  MINDN_G25_6
 G  PMIN_G25_7
 L  PMAX_G25_7
 E  LOGIC_G25_7
 L  RUP_G25_7
 L  RDN_G25_7
 L  MINUP_G25_7
 L  MINDN_G25_7
 G  PMIN_G25_8
 L  PMAX_G25_8
 E  LOGIC_G25_8
 L  RUP_G25_8
 L  RDN_G25_8
 L  MINUP_G25_8
 L  MINDN_G25_8
 G  PMIN_G25_9
 L  PMAX_G25_9
 E  LOGIC_G25_9
 L  RUP_G25_9
 L  RDN_G25_9
 L  MINUP_G25_9
 L  MINDN_G25_9
 G  PMIN_G25_10
 L  PMAX_G25_10
 E  LOGIC_G25_10
 L  RUP_G25_10
 L  RDN_G25_10
 L  MINUP_G25_10
 L  MINDN_G25_10
 G  PMIN_G25_11
 L  PMAX_G25_11
 E  LOGIC_G25_11
 L  RUP_G25_11
 L  RDN_G25_11
 L  MINUP_G25_11
 L  MINDN_G25_11
 G  PMIN_G25_12
 L  PMAX_G25_12
 E  LOGIC_G25_12
 L  RUP_G25_12
 L  RDN_G25_12
 L  MINUP_G25_12
 L  MINDN_G25_12
 G  PMIN_G25_13
 L  PMAX_G25_13
 E  LOGIC_G25_13
 L  RUP_G25_13
 L  RDN_G25_13
 L  MINUP_G25_13
 L  MINDN_G25_13
 G  PMIN_G25_14
 L  PMAX_G25_14
 E  LOGIC_G25_14
 L  RUP_G25_14
 L  RDN_G25_14
 L  MINUP_G25_14
 L  MINDN_G25_14
 G  PMIN_G25_15
 L  PMAX_G25_15
 E  LOGIC_G25_15
 L  RUP_G25_15
 L  RDN_G25_15
 L  MINUP_G25_15
 L  MINDN_G25_15
 G  PMIN_G25_16
 L  PMAX_G25_16
 E  LOGIC_G25_16
 L  RUP_G25_16
 L  RDN_G25_16
 L  MINUP_G25_16
 L  MINDN_G25_16
 G  PMIN_G25_17
 L  PMAX_G25_17
 E  LOGIC_G25_17
 L  RUP_G25_17
 L  RDN_G25_17
 L  MINUP_G25_17
 L  MINDN_G25_17
 G  PMIN_G25_18
 L  PMAX_G25_18
 E  LOGIC_G25_18
 L  RUP_G25_18
 L  RDN_G25_18
 L  MINUP_G25_18
 L  MINDN_G25_18
 G  PMIN_G25_19
 L  PMAX_G25_19
 E  LOGIC_G25_19
 L  RUP_G25_19
 L  RDN_G25_19
 L  MINUP_G25_19
 L  MINDN_G25_19
 G  PMIN_G25_20
 L  PMAX_G25_20
 E  LOGIC_G25_20
 L  RUP_G25_20
 L  RDN_G25_20
 L  MINUP_G25_20
 L  MINDN_G25_20
 G  PMIN_G25_21
 L  PMAX_G25_21
 E  LOGIC_G25_21
 L  RUP_G25_21
 L  RDN_G25_21
 L  MINUP_G25_21
 L  MINDN_G25_21
 G  PMIN_G25_22
 L  PMAX_G25_22
 E  LOGIC_G25_22
 L  RUP_G25_22
 L  RDN_G25_22
 L  MINUP_G25_22
 L  MINDN_G25_22
 G  PMIN_G25_23
 L  PMAX_G25_23
 E  LOGIC_G25_23
 L  RUP_G25_23
 L  RDN_G25_23
 L  MINUP_G25_23
 L  MINDN_G25_23
 G  PMIN_G26_0
 L  PMAX_G26_0
 E  LOGIC_G26_0
 L  MINUP_G26_0
 L  MINDN_G26_0
 G  PMIN_G26_1
 L  PMAX_G26_1
 E  LOGIC_G26_1
 L  RUP_G26_1
 L  RDN_G26_1
 L  MINUP_G26_1
 L  MINDN_G26_1
 G  PMIN_G26_2
 L  PMAX_G26_2
 E  LOGIC_G26_2
 L  RUP_G26_2
 L  RDN_G26_2
 L  MINUP_G26_2
 L  MINDN_G26_2
 G  PMIN_G26_3
 L  PMAX_G26_3
 E  LOGIC_G26_3
 L  RUP_G26_3
 L  RDN_G26_3
 L  MINUP_G26_3
 L  MINDN_G26_3
 G  PMIN_G26_4
 L  PMAX_G26_4
 E  LOGIC_G26_4
 L  RUP_G26_4
 L  RDN_G26_4
 L  MINUP_G26_4
 L  MINDN_G26_4
 G  PMIN_G26_5
 L  PMAX_G26_5
 E  LOGIC_G26_5
 L  RUP_G26_5
 L  RDN_G26_5
 L  MINUP_G26_5
 L  MINDN_G26_5
 G  PMIN_G26_6
 L  PMAX_G26_6
 E  LOGIC_G26_6
 L  RUP_G26_6
 L  RDN_G26_6
 L  MINUP_G26_6
 L  MINDN_G26_6
 G  PMIN_G26_7
 L  PMAX_G26_7
 E  LOGIC_G26_7
 L  RUP_G26_7
 L  RDN_G26_7
 L  MINUP_G26_7
 L  MINDN_G26_7
 G  PMIN_G26_8
 L  PMAX_G26_8
 E  LOGIC_G26_8
 L  RUP_G26_8
 L  RDN_G26_8
 L  MINUP_G26_8
 L  MINDN_G26_8
 G  PMIN_G26_9
 L  PMAX_G26_9
 E  LOGIC_G26_9
 L  RUP_G26_9
 L  RDN_G26_9
 L  MINUP_G26_9
 L  MINDN_G26_9
 G  PMIN_G26_10
 L  PMAX_G26_10
 E  LOGIC_G26_10
 L  RUP_G26_10
 L  RDN_G26_10
 L  MINUP_G26_10
 L  MINDN_G26_10
 G  PMIN_G26_11
 L  PMAX_G26_11
 E  LOGIC_G26_11
 L  RUP_G26_11
 L  RDN_G26_11
 L  MINUP_G26_11
 L  MINDN_G26_11
 G  PMIN_G26_12
 L  PMAX_G26_12
 E  LOGIC_G26_12
 L  RUP_G26_12
 L  RDN_G26_12
 L  MINUP_G26_12
 L  MINDN_G26_12
 G  PMIN_G26_13
 L  PMAX_G26_13
 E  LOGIC_G26_13
 L  RUP_G26_13
 L  RDN_G26_13
 L  MINUP_G26_13
 L  MINDN_G26_13
 G  PMIN_G26_14
 L  PMAX_G26_14
 E  LOGIC_G26_14
 L  RUP_G26_14
 L  RDN_G26_14
 L  MINUP_G26_14
 L  MINDN_G26_14
 G  PMIN_G26_15
 L  PMAX_G26_15
 E  LOGIC_G26_15
 L  RUP_G26_15
 L  RDN_G26_15
 L  MINUP_G26_15
 L  MINDN_G26_15
 G  PMIN_G26_16
 L  PMAX_G26_16
 E  LOGIC_G26_16
 L  RUP_G26_16
 L  RDN_G26_16
 L  MINUP_G26_16
 L  MINDN_G26_16
 G  PMIN_G26_17
 L  PMAX_G26_17
 E  LOGIC_G26_17
 L  RUP_G26_17
 L  RDN_G26_17
 L  MINUP_G26_17
 L  MINDN_G26_17
 G  PMIN_G26_18
 L  PMAX_G26_18
 E  LOGIC_G26_18
 L  RUP_G26_18
 L  RDN_G26_18
 L  MINUP_G26_18
 L  MINDN_G26_18
 G  PMIN_G26_19
 L  PMAX_G26_19
 E  LOGIC_G26_19
 L  RUP_G26_19
 L  RDN_G26_19
 L  MINUP_G26_19
 L  MINDN_G26_19
 G  PMIN_G26_20
 L  PMAX_G26_20
 E  LOGIC_G26_20
 L  RUP_G26_20
 L  RDN_G26_20
 L  MINUP_G26_20
 L  MINDN_G26_20
 G  PMIN_G26_21
 L  PMAX_G26_21
 E  LOGIC_G26_21
 L  RUP_G26_21
 L  RDN_G26_21
 L  MINUP_G26_21
 L  MINDN_G26_21
 G  PMIN_G26_22
 L  PMAX_G26_22
 E  LOGIC_G26_22
 L  RUP_G26_22
 L  RDN_G26_22
 L  MINUP_G26_22
 L  MINDN_G26_22
 G  PMIN_G26_23
 L  PMAX_G26_23
 E  LOGIC_G26_23
 L  RUP_G26_23
 L  RDN_G26_23
 L  MINUP_G26_23
 L  MINDN_G26_23
 G  PMIN_G27_0
 L  PMAX_G27_0
 E  LOGIC_G27_0
 L  MINUP_G27_0
 L  MINDN_G27_0
 G  PMIN_G27_1
 L  PMAX_G27_1
 E  LOGIC_G27_1
 L  RUP_G27_1
 L  RDN_G27_1
 L  MINUP_G27_1
 L  MINDN_G27_1
 G  PMIN_G27_2
 L  PMAX_G27_2
 E  LOGIC_G27_2
 L  RUP_G27_2
 L  RDN_G27_2
 L  MINUP_G27_2
 L  MINDN_G27_2
 G  PMIN_G27_3
 L  PMAX_G27_3
 E  LOGIC_G27_3
 L  RUP_G27_3
 L  RDN_G27_3
 L  MINUP_G27_3
 L  MINDN_G27_3
 G  PMIN_G27_4
 L  PMAX_G27_4
 E  LOGIC_G27_4
 L  RUP_G27_4
 L  RDN_G27_4
 L  MINUP_G27_4
 L  MINDN_G27_4
 G  PMIN_G27_5
 L  PMAX_G27_5
 E  LOGIC_G27_5
 L  RUP_G27_5
 L  RDN_G27_5
 L  MINUP_G27_5
 L  MINDN_G27_5
 G  PMIN_G27_6
 L  PMAX_G27_6
 E  LOGIC_G27_6
 L  RUP_G27_6
 L  RDN_G27_6
 L  MINUP_G27_6
 L  MINDN_G27_6
 G  PMIN_G27_7
 L  PMAX_G27_7
 E  LOGIC_G27_7
 L  RUP_G27_7
 L  RDN_G27_7
 L  MINUP_G27_7
 L  MINDN_G27_7
 G  PMIN_G27_8
 L  PMAX_G27_8
 E  LOGIC_G27_8
 L  RUP_G27_8
 L  RDN_G27_8
 L  MINUP_G27_8
 L  MINDN_G27_8
 G  PMIN_G27_9
 L  PMAX_G27_9
 E  LOGIC_G27_9
 L  RUP_G27_9
 L  RDN_G27_9
 L  MINUP_G27_9
 L  MINDN_G27_9
 G  PMIN_G27_10
 L  PMAX_G27_10
 E  LOGIC_G27_10
 L  RUP_G27_10
 L  RDN_G27_10
 L  MINUP_G27_10
 L  MINDN_G27_10
 G  PMIN_G27_11
 L  PMAX_G27_11
 E  LOGIC_G27_11
 L  RUP_G27_11
 L  RDN_G27_11
 L  MINUP_G27_11
 L  MINDN_G27_11
 G  PMIN_G27_12
 L  PMAX_G27_12
 E  LOGIC_G27_12
 L  RUP_G27_12
 L  RDN_G27_12
 L  MINUP_G27_12
 L  MINDN_G27_12
 G  PMIN_G27_13
 L  PMAX_G27_13
 E  LOGIC_G27_13
 L  RUP_G27_13
 L  RDN_G27_13
 L  MINUP_G27_13
 L  MINDN_G27_13
 G  PMIN_G27_14
 L  PMAX_G27_14
 E  LOGIC_G27_14
 L  RUP_G27_14
 L  RDN_G27_14
 L  MINUP_G27_14
 L  MINDN_G27_14
 G  PMIN_G27_15
 L  PMAX_G27_15
 E  LOGIC_G27_15
 L  RUP_G27_15
 L  RDN_G27_15
 L  MINUP_G27_15
 L  MINDN_G27_15
 G  PMIN_G27_16
 L  PMAX_G27_16
 E  LOGIC_G27_16
 L  RUP_G27_16
 L  RDN_G27_16
 L  MINUP_G27_16
 L  MINDN_G27_16
 G  PMIN_G27_17
 L  PMAX_G27_17
 E  LOGIC_G27_17
 L  RUP_G27_17
 L  RDN_G27_17
 L  MINUP_G27_17
 L  MINDN_G27_17
 G  PMIN_G27_18
 L  PMAX_G27_18
 E  LOGIC_G27_18
 L  RUP_G27_18
 L  RDN_G27_18
 L  MINUP_G27_18
 L  MINDN_G27_18
 G  PMIN_G27_19
 L  PMAX_G27_19
 E  LOGIC_G27_19
 L  RUP_G27_19
 L  RDN_G27_19
 L  MINUP_G27_19
 L  MINDN_G27_19
 G  PMIN_G27_20
 L  PMAX_G27_20
 E  LOGIC_G27_20
 L  RUP_G27_20
 L  RDN_G27_20
 L  MINUP_G27_20
 L  MINDN_G27_20
 G  PMIN_G27_21
 L  PMAX_G27_21
 E  LOGIC_G27_21
 L  RUP_G27_21
 L  RDN_G27_21
 L  MINUP_G27_21
 L  MINDN_G27_21
 G  PMIN_G27_22
 L  PMAX_G27_22
 E  LOGIC_G27_22
 L  RUP_G27_22
 L  RDN_G27_22
 L  MINUP_G27_22
 L  MINDN_G27_22
 G  PMIN_G27_23
 L  PMAX_G27_23
 E  LOGIC_G27_23
 L  RUP_G27_23
 L  RDN_G27_23
 L  MINUP_G27_23
 L  MINDN_G27_23
 G  PMIN_G28_0
 L  PMAX_G28_0
 E  LOGIC_G28_0
 L  MINUP_G28_0
 L  MINDN_G28_0
 G  PMIN_G28_1
 L  PMAX_G28_1
 E  LOGIC_G28_1
 L  RUP_G28_1
 L  RDN_G28_1
 L  MINUP_G28_1
 L  MINDN_G28_1
 G  PMIN_G28_2
 L  PMAX_G28_2
 E  LOGIC_G28_2
 L  RUP_G28_2
 L  RDN_G28_2
 L  MINUP_G28_2
 L  MINDN_G28_2
 G  PMIN_G28_3
 L  PMAX_G28_3
 E  LOGIC_G28_3
 L  RUP_G28_3
 L  RDN_G28_3
 L  MINUP_G28_3
 L  MINDN_G28_3
 G  PMIN_G28_4
 L  PMAX_G28_4
 E  LOGIC_G28_4
 L  RUP_G28_4
 L  RDN_G28_4
 L  MINUP_G28_4
 L  MINDN_G28_4
 G  PMIN_G28_5
 L  PMAX_G28_5
 E  LOGIC_G28_5
 L  RUP_G28_5
 L  RDN_G28_5
 L  MINUP_G28_5
 L  MINDN_G28_5
 G  PMIN_G28_6
 L  PMAX_G28_6
 E  LOGIC_G28_6
 L  RUP_G28_6
 L  RDN_G28_6
 L  MINUP_G28_6
 L  MINDN_G28_6
 G  PMIN_G28_7
 L  PMAX_G28_7
 E  LOGIC_G28_7
 L  RUP_G28_7
 L  RDN_G28_7
 L  MINUP_G28_7
 L  MINDN_G28_7
 G  PMIN_G28_8
 L  PMAX_G28_8
 E  LOGIC_G28_8
 L  RUP_G28_8
 L  RDN_G28_8
 L  MINUP_G28_8
 L  MINDN_G28_8
 G  PMIN_G28_9
 L  PMAX_G28_9
 E  LOGIC_G28_9
 L  RUP_G28_9
 L  RDN_G28_9
 L  MINUP_G28_9
 L  MINDN_G28_9
 G  PMIN_G28_10
 L  PMAX_G28_10
 E  LOGIC_G28_10
 L  RUP_G28_10
 L  RDN_G28_10
 L  MINUP_G28_10
 L  MINDN_G28_10
 G  PMIN_G28_11
 L  PMAX_G28_11
 E  LOGIC_G28_11
 L  RUP_G28_11
 L  RDN_G28_11
 L  MINUP_G28_11
 L  MINDN_G28_11
 G  PMIN_G28_12
 L  PMAX_G28_12
 E  LOGIC_G28_12
 L  RUP_G28_12
 L  RDN_G28_12
 L  MINUP_G28_12
 L  MINDN_G28_12
 G  PMIN_G28_13
 L  PMAX_G28_13
 E  LOGIC_G28_13
 L  RUP_G28_13
 L  RDN_G28_13
 L  MINUP_G28_13
 L  MINDN_G28_13
 G  PMIN_G28_14
 L  PMAX_G28_14
 E  LOGIC_G28_14
 L  RUP_G28_14
 L  RDN_G28_14
 L  MINUP_G28_14
 L  MINDN_G28_14
 G  PMIN_G28_15
 L  PMAX_G28_15
 E  LOGIC_G28_15
 L  RUP_G28_15
 L  RDN_G28_15
 L  MINUP_G28_15
 L  MINDN_G28_15
 G  PMIN_G28_16
 L  PMAX_G28_16
 E  LOGIC_G28_16
 L  RUP_G28_16
 L  RDN_G28_16
 L  MINUP_G28_16
 L  MINDN_G28_16
 G  PMIN_G28_17
 L  PMAX_G28_17
 E  LOGIC_G28_17
 L  RUP_G28_17
 L  RDN_G28_17
 L  MINUP_G28_17
 L  MINDN_G28_17
 G  PMIN_G28_18
 L  PMAX_G28_18
 E  LOGIC_G28_18
 L  RUP_G28_18
 L  RDN_G28_18
 L  MINUP_G28_18
 L  MINDN_G28_18
 G  PMIN_G28_19
 L  PMAX_G28_19
 E  LOGIC_G28_19
 L  RUP_G28_19
 L  RDN_G28_19
 L  MINUP_G28_19
 L  MINDN_G28_19
 G  PMIN_G28_20
 L  PMAX_G28_20
 E  LOGIC_G28_20
 L  RUP_G28_20
 L  RDN_G28_20
 L  MINUP_G28_20
 L  MINDN_G28_20
 G  PMIN_G28_21
 L  PMAX_G28_21
 E  LOGIC_G28_21
 L  RUP_G28_21
 L  RDN_G28_21
 L  MINUP_G28_21
 L  MINDN_G28_21
 G  PMIN_G28_22
 L  PMAX_G28_22
 E  LOGIC_G28_22
 L  RUP_G28_22
 L  RDN_G28_22
 L  MINUP_G28_22
 L  MINDN_G28_22
 G  PMIN_G28_23
 L  PMAX_G28_23
 E  LOGIC_G28_23
 L  RUP_G28_23
 L  RDN_G28_23
 L  MINUP_G28_23
 L  MINDN_G28_23
 G  PMIN_G29_0
 L  PMAX_G29_0
 E  LOGIC_G29_0
 L  MINUP_G29_0
 L  MINDN_G29_0
 G  PMIN_G29_1
 L  PMAX_G29_1
 E  LOGIC_G29_1
 L  RUP_G29_1
 L  RDN_G29_1
 L  MINUP_G29_1
 L  MINDN_G29_1
 G  PMIN_G29_2
 L  PMAX_G29_2
 E  LOGIC_G29_2
 L  RUP_G29_2
 L  RDN_G29_2
 L  MINUP_G29_2
 L  MINDN_G29_2
 G  PMIN_G29_3
 L  PMAX_G29_3
 E  LOGIC_G29_3
 L  RUP_G29_3
 L  RDN_G29_3
 L  MINUP_G29_3
 L  MINDN_G29_3
 G  PMIN_G29_4
 L  PMAX_G29_4
 E  LOGIC_G29_4
 L  RUP_G29_4
 L  RDN_G29_4
 L  MINUP_G29_4
 L  MINDN_G29_4
 G  PMIN_G29_5
 L  PMAX_G29_5
 E  LOGIC_G29_5
 L  RUP_G29_5
 L  RDN_G29_5
 L  MINUP_G29_5
 L  MINDN_G29_5
 G  PMIN_G29_6
 L  PMAX_G29_6
 E  LOGIC_G29_6
 L  RUP_G29_6
 L  RDN_G29_6
 L  MINUP_G29_6
 L  MINDN_G29_6
 G  PMIN_G29_7
 L  PMAX_G29_7
 E  LOGIC_G29_7
 L  RUP_G29_7
 L  RDN_G29_7
 L  MINUP_G29_7
 L  MINDN_G29_7
 G  PMIN_G29_8
 L  PMAX_G29_8
 E  LOGIC_G29_8
 L  RUP_G29_8
 L  RDN_G29_8
 L  MINUP_G29_8
 L  MINDN_G29_8
 G  PMIN_G29_9
 L  PMAX_G29_9
 E  LOGIC_G29_9
 L  RUP_G29_9
 L  RDN_G29_9
 L  MINUP_G29_9
 L  MINDN_G29_9
 G  PMIN_G29_10
 L  PMAX_G29_10
 E  LOGIC_G29_10
 L  RUP_G29_10
 L  RDN_G29_10
 L  MINUP_G29_10
 L  MINDN_G29_10
 G  PMIN_G29_11
 L  PMAX_G29_11
 E  LOGIC_G29_11
 L  RUP_G29_11
 L  RDN_G29_11
 L  MINUP_G29_11
 L  MINDN_G29_11
 G  PMIN_G29_12
 L  PMAX_G29_12
 E  LOGIC_G29_12
 L  RUP_G29_12
 L  RDN_G29_12
 L  MINUP_G29_12
 L  MINDN_G29_12
 G  PMIN_G29_13
 L  PMAX_G29_13
 E  LOGIC_G29_13
 L  RUP_G29_13
 L  RDN_G29_13
 L  MINUP_G29_13
 L  MINDN_G29_13
 G  PMIN_G29_14
 L  PMAX_G29_14
 E  LOGIC_G29_14
 L  RUP_G29_14
 L  RDN_G29_14
 L  MINUP_G29_14
 L  MINDN_G29_14
 G  PMIN_G29_15
 L  PMAX_G29_15
 E  LOGIC_G29_15
 L  RUP_G29_15
 L  RDN_G29_15
 L  MINUP_G29_15
 L  MINDN_G29_15
 G  PMIN_G29_16
 L  PMAX_G29_16
 E  LOGIC_G29_16
 L  RUP_G29_16
 L  RDN_G29_16
 L  MINUP_G29_16
 L  MINDN_G29_16
 G  PMIN_G29_17
 L  PMAX_G29_17
 E  LOGIC_G29_17
 L  RUP_G29_17
 L  RDN_G29_17
 L  MINUP_G29_17
 L  MINDN_G29_17
 G  PMIN_G29_18
 L  PMAX_G29_18
 E  LOGIC_G29_18
 L  RUP_G29_18
 L  RDN_G29_18
 L  MINUP_G29_18
 L  MINDN_G29_18
 G  PMIN_G29_19
 L  PMAX_G29_19
 E  LOGIC_G29_19
 L  RUP_G29_19
 L  RDN_G29_19
 L  MINUP_G29_19
 L  MINDN_G29_19
 G  PMIN_G29_20
 L  PMAX_G29_20
 E  LOGIC_G29_20
 L  RUP_G29_20
 L  RDN_G29_20
 L  MINUP_G29_20
 L  MINDN_G29_20
 G  PMIN_G29_21
 L  PMAX_G29_21
 E  LOGIC_G29_21
 L  RUP_G29_21
 L  RDN_G29_21
 L  MINUP_G29_21
 L  MINDN_G29_21
 G  PMIN_G29_22
 L  PMAX_G29_22
 E  LOGIC_G29_22
 L  RUP_G29_22
 L  RDN_G29_22
 L  MINUP_G29_22
 L  MINDN_G29_22
 G  PMIN_G29_23
 L  PMAX_G29_23
 E  LOGIC_G29_23
 L  RUP_G29_23
 L  RDN_G29_23
 L  MINUP_G29_23
 L  MINDN_G29_23
 G  DEM_0
 G  RES_0
 G  DEM_1
 G  RES_1
 G  DEM_2
 G  RES_2
 G  DEM_3
 G  RES_3
 G  DEM_4
 G  RES_4
 G  DEM_5
 G  RES_5
 G  DEM_6
 G  RES_6
 G  DEM_7
 G  RES_7
 G  DEM_8
 G  RES_8
 G  DEM_9
 G  RES_9
 G  DEM_10
 G  RES_10
 G  DEM_11
 G  RES_11
 G  DEM_12
 G  RES_12
 G  DEM_13
 G  RES_13
 G  DEM_14
 G  RES_14
 G  DEM_15
 G  RES_15
 G  DEM_16
 G  RES_16
 G  DEM_17
 G  RES_17
 G  DEM_18
 G  RES_18
 G  DEM_19
 G  RES_19
 G  DEM_20
 G  RES_20
 G  DEM_21
 G  RES_21
 G  DEM_22
 G  RES_22
 G  DEM_23
 G  RES_23
COLUMNS
    M5032 'MARKER' 'INTORG'
    U_G00_0 OBJ 139.2741590087976
    U_G00_0 PMIN_G00_0 -45.553118546098766
    U_G00_0 PMAX_G00_0 -97.02748543934042
    U_G00_0 LOGIC_G00_0 1.0
    U_G00_0 MINUP_G00_0 -1.0
    U_G00_0 MINDN_G00_0 1.0
    U_G00_0 LOGIC_G00_1 -1.0
    U_G00_0 RES_0 97.02748543934042
    V_G00_0 OBJ 1587.2182438574346
    V_G00_0 LOGIC_G00_0 -1.0
    V_G00_0 MINUP_G00_0 1.0
    V_G00_0 MINUP_G00_1 1.0
    V_G00_0 MINUP_G00_2 1.0
    V_G00_0 MINUP_G00_3 1.0
    W_G00_0 LOGIC_G00_0 1.0
    W_G00_0 MINDN_G00_0 1.0
    W_G00_0 MINDN_G00_1 1.0
    M5050 'MARKER' 'INTEND'
    P_G00_0 OBJ 49.36985785394763
    P_G00_0 PMIN_G00_0 1.0
    P_G00_0 PMAX_G00_0 1.0
    P_G00_0 RUP_G00_1 -1.0
    P_G00_0 RDN_G00_1 1.0
    P_G00_0 DEM_0 1.0
    M5057 'MARKER' 'INTORG'
    U_G00_1 OBJ 139.2741590087976
    U_G00_1 PMIN_G00_1 -45.553118546098766
    U_G00_1 PMAX_G00_1 -97.02748543934042
    U_G00_1 LOGIC_G00_1 1.0
    U_G00_1 MINUP_G00_1 -1.0
    U_G00_1 MINDN_G00_1 1.0
    U_G00_1 LOGIC_G00_2 -1.0
    U_G00_1 RES_1 97.02748543934042
    V_G00_1 OBJ 1587.2182438574346
    V_G00_1 LOGIC_G00_1 -1.0
    V_G00_1 MINUP_G00_1 1.0
    V_G00_1 MINUP_G00_2 1.0
    V_G00_1 MINUP_G00_3 1.0
    V_G00_1 MINUP_G00_4 1.0
    W_G00_1 LOGIC_G00_1 1.0
    W_G00_1 MINDN_G00_1 1.0
    W_G00_1 MINDN_G00_2 1.0
    M5075 'MARKER' 'INTEND'
    P_G00_1 OBJ 49.36985785394763
    P_G00_1 PMIN_G00_1 1.0
    P_G00_1 PMAX_G00_1 1.0
    P_G00_1 RUP_G00_1 1.0
    P_G00_1 RDN_G00_1 -1.0
    P_G00_1 RUP_G00_2 -1.0
    P_G00_1 RDN_G00_2 1.0
    P_G00_1 DEM_1 1.0
    M5084 'MARKER' 'INTORG'
    U_G00_2 OBJ 139.2741590087976
    U_G00_2 PMIN_G00_2 -45.553118546098766
    U_G00_2 PMAX_G00_2 -97.02748543934042
    U_G00_2 LOGIC_G00_2 1.0
    U_G00_2 MINUP_G00_2 -1.0
    U_G00_2 MINDN_G00_2 1.0
    U_G00_2 LOGIC_G00_3 -1.0
    U_G00_2 RES_2 97.02748543934042
    V_G00_2 OBJ 1587.2182438574346
    V_G00_2 LOGIC_G00_2 -1.0
    V_G00_2 MINUP_G00_2 1.0
    V_G00_2 MINUP_G00_3 1.0
    V_G00_2 MINUP_G00_4 1.0
    V_G00_2 MINUP_G00_5 1.0
    W_G00_2 LOGIC_G00_2 1.0
    W_G00_2 MINDN_G00_2 1.0
    W_G00_2 MINDN_G00_3 1.0
    M5102 'MARKER' 'INTEND'
    P_G00_2 OBJ 49.36985785394763
    P_G00_2 PMIN_G00_2 1.0
    P_G00_2 PMAX_G00_2 1.0
    P_G00_2 RUP_G00_2 1.0
    P_G00_2 RDN_G00_2 -1.0
    P_G00_2 RUP_G00_3 -1.0
    P_G00_2 RDN_G00_3 1.0
    P_G00_2 DEM_2 1.0
    M5111 'MARKER' 'INTORG'
    U_G00_3 OBJ 139.2741590087976
    U_G00_3 PMIN_G00_3 -45.553118546098766
    U_G00_3 PMAX_G00_3 -97.02748543934042
    U_G00_3 LOGIC_G00_3 1.0
    U_G00_3 MINUP_G00_3 -1.0
    U_G00_3 MINDN_G00_3 1.0
    U_G00_3 LOGIC_G00_4 -1.0
    U_G00_3 RES_3 97.02748543934042
    V_G00_3 OBJ 1587.2182438574346
    V_G00_3 LOGIC_G00_3 -1.0
    V_G00_3 MINUP_G00_3 1.0
    V_G00_3 MINUP_G00_4 1.0
    V_G00_3 MINUP_G00_5 1.0
    V_G00_3 MINUP_G00_6 1.0
    W_G00_3 LOGIC_G00_3 1.0
    W_G00_3 MINDN_G00_3 1.0
    W_G00_3 MINDN_G00_4 1.0
    M5129 'MARKER' 'INTEND'
    P_G00_3 OBJ 49.36985785394763
    P_G00_3 PMIN_G00_3 1.0
    P_G00_3 PMAX_G00_3 1.0
    P_G00_3 RUP_G00_3 1.0
    P_G00_3 RDN_G00_3 -1.0
    P_G00_3 RUP_G00_4 -1.0
    P_G00_3 RDN_G00_4 1.0
    P_G00_3 DEM_3 1.0
    M5138 'MARKER' 'INTORG'
    U_G00_4 OBJ 139.2741590087976
    U_G00_4 PMIN_G00_4 -45.553118546098766
    U_G00_4 PMAX_G00_4 -97.02748543934042
    U_G00_4 LOGIC_G00_4 1.0
    U_G00_4 MINUP_G00_4 -1.0
    U_G00_4 MINDN_G00_4 1.0
    U_G00_4 LOGIC_G00_5 -1.0
    U_G00_4 RES_4 97.02748543934042
    V_G00_4 OBJ 1587.2182438574346
    V_G00_4 LOGIC_G00_4 -1.0
    V_G00_4 MINUP_G00_4 1.0
    V_G00_4 MINUP_G00_5 1.0
    V_G00_4 MINUP_G00_6 1.0
    V_G00_4 MINUP_G00_7 1.0
    W_G00_4 LOGIC_G00_4 1.0
    W_G00_4 MINDN_G00_4 1.0
    W_G00_4 MINDN_G00_5 1.0
    M5156 'MARKER' 'INTEND'
    P_G00_4 OBJ 49.36985785394763
    P_G00_4 PMIN_G00_4 1.0
    P_G00_4 PMAX_G00_4 1.0
    P_G00_4 RUP_G00_4 1.0
    P_G00_4 RDN_G00_4 -1.0
    P_G00_4 RUP_G00_5 -1.0
    P_G00_4 RDN_G00_5 1.0
    P_G00_4 DEM_4 1.0
    M5165 'MARKER' 'INTORG'
    U_G00_5 OBJ 139.2741590087976
    U_G00_5 PMIN_G00_5 -45.553118546098766
    U_G00_5 PMAX_G00_5 -97.02748543934042
    U_G00_5 LOGIC_G00_5 1.0
    U_G00_5 MINUP_G00_5 -1.0
    U_G00_5 MINDN_G00_5 1.0
    U_G00_5 LOGIC_G00_6 -1.0
    U_G00_5 RES_5 97.02748543934042
    V_G00_5 OBJ 1587.2182438574346
    V_G00_5 LOGIC_G00_5 -1.0
    V_G00_5 MINUP_G00_5 1.0
    V_G00_5 MINUP_G00_6 1.0
    V_G00_5 MINUP_G00_7 1.0
    V_G00_5 MINUP_G00_8 1.0
    W_G00_5 LOGIC_G00_5 1.0
    W_G00_5 MINDN_G00_5 1.0
    W_G00_5 MINDN_G00_6 1.0
    M5183 'MARKER' 'INTEND'
    P_G00_5 OBJ 49.36985785394763
    P_G00_5 PMIN_G00_5 1.0
    P_G00_5 PMAX_G00_5 1.0
    P_G00_5 RUP_G00_5 1.0
    P_G00_5 RDN_G00_5 -1.0
    P_G00_5 RUP_G00_6 -1.0
    P_G00_5 RDN_G00_6 1.0
    P_G00_5 DEM_5 1.0
    M5192 'MARKER' 'INTORG'
    U_G00_6 OBJ 139.2741590087976
    U_G00_6 PMIN_G00_6 -45.553118546098766
    U_G00_6 PMAX_G00_6 -97.02748543934042
    U_G00_6 LOGIC_G00_6 1.0
    U_G00_6 MINUP_G00_6 -1.0
    U_G00_6 MINDN_G00_6 1.0
    U_G00_6 LOGIC_G00_7 -1.0
    U_G00_6 RES_6 97.02748543934042
    V_G00_6 OBJ 1587.2182438574346
    V_G00_6 LOGIC_G00_6 -1.0
    V_G00_6 MINUP_G00_6 1.0
    V_G00_6 MINUP_G00_7 1.0
    V_G00_6 MINUP_G00_8 1.0
    V_G00_6 MINUP_G00_9 1.0
    W_G00_6 LOGIC_G00_6 1.0
    W_G00_6 MINDN_G00_6 1.0
    W_G00_6 MINDN_G00_7 1.0
    M5210 'MARKER' 'INTEND'
    P_G00_6 OBJ 49.36985785394763
    P_G00_6 PMIN_G00_6 1.0
    P_G00_6 PMAX_G00_6 1.0
    P_G00_6 RUP_G00_6 1.0
    P_G00_6 RDN_G00_6 -1.0
    P_G00_6 RUP_G00_7 -1.0
    P_G00_6 RDN_G00_7 1.0
    P_G00_6 DEM_6 1.0
    M5219 'MARKER' 'INTORG'
    U_G00_7 OBJ 139.2741590087976
    U_G00_7 PMIN_G00_7 -45.553118546098766
    U_G00_7 PMAX_G00_7 -97.02748543934042
    U_G00_7 LOGIC_G00_7 1.0
    U_G00_7 MINUP_G00_7 -1.0
    U_G00_7 MINDN_G00_7 1.0
    U_G00_7 LOGIC_G00_8 -1.0
    U_G00_7 RES_7 97.02748543934042
    V_G00_7 OBJ 1587.2182438574346
    V_G00_7 LOGIC_G00_7 -1.0
    V_G00_7 MINUP_G00_7 1.0
    V_G00_7 MINUP_G00_8 1.0
    V_G00_7 MINUP_G00_9 1.0
    V_G00_7 MINUP_G00_10 1.0
    W_G00_7 LOGIC_G00_7 1.0
    W_G00_7 MINDN_G00_7 1.0
    W_G00_7 MINDN_G00_8 1.0
    M5237 'MARKER' 'INTEND'
    P_G00_7 OBJ 49.36985785394763
    P_G00_7 PMIN_G00_7 1.0
    P_G00_7 PMAX_G00_7 1.0
    P_G00_7 RUP_G00_7 1.0
    P_G00_7 RDN_G00_7 -1.0
    P_G00_7 RUP_G00_8 -1.0
    P_G00_7 RDN_G00_8 1.0
    P_G00_7 DEM_7 1.0
    M5246 'MARKER' 'INTORG'
    U_G00_8 OBJ 139.2741590087976
    U_G00_8 PMIN_G00_8 -45.553118546098766
    U_G00_8 PMAX_G00_8 -97.02748543934042
    U_G00_8 LOGIC_G00_8 1.0
    U_G00_8 MINUP_G00_8 -1.0
    U_G00_8 MINDN_G00_8 1.0
    U_G00_8 LOGIC_G00_9 -1.0
    U_G00_8 RES_8 97.02748543934042
    V_G00_8 OBJ 1587.2182438574346
    V_G00_8 LOGIC_G00_8 -1.0
    V_G00_8 MINUP_G00_8 1.0
    V_G00_8 MINUP_G00_9 1.0
    V_G00_8 MINUP_G00_10 1.0
    V_G00_8 MINUP_G00_11 1.0
    W_G00_8 LOGIC_G00_8 1.0
    W_G00_8 MINDN_G00_8 1.0
    W_G00_8 MINDN_G00_9 1.0
    M5264 'MARKER' 'INTEND'
    P_G00_8 OBJ 49.36985785394763
    P_G00_8 PMIN_G00_8 1.0
    P_G00_8 PMAX_G00_8 1.0
    P_G00_8 RUP_G00_8 1.0
    P_G00_8 RDN_G00_8 -1.0
    P_G00_8 RUP_G00_9 -1.0
    P_G00_8 RDN_G00_9 1.0
    P_G00_8 DEM_8 1.0
    M5273 'MARKER' 'INTORG'
    U_G00_9 OBJ 139.2741590087976
    U_G00_9 PMIN_G00_9 -45.553118546098766
    U_G00_9 PMAX_G00_9 -97.02748543934042
    U_G00_9 LOGIC_G00_9 1.0
    U_G00_9 MINUP_G00_9 -1.0
    U_G00_9 MINDN_G00_9 1.0
    U_G00_9 LOGIC_G00_10 -1.0
    U_G00_9 RES_9 97.02748543934042
    V_G00_9 OBJ 1587.2182438574346
    V_G00_9 LOGIC_G00_9 -1.0
    V_G00_9 MINUP_G00_9 1.0
    V_G00_9 MINUP_G00_10 1.0
    V_G00_9 MINUP_G00_11 1.0
    V_G00_9 MINUP_G00_12 1.0
    W_G00_9 LOGIC_G00_9 1.0
    W_G00_9 MINDN_G00_9 1.0
    W_G00_9 MINDN_G00_10 1.0
    M5291 'MARKER' 'INTEND'
    P_G00_9 OBJ 49.36985785394763
    P_G00_9 PMIN_G00_9 1.0
    P_G00_9 PMAX_G00_9 1.0
    P_G00_9 RUP_G00_9 1.0
    P_G00_9 RDN_G00_9 -1.0
    P_G00_9 RUP_G00_10 -1.0
    P_G00_9 RDN_G00_10 1.0
    P_G00_9 DEM_9 1.0
    M5300 'MARKER' 'INTORG'
    U_G00_10 OBJ 139.2741590087976
    U_G00_10 PMIN_G00_10 -45.553118546098766
    U_G00_10 PMAX_G00_10 -97.02748543934042
    U_G00_10 LOGIC_G00_10 1.0
    U_G00_10 MINUP_G00_10 -1.0
    U_G00_10 MINDN_G00_10 1.0
    U_G00_10 LOGIC_G00_11 -1.0
    U_G00_10 RES_10 97.02748543934042
    V_G00_10 OBJ 1587.2182438574346
    V_G00_10 LOGIC_G00_10 -1.0
    V_G00_10 MINUP_G00_10 1.0
    V_G00_10 MINUP_G00_11 1.0
    V_G00_10 MINUP_G00_12 1.0
    V_G00_10 MINUP_G00_13 1.0
    W_G00_10 LOGIC_G00_10 1.0
    W_G00_10 MINDN_G00_10 1.0
    W_G00_10 MINDN_G00_11 1.0
    M5318 'MARKER' 'INTEND'
    P_G00_10 OBJ 49.36985785394763
    P_G00_10 PMIN_G00_10 1.0
    P_G00_10 PMAX_G00_10 1.0
    P_G00_10 RUP_G00_10 1.0
    P_G00_10 RDN_G00_10 -1.0
    P_G00_10 RUP_G00_11 -1.0
    P_G00_10 RDN_G00_11 1.0
    P_G00_10 DEM_10 1.0
    M5327 'MARKER' 'INTORG'
    U_G00_11 OBJ 139.2741590087976
    U_G00_11 PMIN_G00_11 -45.553118546098766
    U_G00_11 PMAX_G00_11 -97.02748543934042
    U_G00_11 LOGIC_G00_11 1.0
    U_G00_11 MINUP_G00_11 -1.0
    U_G00_11 MINDN_G00_11 1.0
    U_G00_11 LOGIC_G00_12 -1.0
    U_G00_11 RES_11 97.02748543934042
    V_G00_11 OBJ 1587.2182438574346
    V_G00_11 LOGIC_G00_11 -1.0
    V_G00_11 MINUP_G00_11 1.0
    V_G00_11 MINUP_G00_12 1.0
    V_G00_11 MINUP_G00_13 1.0
    V_G00_11 MINUP_G00_14 1.0
    W_G00_11 LOGIC_G00_11 1.0
    W_G00_11 MINDN_G00_11 1.0
    W_G00_11 MINDN_G00_12 1.0
    M5345 'MARKER' 'INTEND'
    P_G00_11 OBJ 49.36985785394763
    P_G00_11 PMIN_G00_11 1.0
    P_G00_11 PMAX_G00_11 1.0
    P_G00_11 RUP_G00_11 1.0
    P_G00_11 RDN_G00_11 -1.0
    P_G00_11 RUP_G00_12 -1.0
    P_G00_11 RDN_G00_12 1.0
    P_G00_11 DEM_11 1.0
    M5354 'MARKER' 'INTORG'
    U_G00_12 OBJ 139.2741590087976
    U_G00_12 PMIN_G00_12 -45.553118546098766
    U_G00_12 PMAX_G00_12 -97.02748543934042
    U_G00_12 LOGIC_G00_12 1.0
    U_G00_12 MINUP_G00_12 -1.0
    U_G00_12 MINDN_G00_12 1.0
    U_G00_12 LOGIC_G00_13 -1.0
    U_G00_12 RES_12 97.02748543934042
    V_G00_12 OBJ 1587.2182438574346
    V_G00_12 LOGIC_G00_12 -1.0
    V_G00_12 MINUP_G00_12 1.0
    V_G00_12 MINUP_G00_13 1.0
    V_G00_12 MINUP_G00_14 1.0
    V_G00_12 MINUP_G00_15 1.0
    W_G00_12 LOGIC_G00_12 1.0
    W_G00_12 MINDN_G00_12 1.0
    W_G00_12 MINDN_G00_13 1.0
    M5372 'MARKER' 'INTEND'
    P_G00_12 OBJ 49.36985785394763
    P_G00_12 PMIN_G00_12 1.0
    P_G00_12 PMAX_G00_12 1.0
    P_G00_12 RUP_G00_12 1.0
    P_G00_12 RDN_G00_12 -1.0
    P_G00_12 RUP_G00_13 -1.0
    P_G00_12 RDN_G00_13 1.0
    P_G00_12 DEM_12 1.0
    M5381 'MARKER' 'INTORG'
    U_G00_13 OBJ 139.2741590087976
    U_G00_13 PMIN_G00_13 -45.553118546098766
    U_G00_13 PMAX_G00_13 -97.02748543934042
    U_G00_13 LOGIC_G00_13 1.0
    U_G00_13 MINUP_G00_13 -1.0
    U_G00_13 MINDN_G00_13 1.0
    U_G00_13 LOGIC_G00_14 -1.0
    U_G00_13 RES_13 97.02748543934042
    V_G00_13 OBJ 1587.2182438574346
    V_G00_13 LOGIC_G00_13 -1.0
    V_G00_13 MINUP_G00_13 1.0
    V_G00_13 MINUP_G00_14 1.0
    V_G00_13 MINUP_G00_15 1.0
    V_G00_13 MINUP_G00_16 1.0
    W_G00_13 LOGIC_G00_13 1.0
    W_G00_13 MINDN_G00_13 1.0
    W_G00_13 MINDN_G00_14 1.0
    M5399 'MARKER' 'INTEND'
    P_G00_13 OBJ 49.36985785394763
    P_G00_13 PMIN_G00_13 1.0
    P_G00_13 PMAX_G00_13 1.0
    P_G00_13 RUP_G00_13 1.0
    P_G00_13 RDN_G00_13 -1.0
    P_G00_13 RUP_G00_14 -1.0
    P_G00_13 RDN_G00_14 1.0
    P_G00_13 DEM_13 1.0
    M5408 'MARKER' 'INTORG'
    U_G00_14 OBJ 139.2741590087976
    U_G00_14 PMIN_G00_14 -45.553118546098766
    U_G00_14 PMAX_G00_14 -97.02748543934042
    U_G00_14 LOGIC_G00_14 1.0
    U_G00_14 MINUP_G00_14 -1.0
    U_G00_14 MINDN_G00_14 1.0
    U_G00_14 LOGIC_G00_15 -1.0
    U_G00_14 RES_14 97.02748543934042
    V_G00_14 OBJ 1587.2182438574346
    V_G00_14 LOGIC_G00_14 -1.0
    V_G00_14 MINUP_G00_14 1.0
    V_G00_14 MINUP_G00_15 1.0
    V_G00_14 MINUP_G00_16 1.0
    V_G00_14 MINUP_G00_17 1.0
    W_G00_14 LOGIC_G00_14 1.0
    W_G00_14 MINDN_G00_14 1.0
    W_G00_14 MINDN_G00_15 1.0
    M5426 'MARKER' 'INTEND'
    P_G00_14 OBJ 49.36985785394763
    P_G00_14 PMIN_G00_14 1.0
    P_G00_14 PMAX_G00_14 1.0
    P_G00_14 RUP_G00_14 1.0
    P_G00_14 RDN_G00_14 -1.0
    P_G00_14 RUP_G00_15 -1.0
    P_G00_14 RDN_G00_15 1.0
    P_G00_14 DEM_14 1.0
    M5435 'MARKER' 'INTORG'
    U_G00_15 OBJ 139.2741590087976
    U_G00_15 PMIN_G00_15 -45.553118546098766
    U_G00_15 PMAX_G00_15 -97.02748543934042
    U_G00_15 LOGIC_G00_15 1.0
    U_G00_15 MINUP_G00_15 -1.0
    U_G00_15 MINDN_G00_15 1.0
    U_G00_15 LOGIC_G00_16 -1.0
    U_G00_15 RES_15 97.02748543934042
    V_G00_15 OBJ 1587.2182438574346
    V_G00_15 LOGIC_G00_15 -1.0
    V_G00_15 MINUP_G00_15 1.0
    V_G00_15 MINUP_G00_16 1.0
    V_G00_15 MINUP_G00_17 1.0
    V_G00_15 MINUP_G00_18 1.0
    W_G00_15 LOGIC_G00_15 1.0
    W_G00_15 MINDN_G00_15 1.0
    W_G00_15 MINDN_G00_16 1.0
    M5453 'MARKER' 'INTEND'
    P_G00_15 OBJ 49.36985785394763
    P_G00_15 PMIN_G00_15 1.0
    P_G00_15 PMAX_G00_15 1.0
    P_G00_15 RUP_G00_15 1.0
    P_G00_15 RDN_G00_15 -1.0
    P_G00_15 RUP_G00_16 -1.0
    P_G00_15 RDN_G00_16 1.0
    P_G00_15 DEM_15 1.0
    M5462 'MARKER' 'INTORG'
    U_G00_16 OBJ 139.2741590087976
    U_G00_16 PMIN_G00_16 -45.553118546098766
    U_G00_16 PMAX_G00_16 -97.02748543934042
    U_G00_16 LOGIC_G00_16 1.0
    U_G00_16 MINUP_G00_16 -1.0
    U_G00_16 MINDN_G00_16 1.0
    U_G00_16 LOGIC_G00_17 -1.0
    U_G00_16 RES_16 97.02748543934042
    V_G00_16 OBJ 1587.2182438574346
    V_G00_16 LOGIC_G00_16 -1.0
    V_G00_16 MINUP_G00_16 1.0
    V_G00_16 MINUP_G00_17 1.0
    V_G00_16 MINUP_G00_18 1.0
    V_G00_16 MINUP_G00_19 1.0
    W_G00_16 LOGIC_G00_16 1.0
    W_G00_16 MINDN_G00_16 1.0
    W_G00_16 MINDN_G00_17 1.0
    M5480 'MARKER' 'INTEND'
    P_G00_16 OBJ 49.36985785394763
    P_G00_16 PMIN_G00_16 1.0
    P_G00_16 PMAX_G00_16 1.0
    P_G00_16 RUP_G00_16 1.0
    P_G00_16 RDN_G00_16 -1.0
    P_G00_16 RUP_G00_17 -1.0
    P_G00_16 RDN_G00_17 1.0
    P_G00_16 DEM_16 1.0
    M5489 'MARKER' 'INTORG'
    U_G00_17 OBJ 139.2741590087976
    U_G00_17 PMIN_G00_17 -45.553118546098766
    U_G00_17 PMAX_G00_17 -97.02748543934042
    U_G00_17 LOGIC_G00_17 1.0
    U_G00_17 MINUP_G00_17 -1.0
    U_G00_17 MINDN_G00_17 1.0
    U_G00_17 LOGIC_G00_18 -1.0
    U_G00_17 RES_17 97.02748543934042
    V_G00_17 OBJ 1587.2182438574346
    V_G00_17 LOGIC_G00_17 -1.0
    V_G00_17 MINUP_G00_17 1.0
    V_G00_17 MINUP_G00_18 1.0
    V_G00_17 MINUP_G00_19 1.0
    V_G00_17 MINUP_G00_20 1.0
    W_G00_17 LOGIC_G00_17 1.0
    W_G00_17 MINDN_G00_17 1.0
    W_G00_17 MINDN_G00_18 1.0
    M5507 'MARKER' 'INTEND'
    P_G00_17 OBJ 49.36985785394763
    P_G00_17 PMIN_G00_17 1.0
    P_G00_17 PMAX_G00_17 1.0
    P_G00_17 RUP_G00_17 1.0
    P_G00_17 RDN_G00_17 -1.0
    P_G00_17 RUP_G00_18 -1.0
    P_G00_17 RDN_G00_18 1.0
    P_G00_17 DEM_17 1.0
    M5516 'MARKER' 'INTORG'
    U_G00_18 OBJ 139.2741590087976
    U_G00_18 PMIN_G00_18 -45.553118546098766
    U_G00_18 PMAX_G00_18 -97.02748543934042
    U_G00_18 LOGIC_G00_18 1.0
    U_G00_18 MINUP_G00_18 -1.0
    U_G00_18 MINDN_G00_18 1.0
    U_G00_18 LOGIC_G00_19 -1.0
    U_G00_18 RES_18 97.02748543934042
    V_G00_18 OBJ 1587.2182438574346
    V_G00_18 LOGIC_G00_18 -1.0
    V_G00_18 MINUP_G00_18 1.0
    V_G00_18 MINUP_G00_19 1.0
    V_G00_18 MINUP_G00_20 1.0
    V_G00_18 MINUP_G00_21 1.0
    W_G00_18 LOGIC_G00_18 1.0
    W_G00_18 MINDN_G00_18 1.0
    W_G00_18 MINDN_G00_19 1.0
    M5534 'MARKER' 'INTEND'
    P_G00_18 OBJ 49.36985785394763
    P_G00_18 PMIN_G00_18 1.0
    P_G00_18 PMAX_G00_18 1.0
    P_G00_18 RUP_G00_18 1.0
    P_G00_18 RDN_G00_18 -1.0
    P_G00_18 RUP_G00_19 -1.0
    P_G00_18 RDN_G00_19 1.0
    P_G00_18 DEM_18 1.0
    M5543 'MARKER' 'INTORG'
    U_G00_19 OBJ 139.2741590087976
    U_G00_19 PMIN_G00_19 -45.553118546098766
    U_G00_19 PMAX_G00_19 -97.02748543934042
    U_G00_19 LOGIC_G00_19 1.0
    U_G00_19 MINUP_G00_19 -1.0
    U_G00_19 MINDN_G00_19 1.0
    U_G00_19 LOGIC_G00_20 -1.0
    U_G00_19 RES_19 97.02748543934042
    V_G00_19 OBJ 1587.2182438574346
    V_G00_19 LOGIC_G00_19 -1.0
    V_G00_19 MINUP_G00_19 1.0
    V_G00_19 MINUP_G00_20 1.0
    V_G00_19 MINUP_G00_21 1.0
    V_G00_19 MINUP_G00_22 1.0
    W_G00_19 LOGIC_G00_19 1.0
    W_G00_19 MINDN_G00_19 1.0
    W_G00_19 MINDN_G00_20 1.0
    M5561 'MARKER' 'INTEND'
    P_G00_19 OBJ 49.36985785394763
    P_G00_19 PMIN_G00_19 1.0
    P_G00_19 PMAX_G00_19 1.0
    P_G00_19 RUP_G00_19 1.0
    P_G00_19 RDN_G00_19 -1.0
    P_G00_19 RUP_G00_20 -1.0
    P_G00_19 RDN_G00_20 1.0
    P_G00_19 DEM_19 1.0
    M5570 'MARKER' 'INTORG'
    U_G00_20 OBJ 139.2741590087976
    U_G00_20 PMIN_G00_20 -45.553118546098766
    U_G00_20 PMAX_G00_20 -97.02748543934042
    U_G00_20 LOGIC_G00_20 1.0
    U_G00_20 MINUP_G00_20 -1.0
    U_G00_20 MINDN_G00_20 1.0
    U_G00_20 LOGIC_G00_21 -1.0
    U_G00_20 RES_20 97.02748543934042
    V_G00_20 OBJ 1587.2182438574346
    V_G00_20 LOGIC_G00_20 -1.0
    V_G00_20 MINUP_G00_20 1.0
    V_G00_20 MINUP_G00_21 1.0
    V_G00_20 MINUP_G00_22 1.0
    V_G00_20 MINUP_G00_23 1.0
    W_G00_20 LOGIC_G00_20 1.0
    W_G00_20 MINDN_G00_20 1.0
    W_G00_20 MINDN_G00_21 1.0
    M5588 'MARKER' 'INTEND'
    P_G00_20 OBJ 49.36985785394763
    P_G00_20 PMIN_G00_20 1.0
    P_G00_20 PMAX_G00_20 1.0
    P_G00_20 RUP_G00_20 1.0
    P_G00_20 RDN_G00_20 -1.0
    P_G00_20 RUP_G00_21 -1.0
    P_G00_20 RDN_G00_21 1.0
    P_G00_20 DEM_20 1.0
    M5597 'MARKER' 'INTORG'
    U_G00_21 OBJ 139.2741590087976
    U_G00_21 PMIN_G00_21 -45.553118546098766
    U_G00_21 PMAX_G00_21 -97.02748543934042
    U_G00_21 LOGIC_G00_21 1.0
    U_G00_21 MINUP_G00_21 -1.0
    U_G00_21 MINDN_G00_21 1.0
    U_G00_21 LOGIC_G00_22 -1.0
    U_G00_21 RES_21 97.02748543934042
    V_G00_21 OBJ 1587.2182438574346
    V_G00_21 LOGIC_G00_21 -1.0
    V_G00_21 MINUP_G00_21 1.0
    V_G00_21 MINUP_G00_22 1.0
    V_G00_21 MINUP_G00_23 1.0
    W_G00_21 LOGIC_G00_21 1.0
    W_G00_21 MINDN_G00_21 1.0
    W_G00_21 MINDN_G00_22 1.0
    M5614 'MARKER' 'INTEND'
    P_G00_21 OBJ 49.36985785394763
    P_G00_21 PMIN_G00_21 1.0
    P_G00_21 PMAX_G00_21 1.0
    P_G00_21 RUP_G00_21 1.0
    P_G00_21 RDN_G00_21 -1.0
    P_G00_21 RUP_G00_22 -1.0
    P_G00_21 RDN_G00_22 1.0
    P_G00_21 DEM_21 1.0
    M5623 'MARKER' 'INTORG'
    U_G00_22 OBJ 139.2741590087976
    U_G00_22 PMIN_G00_22 -45.553118546098766
    U_G00_22 PMAX_G00_22 -97.02748543934042
    U_G00_22 LOGIC_G00_22 1.0
    U_G00_22 MINUP_G00_22 -1.0
    U_G00_22 MINDN_G00_22 1.0
    U_G00_22 LOGIC_G00_23 -1.0
    U_G00_22 RES_22 97.02748543934042
    V_G00_22 OBJ 1587.2182438574346
    V_G00_22 LOGIC_G00_22 -1.0
    V_G00_22 MINUP_G00_22 1.0
    V_G00_22 MINUP_G00_23 1.0
    W_G00_22 LOGIC_G00_22 1.0
    W_G00_22 MINDN_G00_22 1.0
    W_G00_22 MINDN_G00_23 1.0
    M5639 'MARKER' 'INTEND'
    P_G00_22 OBJ 49.36985785394763
    P_G00_22 PMIN_G00_22 1.0
    P_G00_22 PMAX_G00_22 1.0
    P_G00_22 RUP_G00_22 1.0
    P_G00_22 RDN_G00_22 -1.0
    P_G00_22 RUP_G00_23 -1.0
    P_G00_22 RDN_G00_23 1.0
    P_G00_22 DEM_22 1.0
    M5648 'MARKER' 'INTORG'
    U_G00_23 OBJ 139.2741590087976
    U_G00_23 PMIN_G00_23 -45.553118546098766
    U_G00_23 PMAX_G00_23 -97.02748543934042
    U_G00_23 LOGIC_G00_23 1.0
    U_G00_23 MINUP_G00_23 -1.0
    U_G00_23 MINDN_G00_23 1.0
    U_G00_23 RES_23 97.02748543934042
    V_G00_23 OBJ 1587.2182438574346
    V_G00_23 LOGIC_G00_23 -1.0
    V_G00_23 MINUP_G00_23 1.0
    W_G00_23 LOGIC_G00_23 1.0
    W_G00_23 MINDN_G00_23 1.0
    M5661 'MARKER' 'INTEND'
    P_G00_23 OBJ 49.36985785394763
    P_G00_23 PMIN_G00_23 1.0
    P_G00_23 PMAX_G00_23 1.0
    P_G00_23 RUP_G00_23 1.0
    P_G00_23 RDN_G00_23 -1.0
    P_G00_23 DEM_23 1.0
    M5668 'MARKER' 'INTORG'
    U_G01_0 OBJ 201.46847376676868
    U_G01_0 PMIN_G01_0 -25.32497914678607
    U_G01_0 PMAX_G01_0 -82.8508553709822
    U_G01_0 LOGIC_G01_0 1.0
    U_G01_0 MINUP_G01_0 -1.0
    U_G01_0 MINDN_G01_0 1.0
    U_G01_0 LOGIC_G01_1 -1.0
    U_G01_0 RES_0 82.8508553709822
    V_G01_0 OBJ 2334.3842308822377
    V_G01_0 LOGIC_G01_0 -1.0
    V_G01_0 MINUP_G01_0 1.0
    V_G01_0 MINUP_G01_1 1.0
    V_G01_0 MINUP_G01_2 1.0
    V_G01_0 MINUP_G01_3 1.0
    W_G01_0 LOGIC_G01_0 1.0
    W_G01_0 MINDN_G01_0 1.0
    W_G01_0 MINDN_G01_1 1.0
    W_G01_0 MINDN_G01_2 1.0
    M5687 'MARKER' 'INTEND'
    P_G01_0 OBJ 52.609429676394136
    P_G01_0 PMIN_G01_0 1.0
    P_G01_0 PMAX_G01_0 1.0
    P_G01_0 RUP_G01_1 -1.0
    P_G01_0 RDN_G01_1 1.0
    P_G01_0 DEM_0 1.0
    M5694 'MARKER' 'INTORG'
    U_G01_1 OBJ 201.46847376676868
    U_G01_1 PMIN_G01_1 -25.32497914678607
    U_G01_1 PMAX_G01_1 -82.8508553709822
    U_G01_1 LOGIC_G01_1 1.0
    U_G01_1 MINUP_G01_1 -1.0
    U_G01_1 MINDN_G01_1 1.0
    U_G01_1 LOGIC_G01_2 -1.0
    U_G01_1 RES_1 82.8508553709822
    V_G01_1 OBJ 2334.3842308822377
    V_G01_1 LOGIC_G01_1 -1.0
    V_G01_1 MINUP_G01_1 1.0
    V_G01_1 MINUP_G01_2 1.0
    V_G01_1 MINUP_G01_3 1.0
    V_G01_1 MINUP_G01_4 1.0
    W_G01_1 LOGIC_G01_1 1.0
    W_G01_1 MINDN_G01_1 1.0
    W_G01_1 MINDN_G01_2 1.0
    W_G01_1 MINDN_G01_3 1.0
    M5713 'MARKER' 'INTEND'
    P_G01_1 OBJ 52.609429676394136
    P_G01_1 PMIN_G01_1 1.0
    P_G01_1 PMAX_G01_1 1.0
    P_G01_1 RUP_G01_1 1.0
    P_G01_1 RDN_G01_1 -1.0
    P_G01_1 RUP_G01_2 -1.0
    P_G01_1 RDN_G01_2 1.0
    P_G01_1 DEM_1 1.0
    M5722 'MARKER' 'INTORG'
    U_G01_2 OBJ 201.46847376676868
    U_G01_2 PMIN_G01_2 -25.32497914678607
    U_G01_2 PMAX_G01_2 -82.8508553709822
    U_G01_2 LOGIC_G01_2 1.0
    U_G01_2 MINUP_G01_2 -1.0
    U_G01_2 MINDN_G01_2 1.0
    U_G01_2 LOGIC_G01_3 -1.0
    U_G01_2 RES_2 82.8508553709822
    V_G01_2 OBJ 2334.3842308822377
    V_G01_2 LOGIC_G01_2 -1.0
    V_G01_2 MINUP_G01_2 1.0
    V_G01_2 MINUP_G01_3 1.0
    V_G01_2 MINUP_G01_4 1.0
    V_G01_2 MINUP_G01_5 1.0
    W_G01_2 LOGIC_G01_2 1.0
    W_G01_2 MINDN_G01_2 1.0
    W_G01_2 MINDN_G01_3 1.0
    W_G01_2 MINDN_G01_4 1.0
    M5741 'MARKER' 'INTEND'
    P_G01_2 OBJ 52.609429676394136
    P_G01_2 PMIN_G01_2 1.0
    P_G01_2 PMAX_G01_2 1.0
    P_G01_2 RUP_G01_2 1.0
    P_G01_2 RDN_G01_2 -1.0
    P_G01_2 RUP_G01_3 -1.0
    P_G01_2 RDN_G01_3 1.0
    P_G01_2 DEM_2 1.0
    M5750 'MARKER' 'INTORG'
    U_G01_3 OBJ 201.46847376676868
    U_G01_3 PMIN_G01_3 -25.32497914678607
    U_G01_3 PMAX_G01_3 -82.8508553709822
    U_G01_3 LOGIC_G01_3 1.0
    U_G01_3 MINUP_G01_3 -1.0
    U_G01_3 MINDN_G01_3 1.0
    U_G01_3 LOGIC_G01_4 -1.0
    U_G01_3 RES_3 82.8508553709822
    V_G01_3 OBJ 2334.3842308822377
    V_G01_3 LOGIC_G01_3 -1.0
    V_G01_3 MINUP_G01_3 1.0
    V_G01_3 MINUP_G01_4 1.0
    V_G01_3 MINUP_G01_5 1.0
    V_G01_3 MINUP_G01_6 1.0
    W_G01_3 LOGIC_G01_3 1.0
    W_G01_3 MINDN_G01_3 1.0
    W_G01_3 MINDN_G01_4 1.0
    W_G01_3 MINDN_G01_5 1.0
    M5769 'MARKER' 'INTEND'
    P_G01_3 OBJ 52.609429676394136
    P_G01_3 PMIN_G01_3 1.0
    P_G01_3 PMAX_G01_3 1.0
    P_G01_3 RUP_G01_3 1.0
    P_G01_3 RDN_G01_3 -1.0
    P_G01_3 RUP_G01_4 -1.0
    P_G01_3 RDN_G01_4 1.0
    P_G01_3 DEM_3 1.0
    M5778 'MARKER' 'INTORG'
    U_G01_4 OBJ 201.46847376676868
    U_G01_4 PMIN_G01_4 -25.32497914678607
    U_G01_4 PMAX_G01_4 -82.8508553709822
    U_G01_4 LOGIC_G01_4 1.0
    U_G01_4 MINUP_G01_4 -1.0
    U_G01_4 MINDN_G01_4 1.0
    U_G01_4 LOGIC_G01_5 -1.0
    U_G01_4 RES_4 82.8508553709822
    V_G01_4 OBJ 2334.3842308822377
    V_G01_4 LOGIC_G01_4 -1.0
    V_G01_4 MINUP_G01_4 1.0
    V_G01_4 MINUP_G01_5 1.0
    V_G01_4 MINUP_G01_6 1.0
    V_G01_4 MINUP_G01_7 1.0
    W_G01_4 LOGIC_G01_4 1.0
    W_G01_4 MINDN_G01_4 1.0
    W_G01_4 MINDN_G01_5 1.0
    W_G01_4 MINDN_G01_6 1.0
    M5797 'MARKER' 'INTEND'
    P_G01_4 OBJ 52.609429676394136
    P_G01_4 PMIN_G01_4 1.0
    P_G01_4 PMAX_G01_4 1.0
    P_G01_4 RUP_G01_4 1.0
    P_G01_4 RDN_G01_4 -1.0
    P_G01_4 RUP_G01_5 -1.0
    P_G01_4 RDN_G01_5 1.0
    P_G01_4 DEM_4 1.0
    M5806 'MARKER' 'INTORG'
    U_G01_5 OBJ 201.46847376676868
    U_G01_5 PMIN_G01_5 -25.32497914678607
    U_G01_5 PMAX_G01_5 -82.8508553709822
    U_G01_5 LOGIC_G01_5 1.0
    U_G01_5 MINUP_G01_5 -1.0
    U_G01_5 MINDN_G01_5 1.0
    U_G01_5 LOGIC_G01_6 -1.0
    U_G01_5 RES_5 82.8508553709822
    V_G01_5 OBJ 2334.3842308822377
    V_G01_5 LOGIC_G01_5 -1.0
    V_G01_5 MINUP_G01_5 1.0
    V_G01_5 MINUP_G01_6 1.0
    V_G01_5 MINUP_G01_7 1.0
    V_G01_5 MINUP_G01_8 1.0
    W_G01_5 LOGIC_G01_5 1.0
    W_G01_5 MINDN_G01_5 1.0
    W_G01_5 MINDN_G01_6 1.0
    W_G01_5 MINDN_G01_7 1.0
    M5825 'MARKER' 'INTEND'
    P_G01_5 OBJ 52.609429676394136
    P_G01_5 PMIN_G01_5 1.0
    P_G01_5 PMAX_G01_5 1.0
    P_G01_5 RUP_G01_5 1.0
    P_G01_5 RDN_G01_5 -1.0
    P_G01_5 RUP_G01_6 -1.0
    P_G01_5 RDN_G01_6 1.0
    P_G01_5 DEM_5 1.0
    M5834 'MARKER' 'INTORG'
    U_G01_6 OBJ 201.46847376676868
    U_G01_6 PMIN_G01_6 -25.32497914678607
    U_G01_6 PMAX_G01_6 -82.8508553709822
    U_G01_6 LOGIC_G01_6 1.0
    U_G01_6 MINUP_G01_6 -1.0
    U_G01_6 MINDN_G01_6 1.0
    U_G01_6 LOGIC_G01_7 -1.0
    U_G01_6 RES_6 82.8508553709822
    V_G01_6 OBJ 2334.3842308822377
    V_G01_6 LOGIC_G01_6 -1.0
    V_G01_6 MINUP_G01_6 1.0
    V_G01_6 MINUP_G01_7 1.0
    V_G01_6 MINUP_G01_8 1.0
    V_G01_6 MINUP_G01_9 1.0
    W_G01_6 LOGIC_G01_6 1.0
    W_G01_6 MINDN_G01_6 1.0
    W_G01_6 MINDN_G01_7 1.0
    W_G01_6 MINDN_G01_8 1.0
    M5853 'MARKER' 'INTEND'
    P_G01_6 OBJ 52.609429676394136
    P_G01_6 PMIN_G01_6 1.0
    P_G01_6 PMAX_G01_6 1.0
    P_G01_6 RUP_G01_6 1.0
    P_G01_6 RDN_G01_6 -1.0
    P_G01_6 RUP_G01_7 -1.0
    P_G01_6 RDN_G01_7 1.0
    P_G01_6 DEM_6 1.0
    M5862 'MARKER' 'INTORG'
    U_G01_7 OBJ 201.46847376676868
    U_G01_7 PMIN_G01_7 -25.32497914678607
    U_G01_7 PMAX_G01_7 -82.8508553709822
    U_G01_7 LOGIC_G01_7 1.0
    U_G01_7 MINUP_G01_7 -1.0
    U_G01_7 MINDN_G01_7 1.0
    U_G01_7 LOGIC_G01_8 -1.0
    U_G01_7 RES_7 82.8508553709822
    V_G01_7 OBJ 2334.3842308822377
    V_G01_7 LOGIC_G01_7 -1.0
    V_G01_7 MINUP_G01_7 1.0
    V_G01_7 MINUP_G01_8 1.0
    V_G01_7 MINUP_G01_9 1.0
    V_G01_7 MINUP_G01_10 1.0
    W_G01_7 LOGIC_G01_7 1.0
    W_G01_7 MINDN_G01_7 1.0
    W_G01_7 MINDN_G01_8 1.0
    W_G01_7 MINDN_G01_9 1.0
    M5881 'MARKER' 'INTEND'
    P_G01_7 OBJ 52.609429676394136
    P_G01_7 PMIN_G01_7 1.0
    P_G01_7 PMAX_G01_7 1.0
    P_G01_7 RUP_G01_7 1.0
    P_G01_7 RDN_G01_7 -1.0
    P_G01_7 RUP_G01_8 -1.0
    P_G01_7 RDN_G01_8 1.0
    P_G01_7 DEM_7 1.0
    M5890 'MARKER' 'INTORG'
    U_G01_8 OBJ 201.46847376676868
    U_G01_8 PMIN_G01_8 -25.32497914678607
    U_G01_8 PMAX_G01_8 -82.8508553709822
    U_G01_8 LOGIC_G01_8 1.0
    U_G01_8 MINUP_G01_8 -1.0
    U_G01_8 MINDN_G01_8 1.0
    U_G01_8 LOGIC_G01_9 -1.0
    U_G01_8 RES_8 82.8508553709822
    V_G01_8 OBJ 2334.3842308822377
    V_G01_8 LOGIC_G01_8 -1.0
    V_G01_8 MINUP_G01_8 1.0
    V_G01_8 MINUP_G01_9 1.0
    V_G01_8 MINUP_G01_10 1.0
    V_G01_8 MINUP_G01_11 1.0
    W_G01_8 LOGIC_G01_8 1.0
    W_G01_8 MINDN_G01_8 1.0
    W_G01_8 MINDN_G01_9 1.0
    W_G01_8 MINDN_G01_10 1.0
    M5909 'MARKER' 'INTEND'
    P_G01_8 OBJ 52.609429676394136
    P_G01_8 PMIN_G01_8 1.0
    P_G01_8 PMAX_G01_8 1.0
    P_G01_8 RUP_G01_8 1.0
    P_G01_8 RDN_G01_8 -1.0
    P_G01_8 RUP_G01_9 -1.0
    P_G01_8 RDN_G01_9 1.0
    P_G01_8 DEM_8 1.0
    M5918 'MARKER' 'INTORG'
    U_G01_9 OBJ 201.46847376676868
    U_G01_9 PMIN_G01_9 -25.32497914678607
    U_G01_9 PMAX_G01_9 -82.8508553709822
    U_G01_9 LOGIC_G01_9 1.0
    U_G01_9 MINUP_G01_9 -1.0
    U_G01_9 MINDN_G01_9 1.0
    U_G01_9 LOGIC_G01_10 -1.0
    U_G01_9 RES_9 82.8508553709822
    V_G01_9 OBJ 2334.3842308822377
    V_G01_9 LOGIC_G01_9 -1.0
    V_G01_9 MINUP_G01_9 1.0
    V_G01_9 MINUP_G01_10 1.0
    V_G01_9 MINUP_G01_11 1.0
    V_G01_9 MINUP_G01_12 1.0
    W_G01_9 LOGIC_G01_9 1.0
    W_G01_9 MINDN_G01_9 1.0
    W_G01_9 MINDN_G01_10 1.0
    W_G01_9 MINDN_G01_11 1.0
    M5937 'MARKER' 'INTEND'
    P_G01_9 OBJ 52.609429676394136
    P_G01_9 PMIN_G01_9 1.0
    P_G01_9 PMAX_G01_9 1.0
    P_G01_9 RUP_G01_9 1.0
    P_G01_9 RDN_G01_9 -1.0
    P_G01_9 RUP_G01_10 -1.0
    P_G01_9 RDN_G01_10 1.0
    P_G01_9 DEM_9 1.0
    M5946 'MARKER' 'INTORG'
    U_G01_10 OBJ 201.46847376676868
    U_G01_10 PMIN_G01_10 -25.32497914678607
    U_G01_10 PMAX_G01_10 -82.8508553709822
    U_G01_10 LOGIC_G01_10 1.0
    U_G01_10 MINUP_G01_10 -1.0
    U_G01_10 MINDN_G01_10 1.0
    U_G01_10 LOGIC_G01_11 -1.0
    U_G01_10 RES_10 82.8508553709822
    V_G01_10 OBJ 2334.3842308822377
    V_G01_10 LOGIC_G01_10 -1.0
    V_G01_10 MINUP_G01_10 1.0
    V_G01_10 MINUP_G01_11 1.0
    V_G01_10 MINUP_G01_12 1.0
    V_G01_10 MINUP_G01_13 1.0
    W_G01_10 LOGIC_G01_10 1.0
    W_G01_10 MINDN_G01_10 1.0
    W_G01_10 MINDN_G01_11 1.0
    W_G01_10 MINDN_G01_12 1.0
    M5965 'MARKER' 'INTEND'
    P_G01_10 OBJ 52.609429676394136
    P_G01_10 PMIN_G01_10 1.0
    P_G01_10 PMAX_G01_10 1.0
    P_G01_10 RUP_G01_10 1.0
    P_G01_10 RDN_G01_10 -1.0
    P_G01_10 RUP_G01_11 -1.0
    P_G01_10 RDN_G01_11 1.0
    P_G01_10 DEM_10 1.0
    M5974 'MARKER' 'INTORG'
    U_G01_11 OBJ 201.46847376676868
    U_G01_11 PMIN_G01_11 -25.32497914678607
    U_G01_11 PMAX_G01_11 -82.8508553709822
    U_G01_11 LOGIC_G01_11 1.0
    U_G01_11 MINUP_G01_11 -1.0
    U_G01_11 MINDN_G01_11 1.0
    U_G01_11 LOGIC_G01_12 -1.0
    U_G01_11 RES_11 82.8508553709822
    V_G01_11 OBJ 2334.3842308822377
    V_G01_11 LOGIC_G01_11 -1.0
    V_G01_11 MINUP_G01_11 1.0
    V_G01_11 MINUP_G01_12 1.0
    V_G01_11 MINUP_G01_13 1.0
    V_G01_11 MINUP_G01_14 1.0
    W_G01_11 LOGIC_G01_11 1.0
    W_G01_11 MINDN_G01_11 1.0
    W_G01_11 MINDN_G01_12 1.0
    W_G01_11 MINDN_G01_13 1.0
    M5993 'MARKER' 'INTEND'
    P_G01_11 OBJ 52.609429676394136
    P_G01_11 PMIN_G01_11 1.0
    P_G01_11 PMAX_G01_11 1.0
    P_G01_11 RUP_G01_11 1.0
    P_G01_11 RDN_G01_11 -1.0
    P_G01_11 RUP_G01_12 -1.0
    P_G01_11 RDN_G01_12 1.0
    P_G01_11 DEM_11 1.0
    M6002 'MARKER' 'INTORG'
    U_G01_12 OBJ 201.46847376676868
    U_G01_12 PMIN_G01_12 -25.32497914678607
    U_G01_12 PMAX_G01_12 -82.8508553709822
    U_G01_12 LOGIC_G01_12 1.0
    U_G01_12 MINUP_G01_12 -1.0
    U_G01_12 MINDN_G01_12 1.0
    U_G01_12 LOGIC_G01_13 -1.0
    U_G01_12 RES_12 82.8508553709822
    V_G01_12 OBJ 2334.3842308822377
    V_G01_12 LOGIC_G01_12 -1.0
    V_G01_12 MINUP_G01_12 1.0
    V_G01_12 MINUP_G01_13 1.0
    V_G01_12 MINUP_G01_14 1.0
    V_G01_12 MINUP_G01_15 1.0
    W_G01_12 LOGIC_G01_12 1.0
    W_G01_12 MINDN_G01_12 1.0
    W_G01_12 MINDN_G01_13 1.0
    W_G01_12 MINDN_G01_14 1.0
    M6021 'MARKER' 'INTEND'
    P_G01_12 OBJ 52.609429676394136
    P_G01_12 PMIN_G01_12 1.0
    P_G01_12 PMAX_G01_12 1.0
    P_G01_12 RUP_G01_12 1.0
    P_G01_12 RDN_G01_12 -1.0
    P_G01_12 RUP_G01_13 -1.0
    P_G01_12 RDN_G01_13 1.0
    P_G01_12 DEM_12 1.0
    M6030 'MARKER' 'INTORG'
    U_G01_13 OBJ 201.46847376676868
    U_G01_13 PMIN_G01_13 -25.32497914678607
    U_G01_13 PMAX_G01_13 -82.8508553709822
    U_G01_13 LOGIC_G01_13 1.0
    U_G01_13 MINUP_G01_13 -1.0
    U_G01_13 MINDN_G01_13 1.0
    U_G01_13 LOGIC_G01_14 -1.0
    U_G01_13 RES_13 82.8508553709822
    V_G01_13 OBJ 2334.3842308822377
    V_G01_13 LOGIC_G01_13 -1.0
    V_G01_13 MINUP_G01_13 1.0
    V_G01_13 MINUP_G01_14 1.0
    V_G01_13 MINUP_G01_15 1.0
    V_G01_13 MINUP_G01_16 1.0
    W_G01_13 LOGIC_G01_13 1.0
    W_G01_13 MINDN_G01_13 1.0
    W_G01_13 MINDN_G01_14 1.0
    W_G01_13 MINDN_G01_15 1.0
    M6049 'MARKER' 'INTEND'
    P_G01_13 OBJ 52.609429676394136
    P_G01_13 PMIN_G01_13 1.0
    P_G01_13 PMAX_G01_13 1.0
    P_G01_13 RUP_G01_13 1.0
    P_G01_13 RDN_G01_13 -1.0
    P_G01_13 RUP_G01_14 -1.0
    P_G01_13 RDN_G01_14 1.0
    P_G01_13 DEM_13 1.0
    M6058 'MARKER' 'INTORG'
    U_G01_14 OBJ 201.46847376676868
    U_G01_14 PMIN_G01_14 -25.32497914678607
    U_G01_14 PMAX_G01_14 -82.8508553709822
    U_G01_14 LOGIC_G01_14 1.0
    U_G01_14 MINUP_G01_14 -1.0
    U_G01_14 MINDN_G01_14 1.0
    U_G01_14 LOGIC_G01_15 -1.0
    U_G01_14 RES_14 82.8508553709822
    V_G01_14 OBJ 2334.3842308822377
    V_G01_14 LOGIC_G01_14 -1.0
    V_G01_14 MINUP_G01_14 1.0
    V_G01_14 MINUP_G01_15 1.0
    V_G01_14 MINUP_G01_16 1.0
    V_G01_14 MINUP_G01_17 1.0
    W_G01_14 LOGIC_G01_14 1.0
    W_G01_14 MINDN_G01_14 1.0
    W_G01_14 MINDN_G01_15 1.0
    W_G01_14 MINDN_G01_16 1.0
    M6077 'MARKER' 'INTEND'
    P_G01_14 OBJ 52.609429676394136
    P_G01_14 PMIN_G01_14 1.0
    P_G01_14 PMAX_G01_14 1.0
    P_G01_14 RUP_G01_14 1.0
    P_G01_14 RDN_G01_14 -1.0
    P_G01_14 RUP_G01_15 -1.0
    P_G01_14 RDN_G01_15 1.0
    P_G01_14 DEM_14 1.0
    M6086 'MARKER' 'INTORG'
    U_G01_15 OBJ 201.46847376676868
    U_G01_15 PMIN_G01_15 -25.32497914678607
    U_G01_15 PMAX_G01_15 -82.8508553709822
    U_G01_15 LOGIC_G01_15 1.0
    U_G01_15 MINUP_G01_15 -1.0
    U_G01_15 MINDN_G01_15 1.0
    U_G01_15 LOGIC_G01_16 -1.0
    U_G01_15 RES_15 82.8508553709822
    V_G01_15 OBJ 2334.3842308822377
    V_G01_15 LOGIC_G01_15 -1.0
    V_G01_15 MINUP_G01_15 1.0
    V_G01_15 MINUP_G01_16 1.0
    V_G01_15 MINUP_G01_17 1.0
    V_G01_15 MINUP_G01_18 1.0
    W_G01_15 LOGIC_G01_15 1.0
    W_G01_15 MINDN_G01_15 1.0
    W_G01_15 MINDN_G01_16 1.0
    W_G01_15 MINDN_G01_17 1.0
    M6105 'MARKER' 'INTEND'
    P_G01_15 OBJ 52.609429676394136
    P_G01_15 PMIN_G01_15 1.0
    P_G01_15 PMAX_G01_15 1.0
    P_G01_15 RUP_G01_15 1.0
    P_G01_15 RDN_G01_15 -1.0
    P_G01_15 RUP_G01_16 -1.0
    P_G01_15 RDN_G01_16 1.0
    P_G01_15 DEM_15 1.0
    M6114 'MARKER' 'INTORG'
    U_G01_16 OBJ 201.46847376676868
    U_G01_16 PMIN_G01_16 -25.32497914678607
    U_G01_16 PMAX_G01_16 -82.8508553709822
    U_G01_16 LOGIC_G01_16 1.0
    U_G01_16 MINUP_G01_16 -1.0
    U_G01_16 MINDN_G01_16 1.0
    U_G01_16 LOGIC_G01_17 -1.0
    U_G01_16 RES_16 82.8508553709822
    V_G01_16 OBJ 2334.3842308822377
    V_G01_16 LOGIC_G01_16 -1.0
    V_G01_16 MINUP_G01_16 1.0
    V_G01_16 MINUP_G01_17 1.0
    V_G01_16 MINUP_G01_18 1.0
    V_G01_16 MINUP_G01_19 1.0
    W_G01_16 LOGIC_G01_16 1.0
    W_G01_16 MINDN_G01_16 1.0
    W_G01_16 MINDN_G01_17 1.0
    W_G01_16 MINDN_G01_18 1.0
    M6133 'MARKER' 'INTEND'
    P_G01_16 OBJ 52.609429676394136
    P_G01_16 PMIN_G01_16 1.0
    P_G01_16 PMAX_G01_16 1.0
    P_G01_16 RUP_G01_16 1.0
    P_G01_16 RDN_G01_16 -1.0
    P_G01_16 RUP_G01_17 -1.0
    P_G01_16 RDN_G01_17 1.0
    P_G01_16 DEM_16 1.0
    M6142 'MARKER' 'INTORG'
    U_G01_17 OBJ 201.46847376676868
    U_G01_17 PMIN_G01_17 -25.32497914678607
    U_G01_17 PMAX_G01_17 -82.8508553709822
    U_G01_17 LOGIC_G01_17 1.0
    U_G01_17 MINUP_G01_17 -1.0
    U_G01_17 MINDN_G01_17 1.0
    U_G01_17 LOGIC_G01_18 -1.0
    U_G01_17 RES_17 82.8508553709822
    V_G01_17 OBJ 2334.3842308822377
    V_G01_17 LOGIC_G01_17 -1.0
    V_G01_17 MINUP_G01_17 1.0
    V_G01_17 MINUP_G01_18 1.0
    V_G01_17 MINUP_G01_19 1.0
    V_G01_17 MINUP_G01_20 1.0
    W_G01_17 LOGIC_G01_17 1.0
    W_G01_17 MINDN_G01_17 1.0
    W_G01_17 MINDN_G01_18 1.0
    W_G01_17 MINDN_G01_19 1.0
    M6161 'MARKER' 'INTEND'
    P_G01_17 OBJ 52.609429676394136
    P_G01_17 PMIN_G01_17 1.0
    P_G01_17 PMAX_G01_17 1.0
    P_G01_17 RUP_G01_17 1.0
    P_G01_17 RDN_G01_17 -1.0
    P_G01_17 RUP_G01_18 -1.0
    P_G01_17 RDN_G01_18 1.0
    P_G01_17 DEM_17 1.0
    M6170 'MARKER' 'INTORG'
    U_G01_18 OBJ 201.46847376676868
    U_G01_18 PMIN_G01_18 -25.32497914678607
    U_G01_18 PMAX_G01_18 -82.8508553709822
    U_G01_18 LOGIC_G01_18 1.0
    U_G01_18 MINUP_G01_18 -1.0
    U_G01_18 MINDN_G01_18 1.0
    U_G01_18 LOGIC_G01_19 -1.0
    U_G01_18 RES_18 82.8508553709822
    V_G01_18 OBJ 2334.3842308822377
    V_G01_18 LOGIC_G01_18 -1.0
    V_G01_18 MINUP_G01_18 1.0
    V_G01_18 MINUP_G01_19 1.0
    V_G01_18 MINUP_G01_20 1.0
    V_G01_18 MINUP_G01_21 1.0
    W_G01_18 LOGIC_G01_18 1.0
    W_G01_18 MINDN_G01_18 1.0
    W_G01_18 MINDN_G01_19 1.0
    W_G01_18 MINDN_G01_20 1.0
    M6189 'MARKER' 'INTEND'
    P_G01_18 OBJ 52.609429676394136
    P_G01_18 PMIN_G01_18 1.0
    P_G01_18 PMAX_G01_18 1.0
    P_G01_18 RUP_G01_18 1.0
    P_G01_18 RDN_G01_18 -1.0
    P_G01_18 RUP_G01_19 -1.0
    P_G01_18 RDN_G01_19 1.0
    P_G01_18 DEM_18 1.0
    M6198 'MARKER' 'INTORG'
    U_G01_19 OBJ 201.46847376676868
    U_G01_19 PMIN_G01_19 -25.32497914678607
    U_G01_19 PMAX_G01_19 -82.8508553709822
    U_G01_19 LOGIC_G01_19 1.0
    U_G01_19 MINUP_G01_19 -1.0
    U_G01_19 MINDN_G01_19 1.0
    U_G01_19 LOGIC_G01_20 -1.0
    U_G01_19 RES_19 82.8508553709822
    V_G01_19 OBJ 2334.3842308822377
    V_G01_19 LOGIC_G01_19 -1.0
    V_G01_19 MINUP_G01_19 1.0
    V_G01_19 MINUP_G01_20 1.0
    V_G01_19 MINUP_G01_21 1.0
    V_G01_19 MINUP_G01_22 1.0
    W_G01_19 LOGIC_G01_19 1.0
    W_G01_19 MINDN_G01_19 1.0
    W_G01_19 MINDN_G01_20 1.0
    W_G01_19 MINDN_G01_21 1.0
    M6217 'MARKER' 'INTEND'
    P_G01_19 OBJ 52.609429676394136
    P_G01_19 PMIN_G01_19 1.0
    P_G01_19 PMAX_G01_19 1.0
    P_G01_19 RUP_G01_19 1.0
    P_G01_19 RDN_G01_19 -1.0
    P_G01_19 RUP_G01_20 -1.0
    P_G01_19 RDN_G01_20 1.0
    P_G01_19 DEM_19 1.0
    M6226 'MARKER' 'INTORG'
    U_G01_20 OBJ 201.46847376676868
    U_G01_20 PMIN_G01_20 -25.32497914678607
    U_G01_20 PMAX_G01_20 -82.8508553709822
    U_G01_20 LOGIC_G01_20 1.0
    U_G01_20 MINUP_G01_20 -1.0
    U_G01_20 MINDN_G01_20 1.0
    U_G01_20 LOGIC_G01_21 -1.0
    U_G01_20 RES_20 82.8508553709822
    V_G01_20 OBJ 2334.3842308822377
    V_G01_20 LOGIC_G01_20 -1.0
    V_G01_20 MINUP_G01_20 1.0
    V_G01_20 MINUP_G01_21 1.0
    V_G01_20 MINUP_G01_22 1.0
    V_G01_20 MINUP_G01_23 1.0
    W_G01_20 LOGIC_G01_20 1.0
    W_G01_20 MINDN_G01_20 1.0
    W_G01_20 MINDN_G01_21 1.0
    W_G01_20 MINDN_G01_22 1.0
    M6245 'MARKER' 'INTEND'
    P_G01_20 OBJ 52.609429676394136
    P_G01_20 PMIN_G01_20 1.0
    P_G01_20 PMAX_G01_20 1.0
    P_G01_20 RUP_G01_20 1.0
    P_G01_20 RDN_G01_20 -1.0
    P_G01_20 RUP_G01_21 -1.0
    P_G01_20 RDN_G01_21 1.0
    P_G01_20 DEM_20 1.0
    M6254 'MARKER' 'INTORG'
    U_G01_21 OBJ 201.46847376676868
    U_G01_21 PMIN_G01_21 -25.32497914678607
    U_G01_21 PMAX_G01_21 -82.8508553709822
    U_G01_21 LOGIC_G01_21 1.0
    U_G01_21 MINUP_G01_21 -1.0
    U_G01_21 MINDN_G01_21 1.0
    U_G01_21 LOGIC_G01_22 -1.0
    U_G01_21 RES_21 82.8508553709822
    V_G01_21 OBJ 2334.3842308822377
    V_G01_21 LOGIC_G01_21 -1.0
    V_G01_21 MINUP_G01_21 1.0
    V_G01_21 MINUP_G01_22 1.0
    V_G01_21 MINUP_G01_23 1.0
    W_G01_21 LOGIC_G01_21 1.0
    W_G01_21 MINDN_G01_21 1.0
    W_G01_21 MINDN_G01_22 1.0
    W_G01_21 MINDN_G01_23 1.0
    M6272 'MARKER' 'INTEND'
    P_G01_21 OBJ 52.609429676394136
    P_G01_21 PMIN_G01_21 1.0
    P_G01_21 PMAX_G01_21 1.0
    P_G01_21 RUP_G01_21 1.0
    P_G01_21 RDN_G01_21 -1.0
    P_G01_21 RUP_G01_22 -1.0
    P_G01_21 RDN_G01_22 1.0
    P_G01_21 DEM_21 1.0
    M6281 'MARKER' 'INTORG'
    U_G01_22 OBJ 201.46847376676868
    U_G01_22 PMIN_G01_22 -25.32497914678607
    U_G01_22 PMAX_G01_22 -82.8508553709822
    U_G01_22 LOGIC_G01_22 1.0
    U_G01_22 MINUP_G01_22 -1.0
    U_G01_22 MINDN_G01_22 1.0
    U_G01_22 LOGIC_G01_23 -1.0
    U_G01_22 RES_22 82.8508553709822
    V_G01_22 OBJ 2334.3842308822377
    V_G01_22 LOGIC_G01_22 -1.0
    V_G01_22 MINUP_G01_22 1.0
    V_G01_22 MINUP_G01_23 1.0
    W_G01_22 LOGIC_G01_22 1.0
    W_G01_22 MINDN_G01_22 1.0
    W_G01_22 MINDN_G01_23 1.0
    M6297 'MARKER' 'INTEND'
    P_G01_22 OBJ 52.609429676394136
    P_G01_22 PMIN_G01_22 1.0
    P_G01_22 PMAX_G01_22 1.0
    P_G01_22 RUP_G01_22 1.0
    P_G01_22 RDN_G01_22 -1.0
    P_G01_22 RUP_G01_23 -1.0
    P_G01_22 RDN_G01_23 1.0
    P_G01_22 DEM_22 1.0
    M6306 'MARKER' 'INTORG'
    U_G01_23 OBJ 201.46847376676868
    U_G01_23 PMIN_G01_23 -25.32497914678607
    U_G01_23 PMAX_G01_23 -82.8508553709822
    U_G01_23 LOGIC_G01_23 1.0
    U_G01_23 MINUP_G01_23 -1.0
    U_G01_23 MINDN_G01_23 1.0
    U_G01_23 RES_23 82.8508553709822
    V_G01_23 OBJ 2334.3842308822377
    V_G01_23 LOGIC_G01_23 -1.0
    V_G01_23 MINUP_G01_23 1.0
    W_G01_23 LOGIC_G01_23 1.0
    W_G01_23 MINDN_G01_23 1.0
    M6319 'MARKER' 'INTEND'
    P_G01_23 OBJ 52.609429676394136
    P_G01_23 PMIN_G01_23 1.0
    P_G01_23 PMAX_G01_23 1.0
    P_G01_23 RUP_G01_23 1.0
    P_G01_23 RDN_G01_23 -1.0
    P_G01_23 DEM_23 1.0
    M6326 'MARKER' 'INTORG'
    U_G02_0 OBJ 365.49961016401926
    U_G02_0 PMIN_G02_0 -104.60360264585489
    U_G02_0 PMAX_G02_0 -302.53901131927387
    U_G02_0 LOGIC_G02_0 1.0
    U_G02_0 MINUP_G02_0 -1.0
    U_G02_0 MINDN_G02_0 1.0
    U_G02_0 LOGIC_G02_1 -1.0
    U_G02_0 RES_0 302.53901131927387
    V_G02_0 OBJ 285.6519524939499
    V_G02_0 LOGIC_G02_0 -1.0
    V_G02_0 MINUP_G02_0 1.0
    V_G02_0 MINUP_G02_1 1.0
    V_G02_0 MINUP_G02_2 1.0
    V_G02_0 MINUP_G02_3 1.0
    V_G02_0 MINUP_G02_4 1.0
    W_G02_0 LOGIC_G02_0 1.0
    W_G02_0 MINDN_G02_0 1.0
    M6344 'MARKER' 'INTEND'
    P_G02_0 OBJ 57.5371812999265
    P_G02_0 PMIN_G02_0 1.0
    P_G02_0 PMAX_G02_0 1.0
    P_G02_0 RUP_G02_1 -1.0
    P_G02_0 RDN_G02_1 1.0
    P_G02_0 DEM_0 1.0
    M6351 'MARKER' 'INTORG'
    U_G02_1 OBJ 365.49961016401926
    U_G02_1 PMIN_G02_1 -104.60360264585489
    U_G02_1 PMAX_G02_1 -302.53901131927387
    U_G02_1 LOGIC_G02_1 1.0
    U_G02_1 MINUP_G02_1 -1.0
    U_G02_1 MINDN_G02_1 1.0
    U_G02_1 LOGIC_G02_2 -1.0
    U_G02_1 RES_1 302.53901131927387
    V_G02_1 OBJ 285.6519524939499
    V_G02_1 LOGIC_G02_1 -1.0
    V_G02_1 MINUP_G02_1 1.0
    V_G02_1 MINUP_G02_2 1.0
    V_G02_1 MINUP_G02_3 1.0
    V_G02_1 MINUP_G02_4 1.0
    V_G02_1 MINUP_G02_5 1.0
    W_G02_1 LOGIC_G02_1 1.0
    W_G02_1 MINDN_G02_1 1.0
    M6369 'MARKER' 'INTEND'
    P_G02_1 OBJ 57.5371812999265
    P_G02_1 PMIN_G02_1 1.0
    P_G02_1 PMAX_G02_1 1.0
    P_G02_1 RUP_G02_1 1.0
    P_G02_1 RDN_G02_1 -1.0
    P_G02_1 RUP_G02_2 -1.0
    P_G02_1 RDN_G02_2 1.0
    P_G02_1 DEM_1 1.0
    M6378 'MARKER' 'INTORG'
    U_G02_2 OBJ 365.49961016401926
    U_G02_2 PMIN_G02_2 -104.60360264585489
    U_G02_2 PMAX_G02_2 -302.53901131927387
    U_G02_2 LOGIC_G02_2 1.0
    U_G02_2 MINUP_G02_2 -1.0
    U_G02_2 MINDN_G02_2 1.0
    U_G02_2 LOGIC_G02_3 -1.0
    U_G02_2 RES_2 302.53901131927387
    V_G02_2 OBJ 285.6519524939499
    V_G02_2 LOGIC_G02_2 -1.0
    V_G02_2 MINUP_G02_2 1.0
    V_G02_2 MINUP_G02_3 1.0
    V_G02_2 MINUP_G02_4 1.0
    V_G02_2 MINUP_G02_5 1.0
    V_G02_2 MINUP_G02_6 1.0
    W_G02_2 LOGIC_G02_2 1.0
    W_G02_2 MINDN_G02_2 1.0
    M6396 'MARKER' 'INTEND'
    P_G02_2 OBJ 57.5371812999265
    P_G02_2 PMIN_G02_2 1.0
    P_G02_2 PMAX_G02_2 1.0
    P_G02_2 RUP_G02_2 1.0
    P_G02_2 RDN_G02_2 -1.0
    P_G02_2 RUP_G02_3 -1.0
    P_G02_2 RDN_G02_3 1.0
    P_G02_2 DEM_2 1.0
    M6405 'MARKER' 'INTORG'
    U_G02_3 OBJ 365.49961016401926
    U_G02_3 PMIN_G02_3 -104.60360264585489
    U_G02_3 PMAX_G02_3 -302.53901131927387
    U_G02_3 LOGIC_G02_3 1.0
    U_G02_3 MINUP_G02_3 -1.0
    U_G02_3 MINDN_G02_3 1.0
    U_G02_3 LOGIC_G02_4 -1.0
    U_G02_3 RES_3 302.53901131927387
    V_G02_3 OBJ 285.6519524939499
    V_G02_3 LOGIC_G02_3 -1.0
    V_G02_3 MINUP_G02_3 1.0
    V_G02_3 MINUP_G02_4 1.0
    V_G02_3 MINUP_G02_5 1.0
    V_G02_3 MINUP_G02_6 1.0
    V_G02_3 MINUP_G02_7 1.0
    W_G02_3 LOGIC_G02_3 1.0
    W_G02_3 MINDN_G02_3 1.0
    M6423 'MARKER' 'INTEND'
    P_G02_3 OBJ 57.5371812999265
    P_G02_3 PMIN_G02_3 1.0
    P_G02_3 PMAX_G02_3 1.0
    P_G02_3 RUP_G02_3 1.0
    P_G02_3 RDN_G02_3 -1.0
    P_G02_3 RUP_G02_4 -1.0
    P_G02_3 RDN_G02_4 1.0
    P_G02_3 DEM_3 1.0
    M6432 'MARKER' 'INTORG'
    U_G02_4 OBJ 365.49961016401926
    U_G02_4 PMIN_G02_4 -104.60360264585489
    U_G02_4 PMAX_G02_4 -302.53901131927387
    U_G02_4 LOGIC_G02_4 1.0
    U_G02_4 MINUP_G02_4 -1.0
    U_G02_4 MINDN_G02_4 1.0
    U_G02_4 LOGIC_G02_5 -1.0
    U_G02_4 RES_4 302.53901131927387
    V_G02_4 OBJ 285.6519524939499
    V_G02_4 LOGIC_G02_4 -1.0
    V_G02_4 MINUP_G02_4 1.0
    V_G02_4 MINUP_G02_5 1.0
    V_G02_4 MINUP_G02_6 1.0
    V_G02_4 MINUP_G02_7 1.0
    V_G02_4 MINUP_G02_8 1.0
    W_G02_4 LOGIC_G02_4 1.0
    W_G02_4 MINDN_G02_4 1.0
    M6450 'MARKER' 'INTEND'
    P_G02_4 OBJ 57.5371812999265
    P_G02_4 PMIN_G02_4 1.0
    P_G02_4 PMAX_G02_4 1.0
    P_G02_4 RUP_G02_4 1.0
    P_G02_4 RDN_G02_4 -1.0
    P_G02_4 RUP_G02_5 -1.0
    P_G02_4 RDN_G02_5 1.0
    P_G02_4 DEM_4 1.0
    M6459 'MARKER' 'INTORG'
    U_G02_5 OBJ 365.49961016401926
    U_G02_5 PMIN_G02_5 -104.60360264585489
    U_G02_5 PMAX_G02_5 -302.53901131927387
    U_G02_5 LOGIC_G02_5 1.0
    U_G02_5 MINUP_G02_5 -1.0
    U_G02_5 MINDN_G02_5 1.0
    U_G02_5 LOGIC_G02_6 -1.0
    U_G02_5 RES_5 302.53901131927387
    V_G02_5 OBJ 285.6519524939499
    V_G02_5 LOGIC_G02_5 -1.0
    V_G02_5 MINUP_G02_5 1.0
    V_G02_5 MINUP_G02_6 1.0
    V_G02_5 MINUP_G02_7 1.0
    V_G02_5 MINUP_G02_8 1.0
    V_G02_5 MINUP_G02_9 1.0
    W_G02_5 LOGIC_G02_5 1.0
    W_G02_5 MINDN_G02_5 1.0
    M6477 'MARKER' 'INTEND'
    P_G02_5 OBJ 57.5371812999265
    P_G02_5 PMIN_G02_5 1.0
    P_G02_5 PMAX_G02_5 1.0
    P_G02_5 RUP_G02_5 1.0
    P_G02_5 RDN_G02_5 -1.0
    P_G02_5 RUP_G02_6 -1.0
    P_G02_5 RDN_G02_6 1.0
    P_G02_5 DEM_5 1.0
    M6486 'MARKER' 'INTORG'
    U_G02_6 OBJ 365.49961016401926
    U_G02_6 PMIN_G02_6 -104.60360264585489
    U_G02_6 PMAX_G02_6 -302.53901131927387
    U_G02_6 LOGIC_G02_6 1.0
    U_G02_6 MINUP_G02_6 -1.0
    U_G02_6 MINDN_G02_6 1.0
    U_G02_6 LOGIC_G02_7 -1.0
    U_G02_6 RES_6 302.53901131927387
    V_G02_6 OBJ 285.6519524939499
    V_G02_6 LOGIC_G02_6 -1.0
    V_G02_6 MINUP_G02_6 1.0
    V_G02_6 MINUP_G02_7 1.0
    V_G02_6 MINUP_G02_8 1.0
    V_G02_6 MINUP_G02_9 1.0
    V_G02_6 MINUP_G02_10 1.0
    W_G02_6 LOGIC_G02_6 1.0
    W_G02_6 MINDN_G02_6 1.0
    M6504 'MARKER' 'INTEND'
    P_G02_6 OBJ 57.5371812999265
    P_G02_6 PMIN_G02_6 1.0
    P_G02_6 PMAX_G02_6 1.0
    P_G02_6 RUP_G02_6 1.0
    P_G02_6 RDN_G02_6 -1.0
    P_G02_6 RUP_G02_7 -1.0
    P_G02_6 RDN_G02_7 1.0
    P_G02_6 DEM_6 1.0
    M6513 'MARKER' 'INTORG'
    U_G02_7 OBJ 365.49961016401926
    U_G02_7 PMIN_G02_7 -104.60360264585489
    U_G02_7 PMAX_G02_7 -302.53901131927387
    U_G02_7 LOGIC_G02_7 1.0
    U_G02_7 MINUP_G02_7 -1.0
    U_G02_7 MINDN_G02_7 1.0
    U_G02_7 LOGIC_G02_8 -1.0
    U_G02_7 RES_7 302.53901131927387
    V_G02_7 OBJ 285.6519524939499
    V_G02_7 LOGIC_G02_7 -1.0
    V_G02_7 MINUP_G02_7 1.0
    V_G02_7 MINUP_G02_8 1.0
    V_G02_7 MINUP_G02_9 1.0
    V_G02_7 MINUP_G02_10 1.0
    V_G02_7 MINUP_G02_11 1.0
    W_G02_7 LOGIC_G02_7 1.0
    W_G02_7 MINDN_G02_7 1.0
    M6531 'MARKER' 'INTEND'
    P_G02_7 OBJ 57.5371812999265
    P_G02_7 PMIN_G02_7 1.0
    P_G02_7 PMAX_G02_7 1.0
    P_G02_7 RUP_G02_7 1.0
    P_G02_7 RDN_G02_7 -1.0
    P_G02_7 RUP_G02_8 -1.0
    P_G02_7 RDN_G02_8 1.0
    P_G02_7 DEM_7 1.0
    M6540 'MARKER' 'INTORG'
    U_G02_8 OBJ 365.49961016401926
    U_G02_8 PMIN_G02_8 -104.60360264585489
    U_G02_8 PMAX_G02_8 -302.53901131927387
    U_G02_8 LOGIC_G02_8 1.0
    U_G02_8 MINUP_G02_8 -1.0
    U_G02_8 MINDN_G02_8 1.0
    U_G02_8 LOGIC_G02_9 -1.0
    U_G02_8 RES_8 302.53901131927387
    V_G02_8 OBJ 285.6519524939499
    V_G02_8 LOGIC_G02_8 -1.0
    V_G02_8 MINUP_G02_8 1.0
    V_G02_8 MINUP_G02_9 1.0
    V_G02_8 MINUP_G02_10 1.0
    V_G02_8 MINUP_G02_11 1.0
    V_G02_8 MINUP_G02_12 1.0
    W_G02_8 LOGIC_G02_8 1.0
    W_G02_8 MINDN_G02_8 1.0
    M6558 'MARKER' 'INTEND'
    P_G02_8 OBJ 57.5371812999265
    P_G02_8 PMIN_G02_8 1.0
    P_G02_8 PMAX_G02_8 1.0
    P_G02_8 RUP_G02_8 1.0
    P_G02_8 RDN_G02_8 -1.0
    P_G02_8 RUP_G02_9 -1.0
    P_G02_8 RDN_G02_9 1.0
    P_G02_8 DEM_8 1.0
    M6567 'MARKER' 'INTORG'
    U_G02_9 OBJ 365.49961016401926
    U_G02_9 PMIN_G02_9 -104.60360264585489
    U_G02_9 PMAX_G02_9 -302.53901131927387
    U_G02_9 LOGIC_G02_9 1.0
    U_G02_9 MINUP_G02_9 -1.0
    U_G02_9 MINDN_G02_9 1.0
    U_G02_9 LOGIC_G02_10 -1.0
    U_G02_9 RES_9 302.53901131927387
    V_G02_9 OBJ 285.6519524939499
    V_G02_9 LOGIC_G02_9 -1.0
    V_G02_9 MINUP_G02_9 1.0
    V_G02_9 MINUP_G02_10 1.0
    V_G02_9 MINUP_G02_11 1.0
    V_G02_9 MINUP_G02_12 1.0
    V_G02_9 MINUP_G02_13 1.0
    W_G02_9 LOGIC_G02_9 1.0
    W_G02_9 MINDN_G02_9 1.0
    M6585 'MARKER' 'INTEND'
    P_G02_9 OBJ 57.5371812999265
    P_G02_9 PMIN_G02_9 1.0
    P_G02_9 PMAX_G02_9 1.0
    P_G02_9 RUP_G02_9 1.0
    P_G02_9 RDN_G02_9 -1.0
    P_G02_9 RUP_G02_10 -1.0
    P_G02_9 RDN_G02_10 1.0
    P_G02_9 DEM_9 1.0
    M6594 'MARKER' 'INTORG'
    U_G02_10 OBJ 365.49961016401926
    U_G02_10 PMIN_G02_10 -104.60360264585489
    U_G02_10 PMAX_G02_10 -302.53901131927387
    U_G02_10 LOGIC_G02_10 1.0
    U_G02_10 MINUP_G02_10 -1.0
    U_G02_10 MINDN_G02_10 1.0
    U_G02_10 LOGIC_G02_11 -1.0
    U_G02_10 RES_10 302.53901131927387
    V_G02_10 OBJ 285.6519524939499
    V_G02_10 LOGIC_G02_10 -1.0
    V_G02_10 MINUP_G02_10 1.0
    V_G02_10 MINUP_G02_11 1.0
    V_G02_10 MINUP_G02_12 1.0
    V_G02_10 MINUP_G02_13 1.0
    V_G02_10 MINUP_G02_14 1.0
    W_G02_10 LOGIC_G02_10 1.0
    W_G02_10 MINDN_G02_10 1.0
    M6612 'MARKER' 'INTEND'
    P_G02_10 OBJ 57.5371812999265
    P_G02_10 PMIN_G02_10 1.0
    P_G02_10 PMAX_G02_10 1.0
    P_G02_10 RUP_G02_10 1.0
    P_G02_10 RDN_G02_10 -1.0
    P_G02_10 RUP_G02_11 -1.0
    P_G02_10 RDN_G02_11 1.0
    P_G02_10 DEM_10 1.0
    M6621 'MARKER' 'INTORG'
    U_G02_11 OBJ 365.49961016401926
    U_G02_11 PMIN_G02_11 -104.60360264585489
    U_G02_11 PMAX_G02_11 -302.53901131927387
    U_G02_11 LOGIC_G02_11 1.0
    U_G02_11 MINUP_G02_11 -1.0
    U_G02_11 MINDN_G02_11 1.0
    U_G02_11 LOGIC_G02_12 -1.0
    U_G02_11 RES_11 302.53901131927387
    V_G02_11 OBJ 285.6519524939499
    V_G02_11 LOGIC_G02_11 -1.0
    V_G02_11 MINUP_G02_11 1.0
    V_G02_11 MINUP_G02_12 1.0
    V_G02_11 MINUP_G02_13 1.0
    V_G02_11 MINUP_G02_14 1.0
    V_G02_11 MINUP_G02_15 1.0
    W_G02_11 LOGIC_G02_11 1.0
    W_G02_11 MINDN_G02_11 1.0
    M6639 'MARKER' 'INTEND'
    P_G02_11 OBJ 57.5371812999265
    P_G02_11 PMIN_G02_11 1.0
    P_G02_11 PMAX_G02_11 1.0
    P_G02_11 RUP_G02_11 1.0
    P_G02_11 RDN_G02_11 -1.0
    P_G02_11 RUP_G02_12 -1.0
    P_G02_11 RDN_G02_12 1.0
    P_G02_11 DEM_11 1.0
    M6648 'MARKER' 'INTORG'
    U_G02_12 OBJ 365.49961016401926
    U_G02_12 PMIN_G02_12 -104.60360264585489
    U_G02_12 PMAX_G02_12 -302.53901131927387
    U_G02_12 LOGIC_G02_12 1.0
    U_G02_12 MINUP_G02_12 -1.0
    U_G02_12 MINDN_G02_12 1.0
    U_G02_12 LOGIC_G02_13 -1.0
    U_G02_12 RES_12 302.53901131927387
    V_G02_12 OBJ 285.6519524939499
    V_G02_12 LOGIC_G02_12 -1.0
    V_G02_12 MINUP_G02_12 1.0
    V_G02_12 MINUP_G02_13 1.0
    V_G02_12 MINUP_G02_14 1.0
    V_G02_12 MINUP_G02_15 1.0
    V_G02_12 MINUP_G02_16 1.0
    W_G02_12 LOGIC_G02_12 1.0
    W_G02_12 MINDN_G02_12 1.0
    M6666 'MARKER' 'INTEND'
    P_G02_12 OBJ 57.5371812999265
    P_G02_12 PMIN_G02_12 1.0
    P_G02_12 PMAX_G02_12 1.0
    P_G02_12 RUP_G02_12 1.0
    P_G02_12 RDN_G02_12 -1.0
    P_G02_12 RUP_G02_13 -1.0
    P_G02_12 RDN_G02_13 1.0
    P_G02_12 DEM_12 1.0
    M6675 'MARKER' 'INTORG'
    U_G02_13 OBJ 365.49961016401926
    U_G02_13 PMIN_G02_13 -104.60360264585489
    U_G02_13 PMAX_G02_13 -302.53901131927387
    U_G02_13 LOGIC_G02_13 1.0
    U_G02_13 MINUP_G02_13 -1.0
    U_G02_13 MINDN_G02_13 1.0
    U_G02_13 LOGIC_G02_14 -1.0
    U_G02_13 RES_13 302.53901131927387
    V_G02_13 OBJ 285.6519524939499
    V_G02_13 LOGIC_G02_13 -1.0
    V_G02_13 MINUP_G02_13 1.0
    V_G02_13 MINUP_G02_14 1.0
    V_G02_13 MINUP_G02_15 1.0
    V_G02_13 MINUP_G02_16 1.0
    V_G02_13 MINUP_G02_17 1.0
    W_G02_13 LOGIC_G02_13 1.0
    W_G02_13 MINDN_G02_13 1.0
    M6693 'MARKER' 'INTEND'
    P_G02_13 OBJ 57.5371812999265
    P_G02_13 PMIN_G02_13 1.0
    P_G02_13 PMAX_G02_13 1.0
    P_G02_13 RUP_G02_13 1.0
    P_G02_13 RDN_G02_13 -1.0
    P_G02_13 RUP_G02_14 -1.0
    P_G02_13 RDN_G02_14 1.0
    P_G02_13 DEM_13 1.0
    M6702 'MARKER' 'INTORG'
    U_G02_14 OBJ 365.49961016401926
    U_G02_14 PMIN_G02_14 -104.60360264585489
    U_G02_14 PMAX_G02_14 -302.53901131927387
    U_G02_14 LOGIC_G02_14 1.0
    U_G02_14 MINUP_G02_14 -1.0
    U_G02_14 MINDN_G02_14 1.0
    U_G02_14 LOGIC_G02_15 -1.0
    U_G02_14 RES_14 302.53901131927387
    V_G02_14 OBJ 285.6519524939499
    V_G02_14 LOGIC_G02_14 -1.0
    V_G02_14 MINUP_G02_14 1.0
    V_G02_14 MINUP_G02_15 1.0
    V_G02_14 MINUP_G02_16 1.0
    V_G02_14 MINUP_G02_17 1.0
    V_G02_14 MINUP_G02_18 1.0
    W_G02_14 LOGIC_G02_14 1.0
    W_G02_14 MINDN_G02_14 1.0
    M6720 'MARKER' 'INTEND'
    P_G02_14 OBJ 57.5371812999265
    P_G02_14 PMIN_G02_14 1.0
    P_G02_14 PMAX_G02_14 1.0
    P_G02_14 RUP_G02_14 1.0
    P_G02_14 RDN_G02_14 -1.0
    P_G02_14 RUP_G02_15 -1.0
    P_G02_14 RDN_G02_15 1.0
    P_G02_14 DEM_14 1.0
    M6729 'MARKER' 'INTORG'
    U_G02_15 OBJ 365.49961016401926
    U_G02_15 PMIN_G02_15 -104.60360264585489
    U_G02_15 PMAX_G02_15 -302.53901131927387
    U_G02_15 LOGIC_G02_15 1.0
    U_G02_15 MINUP_G02_15 -1.0
    U_G02_15 MINDN_G02_15 1.0
    U_G02_15 LOGIC_G02_16 -1.0
    U_G02_15 RES_15 302.53901131927387
    V_G02_15 OBJ 285.6519524939499
    V_G02_15 LOGIC_G02_15 -1.0
    V_G02_15 MINUP_G02_15 1.0
    V_G02_15 MINUP_G02_16 1.0
    V_G02_15 MINUP_G02_17 1.0
    V_G02_15 MINUP_G02_18 1.0
    V_G02_15 MINUP_G02_19 1.0
    W_G02_15 LOGIC_G02_15 1.0
    W_G02_15 MINDN_G02_15 1.0
    M6747 'MARKER' 'INTEND'
    P_G02_15 OBJ 57.5371812999265
    P_G02_15 PMIN_G02_15 1.0
    P_G02_15 PMAX_G02_15 1.0
    P_G02_15 RUP_G02_15 1.0
    P_G02_15 RDN_G02_15 -1.0
    P_G02_15 RUP_G02_16 -1.0
    P_G02_15 RDN_G02_16 1.0
    P_G02_15 DEM_15 1.0
    M6756 'MARKER' 'INTORG'
    U_G02_16 OBJ 365.49961016401926
    U_G02_16 PMIN_G02_16 -104.60360264585489
    U_G02_16 PMAX_G02_16 -302.53901131927387
    U_G02_16 LOGIC_G02_16 1.0
    U_G02_16 MINUP_G02_16 -1.0
    U_G02_16 MINDN_G02_16 1.0
    U_G02_16 LOGIC_G02_17 -1.0
    U_G02_16 RES_16 302.53901131927387
    V_G02_16 OBJ 285.6519524939499
    V_G02_16 LOGIC_G02_16 -1.0
    V_G02_16 MINUP_G02_16 1.0
    V_G02_16 MINUP_G02_17 1.0
    V_G02_16 MINUP_G02_18 1.0
    V_G02_16 MINUP_G02_19 1.0
    V_G02_16 MINUP_G02_20 1.0
    W_G02_16 LOGIC_G02_16 1.0
    W_G02_16 MINDN_G02_16 1.0
    M6774 'MARKER' 'INTEND'
    P_G02_16 OBJ 57.5371812999265
    P_G02_16 PMIN_G02_16 1.0
    P_G02_16 PMAX_G02_16 1.0
    P_G02_16 RUP_G02_16 1.0
    P_G02_16 RDN_G02_16 -1.0
    P_G02_16 RUP_G02_17 -1.0
    P_G02_16 RDN_G02_17 1.0
    P_G02_16 DEM_16 1.0
    M6783 'MARKER' 'INTORG'
    U_G02_17 OBJ 365.49961016401926
    U_G02_17 PMIN_G02_17 -104.60360264585489
    U_G02_17 PMAX_G02_17 -302.53901131927387
    U_G02_17 LOGIC_G02_17 1.0
    U_G02_17 MINUP_G02_17 -1.0
    U_G02_17 MINDN_G02_17 1.0
    U_G02_17 LOGIC_G02_18 -1.0
    U_G02_17 RES_17 302.53901131927387
    V_G02_17 OBJ 285.6519524939499
    V_G02_17 LOGIC_G02_17 -1.0
    V_G02_17 MINUP_G02_17 1.0
    V_G02_17 MINUP_G02_18 1.0
    V_G02_17 MINUP_G02_19 1.0
    V_G02_17 MINUP_G02_20 1.0
    V_G02_17 MINUP_G02_21 1.0
    W_G02_17 LOGIC_G02_17 1.0
    W_G02_17 MINDN_G02_17 1.0
    M6801 'MARKER' 'INTEND'
    P_G02_17 OBJ 57.5371812999265
    P_G02_17 PMIN_G02_17 1.0
    P_G02_17 PMAX_G02_17 1.0
    P_G02_17 RUP_G02_17 1.0
    P_G02_17 RDN_G02_17 -1.0
    P_G02_17 RUP_G02_18 -1.0
    P_G02_17 RDN_G02_18 1.0
    P_G02_17 DEM_17 1.0
    M6810 'MARKER' 'INTORG'
    U_G02_18 OBJ 365.49961016401926
    U_G02_18 PMIN_G02_18 -104.60360264585489
    U_G02_18 PMAX_G02_18 -302.53901131927387
    U_G02_18 LOGIC_G02_18 1.0
    U_G02_18 MINUP_G02_18 -1.0
    U_G02_18 MINDN_G02_18 1.0
    U_G02_18 LOGIC_G02_19 -1.0
    U_G02_18 RES_18 302.53901131927387
    V_G02_18 OBJ 285.6519524939499
    V_G02_18 LOGIC_G02_18 -1.0
    V_G02_18 MINUP_G02_18 1.0
    V_G02_18 MINUP_G02_19 1.0
    V_G02_18 MINUP_G02_20 1.0
    V_G02_18 MINUP_G02_21 1.0
    V_G02_18 MINUP_G02_22 1.0
    W_G02_18 LOGIC_G02_18 1.0
    W_G02_18 MINDN_G02_18 1.0
    M6828 'MARKER' 'INTEND'
    P_G02_18 OBJ 57.5371812999265
    P_G02_18 PMIN_G02_18 1.0
    P_G02_18 PMAX_G02_18 1.0
    P_G02_18 RUP_G02_18 1.0
    P_G02_18 RDN_G02_18 -1.0
    P_G02_18 RUP_G02_19 -1.0
    P_G02_18 RDN_G02_19 1.0
    P_G02_18 DEM_18 1.0
    M6837 'MARKER' 'INTORG'
    U_G02_19 OBJ 365.49961016401926
    U_G02_19 PMIN_G02_19 -104.60360264585489
    U_G02_19 PMAX_G02_19 -302.53901131927387
    U_G02_19 LOGIC_G02_19 1.0
    U_G02_19 MINUP_G02_19 -1.0
    U_G02_19 MINDN_G02_19 1.0
    U_G02_19 LOGIC_G02_20 -1.0
    U_G02_19 RES_19 302.53901131927387
    V_G02_19 OBJ 285.6519524939499
    V_G02_19 LOGIC_G02_19 -1.0
    V_G02_19 MINUP_G02_19 1.0
    V_G02_19 MINUP_G02_20 1.0
    V_G02_19 MINUP_G02_21 1.0
    V_G02_19 MINUP_G02_22 1.0
    V_G02_19 MINUP_G02_23 1.0
    W_G02_19 LOGIC_G02_19 1.0
    W_G02_19 MINDN_G02_19 1.0
    M6855 'MARKER' 'INTEND'
    P_G02_19 OBJ 57.5371812999265
    P_G02_19 PMIN_G02_19 1.0
    P_G02_19 PMAX_G02_19 1.0
    P_G02_19 RUP_G02_19 1.0
    P_G02_19 RDN_G02_19 -1.0
    P_G02_19 RUP_G02_20 -1.0
    P_G02_19 RDN_G02_20 1.0
    P_G02_19 DEM_19 1.0
    M6864 'MARKER' 'INTORG'
    U_G02_20 OBJ 365.49961016401926
    U_G02_20 PMIN_G02_20 -104.60360264585489
    U_G02_20 PMAX_G02_20 -302.53901131927387
    U_G02_20 LOGIC_G02_20 1.0
    U_G02_20 MINUP_G02_20 -1.0
    U_G02_20 MINDN_G02_20 1.0
    U_G02_20 LOGIC_G02_21 -1.0
    U_G02_20 RES_20 302.53901131927387
    V_G02_20 OBJ 285.6519524939499
    V_G02_20 LOGIC_G02_20 -1.0
    V_G02_20 MINUP_G02_20 1.0
    V_G02_20 MINUP_G02_21 1.0
    V_G02_20 MINUP_G02_22 1.0
    V_G02_20 MINUP_G02_23 1.0
    W_G02_20 LOGIC_G02_20 1.0
    W_G02_20 MINDN_G02_20 1.0
    M6881 'MARKER' 'INTEND'
    P_G02_20 OBJ 57.5371812999265
    P_G02_20 PMIN_G02_20 1.0
    P_G02_20 PMAX_G02_20 1.0
    P_G02_20 RUP_G02_20 1.0
    P_G02_20 RDN_G02_20 -1.0
    P_G02_20 RUP_G02_21 -1.0
    P_G02_20 RDN_G02_21 1.0
    P_G02_20 DEM_20 1.0
    M6890 'MARKER' 'INTORG'
    U_G02_21 OBJ 365.49961016401926
    U_G02_21 PMIN_G02_21 -104.60360264585489
    U_G02_21 PMAX_G02_21 -302.53901131927387
    U_G02_21 LOGIC_G02_21 1.0
    U_G02_21 MINUP_G02_21 -1.0
    U_G02_21 MINDN_G02_21 1.0
    U_G02_21 LOGIC_G02_22 -1.0
    U_G02_21 RES_21 302.53901131927387
    V_G02_21 OBJ 285.6519524939499
    V_G02_21 LOGIC_G02_21 -1.0
    V_G02_21 MINUP_G02_21 1.0
    V_G02_21 MINUP_G02_22 1.0
    V_G02_21 MINUP_G02_23 1.0
    W_G02_21 LOGIC_G02_21 1.0
    W_G02_21 MINDN_G02_21 1.0
    M6906 'MARKER' 'INTEND'
    P_G02_21 OBJ 57.5371812999265
    P_G02_21 PMIN_G02_21 1.0
    P_G02_21 PMAX_G02_21 1.0
    P_G02_21 RUP_G02_21 1.0
    P_G02_21 RDN_G02_21 -1.0
    P_G02_21 RUP_G02_22 -1.0
    P_G02_21 RDN_G02_22 1.0
    P_G02_21 DEM_21 1.0
    M6915 'MARKER' 'INTORG'
    U_G02_22 OBJ 365.49961016401926
    U_G02_22 PMIN_G02_22 -104.60360264585489
    U_G02_22 PMAX_G02_22 -302.53901131927387
    U_G02_22 LOGIC_G02_22 1.0
    U_G02_22 MINUP_G02_22 -1.0
    U_G02_22 MINDN_G02_22 1.0
    U_G02_22 LOGIC_G02_23 -1.0
    U_G02_22 RES_22 302.53901131927387
    V_G02_22 OBJ 285.6519524939499
    V_G02_22 LOGIC_G02_22 -1.0
    V_G02_22 MINUP_G02_22 1.0
    V_G02_22 MINUP_G02_23 1.0
    W_G02_22 LOGIC_G02_22 1.0
    W_G02_22 MINDN_G02_22 1.0
    M6930 'MARKER' 'INTEND'
    P_G02_22 OBJ 57.5371812999265
    P_G02_22 PMIN_G02_22 1.0
    P_G02_22 PMAX_G02_22 1.0
    P_G02_22 RUP_G02_22 1.0
    P_G02_22 RDN_G02_22 -1.0
    P_G02_22 RUP_G02_23 -1.0
    P_G02_22 RDN_G02_23 1.0
    P_G02_22 DEM_22 1.0
    M6939 'MARKER' 'INTORG'
    U_G02_23 OBJ 365.49961016401926
    U_G02_23 PMIN_G02_23 -104.60360264585489
    U_G02_23 PMAX_G02_23 -302.53901131927387
    U_G02_23 LOGIC_G02_23 1.0
    U_G02_23 MINUP_G02_23 -1.0
    U_G02_23 MINDN_G02_23 1.0
    U_G02_23 RES_23 302.53901131927387
    V_G02_23 OBJ 285.6519524939499
    V_G02_23 LOGIC_G02_23 -1.0
    V_G02_23 MINUP_G02_23 1.0
    W_G02_23 LOGIC_G02_23 1.0
    W_G02_23 MINDN_G02_23 1.0
    M6952 'MARKER' 'INTEND'
    P_G02_23 OBJ 57.5371812999265
    P_G02_23 PMIN_G02_23 1.0
    P_G02_23 PMAX_G02_23 1.0
    P_G02_23 RUP_G02_23 1.0
    P_G02_23 RDN_G02_23 -1.0
    P_G02_23 DEM_23 1.0
    M6959 'MARKER' 'INTORG'
    U_G03_0 OBJ 197.74080145395106
    U_G03_0 PMIN_G03_0 -142.48323931570107
    U_G03_0 PMAX_G03_0 -378.7022069724787
    U_G03_0 LOGIC_G03_0 1.0
    U_G03_0 MINUP_G03_0 -1.0
    U_G03_0 MINDN_G03_0 1.0
    U_G03_0 LOGIC_G03_1 -1.0
    U_G03_0 RES_0 378.7022069724787
    V_G03_0 OBJ 281.31420520963025
    V_G03_0 LOGIC_G03_0 -1.0
    V_G03_0 MINUP_G03_0 1.0
    V_G03_0 MINUP_G03_1 1.0
    V_G03_0 MINUP_G03_2 1.0
    V_G03_0 MINUP_G03_3 1.0
    W_G03_0 LOGIC_G03_0 1.0
    W_G03_0 MINDN_G03_0 1.0
    W_G03_0 MINDN_G03_1 1.0
    W_G03_0 MINDN_G03_2 1.0
    W_G03_0 MINDN_G03_3 1.0
    M6979 'MARKER' 'INTEND'
    P_G03_0 OBJ 24.746972870877602
    P_G03_0 PMIN_G03_0 1.0
    P_G03_0 PMAX_G03_0 1.0
    P_G03_0 RUP_G03_1 -1.0
    P_G03_0 RDN_G03_1 1.0
    P_G03_0 DEM_0 1.0
    M6986 'MARKER' 'INTORG'
    U_G03_1 OBJ 197.74080145395106
    U_G03_1 PMIN_G03_1 -142.48323931570107
    U_G03_1 PMAX_G03_1 -378.7022069724787
    U_G03_1 LOGIC_G03_1 1.0
    U_G03_1 MINUP_G03_1 -1.0
    U_G03_1 MINDN_G03_1 1.0
    U_G03_1 LOGIC_G03_2 -1.0
    U_G03_1 RES_1 378.7022069724787
    V_G03_1 OBJ 281.31420520963025
    V_G03_1 LOGIC_G03_1 -1.0
    V_G03_1 MINUP_G03_1 1.0
    V_G03_1 MINUP_G03_2 1.0
    V_G03_1 MINUP_G03_3 1.0
    V_G03_1 MINUP_G03_4 1.0
    W_G03_1 LOGIC_G03_1 1.0
    W_G03_1 MINDN_G03_1 1.0
    W_G03_1 MINDN_G03_2 1.0
    W_G03_1 MINDN_G03_3 1.0
    W_G03_1 MINDN_G03_4 1.0
    M7006 'MARKER' 'INTEND'
    P_G03_1 OBJ 24.746972870877602
    P_G03_1 PMIN_G03_1 1.0
    P_G03_1 PMAX_G03_1 1.0
    P_G03_1 RUP_G03_1 1.0
    P_G03_1 RDN_G03_1 -1.0
    P_G03_1 RUP_G03_2 -1.0
    P_G03_1 RDN_G03_2 1.0
    P_G03_1 DEM_1 1.0
    M7015 'MARKER' 'INTORG'
    U_G03_2 OBJ 197.74080145395106
    U_G03_2 PMIN_G03_2 -142.48323931570107
    U_G03_2 PMAX_G03_2 -378.7022069724787
    U_G03_2 LOGIC_G03_2 1.0
    U_G03_2 MINUP_G03_2 -1.0
    U_G03_2 MINDN_G03_2 1.0
    U_G03_2 LOGIC_G03_3 -1.0
    U_G03_2 RES_2 378.7022069724787
    V_G03_2 OBJ 281.31420520963025
    V_G03_2 LOGIC_G03_2 -1.0
    V_G03_2 MINUP_G03_2 1.0
    V_G03_2 MINUP_G03_3 1.0
    V_G03_2 MINUP_G03_4 1.0
    V_G03_2 MINUP_G03_5 1.0
    W_G03_2 LOGIC_G03_2 1.0
    W_G03_2 MINDN_G03_2 1.0
    W_G03_2 MINDN_G03_3 1.0
    W_G03_2 MINDN_G03_4 1.0
    W_G03_2 MINDN_G03_5 1.0
    M7035 'MARKER' 'INTEND'
    P_G03_2 OBJ 24.746972870877602
    P_G03_2 PMIN_G03_2 1.0
    P_G03_2 PMAX_G03_2 1.0
    P_G03_2 RUP_G03_2 1.0
    P_G03_2 RDN_G03_2 -1.0
    P_G03_2 RUP_G03_3 -1.0
    P_G03_2 RDN_G03_3 1.0
    P_G03_2 DEM_2 1.0
    M7044 'MARKER' 'INTORG'
    U_G03_3 OBJ 197.74080145395106
    U_G03_3 PMIN_G03_3 -142.48323931570107
    U_G03_3 PMAX_G03_3 -378.7022069724787
    U_G03_3 LOGIC_G03_3 1.0
    U_G03_3 MINUP_G03_3 -1.0
    U_G03_3 MINDN_G03_3 1.0
    U_G03_3 LOGIC_G03_4 -1.0
    U_G03_3 RES_3 378.7022069724787
    V_G03_3 OBJ 281.31420520963025
    V_G03_3 LOGIC_G03_3 -1.0
    V_G03_3 MINUP_G03_3 1.0
    V_G03_3 MINUP_G03_4 1.0
    V_G03_3 MINUP_G03_5 1.0
    V_G03_3 MINUP_G03_6 1.0
    W_G03_3 LOGIC_G03_3 1.0
    W_G03_3 MINDN_G03_3 1.0
    W_G03_3 MINDN_G03_4 1.0
    W_G03_3 MINDN_G03_5 1.0
    W_G03_3 MINDN_G03_6 1.0
    M7064 'MARKER' 'INTEND'
    P_G03_3 OBJ 24.746972870877602
    P_G03_3 PMIN_G03_3 1.0
    P_G03_3 PMAX_G03_3 1.0
    P_G03_3 RUP_G03_3 1.0
    P_G03_3 RDN_G03_3 -1.0
    P_G03_3 RUP_G03_4 -1.0
    P_G03_3 RDN_G03_4 1.0
    P_G03_3 DEM_3 1.0
    M7073 'MARKER' 'INTORG'
    U_G03_4 OBJ 197.74080145395106
    U_G03_4 PMIN_G03_4 -142.48323931570107
    U_G03_4 PMAX_G03_4 -378.7022069724787
    U_G03_4 LOGIC_G03_4 1.0
    U_G03_4 MINUP_G03_4 -1.0
    U_G03_4 MINDN_G03_4 1.0
    U_G03_4 LOGIC_G03_5 -1.0
    U_G03_4 RES_4 378.7022069724787
    V_G03_4 OBJ 281.31420520963025
    V_G03_4 LOGIC_G03_4 -1.0
    V_G03_4 MINUP_G03_4 1.0
    V_G03_4 MINUP_G03_5 1.0
    V_G03_4 MINUP_G03_6 1.0
    V_G03_4 MINUP_G03_7 1.0
    W_G03_4 LOGIC_G03_4 1.0
    W_G03_4 MINDN_G03_4 1.0
    W_G03_4 MINDN_G03_5 1.0
    W_G03_4 MINDN_G03_6 1.0
    W_G03_4 MINDN_G03_7 1.0
    M7093 'MARKER' 'INTEND'
    P_G03_4 OBJ 24.746972870877602
    P_G03_4 PMIN_G03_4 1.0
    P_G03_4 PMAX_G03_4 1.0
    P_G03_4 RUP_G03_4 1.0
    P_G03_4 RDN_G03_4 -1.0
    P_G03_4 RUP_G03_5 -1.0
    P_G03_4 RDN_G03_5 1.0
    P_G03_4 DEM_4 1.0
    M7102 'MARKER' 'INTORG'
    U_G03_5 OBJ 197.74080145395106
    U_G03_5 PMIN_G03_5 -142.48323931570107
    U_G03_5 PMAX_G03_5 -378.7022069724787
    U_G03_5 LOGIC_G03_5 1.0
    U_G03_5 MINUP_G03_5 -1.0
    U_G03_5 MINDN_G03_5 1.0
    U_G03_5 LOGIC_G03_6 -1.0
    U_G03_5 RES_5 378.7022069724787
    V_G03_5 OBJ 281.31420520963025
    V_G03_5 LOGIC_G03_5 -1.0
    V_G03_5 MINUP_G03_5 1.0
    V_G03_5 MINUP_G03_6 1.0
    V_G03_5 MINUP_G03_7 1.0
    V_G03_5 MINUP_G03_8 1.0
    W_G03_5 LOGIC_G03_5 1.0
    W_G03_5 MINDN_G03_5 1.0
    W_G03_5 MINDN_G03_6 1.0
    W_G03_5 MINDN_G03_7 1.0
    W_G03_5 MINDN_G03_8 1.0
    M7122 'MARKER' 'INTEND'
    P_G03_5 OBJ 24.746972870877602
    P_G03_5 PMIN_G03_5 1.0
    P_G03_5 PMAX_G03_5 1.0
    P_G03_5 RUP_G03_5 1.0
    P_G03_5 RDN_G03_5 -1.0
    P_G03_5 RUP_G03_6 -1.0
    P_G03_5 RDN_G03_6 1.0
    P_G03_5 DEM_5 1.0
    M7131 'MARKER' 'INTORG'
    U_G03_6 OBJ 197.74080145395106
    U_G03_6 PMIN_G03_6 -142.48323931570107
    U_G03_6 PMAX_G03_6 -378.7022069724787
    U_G03_6 LOGIC_G03_6 1.0
    U_G03_6 MINUP_G03_6 -1.0
    U_G03_6 MINDN_G03_6 1.0
    U_G03_6 LOGIC_G03_7 -1.0
    U_G03_6 RES_6 378.7022069724787
    V_G03_6 OBJ 281.31420520963025
    V_G03_6 LOGIC_G03_6 -1.0
    V_G03_6 MINUP_G03_6 1.0
    V_G03_6 MINUP_G03_7 1.0
    V_G03_6 MINUP_G03_8 1.0
    V_G03_6 MINUP_G03_9 1.0
    W_G03_6 LOGIC_G03_6 1.0
    W_G03_6 MINDN_G03_6 1.0
    W_G03_6 MINDN_G03_7 1.0
    W_G03_6 MINDN_G03_8 1.0
    W_G03_6 MINDN_G03_9 1.0
    M7151 'MARKER' 'INTEND'
    P_G03_6 OBJ 24.746972870877602
    P_G03_6 PMIN_G03_6 1.0
    P_G03_6 PMAX_G03_6 1.0
    P_G03_6 RUP_G03_6 1.0
    P_G03_6 RDN_G03_6 -1.0
    P_G03_6 RUP_G03_7 -1.0
    P_G03_6 RDN_G03_7 1.0
    P_G03_6 DEM_6 1.0
    M7160 'MARKER' 'INTORG'
    U_G03_7 OBJ 197.74080145395106
    U_G03_7 PMIN_G03_7 -142.48323931570107
    U_G03_7 PMAX_G03_7 -378.7022069724787
    U_G03_7 LOGIC_G03_7 1.0
    U_G03_7 MINUP_G03_7 -1.0
    U_G03_7 MINDN_G03_7 1.0
    U_G03_7 LOGIC_G03_8 -1.0
    U_G03_7 RES_7 378.7022069724787
    V_G03_7 OBJ 281.31420520963025
    V_G03_7 LOGIC_G03_7 -1.0
    V_G03_7 MINUP_G03_7 1.0
    V_G03_7 MINUP_G03_8 1.0
    V_G03_7 MINUP_G03_9 1.0
    V_G03_7 MINUP_G03_10 1.0
    W_G03_7 LOGIC_G03_7 1.0
    W_G03_7 MINDN_G03_7 1.0
    W_G03_7 MINDN_G03_8 1.0
    W_G03_7 MINDN_G03_9 1.0
    W_G03_7 MINDN_G03_10 1.0
    M7180 'MARKER' 'INTEND'
    P_G03_7 OBJ 24.746972870877602
    P_G03_7 PMIN_G03_7 1.0
    P_G03_7 PMAX_G03_7 1.0
    P_G03_7 RUP_G03_7 1.0
    P_G03_7 RDN_G03_7 -1.0
    P_G03_7 RUP_G03_8 -1.0
    P_G03_7 RDN_G03_8 1.0
    P_G03_7 DEM_7 1.0
    M7189 'MARKER' 'INTORG'
    U_G03_8 OBJ 197.74080145395106
    U_G03_8 PMIN_G03_8 -142.48323931570107
    U_G03_8 PMAX_G03_8 -378.7022069724787
    U_G03_8 LOGIC_G03_8 1.0
    U_G03_8 MINUP_G03_8 -1.0
    U_G03_8 MINDN_G03_8 1.0
    U_G03_8 LOGIC_G03_9 -1.0
    U_G03_8 RES_8 378.7022069724787
    V_G03_8 OBJ 281.31420520963025
    V_G03_8 LOGIC_G03_8 -1.0
    V_G03_8 MINUP_G03_8 1.0
    V_G03_8 MINUP_G03_9 1.0
    V_G03_8 MINUP_G03_10 1.0
    V_G03_8 MINUP_G03_11 1.0
    W_G03_8 LOGIC_G03_8 1.0
    W_G03_8 MINDN_G03_8 1.0
    W_G03_8 MINDN_G03_9 1.0
    W_G03_8 MINDN_G03_10 1.0
    W_G03_8 MINDN_G03_11 1.0
    M7209 'MARKER' 'INTEND'
    P_G03_8 OBJ 24.746972870877602
    P_G03_8 PMIN_G03_8 1.0
    P_G03_8 PMAX_G03_8 1.0
    P_G03_8 RUP_G03_8 1.0
    P_G03_8 RDN_G03_8 -1.0
    P_G03_8 RUP_G03_9 -1.0
    P_G03_8 RDN_G03_9 1.0
    P_G03_8 DEM_8 1.0
    M7218 'MARKER' 'INTORG'
    U_G03_9 OBJ 197.74080145395106
    U_G03_9 PMIN_G03_9 -142.48323931570107
    U_G03_9 PMAX_G03_9 -378.7022069724787
    U_G03_9 LOGIC_G03_9 1.0
    U_G03_9 MINUP_G03_9 -1.0
    U_G03_9 MINDN_G03_9 1.0
    U_G03_9 LOGIC_G03_10 -1.0
    U_G03_9 RES_9 378.7022069724787
    V_G03_9 OBJ 281.31420520963025
    V_G03_9 LOGIC_G03_9 -1.0
    V_G03_9 MINUP_G03_9 1.0
    V_G03_9 MINUP_G03_10 1.0
    V_G03_9 MINUP_G03_11 1.0
    V_G03_9 MINUP_G03_12 1.0
    W_G03_9 LOGIC_G03_9 1.0
    W_G03_9 MINDN_G03_9 1.0
    W_G03_9 MINDN_G03_10 1.0
    W_G03_9 MINDN_G03_11 1.0
    W_G03_9 MINDN_G03_12 1.0
    M7238 'MARKER' 'INTEND'
    P_G03_9 OBJ 24.746972870877602
    P_G03_9 PMIN_G03_9 1.0
    P_G03_9 PMAX_G03_9 1.0
    P_G03_9 RUP_G03_9 1.0
    P_G03_9 RDN_G03_9 -1.0
    P_G03_9 RUP_G03_10 -1.0
    P_G03_9 RDN_G03_10 1.0
    P_G03_9 DEM_9 1.0
    M7247 'MARKER' 'INTORG'
    U_G03_10 OBJ 197.74080145395106
    U_G03_10 PMIN_G03_10 -142.48323931570107
    U_G03_10 PMAX_G03_10 -378.7022069724787
    U_G03_10 LOGIC_G03_10 1.0
    U_G03_10 MINUP_G03_10 -1.0
    U_G03_10 MINDN_G03_10 1.0
    U_G03_10 LOGIC_G03_11 -1.0
    U_G03_10 RES_10 378.7022069724787
    V_G03_10 OBJ 281.31420520963025
    V_G03_10 LOGIC_G03_10 -1.0
    V_G03_10 MINUP_G03_10 1.0
    V_G03_10 MINUP_G03_11 1.0
    V_G03_10 MINUP_G03_12 1.0
    V_G03_10 MINUP_G03_13 1.0
    W_G03_10 LOGIC_G03_10 1.0
    W_G03_10 MINDN_G03_10 1.0
    W_G03_10 MINDN_G03_11 1.0
    W_G03_10 MINDN_G03_12 1.0
    W_G03_10 MINDN_G03_13 1.0
    M7267 'MARKER' 'INTEND'
    P_G03_10 OBJ 24.746972870877602
    P_G03_10 PMIN_G03_10 1.0
    P_G03_10 PMAX_G03_10 1.0
    P_G03_10 RUP_G03_10 1.0
    P_G03_10 RDN_G03_10 -1.0
    P_G03_10 RUP_G03_11 -1.0
    P_G03_10 RDN_G03_11 1.0
    P_G03_10 DEM_10 1.0
    M7276 'MARKER' 'INTORG'
    U_G03_11 OBJ 197.74080145395106
    U_G03_11 PMIN_G03_11 -142.48323931570107
    U_G03_11 PMAX_G03_11 -378.7022069724787
    U_G03_11 LOGIC_G03_11 1.0
    U_G03_11 MINUP_G03_11 -1.0
    U_G03_11 MINDN_G03_11 1.0
    U_G03_11 LOGIC_G03_12 -1.0
    U_G03_11 RES_11 378.7022069724787
    V_G03_11 OBJ 281.31420520963025
    V_G03_11 LOGIC_G03_11 -1.0
    V_G03_11 MINUP_G03_11 1.0
    V_G03_11 MINUP_G03_12 1.0
    V_G03_11 MINUP_G03_13 1.0
    V_G03_11 MINUP_G03_14 1.0
    W_G03_11 LOGIC_G03_11 1.0
    W_G03_11 MINDN_G03_11 1.0
    W_G03_11 MINDN_G03_12 1.0
    W_G03_11 MINDN_G03_13 1.0
    W_G03_11 MINDN_G03_14 1.0
    M7296 'MARKER' 'INTEND'
    P_G03_11 OBJ 24.746972870877602
    P_G03_11 PMIN_G03_11 1.0
    P_G03_11 PMAX_G03_11 1.0
    P_G03_11 RUP_G03_11 1.0
    P_G03_11 RDN_G03_11 -1.0
    P_G03_11 RUP_G03_12 -1.0
    P_G03_11 RDN_G03_12 1.0
    P_G03_11 DEM_11 1.0
    M7305 'MARKER' 'INTORG'
    U_G03_12 OBJ 197.74080145395106
    U_G03_12 PMIN_G03_12 -142.48323931570107
    U_G03_12 PMAX_G03_12 -378.7022069724787
    U_G03_12 LOGIC_G03_12 1.0
    U_G03_12 MINUP_G03_12 -1.0
    U_G03_12 MINDN_G03_12 1.0
    U_G03_12 LOGIC_G03_13 -1.0
    U_G03_12 RES_12 378.7022069724787
    V_G03_12 OBJ 281.31420520963025
    V_G03_12 LOGIC_G03_12 -1.0
    V_G03_12 MINUP_G03_12 1.0
    V_G03_12 MINUP_G03_13 1.0
    V_G03_12 MINUP_G03_14 1.0
    V_G03_12 MINUP_G03_15 1.0
    W_G03_12 LOGIC_G03_12 1.0
    W_G03_12 MINDN_G03_12 1.0
    W_G03_12 MINDN_G03_13 1.0
    W_G03_12 MINDN_G03_14 1.0
    W_G03_12 MINDN_G03_15 1.0
    M7325 'MARKER' 'INTEND'
    P_G03_12 OBJ 24.746972870877602
    P_G03_12 PMIN_G03_12 1.0
    P_G03_12 PMAX_G03_12 1.0
    P_G03_12 RUP_G03_12 1.0
    P_G03_12 RDN_G03_12 -1.0
    P_G03_12 RUP_G03_13 -1.0
    P_G03_12 RDN_G03_13 1.0
    P_G03_12 DEM_12 1.0
    M7334 'MARKER' 'INTORG'
    U_G03_13 OBJ 197.74080145395106
    U_G03_13 PMIN_G03_13 -142.48323931570107
    U_G03_13 PMAX_G03_13 -378.7022069724787
    U_G03_13 LOGIC_G03_13 1.0
    U_G03_13 MINUP_G03_13 -1.0
    U_G03_13 MINDN_G03_13 1.0
    U_G03_13 LOGIC_G03_14 -1.0
    U_G03_13 RES_13 378.7022069724787
    V_G03_13 OBJ 281.31420520963025
    V_G03_13 LOGIC_G03_13 -1.0
    V_G03_13 MINUP_G03_13 1.0
    V_G03_13 MINUP_G03_14 1.0
    V_G03_13 MINUP_G03_15 1.0
    V_G03_13 MINUP_G03_16 1.0
    W_G03_13 LOGIC_G03_13 1.0
    W_G03_13 MINDN_G03_13 1.0
    W_G03_13 MINDN_G03_14 1.0
    W_G03_13 MINDN_G03_15 1.0
    W_G03_13 MINDN_G03_16 1.0
    M7354 'MARKER' 'INTEND'
    P_G03_13 OBJ 24.746972870877602
    P_G03_13 PMIN_G03_13 1.0
    P_G03_13 PMAX_G03_13 1.0
    P_G03_13 RUP_G03_13 1.0
    P_G03_13 RDN_G03_13 -1.0
    P_G03_13 RUP_G03_14 -1.0
    P_G03_13 RDN_G03_14 1.0
    P_G03_13 DEM_13 1.0
    M7363 'MARKER' 'INTORG'
    U_G03_14 OBJ 197.74080145395106
    U_G03_14 PMIN_G03_14 -142.48323931570107
    U_G03_14 PMAX_G03_14 -378.7022069724787
    U_G03_14 LOGIC_G03_14 1.0
    U_G03_14 MINUP_G03_14 -1.0
    U_G03_14 MINDN_G03_14 1.0
    U_G03_14 LOGIC_G03_15 -1.0
    U_G03_14 RES_14 378.7022069724787
    V_G03_14 OBJ 281.31420520963025
    V_G03_14 LOGIC_G03_14 -1.0
    V_G03_14 MINUP_G03_14 1.0
    V_G03_14 MINUP_G03_15 1.0
    V_G03_14 MINUP_G03_16 1.0
    V_G03_14 MINUP_G03_17 1.0
    W_G03_14 LOGIC_G03_14 1.0
    W_G03_14 MINDN_G03_14 1.0
    W_G03_14 MINDN_G03_15 1.0
    W_G03_14 MINDN_G03_16 1.0
    W_G03_14 MINDN_G03_17 1.0
    M7383 'MARKER' 'INTEND'
    P_G03_14 OBJ 24.746972870877602
    P_G03_14 PMIN_G03_14 1.0
    P_G03_14 PMAX_G03_14 1.0
    P_G03_14 RUP_G03_14 1.0
    P_G03_14 RDN_G03_14 -1.0
    P_G03_14 RUP_G03_15 -1.0
    P_G03_14 RDN_G03_15 1.0
    P_G03_14 DEM_14 1.0
    M7392 'MARKER' 'INTORG'
    U_G03_15 OBJ 197.74080145395106
    U_G03_15 PMIN_G03_15 -142.48323931570107
    U_G03_15 PMAX_G03_15 -378.7022069724787
    U_G03_15 LOGIC_G03_15 1.0
    U_G03_15 MINUP_G03_15 -1.0
    U_G03_15 MINDN_G03_15 1.0
    U_G03_15 LOGIC_G03_16 -1.0
    U_G03_15 RES_15 378.7022069724787
    V_G03_15 OBJ 281.31420520963025
    V_G03_15 LOGIC_G03_15 -1.0
    V_G03_15 MINUP_G03_15 1.0
    V_G03_15 MINUP_G03_16 1.0
    V_G03_15 MINUP_G03_17 1.0
    V_G03_15 MINUP_G03_18 1.0
    W_G03_15 LOGIC_G03_15 1.0
    W_G03_15 MINDN_G03_15 1.0
    W_G03_15 MINDN_G03_16 1.0
    W_G03_15 MINDN_G03_17 1.0
    W_G03_15 MINDN_G03_18 1.0
    M7412 'MARKER' 'INTEND'
    P_G03_15 OBJ 24.746972870877602
    P_G03_15 PMIN_G03_15 1.0
    P_G03_15 PMAX_G03_15 1.0
    P_G03_15 RUP_G03_15 1.0
    P_G03_15 RDN_G03_15 -1.0
    P_G03_15 RUP_G03_16 -1.0
    P_G03_15 RDN_G03_16 1.0
    P_G03_15 DEM_15 1.0
    M7421 'MARKER' 'INTORG'
    U_G03_16 OBJ 197.74080145395106
    U_G03_16 PMIN_G03_16 -142.48323931570107
    U_G03_16 PMAX_G03_16 -378.7022069724787
    U_G03_16 LOGIC_G03_16 1.0
    U_G03_16 MINUP_G03_16 -1.0
    U_G03_16 MINDN_G03_16 1.0
    U_G03_16 LOGIC_G03_17 -1.0
    U_G03_16 RES_16 378.7022069724787
    V_G03_16 OBJ 281.31420520963025
    V_G03_16 LOGIC_G03_16 -1.0
    V_G03_16 MINUP_G03_16 1.0
    V_G03_16 MINUP_G03_17 1.0
    V_G03_16 MINUP_G03_18 1.0
    V_G03_16 MINUP_G03_19 1.0
    W_G03_16 LOGIC_G03_16 1.0
    W_G03_16 MINDN_G03_16 1.0
    W_G03_16 MINDN_G03_17 1.0
    W_G03_16 MINDN_G03_18 1.0
    W_G03_16 MINDN_G03_19 1.0
    M7441 'MARKER' 'INTEND'
    P_G03_16 OBJ 24.746972870877602
    P_G03_16 PMIN_G03_16 1.0
    P_G03_16 PMAX_G03_16 1.0
    P_G03_16 RUP_G03_16 1.0
    P_G03_16 RDN_G03_16 -1.0
    P_G03_16 RUP_G03_17 -1.0
    P_G03_16 RDN_G03_17 1.0
    P_G03_16 DEM_16 1.0
    M7450 'MARKER' 'INTORG'
    U_G03_17 OBJ 197.74080145395106
    U_G03_17 PMIN_G03_17 -142.48323931570107
    U_G03_17 PMAX_G03_17 -378.7022069724787
    U_G03_17 LOGIC_G03_17 1.0
    U_G03_17 MINUP_G03_17 -1.0
    U_G03_17 MINDN_G03_17 1.0
    U_G03_17 LOGIC_G03_18 -1.0
    U_G03_17 RES_17 378.7022069724787
    V_G03_17 OBJ 281.31420520963025
    V_G03_17 LOGIC_G03_17 -1.0
    V_G03_17 MINUP_G03_17 1.0
    V_G03_17 MINUP_G03_18 1.0
    V_G03_17 MINUP_G03_19 1.0
    V_G03_17 MINUP_G03_20 1.0
    W_G03_17 LOGIC_G03_17 1.0
    W_G03_17 MINDN_G03_17 1.0
    W_G03_17 MINDN_G03_18 1.0
    W_G03_17 MINDN_G03_19 1.0
    W_G03_17 MINDN_G03_20 1.0
    M7470 'MARKER' 'INTEND'
    P_G03_17 OBJ 24.746972870877602
    P_G03_17 PMIN_G03_17 1.0
    P_G03_17 PMAX_G03_17 1.0
    P_G03_17 RUP_G03_17 1.0
    P_G03_17 RDN_G03_17 -1.0
    P_G03_17 RUP_G03_18 -1.0
    P_G03_17 RDN_G03_18 1.0
    P_G03_17 DEM_17 1.0
    M7479 'MARKER' 'INTORG'
    U_G03_18 OBJ 197.74080145395106
    U_G03_18 PMIN_G03_18 -142.48323931570107
    U_G03_18 PMAX_G03_18 -378.7022069724787
    U_G03_18 LOGIC_G03_18 1.0
    U_G03_18 MINUP_G03_18 -1.0
    U_G03_18 MINDN_G03_18 1.0
    U_G03_18 LOGIC_G03_19 -1.0
    U_G03_18 RES_18 378.7022069724787
    V_G03_18 OBJ 281.31420520963025
    V_G03_18 LOGIC_G03_18 -1.0
    V_G03_18 MINUP_G03_18 1.0
    V_G03_18 MINUP_G03_19 1.0
    V_G03_18 MINUP_G03_20 1.0
    V_G03_18 MINUP_G03_21 1.0
    W_G03_18 LOGIC_G03_18 1.0
    W_G03_18 MINDN_G03_18 1.0
    W_G03_18 MINDN_G03_19 1.0
    W_G03_18 MINDN_G03_20 1.0
    W_G03_18 MINDN_G03_21 1.0
    M7499 'MARKER' 'INTEND'
    P_G03_18 OBJ 24.746972870877602
    P_G03_18 PMIN_G03_18 1.0
    P_G03_18 PMAX_G03_18 1.0
    P_G03_18 RUP_G03_18 1.0
    P_G03_18 RDN_G03_18 -1.0
    P_G03_18 RUP_G03_19 -1.0
    P_G03_18 RDN_G03_19 1.0
    P_G03_18 DEM_18 1.0
    M7508 'MARKER' 'INTORG'
    U_G03_19 OBJ 197.74080145395106
    U_G03_19 PMIN_G03_19 -142.48323931570107
    U_G03_19 PMAX_G03_19 -378.7022069724787
    U_G03_19 LOGIC_G03_19 1.0
    U_G03_19 MINUP_G03_19 -1.0
    U_G03_19 MINDN_G03_19 1.0
    U_G03_19 LOGIC_G03_20 -1.0
    U_G03_19 RES_19 378.7022069724787
    V_G03_19 OBJ 281.31420520963025
    V_G03_19 LOGIC_G03_19 -1.0
    V_G03_19 MINUP_G03_19 1.0
    V_G03_19 MINUP_G03_20 1.0
    V_G03_19 MINUP_G03_21 1.0
    V_G03_19 MINUP_G03_22 1.0
    W_G03_19 LOGIC_G03_19 1.0
    W_G03_19 MINDN_G03_19 1.0
    W_G03_19 MINDN_G03_20 1.0
    W_G03_19 MINDN_G03_21 1.0
    W_G03_19 MINDN_G03_22 1.0
    M7528 'MARKER' 'INTEND'
    P_G03_19 OBJ 24.746972870877602
    P_G03_19 PMIN_G03_19 1.0
    P_G03_19 PMAX_G03_19 1.0
    P_G03_19 RUP_G03_19 1.0
    P_G03_19 RDN_G03_19 -1.0
    P_G03_19 RUP_G03_20 -1.0
    P_G03_19 RDN_G03_20 1.0
    P_G03_19 DEM_19 1.0
    M7537 'MARKER' 'INTORG'
    U_G03_20 OBJ 197.74080145395106
    U_G03_20 PMIN_G03_20 -142.48323931570107
    U_G03_20 PMAX_G03_20 -378.7022069724787
    U_G03_20 LOGIC_G03_20 1.0
    U_G03_20 MINUP_G03_20 -1.0
    U_G03_20 MINDN_G03_20 1.0
    U_G03_20 LOGIC_G03_21 -1.0
    U_G03_20 RES_20 378.7022069724787
    V_G03_20 OBJ 281.31420520963025
    V_G03_20 LOGIC_G03_20 -1.0
    V_G03_20 MINUP_G03_20 1.0
    V_G03_20 MINUP_G03_21 1.0
    V_G03_20 MINUP_G03_22 1.0
    V_G03_20 MINUP_G03_23 1.0
    W_G03_20 LOGIC_G03_20 1.0
    W_G03_20 MINDN_G03_20 1.0
    W_G03_20 MINDN_G03_21 1.0
    W_G03_20 MINDN_G03_22 1.0
    W_G03_20 MINDN_G03_23 1.0
    M7557 'MARKER' 'INTEND'
    P_G03_20 OBJ 24.746972870877602
    P_G03_20 PMIN_G03_20 1.0
    P_G03_20 PMAX_G03_20 1.0
    P_G03_20 RUP_G03_20 1.0
    P_G03_20 RDN_G03_20 -1.0
    P_G03_20 RUP_G03_21 -1.0
    P_G03_20 RDN_G03_21 1.0
    P_G03_20 DEM_20 1.0
    M7566 'MARKER' 'INTORG'
    U_G03_21 OBJ 197.74080145395106
    U_G03_21 PMIN_G03_21 -142.48323931570107
    U_G03_21 PMAX_G03_21 -378.7022069724787
    U_G03_21 LOGIC_G03_21 1.0
    U_G03_21 MINUP_G03_21 -1.0
    U_G03_21 MINDN_G03_21 1.0
    U_G03_21 LOGIC_G03_22 -1.0
    U_G03_21 RES_21 378.7022069724787
    V_G03_21 OBJ 281.31420520963025
    V_G03_21 LOGIC_G03_21 -1.0
    V_G03_21 MINUP_G03_21 1.0
    V_G03_21 MINUP_G03_22 1.0
    V_G03_21 MINUP_G03_23 1.0
    W_G03_21 LOGIC_G03_21 1.0
    W_G03_21 MINDN_G03_21 1.0
    W_G03_21 MINDN_G03_22 1.0
    W_G03_21 MINDN_G03_23 1.0
    M7584 'MARKER' 'INTEND'
    P_G03_21 OBJ 24.746972870877602
    P_G03_21 PMIN_G03_21 1.0
    P_G03_21 PMAX_G03_21 1.0
    P_G03_21 RUP_G03_21 1.0
    P_G03_21 RDN_G03_21 -1.0
    P_G03_21 RUP_G03_22 -1.0
    P_G03_21 RDN_G03_22 1.0
    P_G03_21 DEM_21 1.0
    M7593 'MARKER' 'INTORG'
    U_G03_22 OBJ 197.74080145395106
    U_G03_22 PMIN_G03_22 -142.48323931570107
    U_G03_22 PMAX_G03_22 -378.7022069724787
    U_G03_22 LOGIC_G03_22 1.0
    U_G03_22 MINUP_G03_22 -1.0
    U_G03_22 MINDN_G03_22 1.0
    U_G03_22 LOGIC_G03_23 -1.0
    U_G03_22 RES_22 378.7022069724787
    V_G03_22 OBJ 281.31420520963025
    V_G03_22 LOGIC_G03_22 -1.0
    V_G03_22 MINUP_G03_22 1.0
    V_G03_22 MINUP_G03_23 1.0
    W_G03_22 LOGIC_G03_22 1.0
    W_G03_22 MINDN_G03_22 1.0
    W_G03_22 MINDN_G03_23 1.0
    M7609 'MARKER' 'INTEND'
    P_G03_22 OBJ 24.746972870877602
    P_G03_22 PMIN_G03_22 1.0
    P_G03_22 PMAX_G03_22 1.0
    P_G03_22 RUP_G03_22 1.0
    P_G03_22 RDN_G03_22 -1.0
    P_G03_22 RUP_G03_23 -1.0
    P_G03_22 RDN_G03_23 1.0
    P_G03_22 DEM_22 1.0
    M7618 'MARKER' 'INTORG'
    U_G03_23 OBJ 197.74080145395106
    U_G03_23 PMIN_G03_23 -142.48323931570107
    U_G03_23 PMAX_G03_23 -378.7022069724787
    U_G03_23 LOGIC_G03_23 1.0
    U_G03_23 MINUP_G03_23 -1.0
    U_G03_23 MINDN_G03_23 1.0
    U_G03_23 RES_23 378.7022069724787
    V_G03_23 OBJ 281.31420520963025
    V_G03_23 LOGIC_G03_23 -1.0
    V_G03_23 MINUP_G03_23 1.0
    W_G03_23 LOGIC_G03_23 1.0
    W_G03_23 MINDN_G03_23 1.0
    M7631 'MARKER' 'INTEND'
    P_G03_23 OBJ 24.746972870877602
    P_G03_23 PMIN_G03_23 1.0
    P_G03_23 PMAX_G03_23 1.0
    P_G03_23 RUP_G03_23 1.0
    P_G03_23 RDN_G03_23 -1.0
    P_G03_23 DEM_23 1.0
    M7638 'MARKER' 'INTORG'
    U_G04_0 OBJ 316.3317081396372
    U_G04_0 PMIN_G04_0 -89.88592459386169
    U_G04_0 PMAX_G04_0 -243.5008517025378
    U_G04_0 LOGIC_G04_0 1.0
    U_G04_0 MINUP_G04_0 -1.0
    U_G04_0 MINDN_G04_0 1.0
    U_G04_0 LOGIC_G04_1 -1.0
    U_G04_0 RES_0 243.5008517025378
    V_G04_0 OBJ 2866.2844748153425
    V_G04_0 LOGIC_G04_0 -1.0
    V_G04_0 MINUP_G04_0 1.0
    V_G04_0 MINUP_G04_1 1.0
    V_G04_0 MINUP_G04_2 1.0
    V_G04_0 MINUP_G04_3 1.0
    W_G04_0 LOGIC_G04_0 1.0
    W_G04_0 MINDN_G04_0 1.0
    W_G04_0 MINDN_G04_1 1.0
    W_G04_0 MINDN_G04_2 1.0
    W_G04_0 MINDN_G04_3 1.0
    W_G04_0 MINDN_G04_4 1.0
    M7659 'MARKER' 'INTEND'
    P_G04_0 OBJ 45.45818429324885
    P_G04_0 PMIN_G04_0 1.0
    P_G04_0 PMAX_G04_0 1.0
    P_G04_0 RUP_G04_1 -1.0
    P_G04_0 RDN_G04_1 1.0
    P_G04_0 DEM_0 1.0
    M7666 'MARKER' 'INTORG'
    U_G04_1 OBJ 316.3317081396372
    U_G04_1 PMIN_G04_1 -89.88592459386169
    U_G04_1 PMAX_G04_1 -243.5008517025378
    U_G04_1 LOGIC_G04_1 1.0
    U_G04_1 MINUP_G04_1 -1.0
    U_G04_1 MINDN_G04_1 1.0
    U_G04_1 LOGIC_G04_2 -1.0
    U_G04_1 RES_1 243.5008517025378
    V_G04_1 OBJ 2866.2844748153425
    V_G04_1 LOGIC_G04_1 -1.0
    V_G04_1 MINUP_G04_1 1.0
    V_G04_1 MINUP_G04_2 1.0
    V_G04_1 MINUP_G04_3 1.0
    V_G04_1 MINUP_G04_4 1.0
    W_G04_1 LOGIC_G04_1 1.0
    W_G04_1 MINDN_G04_1 1.0
    W_G04_1 MINDN_G04_2 1.0
    W_G04_1 MINDN_G04_3 1.0
    W_G04_1 MINDN_G04_4 1.0
    W_G04_1 MINDN_G04_5 1.0
    M7687 'MARKER' 'INTEND'
    P_G04_1 OBJ 45.45818429324885
    P_G04_1 PMIN_G04_1 1.0
    P_G04_1 PMAX_G04_1 1.0
    P_G04_1 RUP_G04_1 1.0
    P_G04_1 RDN_G04_1 -1.0
    P_G04_1 RUP_G04_2 -1.0
    P_G04_1 RDN_G04_2 1.0
    P_G04_1 DEM_1 1.0
    M7696 'MARKER' 'INTORG'
    U_G04_2 OBJ 316.3317081396372
    U_G04_2 PMIN_G04_2 -89.88592459386169
    U_G04_2 PMAX_G04_2 -243.5008517025378
    U_G04_2 LOGIC_G04_2 1.0
    U_G04_2 MINUP_G04_2 -1.0
    U_G04_2 MINDN_G04_2 1.0
    U_G04_2 LOGIC_G04_3 -1.0
    U_G04_2 RES_2 243.5008517025378
    V_G04_2 OBJ 2866.2844748153425
    V_G04_2 LOGIC_G04_2 -1.0
    V_G04_2 MINUP_G04_2 1.0
    V_G04_2 MINUP_G04_3 1.0
    V_G04_2 MINUP_G04_4 1.0
    V_G04_2 MINUP_G04_5 1.0
    W_G04_2 LOGIC_G04_2 1.0
    W_G04_2 MINDN_G04_2 1.0
    W_G04_2 MINDN_G04_3 1.0
    W_G04_2 MINDN_G04_4 1.0
    W_G04_2 MINDN_G04_5 1.0
    W_G04_2 MINDN_G04_6 1.0
    M7717 'MARKER' 'INTEND'
    P_G04_2 OBJ 45.45818429324885
    P_G04_2 PMIN_G04_2 1.0
    P_G04_2 PMAX_G04_2 1.0
    P_G04_2 RUP_G04_2 1.0
    P_G04_2 RDN_G04_2 -1.0
    P_G04_2 RUP_G04_3 -1.0
    P_G04_2 RDN_G04_3 1.0
    P_G04_2 DEM_2 1.0
    M7726 'MARKER' 'INTORG'
    U_G04_3 OBJ 316.3317081396372
    U_G04_3 PMIN_G04_3 -89.88592459386169
    U_G04_3 PMAX_G04_3 -243.5008517025378
    U_G04_3 LOGIC_G04_3 1.0
    U_G04_3 MINUP_G04_3 -1.0
    U_G04_3 MINDN_G04_3 1.0
    U_G04_3 LOGIC_G04_4 -1.0
    U_G04_3 RES_3 243.5008517025378
    V_G04_3 OBJ 2866.2844748153425
    V_G04_3 LOGIC_G04_3 -1.0
    V_G04_3 MINUP_G04_3 1.0
    V_G04_3 MINUP_G04_4 1.0
    V_G04_3 MINUP_G04_5 1.0
    V_G04_3 MINUP_G04_6 1.0
    W_G04_3 LOGIC_G04_3 1.0
    W_G04_3 MINDN_G04_3 1.0
    W_G04_3 MINDN_G04_4 1.0
    W_G04_3 MINDN_G04_5 1.0
    W_G04_3 MINDN_G04_6 1.0
    W_G04_3 MINDN_G04_7 1.0
    M7747 'MARKER' 'INTEND'
    P_G04_3 OBJ 45.45818429324885
    P_G04_3 PMIN_G04_3 1.0
    P_G04_3 PMAX_G04_3 1.0
    P_G04_3 RUP_G04_3 1.0
    P_G04_3 RDN_G04_3 -1.0
    P_G04_3 RUP_G04_4 -1.0
    P_G04_3 RDN_G04_4 1.0
    P_G04_3 DEM_3 1.0
    M7756 'MARKER' 'INTORG'
    U_G04_4 OBJ 316.3317081396372
    U_G04_4 PMIN_G04_4 -89.88592459386169
    U_G04_4 PMAX_G04_4 -243.5008517025378
    U_G04_4 LOGIC_G04_4 1.0
    U_G04_4 MINUP_G04_4 -1.0
    U_G04_4 MINDN_G04_4 1.0
    U_G04_4 LOGIC_G04_5 -1.0
    U_G04_4 RES_4 243.5008517025378
    V_G04_4 OBJ 2866.2844748153425
    V_G04_4 LOGIC_G04_4 -1.0
    V_G04_4 MINUP_G04_4 1.0
    V_G04_4 MINUP_G04_5 1.0
    V_G04_4 MINUP_G04_6 1.0
    V_G04_4 MINUP_G04_7 1.0
    W_G04_4 LOGIC_G04_4 1.0
    W_G04_4 MINDN_G04_4 1.0
    W_G04_4 MINDN_G04_5 1.0
    W_G04_4 MINDN_G04_6 1.0
    W_G04_4 MINDN_G04_7 1.0
    W_G04_4 MINDN_G04_8 1.0
    M7777 'MARKER' 'INTEND'
    P_G04_4 OBJ 45.45818429324885
    P_G04_4 PMIN_G04_4 1.0
    P_G04_4 PMAX_G04_4 1.0
    P_G04_4 RUP_G04_4 1.0
    P_G04_4 RDN_G04_4 -1.0
    P_G04_4 RUP_G04_5 -1.0
    P_G04_4 RDN_G04_5 1.0
    P_G04_4 DEM_4 1.0
    M7786 'MARKER' 'INTORG'
    U_G04_5 OBJ 316.3317081396372
    U_G04_5 PMIN_G04_5 -89.88592459386169
    U_G04_5 PMAX_G04_5 -243.5008517025378
    U_G04_5 LOGIC_G04_5 1.0
    U_G04_5 MINUP_G04_5 -1.0
    U_G04_5 MINDN_G04_5 1.0
    U_G04_5 LOGIC_G04_6 -1.0
    U_G04_5 RES_5 243.5008517025378
    V_G04_5 OBJ 2866.2844748153425
    V_G04_5 LOGIC_G04_5 -1.0
    V_G04_5 MINUP_G04_5 1.0
    V_G04_5 MINUP_G04_6 1.0
    V_G04_5 MINUP_G04_7 1.0
    V_G04_5 MINUP_G04_8 1.0
    W_G04_5 LOGIC_G04_5 1.0
    W_G04_5 MINDN_G04_5 1.0
    W_G04_5 MINDN_G04_6 1.0
    W_G04_5 MINDN_G04_7 1.0
    W_G04_5 MINDN_G04_8 1.0
    W_G04_5 MINDN_G04_9 1.0
    M7807 'MARKER' 'INTEND'
    P_G04_5 OBJ 45.45818429324885
    P_G04_5 PMIN_G04_5 1.0
    P_G04_5 PMAX_G04_5 1.0
    P_G04_5 RUP_G04_5 1.0
    P_G04_5 RDN_G04_5 -1.0
    P_G04_5 RUP_G04_6 -1.0
    P_G04_5 RDN_G04_6 1.0
    P_G04_5 DEM_5 1.0
    M7816 'MARKER' 'INTORG'
    U_G04_6 OBJ 316.3317081396372
    U_G04_6 PMIN_G04_6 -89.88592459386169
    U_G04_6 PMAX_G04_6 -243.5008517025378
    U_G04_6 LOGIC_G04_6 1.0
    U_G04_6 MINUP_G04_6 -1.0
    U_G04_6 MINDN_G04_6 1.0
    U_G04_6 LOGIC_G04_7 -1.0
    U_G04_6 RES_6 243.5008517025378
    V_G04_6 OBJ 2866.2844748153425
    V_G04_6 LOGIC_G04_6 -1.0
    V_G04_6 MINUP_G04_6 1.0
    V_G04_6 MINUP_G04_7 1.0
    V_G04_6 MINUP_G04_8 1.0
    V_G04_6 MINUP_G04_9 1.0
    W_G04_6 LOGIC_G04_6 1.0
    W_G04_6 MINDN_G04_6 1.0
    W_G04_6 MINDN_G04_7 1.0
    W_G04_6 MINDN_G04_8 1.0
    W_G04_6 MINDN_G04_9 1.0
    W_G04_6 MINDN_G04_10 1.0
    M7837 'MARKER' 'INTEND'
    P_G04_6 OBJ 45.45818429324885
    P_G04_6 PMIN_G04_6 1.0
    P_G04_6 PMAX_G04_6 1.0
    P_G04_6 RUP_G04_6 1.0
    P_G04_6 RDN_G04_6 -1.0
    P_G04_6 RUP_G04_7 -1.0
    P_G04_6 RDN_G04_7 1.0
    P_G04_6 DEM_6 1.0
    M7846 'MARKER' 'INTORG'
    U_G04_7 OBJ 316.3317081396372
    U_G04_7 PMIN_G04_7 -89.88592459386169
    U_G04_7 PMAX_G04_7 -243.5008517025378
    U_G04_7 LOGIC_G04_7 1.0
    U_G04_7 MINUP_G04_7 -1.0
    U_G04_7 MINDN_G04_7 1.0
    U_G04_7 LOGIC_G04_8 -1.0
    U_G04_7 RES_7 243.5008517025378
    V_G04_7 OBJ 2866.2844748153425
    V_G04_7 LOGIC_G04_7 -1.0
    V_G04_7 MINUP_G04_7 1.0
    V_G04_7 MINUP_G04_8 1.0
    V_G04_7 MINUP_G04_9 1.0
    V_G04_7 MINUP_G04_10 1.0
    W_G04_7 LOGIC_G04_7 1.0
    W_G04_7 MINDN_G04_7 1.0
    W_G04_7 MINDN_G04_8 1.0
    W_G04_7 MINDN_G04_9 1.0
    W_G04_7 MINDN_G04_10 1.0
    W_G04_7 MINDN_G04_11 1.0
    M7867 'MARKER' 'INTEND'
    P_G04_7 OBJ 45.45818429324885
    P_G04_7 PMIN_G04_7 1.0
    P_G04_7 PMAX_G04_7 1.0
    P_G04_7 RUP_G04_7 1.0
    P_G04_7 RDN_G04_7 -1.0
    P_G04_7 RUP_G04_8 -1.0
    P_G04_7 RDN_G04_8 1.0
    P_G04_7 DEM_7 1.0
    M7876 'MARKER' 'INTORG'
    U_G04_8 OBJ 316.3317081396372
    U_G04_8 PMIN_G04_8 -89.88592459386169
    U_G04_8 PMAX_G04_8 -243.5008517025378
    U_G04_8 LOGIC_G04_8 1.0
    U_G04_8 MINUP_G04_8 -1.0
    U_G04_8 MINDN_G04_8 1.0
    U_G04_8 LOGIC_G04_9 -1.0
    U_G04_8 RES_8 243.5008517025378
    V_G04_8 OBJ 2866.2844748153425
    V_G04_8 LOGIC_G04_8 -1.0
    V_G04_8 MINUP_G04_8 1.0
    V_G04_8 MINUP_G04_9 1.0
    V_G04_8 MINUP_G04_10 1.0
    V_G04_8 MINUP_G04_11 1.0
    W_G04_8 LOGIC_G04_8 1.0
    W_G04_8 MINDN_G04_8 1.0
    W_G04_8 MINDN_G04_9 1.0
    W_G04_8 MINDN_G04_10 1.0
    W_G04_8 MINDN_G04_11 1.0
    W_G04_8 MINDN_G04_12 1.0
    M7897 'MARKER' 'INTEND'
    P_G04_8 OBJ 45.45818429324885
    P_G04_8 PMIN_G04_8 1.0
    P_G04_8 PMAX_G04_8 1.0
    P_G04_8 RUP_G04_8 1.0
    P_G04_8 RDN_G04_8 -1.0
    P_G04_8 RUP_G04_9 -1.0
    P_G04_8 RDN_G04_9 1.0
    P_G04_8 DEM_8 1.0
    M7906 'MARKER' 'INTORG'
    U_G04_9 OBJ 316.3317081396372
    U_G04_9 PMIN_G04_9 -89.88592459386169
    U_G04_9 PMAX_G04_9 -243.5008517025378
    U_G04_9 LOGIC_G04_9 1.0
    U_G04_9 MINUP_G04_9 -1.0
    U_G04_9 MINDN_G04_9 1.0
    U_G04_9 LOGIC_G04_10 -1.0
    U_G04_9 RES_9 243.5008517025378
    V_G04_9 OBJ 2866.2844748153425
    V_G04_9 LOGIC_G04_9 -1.0
    V_G04_9 MINUP_G04_9 1.0
    V_G04_9 MINUP_G04_10 1.0
    V_G04_9 MINUP_G04_11 1.0
    V_G04_9 MINUP_G04_12 1.0
    W_G04_9 LOGIC_G04_9 1.0
    W_G04_9 MINDN_G04_9 1.0
    W_G04_9 MINDN_G04_10 1.0
    W_G04_9 MINDN_G04_11 1.0
    W_G04_9 MINDN_G04_12 1.0
    W_G04_9 MINDN_G04_13 1.0
    M7927 'MARKER' 'INTEND'
    P_G04_9 OBJ 45.45818429324885
    P_G04_9 PMIN_G04_9 1.0
    P_G04_9 PMAX_G04_9 1.0
    P_G04_9 RUP_G04_9 1.0
    P_G04_9 RDN_G04_9 -1.0
    P_G04_9 RUP_G04_10 -1.0
    P_G04_9 RDN_G04_10 1.0
    P_G04_9 DEM_9 1.0
    M7936 'MARKER' 'INTORG'
    U_G04_10 OBJ 316.3317081396372
    U_G04_10 PMIN_G04_10 -89.88592459386169
    U_G04_10 PMAX_G04_10 -243.5008517025378
    U_G04_10 LOGIC_G04_10 1.0
    U_G04_10 MINUP_G04_10 -1.0
    U_G04_10 MINDN_G04_10 1.0
    U_G04_10 LOGIC_G04_11 -1.0
    U_G04_10 RES_10 243.5008517025378
    V_G04_10 OBJ 2866.2844748153425
    V_G04_10 LOGIC_G04_10 -1.0
    V_G04_10 MINUP_G04_10 1.0
    V_G04_10 MINUP_G04_11 1.0
    V_G04_10 MINUP_G04_12 1.0
    V_G04_10 MINUP_G04_13 1.0
    W_G04_10 LOGIC_G04_10 1.0
    W_G04_10 MINDN_G04_10 1.0
    W_G04_10 MINDN_G04_11 1.0
    W_G04_10 MINDN_G04_12 1.0
    W_G04_10 MINDN_G04_13 1.0
    W_G04_10 MINDN_G04_14 1.0
    M7957 'MARKER' 'INTEND'
    P_G04_10 OBJ 45.45818429324885
    P_G04_10 PMIN_G04_10 1.0
    P_G04_10 PMAX_G04_10 1.0
    P_G04_10 RUP_G04_10 1.0
    P_G04_10 RDN_G04_10 -1.0
    P_G04_10 RUP_G04_11 -1.0
    P_G04_10 RDN_G04_11 1.0
    P_G04_10 DEM_10 1.0
    M7966 'MARKER' 'INTORG'
    U_G04_11 OBJ 316.3317081396372
    U_G04_11 PMIN_G04_11 -89.88592459386169
    U_G04_11 PMAX_G04_11 -243.5008517025378
    U_G04_11 LOGIC_G04_11 1.0
    U_G04_11 MINUP_G04_11 -1.0
    U_G04_11 MINDN_G04_11 1.0
    U_G04_11 LOGIC_G04_12 -1.0
    U_G04_11 RES_11 243.5008517025378
    V_G04_11 OBJ 2866.2844748153425
    V_G04_11 LOGIC_G04_11 -1.0
    V_G04_11 MINUP_G04_11 1.0
    V_G04_11 MINUP_G04_12 1.0
    V_G04_11 MINUP_G04_13 1.0
    V_G04_11 MINUP_G04_14 1.0
    W_G04_11 LOGIC_G04_11 1.0
    W_G04_11 MINDN_G04_11 1.0
    W_G04_11 MINDN_G04_12 1.0
    W_G04_11 MINDN_G04_13 1.0
    W_G04_11 MINDN_G04_14 1.0
    W_G04_11 MINDN_G04_15 1.0
    M7987 'MARKER' 'INTEND'
    P_G04_11 OBJ 45.45818429324885
    P_G04_11 PMIN_G04_11 1.0
    P_G04_11 PMAX_G04_11 1.0
    P_G04_11 RUP_G04_11 1.0
    P_G04_11 RDN_G04_11 -1.0
    P_G04_11 RUP_G04_12 -1.0
    P_G04_11 RDN_G04_12 1.0
    P_G04_11 DEM_11 1.0
    M7996 'MARKER' 'INTORG'
    U_G04_12 OBJ 316.3317081396372
    U_G04_12 PMIN_G04_12 -89.88592459386169
    U_G04_12 PMAX_G04_12 -243.5008517025378
    U_G04_12 LOGIC_G04_12 1.0
    U_G04_12 MINUP_G04_12 -1.0
    U_G04_12 MINDN_G04_12 1.0
    U_G04_12 LOGIC_G04_13 -1.0
    U_G04_12 RES_12 243.5008517025378
    V_G04_12 OBJ 2866.2844748153425
    V_G04_12 LOGIC_G04_12 -1.0
    V_G04_12 MINUP_G04_12 1.0
    V_G04_12 MINUP_G04_13 1.0
    V_G04_12 MINUP_G04_14 1.0
    V_G04_12 MINUP_G04_15 1.0
    W_G04_12 LOGIC_G04_12 1.0
    W_G04_12 MINDN_G04_12 1.0
    W_G04_12 MINDN_G04_13 1.0
    W_G04_12 MINDN_G04_14 1.0
    W_G04_12 MINDN_G04_15 1.0
    W_G04_12 MINDN_G04_16 1.0
    M8017 'MARKER' 'INTEND'
    P_G04_12 OBJ 45.45818429324885
    P_G04_12 PMIN_G04_12 1.0
    P_G04_12 PMAX_G04_12 1.0
    P_G04_12 RUP_G04_12 1.0
    P_G04_12 RDN_G04_12 -1.0
    P_G04_12 RUP_G04_13 -1.0
    P_G04_12 RDN_G04_13 1.0
    P_G04_12 DEM_12 1.0
    M8026 'MARKER' 'INTORG'
    U_G04_13 OBJ 316.3317081396372
    U_G04_13 PMIN_G04_13 -89.88592459386169
    U_G04_13 PMAX_G04_13 -243.5008517025378
    U_G04_13 LOGIC_G04_13 1.0
    U_G04_13 MINUP_G04_13 -1.0
    U_G04_13 MINDN_G04_13 1.0
    U_G04_13 LOGIC_G04_14 -1.0
    U_G04_13 RES_13 243.5008517025378
    V_G04_13 OBJ 2866.2844748153425
    V_G04_13 LOGIC_G04_13 -1.0
    V_G04_13 MINUP_G04_13 1.0
    V_G04_13 MINUP_G04_14 1.0
    V_G04_13 MINUP_G04_15 1.0
    V_G04_13 MINUP_G04_16 1.0
    W_G04_13 LOGIC_G04_13 1.0
    W_G04_13 MINDN_G04_13 1.0
    W_G04_13 MINDN_G04_14 1.0
    W_G04_13 MINDN_G04_15 1.0
    W_G04_13 MINDN_G04_16 1.0
    W_G04_13 MINDN_G04_17 1.0
    M8047 'MARKER' 'INTEND'
    P_G04_13 OBJ 45.45818429324885
    P_G04_13 PMIN_G04_13 1.0
    P_G04_13 PMAX_G04_13 1.0
    P_G04_13 RUP_G04_13 1.0
    P_G04_13 RDN_G04_13 -1.0
    P_G04_13 RUP_G04_14 -1.0
    P_G04_13 RDN_G04_14 1.0
    P_G04_13 DEM_13 1.0
    M8056 'MARKER' 'INTORG'
    U_G04_14 OBJ 316.3317081396372
    U_G04_14 PMIN_G04_14 -89.88592459386169
    U_G04_14 PMAX_G04_14 -243.5008517025378
    U_G04_14 LOGIC_G04_14 1.0
    U_G04_14 MINUP_G04_14 -1.0
    U_G04_14 MINDN_G04_14 1.0
    U_G04_14 LOGIC_G04_15 -1.0
    U_G04_14 RES_14 243.5008517025378
    V_G04_14 OBJ 2866.2844748153425
    V_G04_14 LOGIC_G04_14 -1.0
    V_G04_14 MINUP_G04_14 1.0
    V_G04_14 MINUP_G04_15 1.0
    V_G04_14 MINUP_G04_16 1.0
    V_G04_14 MINUP_G04_17 1.0
    W_G04_14 LOGIC_G04_14 1.0
    W_G04_14 MINDN_G04_14 1.0
    W_G04_14 MINDN_G04_15 1.0
    W_G04_14 MINDN_G04_16 1.0
    W_G04_14 MINDN_G04_17 1.0
    W_G04_14 MINDN_G04_18 1.0
    M8077 'MARKER' 'INTEND'
    P_G04_14 OBJ 45.45818429324885
    P_G04_14 PMIN_G04_14 1.0
    P_G04_14 PMAX_G04_14 1.0
    P_G04_14 RUP_G04_14 1.0
    P_G04_14 RDN_G04_14 -1.0
    P_G04_14 RUP_G04_15 -1.0
    P_G04_14 RDN_G04_15 1.0
    P_G04_14 DEM_14 1.0
    M8086 'MARKER' 'INTORG'
    U_G04_15 OBJ 316.3317081396372
    U_G04_15 PMIN_G04_15 -89.88592459386169
    U_G04_15 PMAX_G04_15 -243.5008517025378
    U_G04_15 LOGIC_G04_15 1.0
    U_G04_15 MINUP_G04_15 -1.0
    U_G04_15 MINDN_G04_15 1.0
    U_G04_15 LOGIC_G04_16 -1.0
    U_G04_15 RES_15 243.5008517025378
    V_G04_15 OBJ 2866.2844748153425
    V_G04_15 LOGIC_G04_15 -1.0
    V_G04_15 MINUP_G04_15 1.0
    V_G04_15 MINUP_G04_16 1.0
    V_G04_15 MINUP_G04_17 1.0
    V_G04_15 MINUP_G04_18 1.0
    W_G04_15 LOGIC_G04_15 1.0
    W_G04_15 MINDN_G04_15 1.0
    W_G04_15 MINDN_G04_16 1.0
    W_G04_15 MINDN_G04_17 1.0
    W_G04_15 MINDN_G04_18 1.0
    W_G04_15 MINDN_G04_19 1.0
    M8107 'MARKER' 'INTEND'
    P_G04_15 OBJ 45.45818429324885
    P_G04_15 PMIN_G04_15 1.0
    P_G04_15 PMAX_G04_15 1.0
    P_G04_15 RUP_G04_15 1.0
    P_G04_15 RDN_G04_15 -1.0
    P_G04_15 RUP_G04_16 -1.0
    P_G04_15 RDN_G04_16 1.0
    P_G04_15 DEM_15 1.0
    M8116 'MARKER' 'INTORG'
    U_G04_16 OBJ 316.3317081396372
    U_G04_16 PMIN_G04_16 -89.88592459386169
    U_G04_16 PMAX_G04_16 -243.5008517025378
    U_G04_16 LOGIC_G04_16 1.0
    U_G04_16 MINUP_G04_16 -1.0
    U_G04_16 MINDN_G04_16 1.0
    U_G04_16 LOGIC_G04_17 -1.0
    U_G04_16 RES_16 243.5008517025378
    V_G04_16 OBJ 2866.2844748153425
    V_G04_16 LOGIC_G04_16 -1.0
    V_G04_16 MINUP_G04_16 1.0
    V_G04_16 MINUP_G04_17 1.0
    V_G04_16 MINUP_G04_18 1.0
    V_G04_16 MINUP_G04_19 1.0
    W_G04_16 LOGIC_G04_16 1.0
    W_G04_16 MINDN_G04_16 1.0
    W_G04_16 MINDN_G04_17 1.0
    W_G04_16 MINDN_G04_18 1.0
    W_G04_16 MINDN_G04_19 1.0
    W_G04_16 MINDN_G04_20 1.0
    M8137 'MARKER' 'INTEND'
    P_G04_16 OBJ 45.45818429324885
    P_G04_16 PMIN_G04_16 1.0
    P_G04_16 PMAX_G04_16 1.0
    P_G04_16 RUP_G04_16 1.0
    P_G04_16 RDN_G04_16 -1.0
    P_G04_16 RUP_G04_17 -1.0
    P_G04_16 RDN_G04_17 1.0
    P_G04_16 DEM_16 1.0
    M8146 'MARKER' 'INTORG'
    U_G04_17 OBJ 316.3317081396372
    U_G04_17 PMIN_G04_17 -89.88592459386169
    U_G04_17 PMAX_G04_17 -243.5008517025378
    U_G04_17 LOGIC_G04_17 1.0
    U_G04_17 MINUP_G04_17 -1.0
    U_G04_17 MINDN_G04_17 1.0
    U_G04_17 LOGIC_G04_18 -1.0
    U_G04_17 RES_17 243.5008517025378
    V_G04_17 OBJ 2866.2844748153425
    V_G04_17 LOGIC_G04_17 -1.0
    V_G04_17 MINUP_G04_17 1.0
    V_G04_17 MINUP_G04_18 1.0
    V_G04_17 MINUP_G04_19 1.0
    V_G04_17 MINUP_G04_20 1.0
    W_G04_17 LOGIC_G04_17 1.0
    W_G04_17 MINDN_G04_17 1.0
    W_G04_17 MINDN_G04_18 1.0
    W_G04_17 MINDN_G04_19 1.0
    W_G04_17 MINDN_G04_20 1.0
    W_G04_17 MINDN_G04_21 1.0
    M8167 'MARKER' 'INTEND'
    P_G04_17 OBJ 45.45818429324885
    P_G04_17 PMIN_G04_17 1.0
    P_G04_17 PMAX_G04_17 1.0
    P_G04_17 RUP_G04_17 1.0
    P_G04_17 RDN_G04_17 -1.0
    P_G04_17 RUP_G04_18 -1.0
    P_G04_17 RDN_G04_18 1.0
    P_G04_17 DEM_17 1.0
    M8176 'MARKER' 'INTORG'
    U_G04_18 OBJ 316.3317081396372
    U_G04_18 PMIN_G04_18 -89.88592459386169
    U_G04_18 PMAX_G04_18 -243.5008517025378
    U_G04_18 LOGIC_G04_18 1.0
    U_G04_18 MINUP_G04_18 -1.0
    U_G04_18 MINDN_G04_18 1.0
    U_G04_18 LOGIC_G04_19 -1.0
    U_G04_18 RES_18 243.5008517025378
    V_G04_18 OBJ 2866.2844748153425
    V_G04_18 LOGIC_G04_18 -1.0
    V_G04_18 MINUP_G04_18 1.0
    V_G04_18 MINUP_G04_19 1.0
    V_G04_18 MINUP_G04_20 1.0
    V_G04_18 MINUP_G04_21 1.0
    W_G04_18 LOGIC_G04_18 1.0
    W_G04_18 MINDN_G04_18 1.0
    W_G04_18 MINDN_G04_19 1.0
    W_G04_18 MINDN_G04_20 1.0
    W_G04_18 MINDN_G04_21 1.0
    W_G04_18 MINDN_G04_22 1.0
    M8197 'MARKER' 'INTEND'
    P_G04_18 OBJ 45.45818429324885
    P_G04_18 PMIN_G04_18 1.0
    P_G04_18 PMAX_G04_18 1.0
    P_G04_18 RUP_G04_18 1.0
    P_G04_18 RDN_G04_18 -1.0
    P_G04_18 RUP_G04_19 -1.0
    P_G04_18 RDN_G04_19 1.0
    P_G04_18 DEM_18 1.0
    M8206 'MARKER' 'INTORG'
    U_G04_19 OBJ 316.3317081396372
    U_G04_19 PMIN_G04_19 -89.88592459386169
    U_G04_19 PMAX_G04_19 -243.5008517025378
    U_G04_19 LOGIC_G04_19 1.0
    U_G04_19 MINUP_G04_19 -1.0
    U_G04_19 MINDN_G04_19 1.0
    U_G04_19 LOGIC_G04_20 -1.0
    U_G04_19 RES_19 243.5008517025378
    V_G04_19 OBJ 2866.2844748153425
    V_G04_19 LOGIC_G04_19 -1.0
    V_G04_19 MINUP_G04_19 1.0
    V_G04_19 MINUP_G04_20 1.0
    V_G04_19 MINUP_G04_21 1.0
    V_G04_19 MINUP_G04_22 1.0
    W_G04_19 LOGIC_G04_19 1.0
    W_G04_19 MINDN_G04_19 1.0
    W_G04_19 MINDN_G04_20 1.0
    W_G04_19 MINDN_G04_21 1.0
    W_G04_19 MINDN_G04_22 1.0
    W_G04_19 MINDN_G04_23 1.0
    M8227 'MARKER' 'INTEND'
    P_G04_19 OBJ 45.45818429324885
    P_G04_19 PMIN_G04_19 1.0
    P_G04_19 PMAX_G04_19 1.0
    P_G04_19 RUP_G04_19 1.0
    P_G04_19 RDN_G04_19 -1.0
    P_G04_19 RUP_G04_20 -1.0
    P_G04_19 RDN_G04_20 1.0
    P_G04_19 DEM_19 1.0
    M8236 'MARKER' 'INTORG'
    U_G04_20 OBJ 316.3317081396372
    U_G04_20 PMIN_G04_20 -89.88592459386169
    U_G04_20 PMAX_G04_20 -243.5008517025378
    U_G04_20 LOGIC_G04_20 1.0
    U_G04_20 MINUP_G04_20 -1.0
    U_G04_20 MINDN_G04_20 1.0
    U_G04_20 LOGIC_G04_21 -1.0
    U_G04_20 RES_20 243.5008517025378
    V_G04_20 OBJ 2866.2844748153425
    V_G04_20 LOGIC_G04_20 -1.0
    V_G04_20 MINUP_G04_20 1.0
    V_G04_20 MINUP_G04_21 1.0
    V_G04_20 MINUP_G04_22 1.0
    V_G04_20 MINUP_G04_23 1.0
    W_G04_20 LOGIC_G04_20 1.0
    W_G04_20 MINDN_G04_20 1.0
    W_G04_20 MINDN_G04_21 1.0
    W_G04_20 MINDN_G04_22 1.0
    W_G04_20 MINDN_G04_23 1.0
    M8256 'MARKER' 'INTEND'
    P_G04_20 OBJ 45.45818429324885
    P_G04_20 PMIN_G04_20 1.0
    P_G04_20 PMAX_G04_20 1.0
    P_G04_20 RUP_G04_20 1.0
    P_G04_20 RDN_G04_20 -1.0
    P_G04_20 RUP_G04_21 -1.0
    P_G04_20 RDN_G04_21 1.0
    P_G04_20 DEM_20 1.0
    M8265 'MARKER' 'INTORG'
    U_G04_21 OBJ 316.3317081396372
    U_G04_21 PMIN_G04_21 -89.88592459386169
    U_G04_21 PMAX_G04_21 -243.5008517025378
    U_G04_21 LOGIC_G04_21 1.0
    U_G04_21 MINUP_G04_21 -1.0
    U_G04_21 MINDN_G04_21 1.0
    U_G04_21 LOGIC_G04_22 -1.0
    U_G04_21 RES_21 243.5008517025378
    V_G04_21 OBJ 2866.2844748153425
    V_G04_21 LOGIC_G04_21 -1.0
    V_G04_21 MINUP_G04_21 1.0
    V_G04_21 MINUP_G04_22 1.0
    V_G04_21 MINUP_G04_23 1.0
    W_G04_21 LOGIC_G04_21 1.0
    W_G04_21 MINDN_G04_21 1.0
    W_G04_21 MINDN_G04_22 1.0
    W_G04_21 MINDN_G04_23 1.0
    M8283 'MARKER' 'INTEND'
    P_G04_21 OBJ 45.45818429324885
    P_G04_21 PMIN_G04_21 1.0
    P_G04_21 PMAX_G04_21 1.0
    P_G04_21 RUP_G04_21 1.0
    P_G04_21 RDN_G04_21 -1.0
    P_G04_21 RUP_G04_22 -1.0
    P_G04_21 RDN_G04_22 1.0
    P_G04_21 DEM_21 1.0
    M8292 'MARKER' 'INTORG'
    U_G04_22 OBJ 316.3317081396372
    U_G04_22 PMIN_G04_22 -89.88592459386169
    U_G04_22 PMAX_G04_22 -243.5008517025378
    U_G04_22 LOGIC_G04_22 1.0
    U_G04_22 MINUP_G04_22 -1.0
    U_G04_22 MINDN_G04_22 1.0
    U_G04_22 LOGIC_G04_23 -1.0
    U_G04_22 RES_22 243.5008517025378
    V_G04_22 OBJ 2866.2844748153425
    V_G04_22 LOGIC_G04_22 -1.0
    V_G04_22 MINUP_G04_22 1.0
    V_G04_22 MINUP_G04_23 1.0
    W_G04_22 LOGIC_G04_22 1.0
    W_G04_22 MINDN_G04_22 1.0
    W_G04_22 MINDN_G04_23 1.0
    M8308 'MARKER' 'INTEND'
    P_G04_22 OBJ 45.45818429324885
    P_G04_22 PMIN_G04_22 1.0
    P_G04_22 PMAX_G04_22 1.0
    P_G04_22 RUP_G04_22 1.0
    P_G04_22 RDN_G04_22 -1.0
    P_G04_22 RUP_G04_23 -1.0
    P_G04_22 RDN_G04_23 1.0
    P_G04_22 DEM_22 1.0
    M8317 'MARKER' 'INTORG'
    U_G04_23 OBJ 316.3317081396372
    U_G04_23 PMIN_G04_23 -89.88592459386169
    U_G04_23 PMAX_G04_23 -243.5008517025378
    U_G04_23 LOGIC_G04_23 1.0
    U_G04_23 MINUP_G04_23 -1.0
    U_G04_23 MINDN_G04_23 1.0
    U_G04_23 RES_23 243.5008517025378
    V_G04_23 OBJ 2866.2844748153425
    V_G04_23 LOGIC_G04_23 -1.0
    V_G04_23 MINUP_G04_23 1.0
    W_G04_23 LOGIC_G04_23 1.0
    W_G04_23 MINDN_G04_23 1.0
    M8330 'MARKER' 'INTEND'
    P_G04_23 OBJ 45.45818429324885
    P_G04_23 PMIN_G04_23 1.0
    P_G04_23 PMAX_G04_23 1.0
    P_G04_23 RUP_G04_23 1.0
    P_G04_23 RDN_G04_23 -1.0
    P_G04_23 DEM_23 1.0
    M8337 'MARKER' 'INTORG'
    U_G05_0 OBJ 303.2736536188519
    U_G05_0 PMIN_G05_0 -119.28513920771101
    U_G05_0 PMAX_G05_0 -372.7659968644606
    U_G05_0 LOGIC_G05_0 1.0
    U_G05_0 MINUP_G05_0 -1.0
    U_G05_0 MINDN_G05_0 1.0
    U_G05_0 LOGIC_G05_1 -1.0
    U_G05_0 RES_0 372.7659968644606
    V_G05_0 OBJ 1029.8930998034168
    V_G05_0 LOGIC_G05_0 -1.0
    V_G05_0 MINUP_G05_0 1.0
    V_G05_0 MINUP_G05_1 1.0
    V_G05_0 MINUP_G05_2 1.0
    V_G05_0 MINUP_G05_3 1.0
    V_G05_0 MINUP_G05_4 1.0
    W_G05_0 LOGIC_G05_0 1.0
    W_G05_0 MINDN_G05_0 1.0
    W_G05_0 MINDN_G05_1 1.0
    W_G05_0 MINDN_G05_2 1.0
    W_G05_0 MINDN_G05_3 1.0
    M8358 'MARKER' 'INTEND'
    P_G05_0 OBJ 43.32088071602921
    P_G05_0 PMIN_G05_0 1.0
    P_G05_0 PMAX_G05_0 1.0
    P_G05_0 RUP_G05_1 -1.0
    P_G05_0 RDN_G05_1 1.0
    P_G05_0 DEM_0 1.0
    M8365 'MARKER' 'INTORG'
    U_G05_1 OBJ 303.2736536188519
    U_G05_1 PMIN_G05_1 -119.28513920771101
    U_G05_1 PMAX_G05_1 -372.7659968644606
    U_G05_1 LOGIC_G05_1 1.0
    U_G05_1 MINUP_G05_1 -1.0
    U_G05_1 MINDN_G05_1 1.0
    U_G05_1 LOGIC_G05_2 -1.0
    U_G05_1 RES_1 372.7659968644606
    V_G05_1 OBJ 1029.8930998034168
    V_G05_1 LOGIC_G05_1 -1.0
    V_G05_1 MINUP_G05_1 1.0
    V_G05_1 MINUP_G05_2 1.0
    V_G05_1 MINUP_G05_3 1.0
    V_G05_1 MINUP_G05_4 1.0
    V_G05_1 MINUP_G05_5 1.0
    W_G05_1 LOGIC_G05_1 1.0
    W_G05_1 MINDN_G05_1 1.0
    W_G05_1 MINDN_G05_2 1.0
    W_G05_1 MINDN_G05_3 1.0
    W_G05_1 MINDN_G05_4 1.0
    M8386 'MARKER' 'INTEND'
    P_G05_1 OBJ 43.32088071602921
    P_G05_1 PMIN_G05_1 1.0
    P_G05_1 PMAX_G05_1 1.0
    P_G05_1 RUP_G05_1 1.0
    P_G05_1 RDN_G05_1 -1.0
    P_G05_1 RUP_G05_2 -1.0
    P_G05_1 RDN_G05_2 1.0
    P_G05_1 DEM_1 1.0
    M8395 'MARKER' 'INTORG'
    U_G05_2 OBJ 303.2736536188519
    U_G05_2 PMIN_G05_2 -119.28513920771101
    U_G05_2 PMAX_G05_2 -372.7659968644606
    U_G05_2 LOGIC_G05_2 1.0
    U_G05_2 MINUP_G05_2 -1.0
    U_G05_2 MINDN_G05_2 1.0
    U_G05_2 LOGIC_G05_3 -1.0
    U_G05_2 RES_2 372.7659968644606
    V_G05_2 OBJ 1029.8930998034168
    V_G05_2 LOGIC_G05_2 -1.0
    V_G05_2 MINUP_G05_2 1.0
    V_G05_2 MINUP_G05_3 1.0
    V_G05_2 MINUP_G05_4 1.0
    V_G05_2 MINUP_G05_5 1.0
    V_G05_2 MINUP_G05_6 1.0
    W_G05_2 LOGIC_G05_2 1.0
    W_G05_2 MINDN_G05_2 1.0
    W_G05_2 MINDN_G05_3 1.0
    W_G05_2 MINDN_G05_4 1.0
    W_G05_2 MINDN_G05_5 1.0
    M8416 'MARKER' 'INTEND'
    P_G05_2 OBJ 43.32088071602921
    P_G05_2 PMIN_G05_2 1.0
    P_G05_2 PMAX_G05_2 1.0
    P_G05_2 RUP_G05_2 1.0
    P_G05_2 RDN_G05_2 -1.0
    P_G05_2 RUP_G05_3 -1.0
    P_G05_2 RDN_G05_3 1.0
    P_G05_2 DEM_2 1.0
    M8425 'MARKER' 'INTORG'
    U_G05_3 OBJ 303.2736536188519
    U_G05_3 PMIN_G05_3 -119.28513920771101
    U_G05_3 PMAX_G05_3 -372.7659968644606
    U_G05_3 LOGIC_G05_3 1.0
    U_G05_3 MINUP_G05_3 -1.0
    U_G05_3 MINDN_G05_3 1.0
    U_G05_3 LOGIC_G05_4 -1.0
    U_G05_3 RES_3 372.7659968644606
    V_G05_3 OBJ 1029.8930998034168
    V_G05_3 LOGIC_G05_3 -1.0
    V_G05_3 MINUP_G05_3 1.0
    V_G05_3 MINUP_G05_4 1.0
    V_G05_3 MINUP_G05_5 1.0
    V_G05_3 MINUP_G05_6 1.0
    V_G05_3 MINUP_G05_7 1.0
    W_G05_3 LOGIC_G05_3 1.0
    W_G05_3 MINDN_G05_3 1.0
    W_G05_3 MINDN_G05_4 1.0
    W_G05_3 MINDN_G05_5 1.0
    W_G05_3 MINDN_G05_6 1.0
    M8446 'MARKER' 'INTEND'
    P_G05_3 OBJ 43.32088071602921
    P_G05_3 PMIN_G05_3 1.0
    P_G05_3 PMAX_G05_3 1.0
    P_G05_3 RUP_G05_3 1.0
    P_G05_3 RDN_G05_3 -1.0
    P_G05_3 RUP_G05_4 -1.0
    P_G05_3 RDN_G05_4 1.0
    P_G05_3 DEM_3 1.0
    M8455 'MARKER' 'INTORG'
    U_G05_4 OBJ 303.2736536188519
    U_G05_4 PMIN_G05_4 -119.28513920771101
    U_G05_4 PMAX_G05_4 -372.7659968644606
    U_G05_4 LOGIC_G05_4 1.0
    U_G05_4 MINUP_G05_4 -1.0
    U_G05_4 MINDN_G05_4 1.0
    U_G05_4 LOGIC_G05_5 -1.0
    U_G05_4 RES_4 372.7659968644606
    V_G05_4 OBJ 1029.8930998034168
    V_G05_4 LOGIC_G05_4 -1.0
    V_G05_4 MINUP_G05_4 1.0
    V_G05_4 MINUP_G05_5 1.0
    V_G05_4 MINUP_G05_6 1.0
    V_G05_4 MINUP_G05_7 1.0
    V_G05_4 MINUP_G05_8 1.0
    W_G05_4 LOGIC_G05_4 1.0
    W_G05_4 MINDN_G05_4 1.0
    W_G05_4 MINDN_G05_5 1.0
    W_G05_4 MINDN_G05_6 1.0
    W_G05_4 MINDN_G05_7 1.0
    M8476 'MARKER' 'INTEND'
    P_G05_4 OBJ 43.32088071602921
    P_G05_4 PMIN_G05_4 1.0
    P_G05_4 PMAX_G05_4 1.0
    P_G05_4 RUP_G05_4 1.0
    P_G05_4 RDN_G05_4 -1.0
    P_G05_4 RUP_G05_5 -1.0
    P_G05_4 RDN_G05_5 1.0
    P_G05_4 DEM_4 1.0
    M8485 'MARKER' 'INTORG'
    U_G05_5 OBJ 303.2736536188519
    U_G05_5 PMIN_G05_5 -119.28513920771101
    U_G05_5 PMAX_G05_5 -372.7659968644606
    U_G05_5 LOGIC_G05_5 1.0
    U_G05_5 MINUP_G05_5 -1.0
    U_G05_5 MINDN_G05_5 1.0
    U_G05_5 LOGIC_G05_6 -1.0
    U_G05_5 RES_5 372.7659968644606
    V_G05_5 OBJ 1029.8930998034168
    V_G05_5 LOGIC_G05_5 -1.0
    V_G05_5 MINUP_G05_5 1.0
    V_G05_5 MINUP_G05_6 1.0
    V_G05_5 MINUP_G05_7 1.0
    V_G05_5 MINUP_G05_8 1.0
    V_G05_5 MINUP_G05_9 1.0
    W_G05_5 LOGIC_G05_5 1.0
    W_G05_5 MINDN_G05_5 1.0
    W_G05_5 MINDN_G05_6 1.0
    W_G05_5 MINDN_G05_7 1.0
    W_G05_5 MINDN_G05_8 1.0
    M8506 'MARKER' 'INTEND'
    P_G05_5 OBJ 43.32088071602921
    P_G05_5 PMIN_G05_5 1.0
    P_G05_5 PMAX_G05_5 1.0
    P_G05_5 RUP_G05_5 1.0
    P_G05_5 RDN_G05_5 -1.0
    P_G05_5 RUP_G05_6 -1.0
    P_G05_5 RDN_G05_6 1.0
    P_G05_5 DEM_5 1.0
    M8515 'MARKER' 'INTORG'
    U_G05_6 OBJ 303.2736536188519
    U_G05_6 PMIN_G05_6 -119.28513920771101
    U_G05_6 PMAX_G05_6 -372.7659968644606
    U_G05_6 LOGIC_G05_6 1.0
    U_G05_6 MINUP_G05_6 -1.0
    U_G05_6 MINDN_G05_6 1.0
    U_G05_6 LOGIC_G05_7 -1.0
    U_G05_6 RES_6 372.7659968644606
    V_G05_6 OBJ 1029.8930998034168
    V_G05_6 LOGIC_G05_6 -1.0
    V_G05_6 MINUP_G05_6 1.0
    V_G05_6 MINUP_G05_7 1.0
    V_G05_6 MINUP_G05_8 1.0
    V_G05_6 MINUP_G05_9 1.0
    V_G05_6 MINUP_G05_10 1.0
    W_G05_6 LOGIC_G05_6 1.0
    W_G05_6 MINDN_G05_6 1.0
    W_G05_6 MINDN_G05_7 1.0
    W_G05_6 MINDN_G05_8 1.0
    W_G05_6 MINDN_G05_9 1.0
    M8536 'MARKER' 'INTEND'
    P_G05_6 OBJ 43.32088071602921
    P_G05_6 PMIN_G05_6 1.0
    P_G05_6 PMAX_G05_6 1.0
    P_G05_6 RUP_G05_6 1.0
    P_G05_6 RDN_G05_6 -1.0
    P_G05_6 RUP_G05_7 -1.0
    P_G05_6 RDN_G05_7 1.0
    P_G05_6 DEM_6 1.0
    M8545 'MARKER' 'INTORG'
    U_G05_7 OBJ 303.2736536188519
    U_G05_7 PMIN_G05_7 -119.28513920771101
    U_G05_7 PMAX_G05_7 -372.7659968644606
    U_G05_7 LOGIC_G05_7 1.0
    U_G05_7 MINUP_G05_7 -1.0
    U_G05_7 MINDN_G05_7 1.0
    U_G05_7 LOGIC_G05_8 -1.0
    U_G05_7 RES_7 372.7659968644606
    V_G05_7 OBJ 1029.8930998034168
    V_G05_7 LOGIC_G05_7 -1.0
    V_G05_7 MINUP_G05_7 1.0
    V_G05_7 MINUP_G05_8 1.0
    V_G05_7 MINUP_G05_9 1.0
    V_G05_7 MINUP_G05_10 1.0
    V_G05_7 MINUP_G05_11 1.0
    W_G05_7 LOGIC_G05_7 1.0
    W_G05_7 MINDN_G05_7 1.0
    W_G05_7 MINDN_G05_8 1.0
    W_G05_7 MINDN_G05_9 1.0
    W_G05_7 MINDN_G05_10 1.0
    M8566 'MARKER' 'INTEND'
    P_G05_7 OBJ 43.32088071602921
    P_G05_7 PMIN_G05_7 1.0
    P_G05_7 PMAX_G05_7 1.0
    P_G05_7 RUP_G05_7 1.0
    P_G05_7 RDN_G05_7 -1.0
    P_G05_7 RUP_G05_8 -1.0
    P_G05_7 RDN_G05_8 1.0
    P_G05_7 DEM_7 1.0
    M8575 'MARKER' 'INTORG'
    U_G05_8 OBJ 303.2736536188519
    U_G05_8 PMIN_G05_8 -119.28513920771101
    U_G05_8 PMAX_G05_8 -372.7659968644606
    U_G05_8 LOGIC_G05_8 1.0
    U_G05_8 MINUP_G05_8 -1.0
    U_G05_8 MINDN_G05_8 1.0
    U_G05_8 LOGIC_G05_9 -1.0
    U_G05_8 RES_8 372.7659968644606
    V_G05_8 OBJ 1029.8930998034168
    V_G05_8 LOGIC_G05_8 -1.0
    V_G05_8 MINUP_G05_8 1.0
    V_G05_8 MINUP_G05_9 1.0
    V_G05_8 MINUP_G05_10 1.0
    V_G05_8 MINUP_G05_11 1.0
    V_G05_8 MINUP_G05_12 1.0
    W_G05_8 LOGIC_G05_8 1.0
    W_G05_8 MINDN_G05_8 1.0
    W_G05_8 MINDN_G05_9 1.0
    W_G05_8 MINDN_G05_10 1.0
    W_G05_8 MINDN_G05_11 1.0
    M8596 'MARKER' 'INTEND'
    P_G05_8 OBJ 43.32088071602921
    P_G05_8 PMIN_G05_8 1.0
    P_G05_8 PMAX_G05_8 1.0
    P_G05_8 RUP_G05_8 1.0
    P_G05_8 RDN_G05_8 -1.0
    P_G05_8 RUP_G05_9 -1.0
    P_G05_8 RDN_G05_9 1.0
    P_G05_8 DEM_8 1.0
    M8605 'MARKER' 'INTORG'
    U_G05_9 OBJ 303.2736536188519
    U_G05_9 PMIN_G05_9 -119.28513920771101
    U_G05_9 PMAX_G05_9 -372.7659968644606
    U_G05_9 LOGIC_G05_9 1.0
    U_G05_9 MINUP_G05_9 -1.0
    U_G05_9 MINDN_G05_9 1.0
    U_G05_9 LOGIC_G05_10 -1.0
    U_G05_9 RES_9 372.7659968644606
    V_G05_9 OBJ 1029.8930998034168
    V_G05_9 LOGIC_G05_9 -1.0
    V_G05_9 MINUP_G05_9 1.0
    V_G05_9 MINUP_G05_10 1.0
    V_G05_9 MINUP_G05_11 1.0
    V_G05_9 MINUP_G05_12 1.0
    V_G05_9 MINUP_G05_13 1.0
    W_G05_9 LOGIC_G05_9 1.0
    W_G05_9 MINDN_G05_9 1.0
    W_G05_9 MINDN_G05_10 1.0
    W_G05_9 MINDN_G05_11 1.0
    W_G05_9 MINDN_G05_12 1.0
    M8626 'MARKER' 'INTEND'
    P_G05_9 OBJ 43.32088071602921
    P_G05_9 PMIN_G05_9 1.0
    P_G05_9 PMAX_G05_9 1.0
    P_G05_9 RUP_G05_9 1.0
    P_G05_9 RDN_G05_9 -1.0
    P_G05_9 RUP_G05_10 -1.0
    P_G05_9 RDN_G05_10 1.0
    P_G05_9 DEM_9 1.0
    M8635 'MARKER' 'INTORG'
    U_G05_10 OBJ 303.2736536188519
    U_G05_10 PMIN_G05_10 -119.28513920771101
    U_G05_10 PMAX_G05_10 -372.7659968644606
    U_G05_10 LOGIC_G05_10 1.0
    U_G05_10 MINUP_G05_10 -1.0
    U_G05_10 MINDN_G05_10 1.0
    U_G05_10 LOGIC_G05_11 -1.0
    U_G05_10 RES_10 372.7659968644606
    V_G05_10 OBJ 1029.8930998034168
    V_G05_10 LOGIC_G05_10 -1.0
    V_G05_10 MINUP_G05_10 1.0
    V_G05_10 MINUP_G05_11 1.0
    V_G05_10 MINUP_G05_12 1.0
    V_G05_10 MINUP_G05_13 1.0
    V_G05_10 MINUP_G05_14 1.0
    W_G05_10 LOGIC_G05_10 1.0
    W_G05_10 MINDN_G05_10 1.0
    W_G05_10 MINDN_G05_11 1.0
    W_G05_10 MINDN_G05_12 1.0
    W_G05_10 MINDN_G05_13 1.0
    M8656 'MARKER' 'INTEND'
    P_G05_10 OBJ 43.32088071602921
    P_G05_10 PMIN_G05_10 1.0
    P_G05_10 PMAX_G05_10 1.0
    P_G05_10 RUP_G05_10 1.0
    P_G05_10 RDN_G05_10 -1.0
    P_G05_10 RUP_G05_11 -1.0
    P_G05_10 RDN_G05_11 1.0
    P_G05_10 DEM_10 1.0
    M8665 'MARKER' 'INTORG'
    U_G05_11 OBJ 303.2736536188519
    U_G05_11 PMIN_G05_11 -119.28513920771101
    U_G05_11 PMAX_G05_11 -372.7659968644606
    U_G05_11 LOGIC_G05_11 1.0
    U_G05_11 MINUP_G05_11 -1.0
    U_G05_11 MINDN_G05_11 1.0
    U_G05_11 LOGIC_G05_12 -1.0
    U_G05_11 RES_11 372.7659968644606
    V_G05_11 OBJ 1029.8930998034168
    V_G05_11 LOGIC_G05_11 -1.0
    V_G05_11 MINUP_G05_11 1.0
    V_G05_11 MINUP_G05_12 1.0
    V_G05_11 MINUP_G05_13 1.0
    V_G05_11 MINUP_G05_14 1.0
    V_G05_11 MINUP_G05_15 1.0
    W_G05_11 LOGIC_G05_11 1.0
    W_G05_11 MINDN_G05_11 1.0
    W_G05_11 MINDN_G05_12 1.0
    W_G05_11 MINDN_G05_13 1.0
    W_G05_11 MINDN_G05_14 1.0
    M8686 'MARKER' 'INTEND'
    P_G05_11 OBJ 43.32088071602921
    P_G05_11 PMIN_G05_11 1.0
    P_G05_11 PMAX_G05_11 1.0
    P_G05_11 RUP_G05_11 1.0
    P_G05_11 RDN_G05_11 -1.0
    P_G05_11 RUP_G05_12 -1.0
    P_G05_11 RDN_G05_12 1.0
    P_G05_11 DEM_11 1.0
    M8695 'MARKER' 'INTORG'
    U_G05_12 OBJ 303.2736536188519
    U_G05_12 PMIN_G05_12 -119.28513920771101
    U_G05_12 PMAX_G05_12 -372.7659968644606
    U_G05_12 LOGIC_G05_12 1.0
    U_G05_12 MINUP_G05_12 -1.0
    U_G05_12 MINDN_G05_12 1.0
    U_G05_12 LOGIC_G05_13 -1.0
    U_G05_12 RES_12 372.7659968644606
    V_G05_12 OBJ 1029.8930998034168
    V_G05_12 LOGIC_G05_12 -1.0
    V_G05_12 MINUP_G05_12 1.0
    V_G05_12 MINUP_G05_13 1.0
    V_G05_12 MINUP_G05_14 1.0
    V_G05_12 MINUP_G05_15 1.0
    V_G05_12 MINUP_G05_16 1.0
    W_G05_12 LOGIC_G05_12 1.0
    W_G05_12 MINDN_G05_12 1.0
    W_G05_12 MINDN_G05_13 1.0
    W_G05_12 MINDN_G05_14 1.0
    W_G05_12 MINDN_G05_15 1.0
    M8716 'MARKER' 'INTEND'
    P_G05_12 OBJ 43.32088071602921
    P_G05_12 PMIN_G05_12 1.0
    P_G05_12 PMAX_G05_12 1.0
    P_G05_12 RUP_G05_12 1.0
    P_G05_12 RDN_G05_12 -1.0
    P_G05_12 RUP_G05_13 -1.0
    P_G05_12 RDN_G05_13 1.0
    P_G05_12 DEM_12 1.0
    M8725 'MARKER' 'INTORG'
    U_G05_13 OBJ 303.2736536188519
    U_G05_13 PMIN_G05_13 -119.28513920771101
    U_G05_13 PMAX_G05_13 -372.7659968644606
    U_G05_13 LOGIC_G05_13 1.0
    U_G05_13 MINUP_G05_13 -1.0
    U_G05_13 MINDN_G05_13 1.0
    U_G05_13 LOGIC_G05_14 -1.0
    U_G05_13 RES_13 372.7659968644606
    V_G05_13 OBJ 1029.8930998034168
    V_G05_13 LOGIC_G05_13 -1.0
    V_G05_13 MINUP_G05_13 1.0
    V_G05_13 MINUP_G05_14 1.0
    V_G05_13 MINUP_G05_15 1.0
    V_G05_13 MINUP_G05_16 1.0
    V_G05_13 MINUP_G05_17 1.0
    W_G05_13 LOGIC_G05_13 1.0
    W_G05_13 MINDN_G05_13 1.0
    W_G05_13 MINDN_G05_14 1.0
    W_G05_13 MINDN_G05_15 1.0
    W_G05_13 MINDN_G05_16 1.0
    M8746 'MARKER' 'INTEND'
    P_G05_13 OBJ 43.32088071602921
    P_G05_13 PMIN_G05_13 1.0
    P_G05_13 PMAX_G05_13 1.0
    P_G05_13 RUP_G05_13 1.0
    P_G05_13 RDN_G05_13 -1.0
    P_G05_13 RUP_G05_14 -1.0
    P_G05_13 RDN_G05_14 1.0
    P_G05_13 DEM_13 1.0
    M8755 'MARKER' 'INTORG'
    U_G05_14 OBJ 303.2736536188519
    U_G05_14 PMIN_G05_14 -119.28513920771101
    U_G05_14 PMAX_G05_14 -372.7659968644606
    U_G05_14 LOGIC_G05_14 1.0
    U_G05_14 MINUP_G05_14 -1.0
    U_G05_14 MINDN_G05_14 1.0
    U_G05_14 LOGIC_G05_15 -1.0
    U_G05_14 RES_14 372.7659968644606
    V_G05_14 OBJ 1029.8930998034168
    V_G05_14 LOGIC_G05_14 -1.0
    V_G05_14 MINUP_G05_14 1.0
    V_G05_14 MINUP_G05_15 1.0
    V_G05_14 MINUP_G05_16 1.0
    V_G05_14 MINUP_G05_17 1.0
    V_G05_14 MINUP_G05_18 1.0
    W_G05_14 LOGIC_G05_14 1.0
    W_G05_14 MINDN_G05_14 1.0
    W_G05_14 MINDN_G05_15 1.0
    W_G05_14 MINDN_G05_16 1.0
    W_G05_14 MINDN_G05_17 1.0
    M8776 'MARKER' 'INTEND'
    P_G05_14 OBJ 43.32088071602921
    P_G05_14 PMIN_G05_14 1.0
    P_G05_14 PMAX_G05_14 1.0
    P_G05_14 RUP_G05_14 1.0
    P_G05_14 RDN_G05_14 -1.0
    P_G05_14 RUP_G05_15 -1.0
    P_G05_14 RDN_G05_15 1.0
    P_G05_14 DEM_14 1.0
    M8785 'MARKER' 'INTORG'
    U_G05_15 OBJ 303.2736536188519
    U_G05_15 PMIN_G05_15 -119.28513920771101
    U_G05_15 PMAX_G05_15 -372.7659968644606
    U_G05_15 LOGIC_G05_15 1.0
    U_G05_15 MINUP_G05_15 -1.0
    U_G05_15 MINDN_G05_15 1.0
    U_G05_15 LOGIC_G05_16 -1.0
    U_G05_15 RES_15 372.7659968644606
    V_G05_15 OBJ 1029.8930998034168
    V_G05_15 LOGIC_G05_15 -1.0
    V_G05_15 MINUP_G05_15 1.0
    V_G05_15 MINUP_G05_16 1.0
    V_G05_15 MINUP_G05_17 1.0
    V_G05_15 MINUP_G05_18 1.0
    V_G05_15 MINUP_G05_19 1.0
    W_G05_15 LOGIC_G05_15 1.0
    W_G05_15 MINDN_G05_15 1.0
    W_G05_15 MINDN_G05_16 1.0
    W_G05_15 MINDN_G05_17 1.0
    W_G05_15 MINDN_G05_18 1.0
    M8806 'MARKER' 'INTEND'
    P_G05_15 OBJ 43.32088071602921
    P_G05_15 PMIN_G05_15 1.0
    P_G05_15 PMAX_G05_15 1.0
    P_G05_15 RUP_G05_15 1.0
    P_G05_15 RDN_G05_15 -1.0
    P_G05_15 RUP_G05_16 -1.0
    P_G05_15 RDN_G05_16 1.0
    P_G05_15 DEM_15 1.0
    M8815 'MARKER' 'INTORG'
    U_G05_16 OBJ 303.2736536188519
    U_G05_16 PMIN_G05_16 -119.28513920771101
    U_G05_16 PMAX_G05_16 -372.7659968644606
    U_G05_16 LOGIC_G05_16 1.0
    U_G05_16 MINUP_G05_16 -1.0
    U_G05_16 MINDN_G05_16 1.0
    U_G05_16 LOGIC_G05_17 -1.0
    U_G05_16 RES_16 372.7659968644606
    V_G05_16 OBJ 1029.8930998034168
    V_G05_16 LOGIC_G05_16 -1.0
    V_G05_16 MINUP_G05_16 1.0
    V_G05_16 MINUP_G05_17 1.0
    V_G05_16 MINUP_G05_18 1.0
    V_G05_16 MINUP_G05_19 1.0
    V_G05_16 MINUP_G05_20 1.0
    W_G05_16 LOGIC_G05_16 1.0
    W_G05_16 MINDN_G05_16 1.0
    W_G05_16 MINDN_G05_17 1.0
    W_G05_16 MINDN_G05_18 1.0
    W_G05_16 MINDN_G05_19 1.0
    M8836 'MARKER' 'INTEND'
    P_G05_16 OBJ 43.32088071602921
    P_G05_16 PMIN_G05_16 1.0
    P_G05_16 PMAX_G05_16 1.0
    P_G05_16 RUP_G05_16 1.0
    P_G05_16 RDN_G05_16 -1.0
    P_G05_16 RUP_G05_17 -1.0
    P_G05_16 RDN_G05_17 1.0
    P_G05_16 DEM_16 1.0
    M8845 'MARKER' 'INTORG'
    U_G05_17 OBJ 303.2736536188519
    U_G05_17 PMIN_G05_17 -119.28513920771101
    U_G05_17 PMAX_G05_17 -372.7659968644606
    U_G05_17 LOGIC_G05_17 1.0
    U_G05_17 MINUP_G05_17 -1.0
    U_G05_17 MINDN_G05_17 1.0
    U_G05_17 LOGIC_G05_18 -1.0
    U_G05_17 RES_17 372.7659968644606
    V_G05_17 OBJ 1029.8930998034168
    V_G05_17 LOGIC_G05_17 -1.0
    V_G05_17 MINUP_G05_17 1.0
    V_G05_17 MINUP_G05_18 1.0
    V_G05_17 MINUP_G05_19 1.0
    V_G05_17 MINUP_G05_20 1.0
    V_G05_17 MINUP_G05_21 1.0
    W_G05_17 LOGIC_G05_17 1.0
    W_G05_17 MINDN_G05_17 1.0
    W_G05_17 MINDN_G05_18 1.0
    W_G05_17 MINDN_G05_19 1.0
    W_G05_17 MINDN_G05_20 1.0
    M8866 'MARKER' 'INTEND'
    P_G05_17 OBJ 43.32088071602921
    P_G05_17 PMIN_G05_17 1.0
    P_G05_17 PMAX_G05_17 1.0
    P_G05_17 RUP_G05_17 1.0
    P_G05_17 RDN_G05_17 -1.0
    P_G05_17 RUP_G05_18 -1.0
    P_G05_17 RDN_G05_18 1.0
    P_G05_17 DEM_17 1.0
    M8875 'MARKER' 'INTORG'
    U_G05_18 OBJ 303.2736536188519
    U_G05_18 PMIN_G05_18 -119.28513920771101
    U_G05_18 PMAX_G05_18 -372.7659968644606
    U_G05_18 LOGIC_G05_18 1.0
    U_G05_18 MINUP_G05_18 -1.0
    U_G05_18 MINDN_G05_18 1.0
    U_G05_18 LOGIC_G05_19 -1.0
    U_G05_18 RES_18 372.7659968644606
    V_G05_18 OBJ 1029.8930998034168
    V_G05_18 LOGIC_G05_18 -1.0
    V_G05_18 MINUP_G05_18 1.0
    V_G05_18 MINUP_G05_19 1.0
    V_G05_18 MINUP_G05_20 1.0
    V_G05_18 MINUP_G05_21 1.0
    V_G05_18 MINUP_G05_22 1.0
    W_G05_18 LOGIC_G05_18 1.0
    W_G05_18 MINDN_G05_18 1.0
    W_G05_18 MINDN_G05_19 1.0
    W_G05_18 MINDN_G05_20 1.0
    W_G05_18 MINDN_G05_21 1.0
    M8896 'MARKER' 'INTEND'
    P_G05_18 OBJ 43.32088071602921
    P_G05_18 PMIN_G05_18 1.0
    P_G05_18 PMAX_G05_18 1.0
    P_G05_18 RUP_G05_18 1.0
    P_G05_18 RDN_G05_18 -1.0
    P_G05_18 RUP_G05_19 -1.0
    P_G05_18 RDN_G05_19 1.0
    P_G05_18 DEM_18 1.0
    M8905 'MARKER' 'INTORG'
    U_G05_19 OBJ 303.2736536188519
    U_G05_19 PMIN_G05_19 -119.28513920771101
    U_G05_19 PMAX_G05_19 -372.7659968644606
    U_G05_19 LOGIC_G05_19 1.0
    U_G05_19 MINUP_G05_19 -1.0
    U_G05_19 MINDN_G05_19 1.0
    U_G05_19 LOGIC_G05_20 -1.0
    U_G05_19 RES_19 372.7659968644606
    V_G05_19 OBJ 1029.8930998034168
    V_G05_19 LOGIC_G05_19 -1.0
    V_G05_19 MINUP_G05_19 1.0
    V_G05_19 MINUP_G05_20 1.0
    V_G05_19 MINUP_G05_21 1.0
    V_G05_19 MINUP_G05_22 1.0
    V_G05_19 MINUP_G05_23 1.0
    W_G05_19 LOGIC_G05_19 1.0
    W_G05_19 MINDN_G05_19 1.0
    W_G05_19 MINDN_G05_20 1.0
    W_G05_19 MINDN_G05_21 1.0
    W_G05_19 MINDN_G05_22 1.0
    M8926 'MARKER' 'INTEND'
    P_G05_19 OBJ 43.32088071602921
    P_G05_19 PMIN_G05_19 1.0
    P_G05_19 PMAX_G05_19 1.0
    P_G05_19 RUP_G05_19 1.0
    P_G05_19 RDN_G05_19 -1.0
    P_G05_19 RUP_G05_20 -1.0
    P_G05_19 RDN_G05_20 1.0
    P_G05_19 DEM_19 1.0
    M8935 'MARKER' 'INTORG'
    U_G05_20 OBJ 303.2736536188519
    U_G05_20 PMIN_G05_20 -119.28513920771101
    U_G05_20 PMAX_G05_20 -372.7659968644606
    U_G05_20 LOGIC_G05_20 1.0
    U_G05_20 MINUP_G05_20 -1.0
    U_G05_20 MINDN_G05_20 1.0
    U_G05_20 LOGIC_G05_21 -1.0
    U_G05_20 RES_20 372.7659968644606
    V_G05_20 OBJ 1029.8930998034168
    V_G05_20 LOGIC_G05_20 -1.0
    V_G05_20 MINUP_G05_20 1.0
    V_G05_20 MINUP_G05_21 1.0
    V_G05_20 MINUP_G05_22 1.0
    V_G05_20 MINUP_G05_23 1.0
    W_G05_20 LOGIC_G05_20 1.0
    W_G05_20 MINDN_G05_20 1.0
    W_G05_20 MINDN_G05_21 1.0
    W_G05_20 MINDN_G05_22 1.0
    W_G05_20 MINDN_G05_23 1.0
    M8955 'MARKER' 'INTEND'
    P_G05_20 OBJ 43.32088071602921
    P_G05_20 PMIN_G05_20 1.0
    P_G05_20 PMAX_G05_20 1.0
    P_G05_20 RUP_G05_20 1.0
    P_G05_20 RDN_G05_20 -1.0
    P_G05_20 RUP_G05_21 -1.0
    P_G05_20 RDN_G05_21 1.0
    P_G05_20 DEM_20 1.0
    M8964 'MARKER' 'INTORG'
    U_G05_21 OBJ 303.2736536188519
    U_G05_21 PMIN_G05_21 -119.28513920771101
    U_G05_21 PMAX_G05_21 -372.7659968644606
    U_G05_21 LOGIC_G05_21 1.0
    U_G05_21 MINUP_G05_21 -1.0
    U_G05_21 MINDN_G05_21 1.0
    U_G05_21 LOGIC_G05_22 -1.0
    U_G05_21 RES_21 372.7659968644606
    V_G05_21 OBJ 1029.8930998034168
    V_G05_21 LOGIC_G05_21 -1.0
    V_G05_21 MINUP_G05_21 1.0
    V_G05_21 MINUP_G05_22 1.0
    V_G05_21 MINUP_G05_23 1.0
    W_G05_21 LOGIC_G05_21 1.0
    W_G05_21 MINDN_G05_21 1.0
    W_G05_21 MINDN_G05_22 1.0
    W_G05_21 MINDN_G05_23 1.0
    M8982 'MARKER' 'INTEND'
    P_G05_21 OBJ 43.32088071602921
    P_G05_21 PMIN_G05_21 1.0
    P_G05_21 PMAX_G05_21 1.0
    P_G05_21 RUP_G05_21 1.0
    P_G05_21 RDN_G05_21 -1.0
    P_G05_21 RUP_G05_22 -1.0
    P_G05_21 RDN_G05_22 1.0
    P_G05_21 DEM_21 1.0
    M8991 'MARKER' 'INTORG'
    U_G05_22 OBJ 303.2736536188519
    U_G05_22 PMIN_G05_22 -119.28513920771101
    U_G05_22 PMAX_G05_22 -372.7659968644606
    U_G05_22 LOGIC_G05_22 1.0
    U_G05_22 MINUP_G05_22 -1.0
    U_G05_22 MINDN_G05_22 1.0
    U_G05_22 LOGIC_G05_23 -1.0
    U_G05_22 RES_22 372.7659968644606
    V_G05_22 OBJ 1029.8930998034168
    V_G05_22 LOGIC_G05_22 -1.0
    V_G05_22 MINUP_G05_22 1.0
    V_G05_22 MINUP_G05_23 1.0
    W_G05_22 LOGIC_G05_22 1.0
    W_G05_22 MINDN_G05_22 1.0
    W_G05_22 MINDN_G05_23 1.0
    M9007 'MARKER' 'INTEND'
    P_G05_22 OBJ 43.32088071602921
    P_G05_22 PMIN_G05_22 1.0
    P_G05_22 PMAX_G05_22 1.0
    P_G05_22 RUP_G05_22 1.0
    P_G05_22 RDN_G05_22 -1.0
    P_G05_22 RUP_G05_23 -1.0
    P_G05_22 RDN_G05_23 1.0
    P_G05_22 DEM_22 1.0
    M9016 'MARKER' 'INTORG'
    U_G05_23 OBJ 303.2736536188519
    U_G05_23 PMIN_G05_23 -119.28513920771101
    U_G05_23 PMAX_G05_23 -372.7659968644606
    U_G05_23 LOGIC_G05_23 1.0
    U_G05_23 MINUP_G05_23 -1.0
    U_G05_23 MINDN_G05_23 1.0
    U_G05_23 RES_23 372.7659968644606
    V_G05_23 OBJ 1029.8930998034168
    V_G05_23 LOGIC_G05_23 -1.0
    V_G05_23 MINUP_G05_23 1.0
    W_G05_23 LOGIC_G05_23 1.0
    W_G05_23 MINDN_G05_23 1.0
    M9029 'MARKER' 'INTEND'
    P_G05_23 OBJ 43.32088071602921
    P_G05_23 PMIN_G05_23 1.0
    P_G05_23 PMAX_G05_23 1.0
    P_G05_23 RUP_G05_23 1.0
    P_G05_23 RDN_G05_23 -1.0
    P_G05_23 DEM_23 1.0
    M9036 'MARKER' 'INTORG'
    U_G06_0 OBJ 149.45577834288184
    U_G06_0 PMIN_G06_0 -109.7603277837362
    U_G06_0 PMAX_G06_0 -227.70103767896063
    U_G06_0 LOGIC_G06_0 1.0
    U_G06_0 MINUP_G06_0 -1.0
    U_G06_0 MINDN_G06_0 1.0
    U_G06_0 LOGIC_G06_1 -1.0
    U_G06_0 RES_0 227.70103767896063
    V_G06_0 OBJ 2925.6639336864737
    V_G06_0 LOGIC_G06_0 -1.0
    V_G06_0 MINUP_G06_0 1.0
    V_G06_0 MINUP_G06_1 1.0
    V_G06_0 MINUP_G06_2 1.0
    V_G06_0 MINUP_G06_3 1.0
    V_G06_0 MINUP_G06_4 1.0
    W_G06_0 LOGIC_G06_0 1.0
    W_G06_0 MINDN_G06_0 1.0
    W_G06_0 MINDN_G06_1 1.0
    W_G06_0 MINDN_G06_2 1.0
    W_G06_0 MINDN_G06_3 1.0
    M9057 'MARKER' 'INTEND'
    P_G06_0 OBJ 23.543237810221186
    P_G06_0 PMIN_G06_0 1.0
    P_G06_0 PMAX_G06_0 1.0
    P_G06_0 RUP_G06_1 -1.0
    P_G06_0 RDN_G06_1 1.0
    P_G06_0 DEM_0 1.0
    M9064 'MARKER' 'INTORG'
    U_G06_1 OBJ 149.45577834288184
    U_G06_1 PMIN_G06_1 -109.7603277837362
    U_G06_1 PMAX_G06_1 -227.70103767896063
    U_G06_1 LOGIC_G06_1 1.0
    U_G06_1 MINUP_G06_1 -1.0
    U_G06_1 MINDN_G06_1 1.0
    U_G06_1 LOGIC_G06_2 -1.0
    U_G06_1 RES_1 227.70103767896063
    V_G06_1 OBJ 2925.6639336864737
    V_G06_1 LOGIC_G06_1 -1.0
    V_G06_1 MINUP_G06_1 1.0
    V_G06_1 MINUP_G06_2 1.0
    V_G06_1 MINUP_G06_3 1.0
    V_G06_1 MINUP_G06_4 1.0
    V_G06_1 MINUP_G06_5 1.0
    W_G06_1 LOGIC_G06_1 1.0
    W_G06_1 MINDN_G06_1 1.0
    W_G06_1 MINDN_G06_2 1.0
    W_G06_1 MINDN_G06_3 1.0
    W_G06_1 MINDN_G06_4 1.0
    M9085 'MARKER' 'INTEND'
    P_G06_1 OBJ 23.543237810221186
    P_G06_1 PMIN_G06_1 1.0
    P_G06_1 PMAX_G06_1 1.0
    P_G06_1 RUP_G06_1 1.0
    P_G06_1 RDN_G06_1 -1.0
    P_G06_1 RUP_G06_2 -1.0
    P_G06_1 RDN_G06_2 1.0
    P_G06_1 DEM_1 1.0
    M9094 'MARKER' 'INTORG'
    U_G06_2 OBJ 149.45577834288184
    U_G06_2 PMIN_G06_2 -109.7603277837362
    U_G06_2 PMAX_G06_2 -227.70103767896063
    U_G06_2 LOGIC_G06_2 1.0
    U_G06_2 MINUP_G06_2 -1.0
    U_G06_2 MINDN_G06_2 1.0
    U_G06_2 LOGIC_G06_3 -1.0
    U_G06_2 RES_2 227.70103767896063
    V_G06_2 OBJ 2925.6639336864737
    V_G06_2 LOGIC_G06_2 -1.0
    V_G06_2 MINUP_G06_2 1.0
    V_G06_2 MINUP_G06_3 1.0
    V_G06_2 MINUP_G06_4 1.0
    V_G06_2 MINUP_G06_5 1.0
    V_G06_2 MINUP_G06_6 1.0
    W_G06_2 LOGIC_G06_2 1.0
    W_G06_2 MINDN_G06_2 1.0
    W_G06_2 MINDN_G06_3 1.0
    W_G06_2 MINDN_G06_4 1.0
    W_G06_2 MINDN_G06_5 1.0
    M9115 'MARKER' 'INTEND'
    P_G06_2 OBJ 23.543237810221186
    P_G06_2 PMIN_G06_2 1.0
    P_G06_2 PMAX_G06_2 1.0
    P_G06_2 RUP_G06_2 1.0
    P_G06_2 RDN_G06_2 -1.0
    P_G06_2 RUP_G06_3 -1.0
    P_G06_2 RDN_G06_3 1.0
    P_G06_2 DEM_2 1.0
    M9124 'MARKER' 'INTORG'
    U_G06_3 OBJ 149.45577834288184
    U_G06_3 PMIN_G06_3 -109.7603277837362
    U_G06_3 PMAX_G06_3 -227.70103767896063
    U_G06_3 LOGIC_G06_3 1.0
    U_G06_3 MINUP_G06_3 -1.0
    U_G06_3 MINDN_G06_3 1.0
    U_G06_3 LOGIC_G06_4 -1.0
    U_G06_3 RES_3 227.70103767896063
    V_G06_3 OBJ 2925.6639336864737
    V_G06_3 LOGIC_G06_3 -1.0
    V_G06_3 MINUP_G06_3 1.0
    V_G06_3 MINUP_G06_4 1.0
    V_G06_3 MINUP_G06_5 1.0
    V_G06_3 MINUP_G06_6 1.0
    V_G06_3 MINUP_G06_7 1.0
    W_G06_3 LOGIC_G06_3 1.0
    W_G06_3 MINDN_G06_3 1.0
    W_G06_3 MINDN_G06_4 1.0
    W_G06_3 MINDN_G06_5 1.0
    W_G06_3 MINDN_G06_6 1.0
    M9145 'MARKER' 'INTEND'
    P_G06_3 OBJ 23.543237810221186
    P_G06_3 PMIN_G06_3 1.0
    P_G06_3 PMAX_G06_3 1.0
    P_G06_3 RUP_G06_3 1.0
    P_G06_3 RDN_G06_3 -1.0
    P_G06_3 RUP_G06_4 -1.0
    P_G06_3 RDN_G06_4 1.0
    P_G06_3 DEM_3 1.0
    M9154 'MARKER' 'INTORG'
    U_G06_4 OBJ 149.45577834288184
    U_G06_4 PMIN_G06_4 -109.7603277837362
    U_G06_4 PMAX_G06_4 -227.70103767896063
    U_G06_4 LOGIC_G06_4 1.0
    U_G06_4 MINUP_G06_4 -1.0
    U_G06_4 MINDN_G06_4 1.0
    U_G06_4 LOGIC_G06_5 -1.0
    U_G06_4 RES_4 227.70103767896063
    V_G06_4 OBJ 2925.6639336864737
    V_G06_4 LOGIC_G06_4 -1.0
    V_G06_4 MINUP_G06_4 1.0
    V_G06_4 MINUP_G06_5 1.0
    V_G06_4 MINUP_G06_6 1.0
    V_G06_4 MINUP_G06_7 1.0
    V_G06_4 MINUP_G06_8 1.0
    W_G06_4 LOGIC_G06_4 1.0
    W_G06_4 MINDN_G06_4 1.0
    W_G06_4 MINDN_G06_5 1.0
    W_G06_4 MINDN_G06_6 1.0
    W_G06_4 MINDN_G06_7 1.0
    M9175 'MARKER' 'INTEND'
    P_G06_4 OBJ 23.543237810221186
    P_G06_4 PMIN_G06_4 1.0
    P_G06_4 PMAX_G06_4 1.0
    P_G06_4 RUP_G06_4 1.0
    P_G06_4 RDN_G06_4 -1.0
    P_G06_4 RUP_G06_5 -1.0
    P_G06_4 RDN_G06_5 1.0
    P_G06_4 DEM_4 1.0
    M9184 'MARKER' 'INTORG'
    U_G06_5 OBJ 149.45577834288184
    U_G06_5 PMIN_G06_5 -109.7603277837362
    U_G06_5 PMAX_G06_5 -227.70103767896063
    U_G06_5 LOGIC_G06_5 1.0
    U_G06_5 MINUP_G06_5 -1.0
    U_G06_5 MINDN_G06_5 1.0
    U_G06_5 LOGIC_G06_6 -1.0
    U_G06_5 RES_5 227.70103767896063
    V_G06_5 OBJ 2925.6639336864737
    V_G06_5 LOGIC_G06_5 -1.0
    V_G06_5 MINUP_G06_5 1.0
    V_G06_5 MINUP_G06_6 1.0
    V_G06_5 MINUP_G06_7 1.0
    V_G06_5 MINUP_G06_8 1.0
    V_G06_5 MINUP_G06_9 1.0
    W_G06_5 LOGIC_G06_5 1.0
    W_G06_5 MINDN_G06_5 1.0
    W_G06_5 MINDN_G06_6 1.0
    W_G06_5 MINDN_G06_7 1.0
    W_G06_5 MINDN_G06_8 1.0
    M9205 'MARKER' 'INTEND'
    P_G06_5 OBJ 23.543237810221186
    P_G06_5 PMIN_G06_5 1.0
    P_G06_5 PMAX_G06_5 1.0
    P_G06_5 RUP_G06_5 1.0
    P_G06_5 RDN_G06_5 -1.0
    P_G06_5 RUP_G06_6 -1.0
    P_G06_5 RDN_G06_6 1.0
    P_G06_5 DEM_5 1.0
    M9214 'MARKER' 'INTORG'
    U_G06_6 OBJ 149.45577834288184
    U_G06_6 PMIN_G06_6 -109.7603277837362
    U_G06_6 PMAX_G06_6 -227.70103767896063
    U_G06_6 LOGIC_G06_6 1.0
    U_G06_6 MINUP_G06_6 -1.0
    U_G06_6 MINDN_G06_6 1.0
    U_G06_6 LOGIC_G06_7 -1.0
    U_G06_6 RES_6 227.70103767896063
    V_G06_6 OBJ 2925.6639336864737
    V_G06_6 LOGIC_G06_6 -1.0
    V_G06_6 MINUP_G06_6 1.0
    V_G06_6 MINUP_G06_7 1.0
    V_G06_6 MINUP_G06_8 1.0
    V_G06_6 MINUP_G06_9 1.0
    V_G06_6 MINUP_G06_10 1.0
    W_G06_6 LOGIC_G06_6 1.0
    W_G06_6 MINDN_G06_6 1.0
    W_G06_6 MINDN_G06_7 1.0
    W_G06_6 MINDN_G06_8 1.0
    W_G06_6 MINDN_G06_9 1.0
    M9235 'MARKER' 'INTEND'
    P_G06_6 OBJ 23.543237810221186
    P_G06_6 PMIN_G06_6 1.0
    P_G06_6 PMAX_G06_6 1.0
    P_G06_6 RUP_G06_6 1.0
    P_G06_6 RDN_G06_6 -1.0
    P_G06_6 RUP_G06_7 -1.0
    P_G06_6 RDN_G06_7 1.0
    P_G06_6 DEM_6 1.0
    M9244 'MARKER' 'INTORG'
    U_G06_7 OBJ 149.45577834288184
    U_G06_7 PMIN_G06_7 -109.7603277837362
    U_G06_7 PMAX_G06_7 -227.70103767896063
    U_G06_7 LOGIC_G06_7 1.0
    U_G06_7 MINUP_G06_7 -1.0
    U_G06_7 MINDN_G06_7 1.0
    U_G06_7 LOGIC_G06_8 -1.0
    U_G06_7 RES_7 227.70103767896063
    V_G06_7 OBJ 2925.6639336864737
    V_G06_7 LOGIC_G06_7 -1.0
    V_G06_7 MINUP_G06_7 1.0
    V_G06_7 MINUP_G06_8 1.0
    V_G06_7 MINUP_G06_9 1.0
    V_G06_7 MINUP_G06_10 1.0
    V_G06_7 MINUP_G06_11 1.0
    W_G06_7 LOGIC_G06_7 1.0
    W_G06_7 MINDN_G06_7 1.0
    W_G06_7 MINDN_G06_8 1.0
    W_G06_7 MINDN_G06_9 1.0
    W_G06_7 MINDN_G06_10 1.0
    M9265 'MARKER' 'INTEND'
    P_G06_7 OBJ 23.543237810221186
    P_G06_7 PMIN_G06_7 1.0
    P_G06_7 PMAX_G06_7 1.0
    P_G06_7 RUP_G06_7 1.0
    P_G06_7 RDN_G06_7 -1.0
    P_G06_7 RUP_G06_8 -1.0
    P_G06_7 RDN_G06_8 1.0
    P_G06_7 DEM_7 1.0
    M9274 'MARKER' 'INTORG'
    U_G06_8 OBJ 149.45577834288184
    U_G06_8 PMIN_G06_8 -109.7603277837362
    U_G06_8 PMAX_G06_8 -227.70103767896063
    U_G06_8 LOGIC_G06_8 1.0
    U_G06_8 MINUP_G06_8 -1.0
    U_G06_8 MINDN_G06_8 1.0
    U_G06_8 LOGIC_G06_9 -1.0
    U_G06_8 RES_8 227.70103767896063
    V_G06_8 OBJ 2925.6639336864737
    V_G06_8 LOGIC_G06_8 -1.0
    V_G06_8 MINUP_G06_8 1.0
    V_G06_8 MINUP_G06_9 1.0
    V_G06_8 MINUP_G06_10 1.0
    V_G06_8 MINUP_G06_11 1.0
    V_G06_8 MINUP_G06_12 1.0
    W_G06_8 LOGIC_G06_8 1.0
    W_G06_8 MINDN_G06_8 1.0
    W_G06_8 MINDN_G06_9 1.0
    W_G06_8 MINDN_G06_10 1.0
    W_G06_8 MINDN_G06_11 1.0
    M9295 'MARKER' 'INTEND'
    P_G06_8 OBJ 23.543237810221186
    P_G06_8 PMIN_G06_8 1.0
    P_G06_8 PMAX_G06_8 1.0
    P_G06_8 RUP_G06_8 1.0
    P_G06_8 RDN_G06_8 -1.0
    P_G06_8 RUP_G06_9 -1.0
    P_G06_8 RDN_G06_9 1.0
    P_G06_8 DEM_8 1.0
    M9304 'MARKER' 'INTORG'
    U_G06_9 OBJ 149.45577834288184
    U_G06_9 PMIN_G06_9 -109.7603277837362
    U_G06_9 PMAX_G06_9 -227.70103767896063
    U_G06_9 LOGIC_G06_9 1.0
    U_G06_9 MINUP_G06_9 -1.0
    U_G06_9 MINDN_G06_9 1.0
    U_G06_9 LOGIC_G06_10 -1.0
    U_G06_9 RES_9 227.70103767896063
    V_G06_9 OBJ 2925.6639336864737
    V_G06_9 LOGIC_G06_9 -1.0
    V_G06_9 MINUP_G06_9 1.0
    V_G06_9 MINUP_G06_10 1.0
    V_G06_9 MINUP_G06_11 1.0
    V_G06_9 MINUP_G06_12 1.0
    V_G06_9 MINUP_G06_13 1.0
    W_G06_9 LOGIC_G06_9 1.0
    W_G06_9 MINDN_G06_9 1.0
    W_G06_9 MINDN_G06_10 1.0
    W_G06_9 MINDN_G06_11 1.0
    W_G06_9 MINDN_G06_12 1.0
    M9325 'MARKER' 'INTEND'
    P_G06_9 OBJ 23.543237810221186
    P_G06_9 PMIN_G06_9 1.0
    P_G06_9 PMAX_G06_9 1.0
    P_G06_9 RUP_G06_9 1.0
    P_G06_9 RDN_G06_9 -1.0
    P_G06_9 RUP_G06_10 -1.0
    P_G06_9 RDN_G06_10 1.0
    P_G06_9 DEM_9 1.0
    M9334 'MARKER' 'INTORG'
    U_G06_10 OBJ 149.45577834288184
    U_G06_10 PMIN_G06_10 -109.7603277837362
    U_G06_10 PMAX_G06_10 -227.70103767896063
    U_G06_10 LOGIC_G06_10 1.0
    U_G06_10 MINUP_G06_10 -1.0
    U_G06_10 MINDN_G06_10 1.0
    U_G06_10 LOGIC_G06_11 -1.0
    U_G06_10 RES_10 227.70103767896063
    V_G06_10 OBJ 2925.6639336864737
    V_G06_10 LOGIC_G06_10 -1.0
    V_G06_10 MINUP_G06_10 1.0
    V_G06_10 MINUP_G06_11 1.0
    V_G06_10 MINUP_G06_12 1.0
    V_G06_10 MINUP_G06_13 1.0
    V_G06_10 MINUP_G06_14 1.0
    W_G06_10 LOGIC_G06_10 1.0
    W_G06_10 MINDN_G06_10 1.0
    W_G06_10 MINDN_G06_11 1.0
    W_G06_10 MINDN_G06_12 1.0
    W_G06_10 MINDN_G06_13 1.0
    M9355 'MARKER' 'INTEND'
    P_G06_10 OBJ 23.543237810221186
    P_G06_10 PMIN_G06_10 1.0
    P_G06_10 PMAX_G06_10 1.0
    P_G06_10 RUP_G06_10 1.0
    P_G06_10 RDN_G06_10 -1.0
    P_G06_10 RUP_G06_11 -1.0
    P_G06_10 RDN_G06_11 1.0
    P_G06_10 DEM_10 1.0
    M9364 'MARKER' 'INTORG'
    U_G06_11 OBJ 149.45577834288184
    U_G06_11 PMIN_G06_11 -109.7603277837362
    U_G06_11 PMAX_G06_11 -227.70103767896063
    U_G06_11 LOGIC_G06_11 1.0
    U_G06_11 MINUP_G06_11 -1.0
    U_G06_11 MINDN_G06_11 1.0
    U_G06_11 LOGIC_G06_12 -1.0
    U_G06_11 RES_11 227.70103767896063
    V_G06_11 OBJ 2925.6639336864737
    V_G06_11 LOGIC_G06_11 -1.0
    V_G06_11 MINUP_G06_11 1.0
    V_G06_11 MINUP_G06_12 1.0
    V_G06_11 MINUP_G06_13 1.0
    V_G06_11 MINUP_G06_14 1.0
    V_G06_11 MINUP_G06_15 1.0
    W_G06_11 LOGIC_G06_11 1.0
    W_G06_11 MINDN_G06_11 1.0
    W_G06_11 MINDN_G06_12 1.0
    W_G06_11 MINDN_G06_13 1.0
    W_G06_11 MINDN_G06_14 1.0
    M9385 'MARKER' 'INTEND'
    P_G06_11 OBJ 23.543237810221186
    P_G06_11 PMIN_G06_11 1.0
    P_G06_11 PMAX_G06_11 1.0
    P_G06_11 RUP_G06_11 1.0
    P_G06_11 RDN_G06_11 -1.0
    P_G06_11 RUP_G06_12 -1.0
    P_G06_11 RDN_G06_12 1.0
    P_G06_11 DEM_11 1.0
    M9394 'MARKER' 'INTORG'
    U_G06_12 OBJ 149.45577834288184
    U_G06_12 PMIN_G06_12 -109.7603277837362
    U_G06_12 PMAX_G06_12 -227.70103767896063
    U_G06_12 LOGIC_G06_12 1.0
    U_G06_12 MINUP_G06_12 -1.0
    U_G06_12 MINDN_G06_12 1.0
    U_G06_12 LOGIC_G06_13 -1.0
    U_G06_12 RES_12 227.70103767896063
    V_G06_12 OBJ 2925.6639336864737
    V_G06_12 LOGIC_G06_12 -1.0
    V_G06_12 MINUP_G06_12 1.0
    V_G06_12 MINUP_G06_13 1.0
    V_G06_12 MINUP_G06_14 1.0
    V_G06_12 MINUP_G06_15 1.0
    V_G06_12 MINUP_G06_16 1.0
    W_G06_12 LOGIC_G06_12 1.0
    W_G06_12 MINDN_G06_12 1.0
    W_G06_12 MINDN_G06_13 1.0
    W_G06_12 MINDN_G06_14 1.0
    W_G06_12 MINDN_G06_15 1.0
    M9415 'MARKER' 'INTEND'
    P_G06_12 OBJ 23.543237810221186
    P_G06_12 PMIN_G06_12 1.0
    P_G06_12 PMAX_G06_12 1.0
    P_G06_12 RUP_G06_12 1.0
    P_G06_12 RDN_G06_12 -1.0
    P_G06_12 RUP_G06_13 -1.0
    P_G06_12 RDN_G06_13 1.0
    P_G06_12 DEM_12 1.0
    M9424 'MARKER' 'INTORG'
    U_G06_13 OBJ 149.45577834288184
    U_G06_13 PMIN_G06_13 -109.7603277837362
    U_G06_13 PMAX_G06_13 -227.70103767896063
    U_G06_13 LOGIC_G06_13 1.0
    U_G06_13 MINUP_G06_13 -1.0
    U_G06_13 MINDN_G06_13 1.0
    U_G06_13 LOGIC_G06_14 -1.0
    U_G06_13 RES_13 227.70103767896063
    V_G06_13 OBJ 2925.6639336864737
    V_G06_13 LOGIC_G06_13 -1.0
    V_G06_13 MINUP_G06_13 1.0
    V_G06_13 MINUP_G06_14 1.0
    V_G06_13 MINUP_G06_15 1.0
    V_G06_13 MINUP_G06_16 1.0
    V_G06_13 MINUP_G06_17 1.0
    W_G06_13 LOGIC_G06_13 1.0
    W_G06_13 MINDN_G06_13 1.0
    W_G06_13 MINDN_G06_14 1.0
    W_G06_13 MINDN_G06_15 1.0
    W_G06_13 MINDN_G06_16 1.0
    M9445 'MARKER' 'INTEND'
    P_G06_13 OBJ 23.543237810221186
    P_G06_13 PMIN_G06_13 1.0
    P_G06_13 PMAX_G06_13 1.0
    P_G06_13 RUP_G06_13 1.0
    P_G06_13 RDN_G06_13 -1.0
    P_G06_13 RUP_G06_14 -1.0
    P_G06_13 RDN_G06_14 1.0
    P_G06_13 DEM_13 1.0
    M9454 'MARKER' 'INTORG'
    U_G06_14 OBJ 149.45577834288184
    U_G06_14 PMIN_G06_14 -109.7603277837362
    U_G06_14 PMAX_G06_14 -227.70103767896063
    U_G06_14 LOGIC_G06_14 1.0
    U_G06_14 MINUP_G06_14 -1.0
    U_G06_14 MINDN_G06_14 1.0
    U_G06_14 LOGIC_G06_15 -1.0
    U_G06_14 RES_14 227.70103767896063
    V_G06_14 OBJ 2925.6639336864737
    V_G06_14 LOGIC_G06_14 -1.0
    V_G06_14 MINUP_G06_14 1.0
    V_G06_14 MINUP_G06_15 1.0
    V_G06_14 MINUP_G06_16 1.0
    V_G06_14 MINUP_G06_17 1.0
    V_G06_14 MINUP_G06_18 1.0
    W_G06_14 LOGIC_G06_14 1.0
    W_G06_14 MINDN_G06_14 1.0
    W_G06_14 MINDN_G06_15 1.0
    W_G06_14 MINDN_G06_16 1.0
    W_G06_14 MINDN_G06_17 1.0
    M9475 'MARKER' 'INTEND'
    P_G06_14 OBJ 23.543237810221186
    P_G06_14 PMIN_G06_14 1.0
    P_G06_14 PMAX_G06_14 1.0
    P_G06_14 RUP_G06_14 1.0
    P_G06_14 RDN_G06_14 -1.0
    P_G06_14 RUP_G06_15 -1.0
    P_G06_14 RDN_G06_15 1.0
    P_G06_14 DEM_14 1.0
    M9484 'MARKER' 'INTORG'
    U_G06_15 OBJ 149.45577834288184
    U_G06_15 PMIN_G06_15 -109.7603277837362
    U_G06_15 PMAX_G06_15 -227.70103767896063
    U_G06_15 LOGIC_G06_15 1.0
    U_G06_15 MINUP_G06_15 -1.0
    U_G06_15 MINDN_G06_15 1.0
    U_G06_15 LOGIC_G06_16 -1.0
    U_G06_15 RES_15 227.70103767896063
    V_G06_15 OBJ 2925.6639336864737
    V_G06_15 LOGIC_G06_15 -1.0
    V_G06_15 MINUP_G06_15 1.0
    V_G06_15 MINUP_G06_16 1.0
    V_G06_15 MINUP_G06_17 1.0
    V_G06_15 MINUP_G06_18 1.0
    V_G06_15 MINUP_G06_19 1.0
    W_G06_15 LOGIC_G06_15 1.0
    W_G06_15 MINDN_G06_15 1.0
    W_G06_15 MINDN_G06_16 1.0
    W_G06_15 MINDN_G06_17 1.0
    W_G06_15 MINDN_G06_18 1.0
    M9505 'MARKER' 'INTEND'
    P_G06_15 OBJ 23.543237810221186
    P_G06_15 PMIN_G06_15 1.0
    P_G06_15 PMAX_G06_15 1.0
    P_G06_15 RUP_G06_15 1.0
    P_G06_15 RDN_G06_15 -1.0
    P_G06_15 RUP_G06_16 -1.0
    P_G06_15 RDN_G06_16 1.0
    P_G06_15 DEM_15 1.0
    M9514 'MARKER' 'INTORG'
    U_G06_16 OBJ 149.45577834288184
    U_G06_16 PMIN_G06_16 -109.7603277837362
    U_G06_16 PMAX_G06_16 -227.70103767896063
    U_G06_16 LOGIC_G06_16 1.0
    U_G06_16 MINUP_G06_16 -1.0
    U_G06_16 MINDN_G06_16 1.0
    U_G06_16 LOGIC_G06_17 -1.0
    U_G06_16 RES_16 227.70103767896063
    V_G06_16 OBJ 2925.6639336864737
    V_G06_16 LOGIC_G06_16 -1.0
    V_G06_16 MINUP_G06_16 1.0
    V_G06_16 MINUP_G06_17 1.0
    V_G06_16 MINUP_G06_18 1.0
    V_G06_16 MINUP_G06_19 1.0
    V_G06_16 MINUP_G06_20 1.0
    W_G06_16 LOGIC_G06_16 1.0
    W_G06_16 MINDN_G06_16 1.0
    W_G06_16 MINDN_G06_17 1.0
    W_G06_16 MINDN_G06_18 1.0
    W_G06_16 MINDN_G06_19 1.0
    M9535 'MARKER' 'INTEND'
    P_G06_16 OBJ 23.543237810221186
    P_G06_16 PMIN_G06_16 1.0
    P_G06_16 PMAX_G06_16 1.0
    P_G06_16 RUP_G06_16 1.0
    P_G06_16 RDN_G06_16 -1.0
    P_G06_16 RUP_G06_17 -1.0
    P_G06_16 RDN_G06_17 1.0
    P_G06_16 DEM_16 1.0
    M9544 'MARKER' 'INTORG'
    U_G06_17 OBJ 149.45577834288184
    U_G06_17 PMIN_G06_17 -109.7603277837362
    U_G06_17 PMAX_G06_17 -227.70103767896063
    U_G06_17 LOGIC_G06_17 1.0
    U_G06_17 MINUP_G06_17 -1.0
    U_G06_17 MINDN_G06_17 1.0
    U_G06_17 LOGIC_G06_18 -1.0
    U_G06_17 RES_17 227.70103767896063
    V_G06_17 OBJ 2925.6639336864737
    V_G06_17 LOGIC_G06_17 -1.0
    V_G06_17 MINUP_G06_17 1.0
    V_G06_17 MINUP_G06_18 1.0
    V_G06_17 MINUP_G06_19 1.0
    V_G06_17 MINUP_G06_20 1.0
    V_G06_17 MINUP_G06_21 1.0
    W_G06_17 LOGIC_G06_17 1.0
    W_G06_17 MINDN_G06_17 1.0
    W_G06_17 MINDN_G06_18 1.0
    W_G06_17 MINDN_G06_19 1.0
    W_G06_17 MINDN_G06_20 1.0
    M9565 'MARKER' 'INTEND'
    P_G06_17 OBJ 23.543237810221186
    P_G06_17 PMIN_G06_17 1.0
    P_G06_17 PMAX_G06_17 1.0
    P_G06_17 RUP_G06_17 1.0
    P_G06_17 RDN_G06_17 -1.0
    P_G06_17 RUP_G06_18 -1.0
    P_G06_17 RDN_G06_18 1.0
    P_G06_17 DEM_17 1.0
    M9574 'MARKER' 'INTORG'
    U_G06_18 OBJ 149.45577834288184
    U_G06_18 PMIN_G06_18 -109.7603277837362
    U_G06_18 PMAX_G06_18 -227.70103767896063
    U_G06_18 LOGIC_G06_18 1.0
    U_G06_18 MINUP_G06_18 -1.0
    U_G06_18 MINDN_G06_18 1.0
    U_G06_18 LOGIC_G06_19 -1.0
    U_G06_18 RES_18 227.70103767896063
    V_G06_18 OBJ 2925.6639336864737
    V_G06_18 LOGIC_G06_18 -1.0
    V_G06_18 MINUP_G06_18 1.0
    V_G06_18 MINUP_G06_19 1.0
    V_G06_18 MINUP_G06_20 1.0
    V_G06_18 MINUP_G06_21 1.0
    V_G06_18 MINUP_G06_22 1.0
    W_G06_18 LOGIC_G06_18 1.0
    W_G06_18 MINDN_G06_18 1.0
    W_G06_18 MINDN_G06_19 1.0
    W_G06_18 MINDN_G06_20 1.0
    W_G06_18 MINDN_G06_21 1.0
    M9595 'MARKER' 'INTEND'
    P_G06_18 OBJ 23.543237810221186
    P_G06_18 PMIN_G06_18 1.0
    P_G06_18 PMAX_G06_18 1.0
    P_G06_18 RUP_G06_18 1.0
    P_G06_18 RDN_G06_18 -1.0
    P_G06_18 RUP_G06_19 -1.0
    P_G06_18 RDN_G06_19 1.0
    P_G06_18 DEM_18 1.0
    M9604 'MARKER' 'INTORG'
    U_G06_19 OBJ 149.45577834288184
    U_G06_19 PMIN_G06_19 -109.7603277837362
    U_G06_19 PMAX_G06_19 -227.70103767896063
    U_G06_19 LOGIC_G06_19 1.0
    U_G06_19 MINUP_G06_19 -1.0
    U_G06_19 MINDN_G06_19 1.0
    U_G06_19 LOGIC_G06_20 -1.0
    U_G06_19 RES_19 227.70103767896063
    V_G06_19 OBJ 2925.6639336864737
    V_G06_19 LOGIC_G06_19 -1.0
    V_G06_19 MINUP_G06_19 1.0
    V_G06_19 MINUP_G06_20 1.0
    V_G06_19 MINUP_G06_21 1.0
    V_G06_19 MINUP_G06_22 1.0
    V_G06_19 MINUP_G06_23 1.0
    W_G06_19 LOGIC_G06_19 1.0
    W_G06_19 MINDN_G06_19 1.0
    W_G06_19 MINDN_G06_20 1.0
    W_G06_19 MINDN_G06_21 1.0
    W_G06_19 MINDN_G06_22 1.0
    M9625 'MARKER' 'INTEND'
    P_G06_19 OBJ 23.543237810221186
    P_G06_19 PMIN_G06_19 1.0
    P_G06_19 PMAX_G06_19 1.0
    P_G06_19 RUP_G06_19 1.0
    P_G06_19 RDN_G06_19 -1.0
    P_G06_19 RUP_G06_20 -1.0
    P_G06_19 RDN_G06_20 1.0
    P_G06_19 DEM_19 1.0
    M9634 'MARKER' 'INTORG'
    U_G06_20 OBJ 149.45577834288184
    U_G06_20 PMIN_G06_20 -109.7603277837362
    U_G06_20 PMAX_G06_20 -227.70103767896063
    U_G06_20 LOGIC_G06_20 1.0
    U_G06_20 MINUP_G06_20 -1.0
    U_G06_20 MINDN_G06_20 1.0
    U_G06_20 LOGIC_G06_21 -1.0
    U_G06_20 RES_20 227.70103767896063
    V_G06_20 OBJ 2925.6639336864737
    V_G06_20 LOGIC_G06_20 -1.0
    V_G06_20 MINUP_G06_20 1.0
    V_G06_20 MINUP_G06_21 1.0
    V_G06_20 MINUP_G06_22 1.0
    V_G06_20 MINUP_G06_23 1.0
    W_G06_20 LOGIC_G06_20 1.0
    W_G06_20 MINDN_G06_20 1.0
    W_G06_20 MINDN_G06_21 1.0
    W_G06_20 MINDN_G06_22 1.0
    W_G06_20 MINDN_G06_23 1.0
    M9654 'MARKER' 'INTEND'
    P_G06_20 OBJ 23.543237810221186
    P_G06_20 PMIN_G06_20 1.0
    P_G06_20 PMAX_G06_20 1.0
    P_G06_20 RUP_G06_20 1.0
    P_G06_20 RDN_G06_20 -1.0
    P_G06_20 RUP_G06_21 -1.0
    P_G06_20 RDN_G06_21 1.0
    P_G06_20 DEM_20 1.0
    M9663 'MARKER' 'INTORG'
    U_G06_21 OBJ 149.45577834288184
    U_G06_21 PMIN_G06_21 -109.7603277837362
    U_G06_21 PMAX_G06_21 -227.70103767896063
    U_G06_21 LOGIC_G06_21 1.0
    U_G06_21 MINUP_G06_21 -1.0
    U_G06_21 MINDN_G06_21 1.0
    U_G06_21 LOGIC_G06_22 -1.0
    U_G06_21 RES_21 227.70103767896063
    V_G06_21 OBJ 2925.6639336864737
    V_G06_21 LOGIC_G06_21 -1.0
    V_G06_21 MINUP_G06_21 1.0
    V_G06_21 MINUP_G06_22 1.0
    V_G06_21 MINUP_G06_23 1.0
    W_G06_21 LOGIC_G06_21 1.0
    W_G06_21 MINDN_G06_21 1.0
    W_G06_21 MINDN_G06_22 1.0
    W_G06_21 MINDN_G06_23 1.0
    M9681 'MARKER' 'INTEND'
    P_G06_21 OBJ 23.543237810221186
    P_G06_21 PMIN_G06_21 1.0
    P_G06_21 PMAX_G06_21 1.0
    P_G06_21 RUP_G06_21 1.0
    P_G06_21 RDN_G06_21 -1.0
    P_G06_21 RUP_G06_22 -1.0
    P_G06_21 RDN_G06_22 1.0
    P_G06_21 DEM_21 1.0
    M9690 'MARKER' 'INTORG'
    U_G06_22 OBJ 149.45577834288184
    U_G06_22 PMIN_G06_22 -109.7603277837362
    U_G06_22 PMAX_G06_22 -227.70103767896063
    U_G06_22 LOGIC_G06_22 1.0
    U_G06_22 MINUP_G06_22 -1.0
    U_G06_22 MINDN_G06_22 1.0
    U_G06_22 LOGIC_G06_23 -1.0
    U_G06_22 RES_22 227.70103767896063
    V_G06_22 OBJ 2925.6639336864737
    V_G06_22 LOGIC_G06_22 -1.0
    V_G06_22 MINUP_G06_22 1.0
    V_G06_22 MINUP_G06_23 1.0
    W_G06_22 LOGIC_G06_22 1.0
    W_G06_22 MINDN_G06_22 1.0
    W_G06_22 MINDN_G06_23 1.0
    M9706 'MARKER' 'INTEND'
    P_G06_22 OBJ 23.543237810221186
    P_G06_22 PMIN_G06_22 1.0
    P_G06_22 PMAX_G06_22 1.0
    P_G06_22 RUP_G06_22 1.0
    P_G06_22 RDN_G06_22 -1.0
    P_G06_22 RUP_G06_23 -1.0
    P_G06_22 RDN_G06_23 1.0
    P_G06_22 DEM_22 1.0
    M9715 'MARKER' 'INTORG'
    U_G06_23 OBJ 149.45577834288184
    U_G06_23 PMIN_G06_23 -109.7603277837362
    U_G06_23 PMAX_G06_23 -227.70103767896063
    U_G06_23 LOGIC_G06_23 1.0
    U_G06_23 MINUP_G06_23 -1.0
    U_G06_23 MINDN_G06_23 1.0
    U_G06_23 RES_23 227.70103767896063
    V_G06_23 OBJ 2925.6639336864737
    V_G06_23 LOGIC_G06_23 -1.0
    V_G06_23 MINUP_G06_23 1.0
    W_G06_23 LOGIC_G06_23 1.0
    W_G06_23 MINDN_G06_23 1.0
    M9728 'MARKER' 'INTEND'
    P_G06_23 OBJ 23.543237810221186
    P_G06_23 PMIN_G06_23 1.0
    P_G06_23 PMAX_G06_23 1.0
    P_G06_23 RUP_G06_23 1.0
    P_G06_23 RDN_G06_23 -1.0
    P_G06_23 DEM_23 1.0
    M9735 'MARKER' 'INTORG'
    U_G07_0 OBJ 329.091486644006
    U_G07_0 PMIN_G07_0 -78.6140008239317
    U_G07_0 PMAX_G07_0 -256.1507902938931
    U_G07_0 LOGIC_G07_0 1.0
    U_G07_0 MINUP_G07_0 -1.0
    U_G07_0 MINDN_G07_0 1.0
    U_G07_0 LOGIC_G07_1 -1.0
    U_G07_0 RES_0 256.1507902938931
    V_G07_0 OBJ 1360.079198042168
    V_G07_0 LOGIC_G07_0 -1.0
    V_G07_0 MINUP_G07_0 1.0
    V_G07_0 MINUP_G07_1 1.0
    V_G07_0 MINUP_G07_2 1.0
    V_G07_0 MINUP_G07_3 1.0
    V_G07_0 MINUP_G07_4 1.0
    W_G07_0 LOGIC_G07_0 1.0
    W_G07_0 MINDN_G07_0 1.0
    W_G07_0 MINDN_G07_1 1.0
    W_G07_0 MINDN_G07_2 1.0
    M9755 'MARKER' 'INTEND'
    P_G07_0 OBJ 25.923298809438045
    P_G07_0 PMIN_G07_0 1.0
    P_G07_0 PMAX_G07_0 1.0
    P_G07_0 RUP_G07_1 -1.0
    P_G07_0 RDN_G07_1 1.0
    P_G07_0 DEM_0 1.0
    M9762 'MARKER' 'INTORG'
    U_G07_1 OBJ 329.091486644006
    U_G07_1 PMIN_G07_1 -78.6140008239317
    U_G07_1 PMAX_G07_1 -256.1507902938931
    U_G07_1 LOGIC_G07_1 1.0
    U_G07_1 MINUP_G07_1 -1.0
    U_G07_1 MINDN_G07_1 1.0
    U_G07_1 LOGIC_G07_2 -1.0
    U_G07_1 RES_1 256.1507902938931
    V_G07_1 OBJ 1360.079198042168
    V_G07_1 LOGIC_G07_1 -1.0
    V_G07_1 MINUP_G07_1 1.0
    V_G07_1 MINUP_G07_2 1.0
    V_G07_1 MINUP_G07_3 1.0
    V_G07_1 MINUP_G07_4 1.0
    V_G07_1 MINUP_G07_5 1.0
    W_G07_1 LOGIC_G07_1 1.0
    W_G07_1 MINDN_G07_1 1.0
    W_G07_1 MINDN_G07_2 1.0
    W_G07_1 MINDN_G07_3 1.0
    M9782 'MARKER' 'INTEND'
    P_G07_1 OBJ 25.923298809438045
    P_G07_1 PMIN_G07_1 1.0
    P_G07_1 PMAX_G07_1 1.0
    P_G07_1 RUP_G07_1 1.0
    P_G07_1 RDN_G07_1 -1.0
    P_G07_1 RUP_G07_2 -1.0
    P_G07_1 RDN_G07_2 1.0
    P_G07_1 DEM_1 1.0
    M9791 'MARKER' 'INTORG'
    U_G07_2 OBJ 329.091486644006
    U_G07_2 PMIN_G07_2 -78.6140008239317
    U_G07_2 PMAX_G07_2 -256.1507902938931
    U_G07_2 LOGIC_G07_2 1.0
    U_G07_2 MINUP_G07_2 -1.0
    U_G07_2 MINDN_G07_2 1.0
    U_G07_2 LOGIC_G07_3 -1.0
    U_G07_2 RES_2 256.1507902938931
    V_G07_2 OBJ 1360.079198042168
    V_G07_2 LOGIC_G07_2 -1.0
    V_G07_2 MINUP_G07_2 1.0
    V_G07_2 MINUP_G07_3 1.0
    V_G07_2 MINUP_G07_4 1.0
    V_G07_2 MINUP_G07_5 1.0
    V_G07_2 MINUP_G07_6 1.0
    W_G07_2 LOGIC_G07_2 1.0
    W_G07_2 MINDN_G07_2 1.0
    W_G07_2 MINDN_G07_3 1.0
    W_G07_2 MINDN_G07_4 1.0
    M9811 'MARKER' 'INTEND'
    P_G07_2 OBJ 25.923298809438045
    P_G07_2 PMIN_G07_2 1.0
    P_G07_2 PMAX_G07_2 1.0
    P_G07_2 RUP_G07_2 1.0
    P_G07_2 RDN_G07_2 -1.0
    P_G07_2 RUP_G07_3 -1.0
    P_G07_2 RDN_G07_3 1.0
    P_G07_2 DEM_2 1.0
    M9820 'MARKER' 'INTORG'
    U_G07_3 OBJ 329.091486644006
    U_G07_3 PMIN_G07_3 -78.6140008239317
    U_G07_3 PMAX_G07_3 -256.1507902938931
    U_G07_3 LOGIC_G07_3 1.0
    U_G07_3 MINUP_G07_3 -1.0
    U_G07_3 MINDN_G07_3 1.0
    U_G07_3 LOGIC_G07_4 -1.0
    U_G07_3 RES_3 256.1507902938931
    V_G07_3 OBJ 1360.079198042168
    V_G07_3 LOGIC_G07_3 -1.0
    V_G07_3 MINUP_G07_3 1.0
    V_G07_3 MINUP_G07_4 1.0
    V_G07_3 MINUP_G07_5 1.0
    V_G07_3 MINUP_G07_6 1.0
    V_G07_3 MINUP_G07_7 1.0
    W_G07_3 LOGIC_G07_3 1.0
    W_G07_3 MINDN_G07_3 1.0
    W_G07_3 MINDN_G07_4 1.0
    W_G07_3 MINDN_G07_5 1.0
    M9840 'MARKER' 'INTEND'
    P_G07_3 OBJ 25.923298809438045
    P_G07_3 PMIN_G07_3 1.0
    P_G07_3 PMAX_G07_3 1.0
    P_G07_3 RUP_G07_3 1.0
    P_G07_3 RDN_G07_3 -1.0
    P_G07_3 RUP_G07_4 -1.0
    P_G07_3 RDN_G07_4 1.0
    P_G07_3 DEM_3 1.0
    M9849 'MARKER' 'INTORG'
    U_G07_4 OBJ 329.091486644006
    U_G07_4 PMIN_G07_4 -78.6140008239317
    U_G07_4 PMAX_G07_4 -256.1507902938931
    U_G07_4 LOGIC_G07_4 1.0
    U_G07_4 MINUP_G07_4 -1.0
    U_G07_4 MINDN_G07_4 1.0
    U_G07_4 LOGIC_G07_5 -1.0
    U_G07_4 RES_4 256.1507902938931
    V_G07_4 OBJ 1360.079198042168
    V_G07_4 LOGIC_G07_4 -1.0
    V_G07_4 MINUP_G07_4 1.0
    V_G07_4 MINUP_G07_5 1.0
    V_G07_4 MINUP_G07_6 1.0
    V_G07_4 MINUP_G07_7 1.0
    V_G07_4 MINUP_G07_8 1.0
    W_G07_4 LOGIC_G07_4 1.0
    W_G07_4 MINDN_G07_4 1.0
    W_G07_4 MINDN_G07_5 1.0
    W_G07_4 MINDN_G07_6 1.0
    M9869 'MARKER' 'INTEND'
    P_G07_4 OBJ 25.923298809438045
    P_G07_4 PMIN_G07_4 1.0
    P_G07_4 PMAX_G07_4 1.0
    P_G07_4 RUP_G07_4 1.0
    P_G07_4 RDN_G07_4 -1.0
    P_G07_4 RUP_G07_5 -1.0
    P_G07_4 RDN_G07_5 1.0
    P_G07_4 DEM_4 1.0
    M9878 'MARKER' 'INTORG'
    U_G07_5 OBJ 329.091486644006
    U_G07_5 PMIN_G07_5 -78.6140008239317
    U_G07_5 PMAX_G07_5 -256.1507902938931
    U_G07_5 LOGIC_G07_5 1.0
    U_G07_5 MINUP_G07_5 -1.0
    U_G07_5 MINDN_G07_5 1.0
    U_G07_5 LOGIC_G07_6 -1.0
    U_G07_5 RES_5 256.1507902938931
    V_G07_5 OBJ 1360.079198042168
    V_G07_5 LOGIC_G07_5 -1.0
    V_G07_5 MINUP_G07_5 1.0
    V_G07_5 MINUP_G07_6 1.0
    V_G07_5 MINUP_G07_7 1.0
    V_G07_5 MINUP_G07_8 1.0
    V_G07_5 MINUP_G07_9 1.0
    W_G07_5 LOGIC_G07_5 1.0
    W_G07_5 MINDN_G07_5 1.0
    W_G07_5 MINDN_G07_6 1.0
    W_G07_5 MINDN_G07_7 1.0
    M9898 'MARKER' 'INTEND'
    P_G07_5 OBJ 25.923298809438045
    P_G07_5 PMIN_G07_5 1.0
    P_G07_5 PMAX_G07_5 1.0
    P_G07_5 RUP_G07_5 1.0
    P_G07_5 RDN_G07_5 -1.0
    P_G07_5 RUP_G07_6 -1.0
    P_G07_5 RDN_G07_6 1.0
    P_G07_5 DEM_5 1.0
    M9907 'MARKER' 'INTORG'
    U_G07_6 OBJ 329.091486644006
    U_G07_6 PMIN_G07_6 -78.6140008239317
    U_G07_6 PMAX_G07_6 -256.1507902938931
    U_G07_6 LOGIC_G07_6 1.0
    U_G07_6 MINUP_G07_6 -1.0
    U_G07_6 MINDN_G07_6 1.0
    U_G07_6 LOGIC_G07_7 -1.0
    U_G07_6 RES_6 256.1507902938931
    V_G07_6 OBJ 1360.079198042168
    V_G07_6 LOGIC_G07_6 -1.0
    V_G07_6 MINUP_G07_6 1.0
    V_G07_6 MINUP_G07_7 1.0
    V_G07_6 MINUP_G07_8 1.0
    V_G07_6 MINUP_G07_9 1.0
    V_G07_6 MINUP_G07_10 1.0
    W_G07_6 LOGIC_G07_6 1.0
    W_G07_6 MINDN_G07_6 1.0
    W_G07_6 MINDN_G07_7 1.0
    W_G07_6 MINDN_G07_8 1.0
    M9927 'MARKER' 'INTEND'
    P_G07_6 OBJ 25.923298809438045
    P_G07_6 PMIN_G07_6 1.0
    P_G07_6 PMAX_G07_6 1.0
    P_G07_6 RUP_G07_6 1.0
    P_G07_6 RDN_G07_6 -1.0
    P_G07_6 RUP_G07_7 -1.0
    P_G07_6 RDN_G07_7 1.0
    P_G07_6 DEM_6 1.0
    M9936 'MARKER' 'INTORG'
    U_G07_7 OBJ 329.091486644006
    U_G07_7 PMIN_G07_7 -78.6140008239317
    U_G07_7 PMAX_G07_7 -256.1507902938931
    U_G07_7 LOGIC_G07_7 1.0
    U_G07_7 MINUP_G07_7 -1.0
    U_G07_7 MINDN_G07_7 1.0
    U_G07_7 LOGIC_G07_8 -1.0
    U_G07_7 RES_7 256.1507902938931
    V_G07_7 OBJ 1360.079198042168
    V_G07_7 LOGIC_G07_7 -1.0
    V_G07_7 MINUP_G07_7 1.0
    V_G07_7 MINUP_G07_8 1.0
    V_G07_7 MINUP_G07_9 1.0
    V_G07_7 MINUP_G07_10 1.0
    V_G07_7 MINUP_G07_11 1.0
    W_G07_7 LOGIC_G07_7 1.0
    W_G07_7 MINDN_G07_7 1.0
    W_G07_7 MINDN_G07_8 1.0
    W_G07_7 MINDN_G07_9 1.0
    M9956 'MARKER' 'INTEND'
    P_G07_7 OBJ 25.923298809438045
    P_G07_7 PMIN_G07_7 1.0
    P_G07_7 PMAX_G07_7 1.0
    P_G07_7 RUP_G07_7 1.0
    P_G07_7 RDN_G07_7 -1.0
    P_G07_7 RUP_G07_8 -1.0
    P_G07_7 RDN_G07_8 1.0
    P_G07_7 DEM_7 1.0
    M9965 'MARKER' 'INTORG'
    U_G07_8 OBJ 329.091486644006
    U_G07_8 PMIN_G07_8 -78.6140008239317
    U_G07_8 PMAX_G07_8 -256.1507902938931
    U_G07_8 LOGIC_G07_8 1.0
    U_G07_8 MINUP_G07_8 -1.0
    U_G07_8 MINDN_G07_8 1.0
    U_G07_8 LOGIC_G07_9 -1.0
    U_G07_8 RES_8 256.1507902938931
    V_G07_8 OBJ 1360.079198042168
    V_G07_8 LOGIC_G07_8 -1.0
    V_G07_8 MINUP_G07_8 1.0
    V_G07_8 MINUP_G07_9 1.0
    V_G07_8 MINUP_G07_10 1.0
    V_G07_8 MINUP_G07_11 1.0
    V_G07_8 MINUP_G07_12 1.0
    W_G07_8 LOGIC_G07_8 1.0
    W_G07_8 MINDN_G07_8 1.0
    W_G07_8 MINDN_G07_9 1.0
    W_G07_8 MINDN_G07_10 1.0
    M9985 'MARKER' 'INTEND'
    P_G07_8 OBJ 25.923298809438045
    P_G07_8 PMIN_G07_8 1.0
    P_G07_8 PMAX_G07_8 1.0
    P_G07_8 RUP_G07_8 1.0
    P_G07_8 RDN_G07_8 -1.0
    P_G07_8 RUP_G07_9 -1.0
    P_G07_8 RDN_G07_9 1.0
    P_G07_8 DEM_8 1.0
    M9994 'MARKER' 'INTORG'
    U_G07_9 OBJ 329.091486644006
    U_G07_9 PMIN_G07_9 -78.6140008239317
    U_G07_9 PMAX_G07_9 -256.1507902938931
    U_G07_9 LOGIC_G07_9 1.0
    U_G07_9 MINUP_G07_9 -1.0
    U_G07_9 MINDN_G07_9 1.0
    U_G07_9 LOGIC_G07_10 -1.0
    U_G07_9 RES_9 256.1507902938931
    V_G07_9 OBJ 1360.079198042168
    V_G07_9 LOGIC_G07_9 -1.0
    V_G07_9 MINUP_G07_9 1.0
    V_G07_9 MINUP_G07_10 1.0
    V_G07_9 MINUP_G07_11 1.0
    V_G07_9 MINUP_G07_12 1.0
    V_G07_9 MINUP_G07_13 1.0
    W_G07_9 LOGIC_G07_9 1.0
    W_G07_9 MINDN_G07_9 1.0
    W_G07_9 MINDN_G07_10 1.0
    W_G07_9 MINDN_G07_11 1.0
    M10014 'MARKER' 'INTEND'
    P_G07_9 OBJ 25.923298809438045
    P_G07_9 PMIN_G07_9 1.0
    P_G07_9 PMAX_G07_9 1.0
    P_G07_9 RUP_G07_9 1.0
    P_G07_9 RDN_G07_9 -1.0
    P_G07_9 RUP_G07_10 -1.0
    P_G07_9 RDN_G07_10 1.0
    P_G07_9 DEM_9 1.0
    M10023 'MARKER' 'INTORG'
    U_G07_10 OBJ 329.091486644006
    U_G07_10 PMIN_G07_10 -78.6140008239317
    U_G07_10 PMAX_G07_10 -256.1507902938931
    U_G07_10 LOGIC_G07_10 1.0
    U_G07_10 MINUP_G07_10 -1.0
    U_G07_10 MINDN_G07_10 1.0
    U_G07_10 LOGIC_G07_11 -1.0
    U_G07_10 RES_10 256.1507902938931
    V_G07_10 OBJ 1360.079198042168
    V_G07_10 LOGIC_G07_10 -1.0
    V_G07_10 MINUP_G07_10 1.0
    V_G07_10 MINUP_G07_11 1.0
    V_G07_10 MINUP_G07_12 1.0
    V_G07_10 MINUP_G07_13 1.0
    V_G07_10 MINUP_G07_14 1.0
    W_G07_10 LOGIC_G07_10 1.0
    W_G07_10 MINDN_G07_10 1.0
    W_G07_10 MINDN_G07_11 1.0
    W_G07_10 MINDN_G07_12 1.0
    M10043 'MARKER' 'INTEND'
    P_G07_10 OBJ 25.923298809438045
    P_G07_10 PMIN_G07_10 1.0
    P_G07_10 PMAX_G07_10 1.0
    P_G07_10 RUP_G07_10 1.0
    P_G07_10 RDN_G07_10 -1.0
    P_G07_10 RUP_G07_11 -1.0
    P_G07_10 RDN_G07_11 1.0
    P_G07_10 DEM_10 1.0
    M10052 'MARKER' 'INTORG'
    U_G07_11 OBJ 329.091486644006
    U_G07_11 PMIN_G07_11 -78.6140008239317
    U_G07_11 PMAX_G07_11 -256.1507902938931
    U_G07_11 LOGIC_G07_11 1.0
    U_G07_11 MINUP_G07_11 -1.0
    U_G07_11 MINDN_G07_11 1.0
    U_G07_11 LOGIC_G07_12 -1.0
    U_G07_11 RES_11 256.1507902938931
    V_G07_11 OBJ 1360.079198042168
    V_G07_11 LOGIC_G07_11 -1.0
    V_G07_11 MINUP_G07_11 1.0
    V_G07_11 MINUP_G07_12 1.0
    V_G07_11 MINUP_G07_13 1.0
    V_G07_11 MINUP_G07_14 1.0
    V_G07_11 MINUP_G07_15 1.0
    W_G07_11 LOGIC_G07_11 1.0
    W_G07_11 MINDN_G07_11 1.0
    W_G07_11 MINDN_G07_12 1.0
    W_G07_11 MINDN_G07_13 1.0
    M10072 'MARKER' 'INTEND'
    P_G07_11 OBJ 25.923298809438045
    P_G07_11 PMIN_G07_11 1.0
    P_G07_11 PMAX_G07_11 1.0
    P_G07_11 RUP_G07_11 1.0
    P_G07_11 RDN_G07_11 -1.0
    P_G07_11 RUP_G07_12 -1.0
    P_G07_11 RDN_G07_12 1.0
    P_G07_11 DEM_11 1.0
    M10081 'MARKER' 'INTORG'
    U_G07_12 OBJ 329.091486644006
    U_G07_12 PMIN_G07_12 -78.6140008239317
    U_G07_12 PMAX_G07_12 -256.1507902938931
    U_G07_12 LOGIC_G07_12 1.0
    U_G07_12 MINUP_G07_12 -1.0
    U_G07_12 MINDN_G07_12 1.0
    U_G07_12 LOGIC_G07_13 -1.0
    U_G07_12 RES_12 256.1507902938931
    V_G07_12 OBJ 1360.079198042168
    V_G07_12 LOGIC_G07_12 -1.0
    V_G07_12 MINUP_G07_12 1.0
    V_G07_12 MINUP_G07_13 1.0
    V_G07_12 MINUP_G07_14 1.0
    V_G07_12 MINUP_G07_15 1.0
    V_G07_12 MINUP_G07_16 1.0
    W_G07_12 LOGIC_G07_12 1.0
    W_G07_12 MINDN_G07_12 1.0
    W_G07_12 MINDN_G07_13 1.0
    W_G07_12 MINDN_G07_14 1.0
    M10101 'MARKER' 'INTEND'
    P_G07_12 OBJ 25.923298809438045
    P_G07_12 PMIN_G07_12 1.0
    P_G07_12 PMAX_G07_12 1.0
    P_G07_12 RUP_G07_12 1.0
    P_G07_12 RDN_G07_12 -1.0
    P_G07_12 RUP_G07_13 -1.0
    P_G07_12 RDN_G07_13 1.0
    P_G07_12 DEM_12 1.0
    M10110 'MARKER' 'INTORG'
    U_G07_13 OBJ 329.091486644006
    U_G07_13 PMIN_G07_13 -78.6140008239317
    U_G07_13 PMAX_G07_13 -256.1507902938931
    U_G07_13 LOGIC_G07_13 1.0
    U_G07_13 MINUP_G07_13 -1.0
    U_G07_13 MINDN_G07_13 1.0
    U_G07_13 LOGIC_G07_14 -1.0
    U_G07_13 RES_13 256.1507902938931
    V_G07_13 OBJ 1360.079198042168
    V_G07_13 LOGIC_G07_13 -1.0
    V_G07_13 MINUP_G07_13 1.0
    V_G07_13 MINUP_G07_14 1.0
    V_G07_13 MINUP_G07_15 1.0
    V_G07_13 MINUP_G07_16 1.0
    V_G07_13 MINUP_G07_17 1.0
    W_G07_13 LOGIC_G07_13 1.0
    W_G07_13 MINDN_G07_13 1.0
    W_G07_13 MINDN_G07_14 1.0
    W_G07_13 MINDN_G07_15 1.0
    M10130 'MARKER' 'INTEND'
    P_G07_13 OBJ 25.923298809438045
    P_G07_13 PMIN_G07_13 1.0
    P_G07_13 PMAX_G07_13 1.0
    P_G07_13 RUP_G07_13 1.0
    P_G07_13 RDN_G07_13 -1.0
    P_G07_13 RUP_G07_14 -1.0
    P_G07_13 RDN_G07_14 1.0
    P_G07_13 DEM_13 1.0
    M10139 'MARKER' 'INTORG'
    U_G07_14 OBJ 329.091486644006
    U_G07_14 PMIN_G07_14 -78.6140008239317
    U_G07_14 PMAX_G07_14 -256.1507902938931
    U_G07_14 LOGIC_G07_14 1.0
    U_G07_14 MINUP_G07_14 -1.0
    U_G07_14 MINDN_G07_14 1.0
    U_G07_14 LOGIC_G07_15 -1.0
    U_G07_14 RES_14 256.1507902938931
    V_G07_14 OBJ 1360.079198042168
    V_G07_14 LOGIC_G07_14 -1.0
    V_G07_14 MINUP_G07_14 1.0
    V_G07_14 MINUP_G07_15 1.0
    V_G07_14 MINUP_G07_16 1.0
    V_G07_14 MINUP_G07_17 1.0
    V_G07_14 MINUP_G07_18 1.0
    W_G07_14 LOGIC_G07_14 1.0
    W_G07_14 MINDN_G07_14 1.0
    W_G07_14 MINDN_G07_15 1.0
    W_G07_14 MINDN_G07_16 1.0
    M10159 'MARKER' 'INTEND'
    P_G07_14 OBJ 25.923298809438045
    P_G07_14 PMIN_G07_14 1.0
    P_G07_14 PMAX_G07_14 1.0
    P_G07_14 RUP_G07_14 1.0
    P_G07_14 RDN_G07_14 -1.0
    P_G07_14 RUP_G07_15 -1.0
    P_G07_14 RDN_G07_15 1.0
    P_G07_14 DEM_14 1.0
    M10168 'MARKER' 'INTORG'
    U_G07_15 OBJ 329.091486644006
    U_G07_15 PMIN_G07_15 -78.6140008239317
    U_G07_15 PMAX_G07_15 -256.1507902938931
    U_G07_15 LOGIC_G07_15 1.0
    U_G07_15 MINUP_G07_15 -1.0
    U_G07_15 MINDN_G07_15 1.0
    U_G07_15 LOGIC_G07_16 -1.0
    U_G07_15 RES_15 256.1507902938931
    V_G07_15 OBJ 1360.079198042168
    V_G07_15 LOGIC_G07_15 -1.0
    V_G07_15 MINUP_G07_15 1.0
    V_G07_15 MINUP_G07_16 1.0
    V_G07_15 MINUP_G07_17 1.0
    V_G07_15 MINUP_G07_18 1.0
    V_G07_15 MINUP_G07_19 1.0
    W_G07_15 LOGIC_G07_15 1.0
    W_G07_15 MINDN_G07_15 1.0
    W_G07_15 MINDN_G07_16 1.0
    W_G07_15 MINDN_G07_17 1.0
    M10188 'MARKER' 'INTEND'
    P_G07_15 OBJ 25.923298809438045
    P_G07_15 PMIN_G07_15 1.0
    P_G07_15 PMAX_G07_15 1.0
    P_G07_15 RUP_G07_15 1.0
    P_G07_15 RDN_G07_15 -1.0
    P_G07_15 RUP_G07_16 -1.0
    P_G07_15 RDN_G07_16 1.0
    P_G07_15 DEM_15 1.0
    M10197 'MARKER' 'INTORG'
    U_G07_16 OBJ 329.091486644006
    U_G07_16 PMIN_G07_16 -78.6140008239317
    U_G07_16 PMAX_G07_16 -256.1507902938931
    U_G07_16 LOGIC_G07_16 1.0
    U_G07_16 MINUP_G07_16 -1.0
    U_G07_16 MINDN_G07_16 1.0
    U_G07_16 LOGIC_G07_17 -1.0
    U_G07_16 RES_16 256.1507902938931
    V_G07_16 OBJ 1360.079198042168
    V_G07_16 LOGIC_G07_16 -1.0
    V_G07_16 MINUP_G07_16 1.0
    V_G07_16 MINUP_G07_17 1.0
    V_G07_16 MINUP_G07_18 1.0
    V_G07_16 MINUP_G07_19 1.0
    V_G07_16 MINUP_G07_20 1.0
    W_G07_16 LOGIC_G07_16 1.0
    W_G07_16 MINDN_G07_16 1.0
    W_G07_16 MINDN_G07_17 1.0
    W_G07_16 MINDN_G07_18 1.0
    M10217 'MARKER' 'INTEND'
    P_G07_16 OBJ 25.923298809438045
    P_G07_16 PMIN_G07_16 1.0
    P_G07_16 PMAX_G07_16 1.0
    P_G07_16 RUP_G07_16 1.0
    P_G07_16 RDN_G07_16 -1.0
    P_G07_16 RUP_G07_17 -1.0
    P_G07_16 RDN_G07_17 1.0
    P_G07_16 DEM_16 1.0
    M10226 'MARKER' 'INTORG'
    U_G07_17 OBJ 329.091486644006
    U_G07_17 PMIN_G07_17 -78.6140008239317
    U_G07_17 PMAX_G07_17 -256.1507902938931
    U_G07_17 LOGIC_G07_17 1.0
    U_G07_17 MINUP_G07_17 -1.0
    U_G07_17 MINDN_G07_17 1.0
    U_G07_17 LOGIC_G07_18 -1.0
    U_G07_17 RES_17 256.1507902938931
    V_G07_17 OBJ 1360.079198042168
    V_G07_17 LOGIC_G07_17 -1.0
    V_G07_17 MINUP_G07_17 1.0
    V_G07_17 MINUP_G07_18 1.0
    V_G07_17 MINUP_G07_19 1.0
    V_G07_17 MINUP_G07_20 1.0
    V_G07_17 MINUP_G07_21 1.0
    W_G07_17 LOGIC_G07_17 1.0
    W_G07_17 MINDN_G07_17 1.0
    W_G07_17 MINDN_G07_18 1.0
    W_G07_17 MINDN_G07_19 1.0
    M10246 'MARKER' 'INTEND'
    P_G07_17 OBJ 25.923298809438045
    P_G07_17 PMIN_G07_17 1.0
    P_G07_17 PMAX_G07_17 1.0
    P_G07_17 RUP_G07_17 1.0
    P_G07_17 RDN_G07_17 -1.0
    P_G07_17 RUP_G07_18 -1.0
    P_G07_17 RDN_G07_18 1.0
    P_G07_17 DEM_17 1.0
    M10255 'MARKER' 'INTORG'
    U_G07_18 OBJ 329.091486644006
    U_G07_18 PMIN_G07_18 -78.6140008239317
    U_G07_18 PMAX_G07_18 -256.1507902938931
    U_G07_18 LOGIC_G07_18 1.0
    U_G07_18 MINUP_G07_18 -1.0
    U_G07_18 MINDN_G07_18 1.0
    U_G07_18 LOGIC_G07_19 -1.0
    U_G07_18 RES_18 256.1507902938931
    V_G07_18 OBJ 1360.079198042168
    V_G07_18 LOGIC_G07_18 -1.0
    V_G07_18 MINUP_G07_18 1.0
    V_G07_18 MINUP_G07_19 1.0
    V_G07_18 MINUP_G07_20 1.0
    V_G07_18 MINUP_G07_21 1.0
    V_G07_18 MINUP_G07_22 1.0
    W_G07_18 LOGIC_G07_18 1.0
    W_G07_18 MINDN_G07_18 1.0
    W_G07_18 MINDN_G07_19 1.0
    W_G07_18 MINDN_G07_20 1.0
    M10275 'MARKER' 'INTEND'
    P_G07_18 OBJ 25.923298809438045
    P_G07_18 PMIN_G07_18 1.0
    P_G07_18 PMAX_G07_18 1.0
    P_G07_18 RUP_G07_18 1.0
    P_G07_18 RDN_G07_18 -1.0
    P_G07_18 RUP_G07_19 -1.0
    P_G07_18 RDN_G07_19 1.0
    P_G07_18 DEM_18 1.0
    M10284 'MARKER' 'INTORG'
    U_G07_19 OBJ 329.091486644006
    U_G07_19 PMIN_G07_19 -78.6140008239317
    U_G07_19 PMAX_G07_19 -256.1507902938931
    U_G07_19 LOGIC_G07_19 1.0
    U_G07_19 MINUP_G07_19 -1.0
    U_G07_19 MINDN_G07_19 1.0
    U_G07_19 LOGIC_G07_20 -1.0
    U_G07_19 RES_19 256.1507902938931
    V_G07_19 OBJ 1360.079198042168
    V_G07_19 LOGIC_G07_19 -1.0
    V_G07_19 MINUP_G07_19 1.0
    V_G07_19 MINUP_G07_20 1.0
    V_G07_19 MINUP_G07_21 1.0
    V_G07_19 MINUP_G07_22 1.0
    V_G07_19 MINUP_G07_23 1.0
    W_G07_19 LOGIC_G07_19 1.0
    W_G07_19 MINDN_G07_19 1.0
    W_G07_19 MINDN_G07_20 1.0
    W_G07_19 MINDN_G07_21 1.0
    M10304 'MARKER' 'INTEND'
    P_G07_19 OBJ 25.923298809438045
    P_G07_19 PMIN_G07_19 1.0
    P_G07_19 PMAX_G07_19 1.0
    P_G07_19 RUP_G07_19 1.0
    P_G07_19 RDN_G07_19 -1.0
    P_G07_19 RUP_G07_20 -1.0
    P_G07_19 RDN_G07_20 1.0
    P_G07_19 DEM_19 1.0
    M10313 'MARKER' 'INTORG'
    U_G07_20 OBJ 329.091486644006
    U_G07_20 PMIN_G07_20 -78.6140008239317
    U_G07_20 PMAX_G07_20 -256.1507902938931
    U_G07_20 LOGIC_G07_20 1.0
    U_G07_20 MINUP_G07_20 -1.0
    U_G07_20 MINDN_G07_20 1.0
    U_G07_20 LOGIC_G07_21 -1.0
    U_G07_20 RES_20 256.1507902938931
    V_G07_20 OBJ 1360.079198042168
    V_G07_20 LOGIC_G07_20 -1.0
    V_G07_20 MINUP_G07_20 1.0
    V_G07_20 MINUP_G07_21 1.0
    V_G07_20 MINUP_G07_22 1.0
    V_G07_20 MINUP_G07_23 1.0
    W_G07_20 LOGIC_G07_20 1.0
    W_G07_20 MINDN_G07_20 1.0
    W_G07_20 MINDN_G07_21 1.0
    W_G07_20 MINDN_G07_22 1.0
    M10332 'MARKER' 'INTEND'
    P_G07_20 OBJ 25.923298809438045
    P_G07_20 PMIN_G07_20 1.0
    P_G07_20 PMAX_G07_20 1.0
    P_G07_20 RUP_G07_20 1.0
    P_G07_20 RDN_G07_20 -1.0
    P_G07_20 RUP_G07_21 -1.0
    P_G07_20 RDN_G07_21 1.0
    P_G07_20 DEM_20 1.0
    M10341 'MARKER' 'INTORG'
    U_G07_21 OBJ 329.091486644006
    U_G07_21 PMIN_G07_21 -78.6140008239317
    U_G07_21 PMAX_G07_21 -256.1507902938931
    U_G07_21 LOGIC_G07_21 1.0
    U_G07_21 MINUP_G07_21 -1.0
    U_G07_21 MINDN_G07_21 1.0
    U_G07_21 LOGIC_G07_22 -1.0
    U_G07_21 RES_21 256.1507902938931
    V_G07_21 OBJ 1360.079198042168
    V_G07_21 LOGIC_G07_21 -1.0
    V_G07_21 MINUP_G07_21 1.0
    V_G07_21 MINUP_G07_22 1.0
    V_G07_21 MINUP_G07_23 1.0
    W_G07_21 LOGIC_G07_21 1.0
    W_G07_21 MINDN_G07_21 1.0
    W_G07_21 MINDN_G07_22 1.0
    W_G07_21 MINDN_G07_23 1.0
    M10359 'MARKER' 'INTEND'
    P_G07_21 OBJ 25.923298809438045
    P_G07_21 PMIN_G07_21 1.0
    P_G07_21 PMAX_G07_21 1.0
    P_G07_21 RUP_G07_21 1.0
    P_G07_21 RDN_G07_21 -1.0
    P_G07_21 RUP_G07_22 -1.0
    P_G07_21 RDN_G07_22 1.0
    P_G07_21 DEM_21 1.0
    M10368 'MARKER' 'INTORG'
    U_G07_22 OBJ 329.091486644006
    U_G07_22 PMIN_G07_22 -78.6140008239317
    U_G07_22 PMAX_G07_22 -256.1507902938931
    U_G07_22 LOGIC_G07_22 1.0
    U_G07_22 MINUP_G07_22 -1.0
    U_G07_22 MINDN_G07_22 1.0
    U_G07_22 LOGIC_G07_23 -1.0
    U_G07_22 RES_22 256.1507902938931
    V_G07_22 OBJ 1360.079198042168
    V_G07_22 LOGIC_G07_22 -1.0
    V_G07_22 MINUP_G07_22 1.0
    V_G07_22 MINUP_G07_23 1.0
    W_G07_22 LOGIC_G07_22 1.0
    W_G07_22 MINDN_G07_22 1.0
    W_G07_22 MINDN_G07_23 1.0
    M10384 'MARKER' 'INTEND'
    P_G07_22 OBJ 25.923298809438045
    P_G07_22 PMIN_G07_22 1.0
    P_G07_22 PMAX_G07_22 1.0
    P_G07_22 RUP_G07_22 1.0
    P_G07_22 RDN_G07_22 -1.0
    P_G07_22 RUP_G07_23 -1.0
    P_G07_22 RDN_G07_23 1.0
    P_G07_22 DEM_22 1.0
    M10393 'MARKER' 'INTORG'
    U_G07_23 OBJ 329.091486644006
    U_G07_23 PMIN_G07_23 -78.6140008239317
    U_G07_23 PMAX_G07_23 -256.1507902938931
    U_G07_23 LOGIC_G07_23 1.0
    U_G07_23 MINUP_G07_23 -1.0
    U_G07_23 MINDN_G07_23 1.0
    U_G07_23 RES_23 256.1507902938931
    V_G07_23 OBJ 1360.079198042168
    V_G07_23 LOGIC_G07_23 -1.0
    V_G07_23 MINUP_G07_23 1.0
    W_G07_23 LOGIC_G07_23 1.0
    W_G07_23 MINDN_G07_23 1.0
    M10406 'MARKER' 'INTEND'
    P_G07_23 OBJ 25.923298809438045
    P_G07_23 PMIN_G07_23 1.0
    P_G07_23 PMAX_G07_23 1.0
    P_G07_23 RUP_G07_23 1.0
    P_G07_23 RDN_G07_23 -1.0
    P_G07_23 DEM_23 1.0
    M10413 'MARKER' 'INTORG'
    U_G08_0 OBJ 107.29440400249096
    U_G08_0 PMIN_G08_0 -34.734222598277924
    U_G08_0 PMAX_G08_0 -80.26365640488692
    U_G08_0 LOGIC_G08_0 1.0
    U_G08_0 MINUP_G08_0 -1.0
    U_G08_0 MINDN_G08_0 1.0
    U_G08_0 LOGIC_G08_1 -1.0
    U_G08_0 RES_0 80.26365640488692
    V_G08_0 OBJ 2551.8643133425285
    V_G08_0 LOGIC_G08_0 -1.0
    V_G08_0 MINUP_G08_0 1.0
    W_G08_0 LOGIC_G08_0 1.0
    W_G08_0 MINDN_G08_0 1.0
    W_G08_0 MINDN_G08_1 1.0
    W_G08_0 MINDN_G08_2 1.0
    W_G08_0 MINDN_G08_3 1.0
    M10430 'MARKER' 'INTEND'
    P_G08_0 OBJ 19.856906794234494
    P_G08_0 PMIN_G08_0 1.0
    P_G08_0 PMAX_G08_0 1.0
    P_G08_0 RUP_G08_1 -1.0
    P_G08_0 RDN_G08_1 1.0
    P_G08_0 DEM_0 1.0
    M10437 'MARKER' 'INTORG'
    U_G08_1 OBJ 107.29440400249096
    U_G08_1 PMIN_G08_1 -34.734222598277924
    U_G08_1 PMAX_G08_1 -80.26365640488692
    U_G08_1 LOGIC_G08_1 1.0
    U_G08_1 MINUP_G08_1 -1.0
    U_G08_1 MINDN_G08_1 1.0
    U_G08_1 LOGIC_G08_2 -1.0
    U_G08_1 RES_1 80.26365640488692
    V_G08_1 OBJ 2551.8643133425285
    V_G08_1 LOGIC_G08_1 -1.0
    V_G08_1 MINUP_G08_1 1.0
    W_G08_1 LOGIC_G08_1 1.0
    W_G08_1 MINDN_G08_1 1.0
    W_G08_1 MINDN_G08_2 1.0
    W_G08_1 MINDN_G08_3 1.0
    W_G08_1 MINDN_G08_4 1.0
    M10454 'MARKER' 'INTEND'
    P_G08_1 OBJ 19.856906794234494
    P_G08_1 PMIN_G08_1 1.0
    P_G08_1 PMAX_G08_1 1.0
    P_G08_1 RUP_G08_1 1.0
    P_G08_1 RDN_G08_1 -1.0
    P_G08_1 RUP_G08_2 -1.0
    P_G08_1 RDN_G08_2 1.0
    P_G08_1 DEM_1 1.0
    M10463 'MARKER' 'INTORG'
    U_G08_2 OBJ 107.29440400249096
    U_G08_2 PMIN_G08_2 -34.734222598277924
    U_G08_2 PMAX_G08_2 -80.26365640488692
    U_G08_2 LOGIC_G08_2 1.0
    U_G08_2 MINUP_G08_2 -1.0
    U_G08_2 MINDN_G08_2 1.0
    U_G08_2 LOGIC_G08_3 -1.0
    U_G08_2 RES_2 80.26365640488692
    V_G08_2 OBJ 2551.8643133425285
    V_G08_2 LOGIC_G08_2 -1.0
    V_G08_2 MINUP_G08_2 1.0
    W_G08_2 LOGIC_G08_2 1.0
    W_G08_2 MINDN_G08_2 1.0
    W_G08_2 MINDN_G08_3 1.0
    W_G08_2 MINDN_G08_4 1.0
    W_G08_2 MINDN_G08_5 1.0
    M10480 'MARKER' 'INTEND'
    P_G08_2 OBJ 19.856906794234494
    P_G08_2 PMIN_G08_2 1.0
    P_G08_2 PMAX_G08_2 1.0
    P_G08_2 RUP_G08_2 1.0
    P_G08_2 RDN_G08_2 -1.0
    P_G08_2 RUP_G08_3 -1.0
    P_G08_2 RDN_G08_3 1.0
    P_G08_2 DEM_2 1.0
    M10489 'MARKER' 'INTORG'
    U_G08_3 OBJ 107.29440400249096
    U_G08_3 PMIN_G08_3 -34.734222598277924
    U_G08_3 PMAX_G08_3 -80.26365640488692
    U_G08_3 LOGIC_G08_3 1.0
    U_G08_3 MINUP_G08_3 -1.0
    U_G08_3 MINDN_G08_3 1.0
    U_G08_3 LOGIC_G08_4 -1.0
    U_G08_3 RES_3 80.26365640488692
    V_G08_3 OBJ 2551.8643133425285
    V_G08_3 LOGIC_G08_3 -1.0
    V_G08_3 MINUP_G08_3 1.0
    W_G08_3 LOGIC_G08_3 1.0
    W_G08_3 MINDN_G08_3 1.0
    W_G08_3 MINDN_G08_4 1.0
    W_G08_3 MINDN_G08_5 1.0
    W_G08_3 MINDN_G08_6 1.0
    M10506 'MARKER' 'INTEND'
    P_G08_3 OBJ 19.856906794234494
    P_G08_3 PMIN_G08_3 1.0
    P_G08_3 PMAX_G08_3 1.0
    P_G08_3 RUP_G08_3 1.0
    P_G08_3 RDN_G08_3 -1.0
    P_G08_3 RUP_G08_4 -1.0
    P_G08_3 RDN_G08_4 1.0
    P_G08_3 DEM_3 1.0
    M10515 'MARKER' 'INTORG'
    U_G08_4 OBJ 107.29440400249096
    U_G08_4 PMIN_G08_4 -34.734222598277924
    U_G08_4 PMAX_G08_4 -80.26365640488692
    U_G08_4 LOGIC_G08_4 1.0
    U_G08_4 MINUP_G08_4 -1.0
    U_G08_4 MINDN_G08_4 1.0
    U_G08_4 LOGIC_G08_5 -1.0
    U_G08_4 RES_4 80.26365640488692
    V_G08_4 OBJ 2551.8643133425285
    V_G08_4 LOGIC_G08_4 -1.0
    V_G08_4 MINUP_G08_4 1.0
    W_G08_4 LOGIC_G08_4 1.0
    W_G08_4 MINDN_G08_4 1.0
    W_G08_4 MINDN_G08_5 1.0
    W_G08_4 MINDN_G08_6 1.0
    W_G08_4 MINDN_G08_7 1.0
    M10532 'MARKER' 'INTEND'
    P_G08_4 OBJ 19.856906794234494
    P_G08_4 PMIN_G08_4 1.0
    P_G08_4 PMAX_G08_4 1.0
    P_G08_4 RUP_G08_4 1.0
    P_G08_4 RDN_G08_4 -1.0
    P_G08_4 RUP_G08_5 -1.0
    P_G08_4 RDN_G08_5 1.0
    P_G08_4 DEM_4 1.0
    M10541 'MARKER' 'INTORG'
    U_G08_5 OBJ 107.29440400249096
    U_G08_5 PMIN_G08_5 -34.734222598277924
    U_G08_5 PMAX_G08_5 -80.26365640488692
    U_G08_5 LOGIC_G08_5 1.0
    U_G08_5 MINUP_G08_5 -1.0
    U_G08_5 MINDN_G08_5 1.0
    U_G08_5 LOGIC_G08_6 -1.0
    U_G08_5 RES_5 80.26365640488692
    V_G08_5 OBJ 2551.8643133425285
    V_G08_5 LOGIC_G08_5 -1.0
    V_G08_5 MINUP_G08_5 1.0
    W_G08_5 LOGIC_G08_5 1.0
    W_G08_5 MINDN_G08_5 1.0
    W_G08_5 MINDN_G08_6 1.0
    W_G08_5 MINDN_G08_7 1.0
    W_G08_5 MINDN_G08_8 1.0
    M10558 'MARKER' 'INTEND'
    P_G08_5 OBJ 19.856906794234494
    P_G08_5 PMIN_G08_5 1.0
    P_G08_5 PMAX_G08_5 1.0
    P_G08_5 RUP_G08_5 1.0
    P_G08_5 RDN_G08_5 -1.0
    P_G08_5 RUP_G08_6 -1.0
    P_G08_5 RDN_G08_6 1.0
    P_G08_5 DEM_5 1.0
    M10567 'MARKER' 'INTORG'
    U_G08_6 OBJ 107.29440400249096
    U_G08_6 PMIN_G08_6 -34.734222598277924
    U_G08_6 PMAX_G08_6 -80.26365640488692
    U_G08_6 LOGIC_G08_6 1.0
    U_G08_6 MINUP_G08_6 -1.0
    U_G08_6 MINDN_G08_6 1.0
    U_G08_6 LOGIC_G08_7 -1.0
    U_G08_6 RES_6 80.26365640488692
    V_G08_6 OBJ 2551.8643133425285
    V_G08_6 LOGIC_G08_6 -1.0
    V_G08_6 MINUP_G08_6 1.0
    W_G08_6 LOGIC_G08_6 1.0
    W_G08_6 MINDN_G08_6 1.0
    W_G08_6 MINDN_G08_7 1.0
    W_G08_6 MINDN_G08_8 1.0
    W_G08_6 MINDN_G08_9 1.0
    M10584 'MARKER' 'INTEND'
    P_G08_6 OBJ 19.856906794234494
    P_G08_6 PMIN_G08_6 1.0
    P_G08_6 PMAX_G08_6 1.0
    P_G08_6 RUP_G08_6 1.0
    P_G08_6 RDN_G08_6 -1.0
    P_G08_6 RUP_G08_7 -1.0
    P_G08_6 RDN_G08_7 1.0
    P_G08_6 DEM_6 1.0
    M10593 'MARKER' 'INTORG'
    U_G08_7 OBJ 107.29440400249096
    U_G08_7 PMIN_G08_7 -34.734222598277924
    U_G08_7 PMAX_G08_7 -80.26365640488692
    U_G08_7 LOGIC_G08_7 1.0
    U_G08_7 MINUP_G08_7 -1.0
    U_G08_7 MINDN_G08_7 1.0
    U_G08_7 LOGIC_G08_8 -1.0
    U_G08_7 RES_7 80.26365640488692
    V_G08_7 OBJ 2551.8643133425285
    V_G08_7 LOGIC_G08_7 -1.0
    V_G08_7 MINUP_G08_7 1.0
    W_G08_7 LOGIC_G08_7 1.0
    W_G08_7 MINDN_G08_7 1.0
    W_G08_7 MINDN_G08_8 1.0
    W_G08_7 MINDN_G08_9 1.0
    W_G08_7 MINDN_G08_10 1.0
    M10610 'MARKER' 'INTEND'
    P_G08_7 OBJ 19.856906794234494
    P_G08_7 PMIN_G08_7 1.0
    P_G08_7 PMAX_G08_7 1.0
    P_G08_7 RUP_G08_7 1.0
    P_G08_7 RDN_G08_7 -1.0
    P_G08_7 RUP_G08_8 -1.0
    P_G08_7 RDN_G08_8 1.0
    P_G08_7 DEM_7 1.0
    M10619 'MARKER' 'INTORG'
    U_G08_8 OBJ 107.29440400249096
    U_G08_8 PMIN_G08_8 -34.734222598277924
    U_G08_8 PMAX_G08_8 -80.26365640488692
    U_G08_8 LOGIC_G08_8 1.0
    U_G08_8 MINUP_G08_8 -1.0
    U_G08_8 MINDN_G08_8 1.0
    U_G08_8 LOGIC_G08_9 -1.0
    U_G08_8 RES_8 80.26365640488692
    V_G08_8 OBJ 2551.8643133425285
    V_G08_8 LOGIC_G08_8 -1.0
    V_G08_8 MINUP_G08_8 1.0
    W_G08_8 LOGIC_G08_8 1.0
    W_G08_8 MINDN_G08_8 1.0
    W_G08_8 MINDN_G08_9 1.0
    W_G08_8 MINDN_G08_10 1.0
    W_G08_8 MINDN_G08_11 1.0
    M10636 'MARKER' 'INTEND'
    P_G08_8 OBJ 19.856906794234494
    P_G08_8 PMIN_G08_8 1.0
    P_G08_8 PMAX_G08_8 1.0
    P_G08_8 RUP_G08_8 1.0
    P_G08_8 RDN_G08_8 -1.0
    P_G08_8 RUP_G08_9 -1.0
    P_G08_8 RDN_G08_9 1.0
    P_G08_8 DEM_8 1.0
    M10645 'MARKER' 'INTORG'
    U_G08_9 OBJ 107.29440400249096
    U_G08_9 PMIN_G08_9 -34.734222598277924
    U_G08_9 PMAX_G08_9 -80.26365640488692
    U_G08_9 LOGIC_G08_9 1.0
    U_G08_9 MINUP_G08_9 -1.0
    U_G08_9 MINDN_G08_9 1.0
    U_G08_9 LOGIC_G08_10 -1.0
    U_G08_9 RES_9 80.26365640488692
    V_G08_9 OBJ 2551.8643133425285
    V_G08_9 LOGIC_G08_9 -1.0
    V_G08_9 MINUP_G08_9 1.0
    W_G08_9 LOGIC_G08_9 1.0
    W_G08_9 MINDN_G08_9 1.0
    W_G08_9 MINDN_G08_10 1.0
    W_G08_9 MINDN_G08_11 1.0
    W_G08_9 MINDN_G08_12 1.0
    M10662 'MARKER' 'INTEND'
    P_G08_9 OBJ 19.856906794234494
    P_G08_9 PMIN_G08_9 1.0
    P_G08_9 PMAX_G08_9 1.0
    P_G08_9 RUP_G08_9 1.0
    P_G08_9 RDN_G08_9 -1.0
    P_G08_9 RUP_G08_10 -1.0
    P_G08_9 RDN_G08_10 1.0
    P_G08_9 DEM_9 1.0
    M10671 'MARKER' 'INTORG'
    U_G08_10 OBJ 107.29440400249096
    U_G08_10 PMIN_G08_10 -34.734222598277924
    U_G08_10 PMAX_G08_10 -80.26365640488692
    U_G08_10 LOGIC_G08_10 1.0
    U_G08_10 MINUP_G08_10 -1.0
    U_G08_10 MINDN_G08_10 1.0
    U_G08_10 LOGIC_G08_11 -1.0
    U_G08_10 RES_10 80.26365640488692
    V_G08_10 OBJ 2551.8643133425285
    V_G08_10 LOGIC_G08_10 -1.0
    V_G08_10 MINUP_G08_10 1.0
    W_G08_10 LOGIC_G08_10 1.0
    W_G08_10 MINDN_G08_10 1.0
    W_G08_10 MINDN_G08_11 1.0
    W_G08_10 MINDN_G08_12 1.0
    W_G08_10 MINDN_G08_13 1.0
    M10688 'MARKER' 'INTEND'
    P_G08_10 OBJ 19.856906794234494
    P_G08_10 PMIN_G08_10 1.0
    P_G08_10 PMAX_G08_10 1.0
    P_G08_10 RUP_G08_10 1.0
    P_G08_10 RDN_G08_10 -1.0
    P_G08_10 RUP_G08_11 -1.0
    P_G08_10 RDN_G08_11 1.0
    P_G08_10 DEM_10 1.0
    M10697 'MARKER' 'INTORG'
    U_G08_11 OBJ 107.29440400249096
    U_G08_11 PMIN_G08_11 -34.734222598277924
    U_G08_11 PMAX_G08_11 -80.26365640488692
    U_G08_11 LOGIC_G08_11 1.0
    U_G08_11 MINUP_G08_11 -1.0
    U_G08_11 MINDN_G08_11 1.0
    U_G08_11 LOGIC_G08_12 -1.0
    U_G08_11 RES_11 80.26365640488692
    V_G08_11 OBJ 2551.8643133425285
    V_G08_11 LOGIC_G08_11 -1.0
    V_G08_11 MINUP_G08_11 1.0
    W_G08_11 LOGIC_G08_11 1.0
    W_G08_11 MINDN_G08_11 1.0
    W_G08_11 MINDN_G08_12 1.0
    W_G08_11 MINDN_G08_13 1.0
    W_G08_11 MINDN_G08_14 1.0
    M10714 'MARKER' 'INTEND'
    P_G08_11 OBJ 19.856906794234494
    P_G08_11 PMIN_G08_11 1.0
    P_G08_11 PMAX_G08_11 1.0
    P_G08_11 RUP_G08_11 1.0
    P_G08_11 RDN_G08_11 -1.0
    P_G08_11 RUP_G08_12 -1.0
    P_G08_11 RDN_G08_12 1.0
    P_G08_11 DEM_11 1.0
    M10723 'MARKER' 'INTORG'
    U_G08_12 OBJ 107.29440400249096
    U_G08_12 PMIN_G08_12 -34.734222598277924
    U_G08_12 PMAX_G08_12 -80.26365640488692
    U_G08_12 LOGIC_G08_12 1.0
    U_G08_12 MINUP_G08_12 -1.0
    U_G08_12 MINDN_G08_12 1.0
    U_G08_12 LOGIC_G08_13 -1.0
    U_G08_12 RES_12 80.26365640488692
    V_G08_12 OBJ 2551.8643133425285
    V_G08_12 LOGIC_G08_12 -1.0
    V_G08_12 MINUP_G08_12 1.0
    W_G08_12 LOGIC_G08_12 1.0
    W_G08_12 MINDN_G08_12 1.0
    W_G08_12 MINDN_G08_13 1.0
    W_G08_12 MINDN_G08_14 1.0
    W_G08_12 MINDN_G08_15 1.0
    M10740 'MARKER' 'INTEND'
    P_G08_12 OBJ 19.856906794234494
    P_G08_12 PMIN_G08_12 1.0
    P_G08_12 PMAX_G08_12 1.0
    P_G08_12 RUP_G08_12 1.0
    P_G08_12 RDN_G08_12 -1.0
    P_G08_12 RUP_G08_13 -1.0
    P_G08_12 RDN_G08_13 1.0
    P_G08_12 DEM_12 1.0
    M10749 'MARKER' 'INTORG'
    U_G08_13 OBJ 107.29440400249096
    U_G08_13 PMIN_G08_13 -34.734222598277924
    U_G08_13 PMAX_G08_13 -80.26365640488692
    U_G08_13 LOGIC_G08_13 1.0
    U_G08_13 MINUP_G08_13 -1.0
    U_G08_13 MINDN_G08_13 1.0
    U_G08_13 LOGIC_G08_14 -1.0
    U_G08_13 RES_13 80.26365640488692
    V_G08_13 OBJ 2551.8643133425285
    V_G08_13 LOGIC_G08_13 -1.0
    V_G08_13 MINUP_G08_13 1.0
    W_G08_13 LOGIC_G08_13 1.0
    W_G08_13 MINDN_G08_13 1.0
    W_G08_13 MINDN_G08_14 1.0
    W_G08_13 MINDN_G08_15 1.0
    W_G08_13 MINDN_G08_16 1.0
    M10766 'MARKER' 'INTEND'
    P_G08_13 OBJ 19.856906794234494
    P_G08_13 PMIN_G08_13 1.0
    P_G08_13 PMAX_G08_13 1.0
    P_G08_13 RUP_G08_13 1.0
    P_G08_13 RDN_G08_13 -1.0
    P_G08_13 RUP_G08_14 -1.0
    P_G08_13 RDN_G08_14 1.0
    P_G08_13 DEM_13 1.0
    M10775 'MARKER' 'INTORG'
    U_G08_14 OBJ 107.29440400249096
    U_G08_14 PMIN_G08_14 -34.734222598277924
    U_G08_14 PMAX_G08_14 -80.26365640488692
    U_G08_14 LOGIC_G08_14 1.0
    U_G08_14 MINUP_G08_14 -1.0
    U_G08_14 MINDN_G08_14 1.0
    U_G08_14 LOGIC_G08_15 -1.0
    U_G08_14 RES_14 80.26365640488692
    V_G08_14 OBJ 2551.8643133425285
    V_G08_14 LOGIC_G08_14 -1.0
    V_G08_14 MINUP_G08_14 1.0
    W_G08_14 LOGIC_G08_14 1.0
    W_G08_14 MINDN_G08_14 1.0
    W_G08_14 MINDN_G08_15 1.0
    W_G08_14 MINDN_G08_16 1.0
    W_G08_14 MINDN_G08_17 1.0
    M10792 'MARKER' 'INTEND'
    P_G08_14 OBJ 19.856906794234494
    P_G08_14 PMIN_G08_14 1.0
    P_G08_14 PMAX_G08_14 1.0
    P_G08_14 RUP_G08_14 1.0
    P_G08_14 RDN_G08_14 -1.0
    P_G08_14 RUP_G08_15 -1.0
    P_G08_14 RDN_G08_15 1.0
    P_G08_14 DEM_14 1.0
    M10801 'MARKER' 'INTORG'
    U_G08_15 OBJ 107.29440400249096
    U_G08_15 PMIN_G08_15 -34.734222598277924
    U_G08_15 PMAX_G08_15 -80.26365640488692
    U_G08_15 LOGIC_G08_15 1.0
    U_G08_15 MINUP_G08_15 -1.0
    U_G08_15 MINDN_G08_15 1.0
    U_G08_15 LOGIC_G08_16 -1.0
    U_G08_15 RES_15 80.26365640488692
    V_G08_15 OBJ 2551.8643133425285
    V_G08_15 LOGIC_G08_15 -1.0
    V_G08_15 MINUP_G08_15 1.0
    W_G08_15 LOGIC_G08_15 1.0
    W_G08_15 MINDN_G08_15 1.0
    W_G08_15 MINDN_G08_16 1.0
    W_G08_15 MINDN_G08_17 1.0
    W_G08_15 MINDN_G08_18 1.0
    M10818 'MARKER' 'INTEND'
    P_G08_15 OBJ 19.856906794234494
    P_G08_15 PMIN_G08_15 1.0
    P_G08_15 PMAX_G08_15 1.0
    P_G08_15 RUP_G08_15 1.0
    P_G08_15 RDN_G08_15 -1.0
    P_G08_15 RUP_G08_16 -1.0
    P_G08_15 RDN_G08_16 1.0
    P_G08_15 DEM_15 1.0
    M10827 'MARKER' 'INTORG'
    U_G08_16 OBJ 107.29440400249096
    U_G08_16 PMIN_G08_16 -34.734222598277924
    U_G08_16 PMAX_G08_16 -80.26365640488692
    U_G08_16 LOGIC_G08_16 1.0
    U_G08_16 MINUP_G08_16 -1.0
    U_G08_16 MINDN_G08_16 1.0
    U_G08_16 LOGIC_G08_17 -1.0
    U_G08_16 RES_16 80.26365640488692
    V_G08_16 OBJ 2551.8643133425285
    V_G08_16 LOGIC_G08_16 -1.0
    V_G08_16 MINUP_G08_16 1.0
    W_G08_16 LOGIC_G08_16 1.0
    W_G08_16 MINDN_G08_16 1.0
    W_G08_16 MINDN_G08_17 1.0
    W_G08_16 MINDN_G08_18 1.0
    W_G08_16 MINDN_G08_19 1.0
    M10844 'MARKER' 'INTEND'
    P_G08_16 OBJ 19.856906794234494
    P_G08_16 PMIN_G08_16 1.0
    P_G08_16 PMAX_G08_16 1.0
    P_G08_16 RUP_G08_16 1.0
    P_G08_16 RDN_G08_16 -1.0
    P_G08_16 RUP_G08_17 -1.0
    P_G08_16 RDN_G08_17 1.0
    P_G08_16 DEM_16 1.0
    M10853 'MARKER' 'INTORG'
    U_G08_17 OBJ 107.29440400249096
    U_G08_17 PMIN_G08_17 -34.734222598277924
    U_G08_17 PMAX_G08_17 -80.26365640488692
    U_G08_17 LOGIC_G08_17 1.0
    U_G08_17 MINUP_G08_17 -1.0
    U_G08_17 MINDN_G08_17 1.0
    U_G08_17 LOGIC_G08_18 -1.0
    U_G08_17 RES_17 80.26365640488692
    V_G08_17 OBJ 2551.8643133425285
    V_G08_17 LOGIC_G08_17 -1.0
    V_G08_17 MINUP_G08_17 1.0
    W_G08_17 LOGIC_G08_17 1.0
    W_G08_17 MINDN_G08_17 1.0
    W_G08_17 MINDN_G08_18 1.0
    W_G08_17 MINDN_G08_19 1.0
    W_G08_17 MINDN_G08_20 1.0
    M10870 'MARKER' 'INTEND'
    P_G08_17 OBJ 19.856906794234494
    P_G08_17 PMIN_G08_17 1.0
    P_G08_17 PMAX_G08_17 1.0
    P_G08_17 RUP_G08_17 1.0
    P_G08_17 RDN_G08_17 -1.0
    P_G08_17 RUP_G08_18 -1.0
    P_G08_17 RDN_G08_18 1.0
    P_G08_17 DEM_17 1.0
    M10879 'MARKER' 'INTORG'
    U_G08_18 OBJ 107.29440400249096
    U_G08_18 PMIN_G08_18 -34.734222598277924
    U_G08_18 PMAX_G08_18 -80.26365640488692
    U_G08_18 LOGIC_G08_18 1.0
    U_G08_18 MINUP_G08_18 -1.0
    U_G08_18 MINDN_G08_18 1.0
    U_G08_18 LOGIC_G08_19 -1.0
    U_G08_18 RES_18 80.26365640488692
    V_G08_18 OBJ 2551.8643133425285
    V_G08_18 LOGIC_G08_18 -1.0
    V_G08_18 MINUP_G08_18 1.0
    W_G08_18 LOGIC_G08_18 1.0
    W_G08_18 MINDN_G08_18 1.0
    W_G08_18 MINDN_G08_19 1.0
    W_G08_18 MINDN_G08_20 1.0
    W_G08_18 MINDN_G08_21 1.0
    M10896 'MARKER' 'INTEND'
    P_G08_18 OBJ 19.856906794234494
    P_G08_18 PMIN_G08_18 1.0
    P_G08_18 PMAX_G08_18 1.0
    P_G08_18 RUP_G08_18 1.0
    P_G08_18 RDN_G08_18 -1.0
    P_G08_18 RUP_G08_19 -1.0
    P_G08_18 RDN_G08_19 1.0
    P_G08_18 DEM_18 1.0
    M10905 'MARKER' 'INTORG'
    U_G08_19 OBJ 107.29440400249096
    U_G08_19 PMIN_G08_19 -34.734222598277924
    U_G08_19 PMAX_G08_19 -80.26365640488692
    U_G08_19 LOGIC_G08_19 1.0
    U_G08_19 MINUP_G08_19 -1.0
    U_G08_19 MINDN_G08_19 1.0
    U_G08_19 LOGIC_G08_20 -1.0
    U_G08_19 RES_19 80.26365640488692
    V_G08_19 OBJ 2551.8643133425285
    V_G08_19 LOGIC_G08_19 -1.0
    V_G08_19 MINUP_G08_19 1.0
    W_G08_19 LOGIC_G08_19 1.0
    W_G08_19 MINDN_G08_19 1.0
    W_G08_19 MINDN_G08_20 1.0
    W_G08_19 MINDN_G08_21 1.0
    W_G08_19 MINDN_G08_22 1.0
    M10922 'MARKER' 'INTEND'
    P_G08_19 OBJ 19.856906794234494
    P_G08_19 PMIN_G08_19 1.0
    P_G08_19 PMAX_G08_19 1.0
    P_G08_19 RUP_G08_19 1.0
    P_G08_19 RDN_G08_19 -1.0
    P_G08_19 RUP_G08_20 -1.0
    P_G08_19 RDN_G08_20 1.0
    P_G08_19 DEM_19 1.0
    M10931 'MARKER' 'INTORG'
    U_G08_20 OBJ 107.29440400249096
    U_G08_20 PMIN_G08_20 -34.734222598277924
    U_G08_20 PMAX_G08_20 -80.26365640488692
    U_G08_20 LOGIC_G08_20 1.0
    U_G08_20 MINUP_G08_20 -1.0
    U_G08_20 MINDN_G08_20 1.0
    U_G08_20 LOGIC_G08_21 -1.0
    U_G08_20 RES_20 80.26365640488692
    V_G08_20 OBJ 2551.8643133425285
    V_G08_20 LOGIC_G08_20 -1.0
    V_G08_20 MINUP_G08_20 1.0
    W_G08_20 LOGIC_G08_20 1.0
    W_G08_20 MINDN_G08_20 1.0
    W_G08_20 MINDN_G08_21 1.0
    W_G08_20 MINDN_G08_22 1.0
    W_G08_20 MINDN_G08_23 1.0
    M10948 'MARKER' 'INTEND'
    P_G08_20 OBJ 19.856906794234494
    P_G08_20 PMIN_G08_20 1.0
    P_G08_20 PMAX_G08_20 1.0
    P_G08_20 RUP_G08_20 1.0
    P_G08_20 RDN_G08_20 -1.0
    P_G08_20 RUP_G08_21 -1.0
    P_G08_20 RDN_G08_21 1.0
    P_G08_20 DEM_20 1.0
    M10957 'MARKER' 'INTORG'
    U_G08_21 OBJ 107.29440400249096
    U_G08_21 PMIN_G08_21 -34.734222598277924
    U_G08_21 PMAX_G08_21 -80.26365640488692
    U_G08_21 LOGIC_G08_21 1.0
    U_G08_21 MINUP_G08_21 -1.0
    U_G08_21 MINDN_G08_21 1.0
    U_G08_21 LOGIC_G08_22 -1.0
    U_G08_21 RES_21 80.26365640488692
    V_G08_21 OBJ 2551.8643133425285
    V_G08_21 LOGIC_G08_21 -1.0
    V_G08_21 MINUP_G08_21 1.0
    W_G08_21 LOGIC_G08_21 1.0
    W_G08_21 MINDN_G08_21 1.0
    W_G08_21 MINDN_G08_22 1.0
    W_G08_21 MINDN_G08_23 1.0
    M10973 'MARKER' 'INTEND'
    P_G08_21 OBJ 19.856906794234494
    P_G08_21 PMIN_G08_21 1.0
    P_G08_21 PMAX_G08_21 1.0
    P_G08_21 RUP_G08_21 1.0
    P_G08_21 RDN_G08_21 -1.0
    P_G08_21 RUP_G08_22 -1.0
    P_G08_21 RDN_G08_22 1.0
    P_G08_21 DEM_21 1.0
    M10982 'MARKER' 'INTORG'
    U_G08_22 OBJ 107.29440400249096
    U_G08_22 PMIN_G08_22 -34.734222598277924
    U_G08_22 PMAX_G08_22 -80.26365640488692
    U_G08_22 LOGIC_G08_22 1.0
    U_G08_22 MINUP_G08_22 -1.0
    U_G08_22 MINDN_G08_22 1.0
    U_G08_22 LOGIC_G08_23 -1.0
    U_G08_22 RES_22 80.26365640488692
    V_G08_22 OBJ 2551.8643133425285
    V_G08_22 LOGIC_G08_22 -1.0
    V_G08_22 MINUP_G08_22 1.0
    W_G08_22 LOGIC_G08_22 1.0
    W_G08_22 MINDN_G08_22 1.0
    W_G08_22 MINDN_G08_23 1.0
    M10997 'MARKER' 'INTEND'
    P_G08_22 OBJ 19.856906794234494
    P_G08_22 PMIN_G08_22 1.0
    P_G08_22 PMAX_G08_22 1.0
    P_G08_22 RUP_G08_22 1.0
    P_G08_22 RDN_G08_22 -1.0
    P_G08_22 RUP_G08_23 -1.0
    P_G08_22 RDN_G08_23 1.0
    P_G08_22 DEM_22 1.0
    M11006 'MARKER' 'INTORG'
    U_G08_23 OBJ 107.29440400249096
    U_G08_23 PMIN_G08_23 -34.734222598277924
    U_G08_23 PMAX_G08_23 -80.26365640488692
    U_G08_23 LOGIC_G08_23 1.0
    U_G08_23 MINUP_G08_23 -1.0
    U_G08_23 MINDN_G08_23 1.0
    U_G08_23 RES_23 80.26365640488692
    V_G08_23 OBJ 2551.8643133425285
    V_G08_23 LOGIC_G08_23 -1.0
    V_G08_23 MINUP_G08_23 1.0
    W_G08_23 LOGIC_G08_23 1.0
    W_G08_23 MINDN_G08_23 1.0
    M11019 'MARKER' 'INTEND'
    P_G08_23 OBJ 19.856906794234494
    P_G08_23 PMIN_G08_23 1.0
    P_G08_23 PMAX_G08_23 1.0
    P_G08_23 RUP_G08_23 1.0
    P_G08_23 RDN_G08_23 -1.0
    P_G08_23 DEM_23 1.0
    M11026 'MARKER' 'INTORG'
    U_G09_0 OBJ 257.61430563302014
    U_G09_0 PMIN_G09_0 -28.74115905178244
    U_G09_0 PMAX_G09_0 -65.2205516247846
    U_G09_0 LOGIC_G09_0 1.0
    U_G09_0 MINUP_G09_0 -1.0
    U_G09_0 MINDN_G09_0 1.0
    U_G09_0 LOGIC_G09_1 -1.0
    U_G09_0 RES_0 65.2205516247846
    V_G09_0 OBJ 1302.0791218581592
    V_G09_0 LOGIC_G09_0 -1.0
    V_G09_0 MINUP_G09_0 1.0
    V_G09_0 MINUP_G09_1 1.0
    V_G09_0 MINUP_G09_2 1.0
    V_G09_0 MINUP_G09_3 1.0
    V_G09_0 MINUP_G09_4 1.0
    W_G09_0 LOGIC_G09_0 1.0
    W_G09_0 MINDN_G09_0 1.0
    W_G09_0 MINDN_G09_1 1.0
    M11045 'MARKER' 'INTEND'
    P_G09_0 OBJ 59.24344727893533
    P_G09_0 PMIN_G09_0 1.0
    P_G09_0 PMAX_G09_0 1.0
    P_G09_0 RUP_G09_1 -1.0
    P_G09_0 RDN_G09_1 1.0
    P_G09_0 DEM_0 1.0
    M11052 'MARKER' 'INTORG'
    U_G09_1 OBJ 257.61430563302014
    U_G09_1 PMIN_G09_1 -28.74115905178244
    U_G09_1 PMAX_G09_1 -65.2205516247846
    U_G09_1 LOGIC_G09_1 1.0
    U_G09_1 MINUP_G09_1 -1.0
    U_G09_1 MINDN_G09_1 1.0
    U_G09_1 LOGIC_G09_2 -1.0
    U_G09_1 RES_1 65.2205516247846
    V_G09_1 OBJ 1302.0791218581592
    V_G09_1 LOGIC_G09_1 -1.0
    V_G09_1 MINUP_G09_1 1.0
    V_G09_1 MINUP_G09_2 1.0
    V_G09_1 MINUP_G09_3 1.0
    V_G09_1 MINUP_G09_4 1.0
    V_G09_1 MINUP_G09_5 1.0
    W_G09_1 LOGIC_G09_1 1.0
    W_G09_1 MINDN_G09_1 1.0
    W_G09_1 MINDN_G09_2 1.0
    M11071 'MARKER' 'INTEND'
    P_G09_1 OBJ 59.24344727893533
    P_G09_1 PMIN_G09_1 1.0
    P_G09_1 PMAX_G09_1 1.0
    P_G09_1 RUP_G09_1 1.0
    P_G09_1 RDN_G09_1 -1.0
    P_G09_1 RUP_G09_2 -1.0
    P_G09_1 RDN_G09_2 1.0
    P_G09_1 DEM_1 1.0
    M11080 'MARKER' 'INTORG'
    U_G09_2 OBJ 257.61430563302014
    U_G09_2 PMIN_G09_2 -28.74115905178244
    U_G09_2 PMAX_G09_2 -65.2205516247846
    U_G09_2 LOGIC_G09_2 1.0
    U_G09_2 MINUP_G09_2 -1.0
    U_G09_2 MINDN_G09_2 1.0
    U_G09_2 LOGIC_G09_3 -1.0
    U_G09_2 RES_2 65.2205516247846
    V_G09_2 OBJ 1302.0791218581592
    V_G09_2 LOGIC_G09_2 -1.0
    V_G09_2 MINUP_G09_2 1.0
    V_G09_2 MINUP_G09_3 1.0
    V_G09_2 MINUP_G09_4 1.0
    V_G09_2 MINUP_G09_5 1.0
    V_G09_2 MINUP_G09_6 1.0
    W_G09_2 LOGIC_G09_2 1.0
    W_G09_2 MINDN_G09_2 1.0
    W_G09_2 MINDN_G09_3 1.0
    M11099 'MARKER' 'INTEND'
    P_G09_2 OBJ 59.24344727893533
    P_G09_2 PMIN_G09_2 1.0
    P_G09_2 PMAX_G09_2 1.0
    P_G09_2 RUP_G09_2 1.0
    P_G09_2 RDN_G09_2 -1.0
    P_G09_2 RUP_G09_3 -1.0
    P_G09_2 RDN_G09_3 1.0
    P_G09_2 DEM_2 1.0
    M11108 'MARKER' 'INTORG'
    U_G09_3 OBJ 257.61430563302014
    U_G09_3 PMIN_G09_3 -28.74115905178244
    U_G09_3 PMAX_G09_3 -65.2205516247846
    U_G09_3 LOGIC_G09_3 1.0
    U_G09_3 MINUP_G09_3 -1.0
    U_G09_3 MINDN_G09_3 1.0
    U_G09_3 LOGIC_G09_4 -1.0
    U_G09_3 RES_3 65.2205516247846
    V_G09_3 OBJ 1302.0791218581592
    V_G09_3 LOGIC_G09_3 -1.0
    V_G09_3 MINUP_G09_3 1.0
    V_G09_3 MINUP_G09_4 1.0
    V_G09_3 MINUP_G09_5 1.0
    V_G09_3 MINUP_G09_6 1.0
    V_G09_3 MINUP_G09_7 1.0
    W_G09_3 LOGIC_G09_3 1.0
    W_G09_3 MINDN_G09_3 1.0
    W_G09_3 MINDN_G09_4 1.0
    M11127 'MARKER' 'INTEND'
    P_G09_3 OBJ 59.24344727893533
    P_G09_3 PMIN_G09_3 1.0
    P_G09_3 PMAX_G09_3 1.0
    P_G09_3 RUP_G09_3 1.0
    P_G09_3 RDN_G09_3 -1.0
    P_G09_3 RUP_G09_4 -1.0
    P_G09_3 RDN_G09_4 1.0
    P_G09_3 DEM_3 1.0
    M11136 'MARKER' 'INTORG'
    U_G09_4 OBJ 257.61430563302014
    U_G09_4 PMIN_G09_4 -28.74115905178244
    U_G09_4 PMAX_G09_4 -65.2205516247846
    U_G09_4 LOGIC_G09_4 1.0
    U_G09_4 MINUP_G09_4 -1.0
    U_G09_4 MINDN_G09_4 1.0
    U_G09_4 LOGIC_G09_5 -1.0
    U_G09_4 RES_4 65.2205516247846
    V_G09_4 OBJ 1302.0791218581592
    V_G09_4 LOGIC_G09_4 -1.0
    V_G09_4 MINUP_G09_4 1.0
    V_G09_4 MINUP_G09_5 1.0
    V_G09_4 MINUP_G09_6 1.0
    V_G09_4 MINUP_G09_7 1.0
    V_G09_4 MINUP_G09_8 1.0
    W_G09_4 LOGIC_G09_4 1.0
    W_G09_4 MINDN_G09_4 1.0
    W_G09_4 MINDN_G09_5 1.0
    M11155 'MARKER' 'INTEND'
    P_G09_4 OBJ 59.24344727893533
    P_G09_4 PMIN_G09_4 1.0
    P_G09_4 PMAX_G09_4 1.0
    P_G09_4 RUP_G09_4 1.0
    P_G09_4 RDN_G09_4 -1.0
    P_G09_4 RUP_G09_5 -1.0
    P_G09_4 RDN_G09_5 1.0
    P_G09_4 DEM_4 1.0
    M11164 'MARKER' 'INTORG'
    U_G09_5 OBJ 257.61430563302014
    U_G09_5 PMIN_G09_5 -28.74115905178244
    U_G09_5 PMAX_G09_5 -65.2205516247846
    U_G09_5 LOGIC_G09_5 1.0
    U_G09_5 MINUP_G09_5 -1.0
    U_G09_5 MINDN_G09_5 1.0
    U_G09_5 LOGIC_G09_6 -1.0
    U_G09_5 RES_5 65.2205516247846
    V_G09_5 OBJ 1302.0791218581592
    V_G09_5 LOGIC_G09_5 -1.0
    V_G09_5 MINUP_G09_5 1.0
    V_G09_5 MINUP_G09_6 1.0
    V_G09_5 MINUP_G09_7 1.0
    V_G09_5 MINUP_G09_8 1.0
    V_G09_5 MINUP_G09_9 1.0
    W_G09_5 LOGIC_G09_5 1.0
    W_G09_5 MINDN_G09_5 1.0
    W_G09_5 MINDN_G09_6 1.0
    M11183 'MARKER' 'INTEND'
    P_G09_5 OBJ 59.24344727893533
    P_G09_5 PMIN_G09_5 1.0
    P_G09_5 PMAX_G09_5 1.0
    P_G09_5 RUP_G09_5 1.0
    P_G09_5 RDN_G09_5 -1.0
    P_G09_5 RUP_G09_6 -1.0
    P_G09_5 RDN_G09_6 1.0
    P_G09_5 DEM_5 1.0
    M11192 'MARKER' 'INTORG'
    U_G09_6 OBJ 257.61430563302014
    U_G09_6 PMIN_G09_6 -28.74115905178244
    U_G09_6 PMAX_G09_6 -65.2205516247846
    U_G09_6 LOGIC_G09_6 1.0
    U_G09_6 MINUP_G09_6 -1.0
    U_G09_6 MINDN_G09_6 1.0
    U_G09_6 LOGIC_G09_7 -1.0
    U_G09_6 RES_6 65.2205516247846
    V_G09_6 OBJ 1302.0791218581592
    V_G09_6 LOGIC_G09_6 -1.0
    V_G09_6 MINUP_G09_6 1.0
    V_G09_6 MINUP_G09_7 1.0
    V_G09_6 MINUP_G09_8 1.0
    V_G09_6 MINUP_G09_9 1.0
    V_G09_6 MINUP_G09_10 1.0
    W_G09_6 LOGIC_G09_6 1.0
    W_G09_6 MINDN_G09_6 1.0
    W_G09_6 MINDN_G09_7 1.0
    M11211 'MARKER' 'INTEND'
    P_G09_6 OBJ 59.24344727893533
    P_G09_6 PMIN_G09_6 1.0
    P_G09_6 PMAX_G09_6 1.0
    P_G09_6 RUP_G09_6 1.0
    P_G09_6 RDN_G09_6 -1.0
    P_G09_6 RUP_G09_7 -1.0
    P_G09_6 RDN_G09_7 1.0
    P_G09_6 DEM_6 1.0
    M11220 'MARKER' 'INTORG'
    U_G09_7 OBJ 257.61430563302014
    U_G09_7 PMIN_G09_7 -28.74115905178244
    U_G09_7 PMAX_G09_7 -65.2205516247846
    U_G09_7 LOGIC_G09_7 1.0
    U_G09_7 MINUP_G09_7 -1.0
    U_G09_7 MINDN_G09_7 1.0
    U_G09_7 LOGIC_G09_8 -1.0
    U_G09_7 RES_7 65.2205516247846
    V_G09_7 OBJ 1302.0791218581592
    V_G09_7 LOGIC_G09_7 -1.0
    V_G09_7 MINUP_G09_7 1.0
    V_G09_7 MINUP_G09_8 1.0
    V_G09_7 MINUP_G09_9 1.0
    V_G09_7 MINUP_G09_10 1.0
    V_G09_7 MINUP_G09_11 1.0
    W_G09_7 LOGIC_G09_7 1.0
    W_G09_7 MINDN_G09_7 1.0
    W_G09_7 MINDN_G09_8 1.0
    M11239 'MARKER' 'INTEND'
    P_G09_7 OBJ 59.24344727893533
    P_G09_7 PMIN_G09_7 1.0
    P_G09_7 PMAX_G09_7 1.0
    P_G09_7 RUP_G09_7 1.0
    P_G09_7 RDN_G09_7 -1.0
    P_G09_7 RUP_G09_8 -1.0
    P_G09_7 RDN_G09_8 1.0
    P_G09_7 DEM_7 1.0
    M11248 'MARKER' 'INTORG'
    U_G09_8 OBJ 257.61430563302014
    U_G09_8 PMIN_G09_8 -28.74115905178244
    U_G09_8 PMAX_G09_8 -65.2205516247846
    U_G09_8 LOGIC_G09_8 1.0
    U_G09_8 MINUP_G09_8 -1.0
    U_G09_8 MINDN_G09_8 1.0
    U_G09_8 LOGIC_G09_9 -1.0
    U_G09_8 RES_8 65.2205516247846
    V_G09_8 OBJ 1302.0791218581592
    V_G09_8 LOGIC_G09_8 -1.0
    V_G09_8 MINUP_G09_8 1.0
    V_G09_8 MINUP_G09_9 1.0
    V_G09_8 MINUP_G09_10 1.0
    V_G09_8 MINUP_G09_11 1.0
    V_G09_8 MINUP_G09_12 1.0
    W_G09_8 LOGIC_G09_8 1.0
    W_G09_8 MINDN_G09_8 1.0
    W_G09_8 MINDN_G09_9 1.0
    M11267 'MARKER' 'INTEND'
    P_G09_8 OBJ 59.24344727893533
    P_G09_8 PMIN_G09_8 1.0
    P_G09_8 PMAX_G09_8 1.0
    P_G09_8 RUP_G09_8 1.0
    P_G09_8 RDN_G09_8 -1.0
    P_G09_8 RUP_G09_9 -1.0
    P_G09_8 RDN_G09_9 1.0
    P_G09_8 DEM_8 1.0
    M11276 'MARKER' 'INTORG'
    U_G09_9 OBJ 257.61430563302014
    U_G09_9 PMIN_G09_9 -28.74115905178244
    U_G09_9 PMAX_G09_9 -65.2205516247846
    U_G09_9 LOGIC_G09_9 1.0
    U_G09_9 MINUP_G09_9 -1.0
    U_G09_9 MINDN_G09_9 1.0
    U_G09_9 LOGIC_G09_10 -1.0
    U_G09_9 RES_9 65.2205516247846
    V_G09_9 OBJ 1302.0791218581592
    V_G09_9 LOGIC_G09_9 -1.0
    V_G09_9 MINUP_G09_9 1.0
    V_G09_9 MINUP_G09_10 1.0
    V_G09_9 MINUP_G09_11 1.0
    V_G09_9 MINUP_G09_12 1.0
    V_G09_9 MINUP_G09_13 1.0
    W_G09_9 LOGIC_G09_9 1.0
    W_G09_9 MINDN_G09_9 1.0
    W_G09_9 MINDN_G09_10 1.0
    M11295 'MARKER' 'INTEND'
    P_G09_9 OBJ 59.24344727893533
    P_G09_9 PMIN_G09_9 1.0
    P_G09_9 PMAX_G09_9 1.0
    P_G09_9 RUP_G09_9 1.0
    P_G09_9 RDN_G09_9 -1.0
    P_G09_9 RUP_G09_10 -1.0
    P_G09_9 RDN_G09_10 1.0
    P_G09_9 DEM_9 1.0
    M11304 'MARKER' 'INTORG'
    U_G09_10 OBJ 257.61430563302014
    U_G09_10 PMIN_G09_10 -28.74115905178244
    U_G09_10 PMAX_G09_10 -65.2205516247846
    U_G09_10 LOGIC_G09_10 1.0
    U_G09_10 MINUP_G09_10 -1.0
    U_G09_10 MINDN_G09_10 1.0
    U_G09_10 LOGIC_G09_11 -1.0
    U_G09_10 RES_10 65.2205516247846
    V_G09_10 OBJ 1302.0791218581592
    V_G09_10 LOGIC_G09_10 -1.0
    V_G09_10 MINUP_G09_10 1.0
    V_G09_10 MINUP_G09_11 1.0
    V_G09_10 MINUP_G09_12 1.0
    V_G09_10 MINUP_G09_13 1.0
    V_G09_10 MINUP_G09_14 1.0
    W_G09_10 LOGIC_G09_10 1.0
    W_G09_10 MINDN_G09_10 1.0
    W_G09_10 MINDN_G09_11 1.0
    M11323 'MARKER' 'INTEND'
    P_G09_10 OBJ 59.24344727893533
    P_G09_10 PMIN_G09_10 1.0
    P_G09_10 PMAX_G09_10 1.0
    P_G09_10 RUP_G09_10 1.0
    P_G09_10 RDN_G09_10 -1.0
    P_G09_10 RUP_G09_11 -1.0
    P_G09_10 RDN_G09_11 1.0
    P_G09_10 DEM_10 1.0
    M11332 'MARKER' 'INTORG'
    U_G09_11 OBJ 257.61430563302014
    U_G09_11 PMIN_G09_11 -28.74115905178244
    U_G09_11 PMAX_G09_11 -65.2205516247846
    U_G09_11 LOGIC_G09_11 1.0
    U_G09_11 MINUP_G09_11 -1.0
    U_G09_11 MINDN_G09_11 1.0
    U_G09_11 LOGIC_G09_12 -1.0
    U_G09_11 RES_11 65.2205516247846
    V_G09_11 OBJ 1302.0791218581592
    V_G09_11 LOGIC_G09_11 -1.0
    V_G09_11 MINUP_G09_11 1.0
    V_G09_11 MINUP_G09_12 1.0
    V_G09_11 MINUP_G09_13 1.0
    V_G09_11 MINUP_G09_14 1.0
    V_G09_11 MINUP_G09_15 1.0
    W_G09_11 LOGIC_G09_11 1.0
    W_G09_11 MINDN_G09_11 1.0
    W_G09_11 MINDN_G09_12 1.0
    M11351 'MARKER' 'INTEND'
    P_G09_11 OBJ 59.24344727893533
    P_G09_11 PMIN_G09_11 1.0
    P_G09_11 PMAX_G09_11 1.0
    P_G09_11 RUP_G09_11 1.0
    P_G09_11 RDN_G09_11 -1.0
    P_G09_11 RUP_G09_12 -1.0
    P_G09_11 RDN_G09_12 1.0
    P_G09_11 DEM_11 1.0
    M11360 'MARKER' 'INTORG'
    U_G09_12 OBJ 257.61430563302014
    U_G09_12 PMIN_G09_12 -28.74115905178244
    U_G09_12 PMAX_G09_12 -65.2205516247846
    U_G09_12 LOGIC_G09_12 1.0
    U_G09_12 MINUP_G09_12 -1.0
    U_G09_12 MINDN_G09_12 1.0
    U_G09_12 LOGIC_G09_13 -1.0
    U_G09_12 RES_12 65.2205516247846
    V_G09_12 OBJ 1302.0791218581592
    V_G09_12 LOGIC_G09_12 -1.0
    V_G09_12 MINUP_G09_12 1.0
    V_G09_12 MINUP_G09_13 1.0
    V_G09_12 MINUP_G09_14 1.0
    V_G09_12 MINUP_G09_15 1.0
    V_G09_12 MINUP_G09_16 1.0
    W_G09_12 LOGIC_G09_12 1.0
    W_G09_12 MINDN_G09_12 1.0
    W_G09_12 MINDN_G09_13 1.0
    M11379 'MARKER' 'INTEND'
    P_G09_12 OBJ 59.24344727893533
    P_G09_12 PMIN_G09_12 1.0
    P_G09_12 PMAX_G09_12 1.0
    P_G09_12 RUP_G09_12 1.0
    P_G09_12 RDN_G09_12 -1.0
    P_G09_12 RUP_G09_13 -1.0
    P_G09_12 RDN_G09_13 1.0
    P_G09_12 DEM_12 1.0
    M11388 'MARKER' 'INTORG'
    U_G09_13 OBJ 257.61430563302014
    U_G09_13 PMIN_G09_13 -28.74115905178244
    U_G09_13 PMAX_G09_13 -65.2205516247846
    U_G09_13 LOGIC_G09_13 1.0
    U_G09_13 MINUP_G09_13 -1.0
    U_G09_13 MINDN_G09_13 1.0
    U_G09_13 LOGIC_G09_14 -1.0
    U_G09_13 RES_13 65.2205516247846
    V_G09_13 OBJ 1302.0791218581592
    V_G09_13 LOGIC_G09_13 -1.0
    V_G09_13 MINUP_G09_13 1.0
    V_G09_13 MINUP_G09_14 1.0
    V_G09_13 MINUP_G09_15 1.0
    V_G09_13 MINUP_G09_16 1.0
    V_G09_13 MINUP_G09_17 1.0
    W_G09_13 LOGIC_G09_13 1.0
    W_G09_13 MINDN_G09_13 1.0
    W_G09_13 MINDN_G09_14 1.0
    M11407 'MARKER' 'INTEND'
    P_G09_13 OBJ 59.24344727893533
    P_G09_13 PMIN_G09_13 1.0
    P_G09_13 PMAX_G09_13 1.0
    P_G09_13 RUP_G09_13 1.0
    P_G09_13 RDN_G09_13 -1.0
    P_G09_13 RUP_G09_14 -1.0
    P_G09_13 RDN_G09_14 1.0
    P_G09_13 DEM_13 1.0
    M11416 'MARKER' 'INTORG'
    U_G09_14 OBJ 257.61430563302014
    U_G09_14 PMIN_G09_14 -28.74115905178244
    U_G09_14 PMAX_G09_14 -65.2205516247846
    U_G09_14 LOGIC_G09_14 1.0
    U_G09_14 MINUP_G09_14 -1.0
    U_G09_14 MINDN_G09_14 1.0
    U_G09_14 LOGIC_G09_15 -1.0
    U_G09_14 RES_14 65.2205516247846
    V_G09_14 OBJ 1302.0791218581592
    V_G09_14 LOGIC_G09_14 -1.0
    V_G09_14 MINUP_G09_14 1.0
    V_G09_14 MINUP_G09_15 1.0
    V_G09_14 MINUP_G09_16 1.0
    V_G09_14 MINUP_G09_17 1.0
    V_G09_14 MINUP_G09_18 1.0
    W_G09_14 LOGIC_G09_14 1.0
    W_G09_14 MINDN_G09_14 1.0
    W_G09_14 MINDN_G09_15 1.0
    M11435 'MARKER' 'INTEND'
    P_G09_14 OBJ 59.24344727893533
    P_G09_14 PMIN_G09_14 1.0
    P_G09_14 PMAX_G09_14 1.0
    P_G09_14 RUP_G09_14 1.0
    P_G09_14 RDN_G09_14 -1.0
    P_G09_14 RUP_G09_15 -1.0
    P_G09_14 RDN_G09_15 1.0
    P_G09_14 DEM_14 1.0
    M11444 'MARKER' 'INTORG'
    U_G09_15 OBJ 257.61430563302014
    U_G09_15 PMIN_G09_15 -28.74115905178244
    U_G09_15 PMAX_G09_15 -65.2205516247846
    U_G09_15 LOGIC_G09_15 1.0
    U_G09_15 MINUP_G09_15 -1.0
    U_G09_15 MINDN_G09_15 1.0
    U_G09_15 LOGIC_G09_16 -1.0
    U_G09_15 RES_15 65.2205516247846
    V_G09_15 OBJ 1302.0791218581592
    V_G09_15 LOGIC_G09_15 -1.0
    V_G09_15 MINUP_G09_15 1.0
    V_G09_15 MINUP_G09_16 1.0
    V_G09_15 MINUP_G09_17 1.0
    V_G09_15 MINUP_G09_18 1.0
    V_G09_15 MINUP_G09_19 1.0
    W_G09_15 LOGIC_G09_15 1.0
    W_G09_15 MINDN_G09_15 1.0
    W_G09_15 MINDN_G09_16 1.0
    M11463 'MARKER' 'INTEND'
    P_G09_15 OBJ 59.24344727893533
    P_G09_15 PMIN_G09_15 1.0
    P_G09_15 PMAX_G09_15 1.0
    P_G09_15 RUP_G09_15 1.0
    P_G09_15 RDN_G09_15 -1.0
    P_G09_15 RUP_G09_16 -1.0
    P_G09_15 RDN_G09_16 1.0
    P_G09_15 DEM_15 1.0
    M11472 'MARKER' 'INTORG'
    U_G09_16 OBJ 257.61430563302014
    U_G09_16 PMIN_G09_16 -28.74115905178244
    U_G09_16 PMAX_G09_16 -65.2205516247846
    U_G09_16 LOGIC_G09_16 1.0
    U_G09_16 MINUP_G09_16 -1.0
    U_G09_16 MINDN_G09_16 1.0
    U_G09_16 LOGIC_G09_17 -1.0
    U_G09_16 RES_16 65.2205516247846
    V_G09_16 OBJ 1302.0791218581592
    V_G09_16 LOGIC_G09_16 -1.0
    V_G09_16 MINUP_G09_16 1.0
    V_G09_16 MINUP_G09_17 1.0
    V_G09_16 MINUP_G09_18 1.0
    V_G09_16 MINUP_G09_19 1.0
    V_G09_16 MINUP_G09_20 1.0
    W_G09_16 LOGIC_G09_16 1.0
    W_G09_16 MINDN_G09_16 1.0
    W_G09_16 MINDN_G09_17 1.0
    M11491 'MARKER' 'INTEND'
    P_G09_16 OBJ 59.24344727893533
    P_G09_16 PMIN_G09_16 1.0
    P_G09_16 PMAX_G09_16 1.0
    P_G09_16 RUP_G09_16 1.0
    P_G09_16 RDN_G09_16 -1.0
    P_G09_16 RUP_G09_17 -1.0
    P_G09_16 RDN_G09_17 1.0
    P_G09_16 DEM_16 1.0
    M11500 'MARKER' 'INTORG'
    U_G09_17 OBJ 257.61430563302014
    U_G09_17 PMIN_G09_17 -28.74115905178244
    U_G09_17 PMAX_G09_17 -65.2205516247846
    U_G09_17 LOGIC_G09_17 1.0
    U_G09_17 MINUP_G09_17 -1.0
    U_G09_17 MINDN_G09_17 1.0
    U_G09_17 LOGIC_G09_18 -1.0
    U_G09_17 RES_17 65.2205516247846
    V_G09_17 OBJ 1302.0791218581592
    V_G09_17 LOGIC_G09_17 -1.0
    V_G09_17 MINUP_G09_17 1.0
    V_G09_17 MINUP_G09_18 1.0
    V_G09_17 MINUP_G09_19 1.0
    V_G09_17 MINUP_G09_20 1.0
    V_G09_17 MINUP_G09_21 1.0
    W_G09_17 LOGIC_G09_17 1.0
    W_G09_17 MINDN_G09_17 1.0
    W_G09_17 MINDN_G09_18 1.0
    M11519 'MARKER' 'INTEND'
    P_G09_17 OBJ 59.24344727893533
    P_G09_17 PMIN_G09_17 1.0
    P_G09_17 PMAX_G09_17 1.0
    P_G09_17 RUP_G09_17 1.0
    P_G09_17 RDN_G09_17 -1.0
    P_G09_17 RUP_G09_18 -1.0
    P_G09_17 RDN_G09_18 1.0
    P_G09_17 DEM_17 1.0
    M11528 'MARKER' 'INTORG'
    U_G09_18 OBJ 257.61430563302014
    U_G09_18 PMIN_G09_18 -28.74115905178244
    U_G09_18 PMAX_G09_18 -65.2205516247846
    U_G09_18 LOGIC_G09_18 1.0
    U_G09_18 MINUP_G09_18 -1.0
    U_G09_18 MINDN_G09_18 1.0
    U_G09_18 LOGIC_G09_19 -1.0
    U_G09_18 RES_18 65.2205516247846
    V_G09_18 OBJ 1302.0791218581592
    V_G09_18 LOGIC_G09_18 -1.0
    V_G09_18 MINUP_G09_18 1.0
    V_G09_18 MINUP_G09_19 1.0
    V_G09_18 MINUP_G09_20 1.0
    V_G09_18 MINUP_G09_21 1.0
    V_G09_18 MINUP_G09_22 1.0
    W_G09_18 LOGIC_G09_18 1.0
    W_G09_18 MINDN_G09_18 1.0
    W_G09_18 MINDN_G09_19 1.0
    M11547 'MARKER' 'INTEND'
    P_G09_18 OBJ 59.24344727893533
    P_G09_18 PMIN_G09_18 1.0
    P_G09_18 PMAX_G09_18 1.0
    P_G09_18 RUP_G09_18 1.0
    P_G09_18 RDN_G09_18 -1.0
    P_G09_18 RUP_G09_19 -1.0
    P_G09_18 RDN_G09_19 1.0
    P_G09_18 DEM_18 1.0
    M11556 'MARKER' 'INTORG'
    U_G09_19 OBJ 257.61430563302014
    U_G09_19 PMIN_G09_19 -28.74115905178244
    U_G09_19 PMAX_G09_19 -65.2205516247846
    U_G09_19 LOGIC_G09_19 1.0
    U_G09_19 MINUP_G09_19 -1.0
    U_G09_19 MINDN_G09_19 1.0
    U_G09_19 LOGIC_G09_20 -1.0
    U_G09_19 RES_19 65.2205516247846
    V_G09_19 OBJ 1302.0791218581592
    V_G09_19 LOGIC_G09_19 -1.0
    V_G09_19 MINUP_G09_19 1.0
    V_G09_19 MINUP_G09_20 1.0
    V_G09_19 MINUP_G09_21 1.0
    V_G09_19 MINUP_G09_22 1.0
    V_G09_19 MINUP_G09_23 1.0
    W_G09_19 LOGIC_G09_19 1.0
    W_G09_19 MINDN_G09_19 1.0
    W_G09_19 MINDN_G09_20 1.0
    M11575 'MARKER' 'INTEND'
    P_G09_19 OBJ 59.24344727893533
    P_G09_19 PMIN_G09_19 1.0
    P_G09_19 PMAX_G09_19 1.0
    P_G09_19 RUP_G09_19 1.0
    P_G09_19 RDN_G09_19 -1.0
    P_G09_19 RUP_G09_20 -1.0
    P_G09_19 RDN_G09_20 1.0
    P_G09_19 DEM_19 1.0
    M11584 'MARKER' 'INTORG'
    U_G09_20 OBJ 257.61430563302014
    U_G09_20 PMIN_G09_20 -28.74115905178244
    U_G09_20 PMAX_G09_20 -65.2205516247846
    U_G09_20 LOGIC_G09_20 1.0
    U_G09_20 MINUP_G09_20 -1.0
    U_G09_20 MINDN_G09_20 1.0
    U_G09_20 LOGIC_G09_21 -1.0
    U_G09_20 RES_20 65.2205516247846
    V_G09_20 OBJ 1302.0791218581592
    V_G09_20 LOGIC_G09_20 -1.0
    V_G09_20 MINUP_G09_20 1.0
    V_G09_20 MINUP_G09_21 1.0
    V_G09_20 MINUP_G09_22 1.0
    V_G09_20 MINUP_G09_23 1.0
    W_G09_20 LOGIC_G09_20 1.0
    W_G09_20 MINDN_G09_20 1.0
    W_G09_20 MINDN_G09_21 1.0
    M11602 'MARKER' 'INTEND'
    P_G09_20 OBJ 59.24344727893533
    P_G09_20 PMIN_G09_20 1.0
    P_G09_20 PMAX_G09_20 1.0
    P_G09_20 RUP_G09_20 1.0
    P_G09_20 RDN_G09_20 -1.0
    P_G09_20 RUP_G09_21 -1.0
    P_G09_20 RDN_G09_21 1.0
    P_G09_20 DEM_20 1.0
    M11611 'MARKER' 'INTORG'
    U_G09_21 OBJ 257.61430563302014
    U_G09_21 PMIN_G09_21 -28.74115905178244
    U_G09_21 PMAX_G09_21 -65.2205516247846
    U_G09_21 LOGIC_G09_21 1.0
    U_G09_21 MINUP_G09_21 -1.0
    U_G09_21 MINDN_G09_21 1.0
    U_G09_21 LOGIC_G09_22 -1.0
    U_G09_21 RES_21 65.2205516247846
    V_G09_21 OBJ 1302.0791218581592
    V_G09_21 LOGIC_G09_21 -1.0
    V_G09_21 MINUP_G09_21 1.0
    V_G09_21 MINUP_G09_22 1.0
    V_G09_21 MINUP_G09_23 1.0
    W_G09_21 LOGIC_G09_21 1.0
    W_G09_21 MINDN_G09_21 1.0
    W_G09_21 MINDN_G09_22 1.0
    M11628 'MARKER' 'INTEND'
    P_G09_21 OBJ 59.24344727893533
    P_G09_21 PMIN_G09_21 1.0
    P_G09_21 PMAX_G09_21 1.0
    P_G09_21 RUP_G09_21 1.0
    P_G09_21 RDN_G09_21 -1.0
    P_G09_21 RUP_G09_22 -1.0
    P_G09_21 RDN_G09_22 1.0
    P_G09_21 DEM_21 1.0
    M11637 'MARKER' 'INTORG'
    U_G09_22 OBJ 257.61430563302014
    U_G09_22 PMIN_G09_22 -28.74115905178244
    U_G09_22 PMAX_G09_22 -65.2205516247846
    U_G09_22 LOGIC_G09_22 1.0
    U_G09_22 MINUP_G09_22 -1.0
    U_G09_22 MINDN_G09_22 1.0
    U_G09_22 LOGIC_G09_23 -1.0
    U_G09_22 RES_22 65.2205516247846
    V_G09_22 OBJ 1302.0791218581592
    V_G09_22 LOGIC_G09_22 -1.0
    V_G09_22 MINUP_G09_22 1.0
    V_G09_22 MINUP_G09_23 1.0
    W_G09_22 LOGIC_G09_22 1.0
    W_G09_22 MINDN_G09_22 1.0
    W_G09_22 MINDN_G09_23 1.0
    M11653 'MARKER' 'INTEND'
    P_G09_22 OBJ 59.24344727893533
    P_G09_22 PMIN_G09_22 1.0
    P_G09_22 PMAX_G09_22 1.0
    P_G09_22 RUP_G09_22 1.0
    P_G09_22 RDN_G09_22 -1.0
    P_G09_22 RUP_G09_23 -1.0
    P_G09_22 RDN_G09_23 1.0
    P_G09_22 DEM_22 1.0
    M11662 'MARKER' 'INTORG'
    U_G09_23 OBJ 257.61430563302014
    U_G09_23 PMIN_G09_23 -28.74115905178244
    U_G09_23 PMAX_G09_23 -65.2205516247846
    U_G09_23 LOGIC_G09_23 1.0
    U_G09_23 MINUP_G09_23 -1.0
    U_G09_23 MINDN_G09_23 1.0
    U_G09_23 RES_23 65.2205516247846
    V_G09_23 OBJ 1302.0791218581592
    V_G09_23 LOGIC_G09_23 -1.0
    V_G09_23 MINUP_G09_23 1.0
    W_G09_23 LOGIC_G09_23 1.0
    W_G09_23 MINDN_G09_23 1.0
    M11675 'MARKER' 'INTEND'
    P_G09_23 OBJ 59.24344727893533
    P_G09_23 PMIN_G09_23 1.0
    P_G09_23 PMAX_G09_23 1.0
    P_G09_23 RUP_G09_23 1.0
    P_G09_23 RDN_G09_23 -1.0
    P_G09_23 DEM_23 1.0
    M11682 'MARKER' 'INTORG'
    U_G10_0 OBJ 351.10142262219233
    U_G10_0 PMIN_G10_0 -178.79317254160074
    U_G10_0 PMAX_G10_0 -393.72682313848696
    U_G10_0 LOGIC_G10_0 1.0
    U_G10_0 MINUP_G10_0 -1.0
    U_G10_0 MINDN_G10_0 1.0
    U_G10_0 LOGIC_G10_1 -1.0
    U_G10_0 RES_0 393.72682313848696
    V_G10_0 OBJ 850.0931585764408
    V_G10_0 LOGIC_G10_0 -1.0
    V_G10_0 MINUP_G10_0 1.0
    V_G10_0 MINUP_G10_1 1.0
    V_G10_0 MINUP_G10_2 1.0
    V_G10_0 MINUP_G10_3 1.0
    V_G10_0 MINUP_G10_4 1.0
    W_G10_0 LOGIC_G10_0 1.0
    W_G10_0 MINDN_G10_0 1.0
    W_G10_0 MINDN_G10_1 1.0
    W_G10_0 MINDN_G10_2 1.0
    M11702 'MARKER' 'INTEND'
    P_G10_0 OBJ 39.28278518024004
    P_G10_0 PMIN_G10_0 1.0
    P_G10_0 PMAX_G10_0 1.0
    P_G10_0 RUP_G10_1 -1.0
    P_G10_0 RDN_G10_1 1.0
    P_G10_0 DEM_0 1.0
    M11709 'MARKER' 'INTORG'
    U_G10_1 OBJ 351.10142262219233
    U_G10_1 PMIN_G10_1 -178.79317254160074
    U_G10_1 PMAX_G10_1 -393.72682313848696
    U_G10_1 LOGIC_G10_1 1.0
    U_G10_1 MINUP_G10_1 -1.0
    U_G10_1 MINDN_G10_1 1.0
    U_G10_1 LOGIC_G10_2 -1.0
    U_G10_1 RES_1 393.72682313848696
    V_G10_1 OBJ 850.0931585764408
    V_G10_1 LOGIC_G10_1 -1.0
    V_G10_1 MINUP_G10_1 1.0
    V_G10_1 MINUP_G10_2 1.0
    V_G10_1 MINUP_G10_3 1.0
    V_G10_1 MINUP_G10_4 1.0
    V_G10_1 MINUP_G10_5 1.0
    W_G10_1 LOGIC_G10_1 1.0
    W_G10_1 MINDN_G10_1 1.0
    W_G10_1 MINDN_G10_2 1.0
    W_G10_1 MINDN_G10_3 1.0
    M11729 'MARKER' 'INTEND'
    P_G10_1 OBJ 39.28278518024004
    P_G10_1 PMIN_G10_1 1.0
    P_G10_1 PMAX_G10_1 1.0
    P_G10_1 RUP_G10_1 1.0
    P_G10_1 RDN_G10_1 -1.0
    P_G10_1 RUP_G10_2 -1.0
    P_G10_1 RDN_G10_2 1.0
    P_G10_1 DEM_1 1.0
    M11738 'MARKER' 'INTORG'
    U_G10_2 OBJ 351.10142262219233
    U_G10_2 PMIN_G10_2 -178.79317254160074
    U_G10_2 PMAX_G10_2 -393.72682313848696
    U_G10_2 LOGIC_G10_2 1.0
    U_G10_2 MINUP_G10_2 -1.0
    U_G10_2 MINDN_G10_2 1.0
    U_G10_2 LOGIC_G10_3 -1.0
    U_G10_2 RES_2 393.72682313848696
    V_G10_2 OBJ 850.0931585764408
    V_G10_2 LOGIC_G10_2 -1.0
    V_G10_2 MINUP_G10_2 1.0
    V_G10_2 MINUP_G10_3 1.0
    V_G10_2 MINUP_G10_4 1.0
    V_G10_2 MINUP_G10_5 1.0
    V_G10_2 MINUP_G10_6 1.0
    W_G10_2 LOGIC_G10_2 1.0
    W_G10_2 MINDN_G10_2 1.0
    W_G10_2 MINDN_G10_3 1.0
    W_G10_2 MINDN_G10_4 1.0
    M11758 'MARKER' 'INTEND'
    P_G10_2 OBJ 39.28278518024004
    P_G10_2 PMIN_G10_2 1.0
    P_G10_2 PMAX_G10_2 1.0
    P_G10_2 RUP_G10_2 1.0
    P_G10_2 RDN_G10_2 -1.0
    P_G10_2 RUP_G10_3 -1.0
    P_G10_2 RDN_G10_3 1.0
    P_G10_2 DEM_2 1.0
    M11767 'MARKER' 'INTORG'
    U_G10_3 OBJ 351.10142262219233
    U_G10_3 PMIN_G10_3 -178.79317254160074
    U_G10_3 PMAX_G10_3 -393.72682313848696
    U_G10_3 LOGIC_G10_3 1.0
    U_G10_3 MINUP_G10_3 -1.0
    U_G10_3 MINDN_G10_3 1.0
    U_G10_3 LOGIC_G10_4 -1.0
    U_G10_3 RES_3 393.72682313848696
    V_G10_3 OBJ 850.0931585764408
    V_G10_3 LOGIC_G10_3 -1.0
    V_G10_3 MINUP_G10_3 1.0
    V_G10_3 MINUP_G10_4 1.0
    V_G10_3 MINUP_G10_5 1.0
    V_G10_3 MINUP_G10_6 1.0
    V_G10_3 MINUP_G10_7 1.0
    W_G10_3 LOGIC_G10_3 1.0
    W_G10_3 MINDN_G10_3 1.0
    W_G10_3 MINDN_G10_4 1.0
    W_G10_3 MINDN_G10_5 1.0
    M11787 'MARKER' 'INTEND'
    P_G10_3 OBJ 39.28278518024004
    P_G10_3 PMIN_G10_3 1.0
    P_G10_3 PMAX_G10_3 1.0
    P_G10_3 RUP_G10_3 1.0
    P_G10_3 RDN_G10_3 -1.0
    P_G10_3 RUP_G10_4 -1.0
    P_G10_3 RDN_G10_4 1.0
    P_G10_3 DEM_3 1.0
    M11796 'MARKER' 'INTORG'
    U_G10_4 OBJ 351.10142262219233
    U_G10_4 PMIN_G10_4 -178.79317254160074
    U_G10_4 PMAX_G10_4 -393.72682313848696
    U_G10_4 LOGIC_G10_4 1.0
    U_G10_4 MINUP_G10_4 -1.0
    U_G10_4 MINDN_G10_4 1.0
    U_G10_4 LOGIC_G10_5 -1.0
    U_G10_4 RES_4 393.72682313848696
    V_G10_4 OBJ 850.0931585764408
    V_G10_4 LOGIC_G10_4 -1.0
    V_G10_4 MINUP_G10_4 1.0
    V_G10_4 MINUP_G10_5 1.0
    V_G10_4 MINUP_G10_6 1.0
    V_G10_4 MINUP_G10_7 1.0
    V_G10_4 MINUP_G10_8 1.0
    W_G10_4 LOGIC_G10_4 1.0
    W_G10_4 MINDN_G10_4 1.0
    W_G10_4 MINDN_G10_5 1.0
    W_G10_4 MINDN_G10_6 1.0
    M11816 'MARKER' 'INTEND'
    P_G10_4 OBJ 39.28278518024004
    P_G10_4 PMIN_G10_4 1.0
    P_G10_4 PMAX_G10_4 1.0
    P_G10_4 RUP_G10_4 1.0
    P_G10_4 RDN_G10_4 -1.0
    P_G10_4 RUP_G10_5 -1.0
    P_G10_4 RDN_G10_5 1.0
    P_G10_4 DEM_4 1.0
    M11825 'MARKER' 'INTORG'
    U_G10_5 OBJ 351.10142262219233
    U_G10_5 PMIN_G10_5 -178.79317254160074
    U_G10_5 PMAX_G10_5 -393.72682313848696
    U_G10_5 LOGIC_G10_5 1.0
    U_G10_5 MINUP_G10_5 -1.0
    U_G10_5 MINDN_G10_5 1.0
    U_G10_5 LOGIC_G10_6 -1.0
    U_G10_5 RES_5 393.72682313848696
    V_G10_5 OBJ 850.0931585764408
    V_G10_5 LOGIC_G10_5 -1.0
    V_G10_5 MINUP_G10_5 1.0
    V_G10_5 MINUP_G10_6 1.0
    V_G10_5 MINUP_G10_7 1.0
    V_G10_5 MINUP_G10_8 1.0
    V_G10_5 MINUP_G10_9 1.0
    W_G10_5 LOGIC_G10_5 1.0
    W_G10_5 MINDN_G10_5 1.0
    W_G10_5 MINDN_G10_6 1.0
    W_G10_5 MINDN_G10_7 1.0
    M11845 'MARKER' 'INTEND'
    P_G10_5 OBJ 39.28278518024004
    P_G10_5 PMIN_G10_5 1.0
    P_G10_5 PMAX_G10_5 1.0
    P_G10_5 RUP_G10_5 1.0
    P_G10_5 RDN_G10_5 -1.0
    P_G10_5 RUP_G10_6 -1.0
    P_G10_5 RDN_G10_6 1.0
    P_G10_5 DEM_5 1.0
    M11854 'MARKER' 'INTORG'
    U_G10_6 OBJ 351.10142262219233
    U_G10_6 PMIN_G10_6 -178.79317254160074
    U_G10_6 PMAX_G10_6 -393.72682313848696
    U_G10_6 LOGIC_G10_6 1.0
    U_G10_6 MINUP_G10_6 -1.0
    U_G10_6 MINDN_G10_6 1.0
    U_G10_6 LOGIC_G10_7 -1.0
    U_G10_6 RES_6 393.72682313848696
    V_G10_6 OBJ 850.0931585764408
    V_G10_6 LOGIC_G10_6 -1.0
    V_G10_6 MINUP_G10_6 1.0
    V_G10_6 MINUP_G10_7 1.0
    V_G10_6 MINUP_G10_8 1.0
    V_G10_6 MINUP_G10_9 1.0
    V_G10_6 MINUP_G10_10 1.0
    W_G10_6 LOGIC_G10_6 1.0
    W_G10_6 MINDN_G10_6 1.0
    W_G10_6 MINDN_G10_7 1.0
    W_G10_6 MINDN_G10_8 1.0
    M11874 'MARKER' 'INTEND'
    P_G10_6 OBJ 39.28278518024004
    P_G10_6 PMIN_G10_6 1.0
    P_G10_6 PMAX_G10_6 1.0
    P_G10_6 RUP_G10_6 1.0
    P_G10_6 RDN_G10_6 -1.0
    P_G10_6 RUP_G10_7 -1.0
    P_G10_6 RDN_G10_7 1.0
    P_G10_6 DEM_6 1.0
    M11883 'MARKER' 'INTORG'
    U_G10_7 OBJ 351.10142262219233
    U_G10_7 PMIN_G10_7 -178.79317254160074
    U_G10_7 PMAX_G10_7 -393.72682313848696
    U_G10_7 LOGIC_G10_7 1.0
    U_G10_7 MINUP_G10_7 -1.0
    U_G10_7 MINDN_G10_7 1.0
    U_G10_7 LOGIC_G10_8 -1.0
    U_G10_7 RES_7 393.72682313848696
    V_G10_7 OBJ 850.0931585764408
    V_G10_7 LOGIC_G10_7 -1.0
    V_G10_7 MINUP_G10_7 1.0
    V_G10_7 MINUP_G10_8 1.0
    V_G10_7 MINUP_G10_9 1.0
    V_G10_7 MINUP_G10_10 1.0
    V_G10_7 MINUP_G10_11 1.0
    W_G10_7 LOGIC_G10_7 1.0
    W_G10_7 MINDN_G10_7 1.0
    W_G10_7 MINDN_G10_8 1.0
    W_G10_7 MINDN_G10_9 1.0
    M11903 'MARKER' 'INTEND'
    P_G10_7 OBJ 39.28278518024004
    P_G10_7 PMIN_G10_7 1.0
    P_G10_7 PMAX_G10_7 1.0
    P_G10_7 RUP_G10_7 1.0
    P_G10_7 RDN_G10_7 -1.0
    P_G10_7 RUP_G10_8 -1.0
    P_G10_7 RDN_G10_8 1.0
    P_G10_7 DEM_7 1.0
    M11912 'MARKER' 'INTORG'
    U_G10_8 OBJ 351.10142262219233
    U_G10_8 PMIN_G10_8 -178.79317254160074
    U_G10_8 PMAX_G10_8 -393.72682313848696
    U_G10_8 LOGIC_G10_8 1.0
    U_G10_8 MINUP_G10_8 -1.0
    U_G10_8 MINDN_G10_8 1.0
    U_G10_8 LOGIC_G10_9 -1.0
    U_G10_8 RES_8 393.72682313848696
    V_G10_8 OBJ 850.0931585764408
    V_G10_8 LOGIC_G10_8 -1.0
    V_G10_8 MINUP_G10_8 1.0
    V_G10_8 MINUP_G10_9 1.0
    V_G10_8 MINUP_G10_10 1.0
    V_G10_8 MINUP_G10_11 1.0
    V_G10_8 MINUP_G10_12 1.0
    W_G10_8 LOGIC_G10_8 1.0
    W_G10_8 MINDN_G10_8 1.0
    W_G10_8 MINDN_G10_9 1.0
    W_G10_8 MINDN_G10_10 1.0
    M11932 'MARKER' 'INTEND'
    P_G10_8 OBJ 39.28278518024004
    P_G10_8 PMIN_G10_8 1.0
    P_G10_8 PMAX_G10_8 1.0
    P_G10_8 RUP_G10_8 1.0
    P_G10_8 RDN_G10_8 -1.0
    P_G10_8 RUP_G10_9 -1.0
    P_G10_8 RDN_G10_9 1.0
    P_G10_8 DEM_8 1.0
    M11941 'MARKER' 'INTORG'
    U_G10_9 OBJ 351.10142262219233
    U_G10_9 PMIN_G10_9 -178.79317254160074
    U_G10_9 PMAX_G10_9 -393.72682313848696
    U_G10_9 LOGIC_G10_9 1.0
    U_G10_9 MINUP_G10_9 -1.0
    U_G10_9 MINDN_G10_9 1.0
    U_G10_9 LOGIC_G10_10 -1.0
    U_G10_9 RES_9 393.72682313848696
    V_G10_9 OBJ 850.0931585764408
    V_G10_9 LOGIC_G10_9 -1.0
    V_G10_9 MINUP_G10_9 1.0
    V_G10_9 MINUP_G10_10 1.0
    V_G10_9 MINUP_G10_11 1.0
    V_G10_9 MINUP_G10_12 1.0
    V_G10_9 MINUP_G10_13 1.0
    W_G10_9 LOGIC_G10_9 1.0
    W_G10_9 MINDN_G10_9 1.0
    W_G10_9 MINDN_G10_10 1.0
    W_G10_9 MINDN_G10_11 1.0
    M11961 'MARKER' 'INTEND'
    P_G10_9 OBJ 39.28278518024004
    P_G10_9 PMIN_G10_9 1.0
    P_G10_9 PMAX_G10_9 1.0
    P_G10_9 RUP_G10_9 1.0
    P_G10_9 RDN_G10_9 -1.0
    P_G10_9 RUP_G10_10 -1.0
    P_G10_9 RDN_G10_10 1.0
    P_G10_9 DEM_9 1.0
    M11970 'MARKER' 'INTORG'
    U_G10_10 OBJ 351.10142262219233
    U_G10_10 PMIN_G10_10 -178.79317254160074
    U_G10_10 PMAX_G10_10 -393.72682313848696
    U_G10_10 LOGIC_G10_10 1.0
    U_G10_10 MINUP_G10_10 -1.0
    U_G10_10 MINDN_G10_10 1.0
    U_G10_10 LOGIC_G10_11 -1.0
    U_G10_10 RES_10 393.72682313848696
    V_G10_10 OBJ 850.0931585764408
    V_G10_10 LOGIC_G10_10 -1.0
    V_G10_10 MINUP_G10_10 1.0
    V_G10_10 MINUP_G10_11 1.0
    V_G10_10 MINUP_G10_12 1.0
    V_G10_10 MINUP_G10_13 1.0
    V_G10_10 MINUP_G10_14 1.0
    W_G10_10 LOGIC_G10_10 1.0
    W_G10_10 MINDN_G10_10 1.0
    W_G10_10 MINDN_G10_11 1.0
    W_G10_10 MINDN_G10_12 1.0
    M11990 'MARKER' 'INTEND'
    P_G10_10 OBJ 39.28278518024004
    P_G10_10 PMIN_G10_10 1.0
    P_G10_10 PMAX_G10_10 1.0
    P_G10_10 RUP_G10_10 1.0
    P_G10_10 RDN_G10_10 -1.0
    P_G10_10 RUP_G10_11 -1.0
    P_G10_10 RDN_G10_11 1.0
    P_G10_10 DEM_10 1.0
    M11999 'MARKER' 'INTORG'
    U_G10_11 OBJ 351.10142262219233
    U_G10_11 PMIN_G10_11 -178.79317254160074
    U_G10_11 PMAX_G10_11 -393.72682313848696
    U_G10_11 LOGIC_G10_11 1.0
    U_G10_11 MINUP_G10_11 -1.0
    U_G10_11 MINDN_G10_11 1.0
    U_G10_11 LOGIC_G10_12 -1.0
    U_G10_11 RES_11 393.72682313848696
    V_G10_11 OBJ 850.0931585764408
    V_G10_11 LOGIC_G10_11 -1.0
    V_G10_11 MINUP_G10_11 1.0
    V_G10_11 MINUP_G10_12 1.0
    V_G10_11 MINUP_G10_13 1.0
    V_G10_11 MINUP_G10_14 1.0
    V_G10_11 MINUP_G10_15 1.0
    W_G10_11 LOGIC_G10_11 1.0
    W_G10_11 MINDN_G10_11 1.0
    W_G10_11 MINDN_G10_12 1.0
    W_G10_11 MINDN_G10_13 1.0
    M12019 'MARKER' 'INTEND'
    P_G10_11 OBJ 39.28278518024004
    P_G10_11 PMIN_G10_11 1.0
    P_G10_11 PMAX_G10_11 1.0
    P_G10_11 RUP_G10_11 1.0
    P_G10_11 RDN_G10_11 -1.0
    P_G10_11 RUP_G10_12 -1.0
    P_G10_11 RDN_G10_12 1.0
    P_G10_11 DEM_11 1.0
    M12028 'MARKER' 'INTORG'
    U_G10_12 OBJ 351.10142262219233
    U_G10_12 PMIN_G10_12 -178.79317254160074
    U_G10_12 PMAX_G10_12 -393.72682313848696
    U_G10_12 LOGIC_G10_12 1.0
    U_G10_12 MINUP_G10_12 -1.0
    U_G10_12 MINDN_G10_12 1.0
    U_G10_12 LOGIC_G10_13 -1.0
    U_G10_12 RES_12 393.72682313848696
    V_G10_12 OBJ 850.0931585764408
    V_G10_12 LOGIC_G10_12 -1.0
    V_G10_12 MINUP_G10_12 1.0
    V_G10_12 MINUP_G10_13 1.0
    V_G10_12 MINUP_G10_14 1.0
    V_G10_12 MINUP_G10_15 1.0
    V_G10_12 MINUP_G10_16 1.0
    W_G10_12 LOGIC_G10_12 1.0
    W_G10_12 MINDN_G10_12 1.0
    W_G10_12 MINDN_G10_13 1.0
    W_G10_12 MINDN_G10_14 1.0
    M12048 'MARKER' 'INTEND'
    P_G10_12 OBJ 39.28278518024004
    P_G10_12 PMIN_G10_12 1.0
    P_G10_12 PMAX_G10_12 1.0
    P_G10_12 RUP_G10_12 1.0
    P_G10_12 RDN_G10_12 -1.0
    P_G10_12 RUP_G10_13 -1.0
    P_G10_12 RDN_G10_13 1.0
    P_G10_12 DEM_12 1.0
    M12057 'MARKER' 'INTORG'
    U_G10_13 OBJ 351.10142262219233
    U_G10_13 PMIN_G10_13 -178.79317254160074
    U_G10_13 PMAX_G10_13 -393.72682313848696
    U_G10_13 LOGIC_G10_13 1.0
    U_G10_13 MINUP_G10_13 -1.0
    U_G10_13 MINDN_G10_13 1.0
    U_G10_13 LOGIC_G10_14 -1.0
    U_G10_13 RES_13 393.72682313848696
    V_G10_13 OBJ 850.0931585764408
    V_G10_13 LOGIC_G10_13 -1.0
    V_G10_13 MINUP_G10_13 1.0
    V_G10_13 MINUP_G10_14 1.0
    V_G10_13 MINUP_G10_15 1.0
    V_G10_13 MINUP_G10_16 1.0
    V_G10_13 MINUP_G10_17 1.0
    W_G10_13 LOGIC_G10_13 1.0
    W_G10_13 MINDN_G10_13 1.0
    W_G10_13 MINDN_G10_14 1.0
    W_G10_13 MINDN_G10_15 1.0
    M12077 'MARKER' 'INTEND'
    P_G10_13 OBJ 39.28278518024004
    P_G10_13 PMIN_G10_13 1.0
    P_G10_13 PMAX_G10_13 1.0
    P_G10_13 RUP_G10_13 1.0
    P_G10_13 RDN_G10_13 -1.0
    P_G10_13 RUP_G10_14 -1.0
    P_G10_13 RDN_G10_14 1.0
    P_G10_13 DEM_13 1.0
    M12086 'MARKER' 'INTORG'
    U_G10_14 OBJ 351.10142262219233
    U_G10_14 PMIN_G10_14 -178.79317254160074
    U_G10_14 PMAX_G10_14 -393.72682313848696
    U_G10_14 LOGIC_G10_14 1.0
    U_G10_14 MINUP_G10_14 -1.0
    U_G10_14 MINDN_G10_14 1.0
    U_G10_14 LOGIC_G10_15 -1.0
    U_G10_14 RES_14 393.72682313848696
    V_G10_14 OBJ 850.0931585764408
    V_G10_14 LOGIC_G10_14 -1.0
    V_G10_14 MINUP_G10_14 1.0
    V_G10_14 MINUP_G10_15 1.0
    V_G10_14 MINUP_G10_16 1.0
    V_G10_14 MINUP_G10_17 1.0
    V_G10_14 MINUP_G10_18 1.0
    W_G10_14 LOGIC_G10_14 1.0
    W_G10_14 MINDN_G10_14 1.0
    W_G10_14 MINDN_G10_15 1.0
    W_G10_14 MINDN_G10_16 1.0
    M12106 'MARKER' 'INTEND'
    P_G10_14 OBJ 39.28278518024004
    P_G10_14 PMIN_G10_14 1.0
    P_G10_14 PMAX_G10_14 1.0
    P_G10_14 RUP_G10_14 1.0
    P_G10_14 RDN_G10_14 -1.0
    P_G10_14 RUP_G10_15 -1.0
    P_G10_14 RDN_G10_15 1.0
    P_G10_14 DEM_14 1.0
    M12115 'MARKER' 'INTORG'
    U_G10_15 OBJ 351.10142262219233
    U_G10_15 PMIN_G10_15 -178.79317254160074
    U_G10_15 PMAX_G10_15 -393.72682313848696
    U_G10_15 LOGIC_G10_15 1.0
    U_G10_15 MINUP_G10_15 -1.0
    U_G10_15 MINDN_G10_15 1.0
    U_G10_15 LOGIC_G10_16 -1.0
    U_G10_15 RES_15 393.72682313848696
    V_G10_15 OBJ 850.0931585764408
    V_G10_15 LOGIC_G10_15 -1.0
    V_G10_15 MINUP_G10_15 1.0
    V_G10_15 MINUP_G10_16 1.0
    V_G10_15 MINUP_G10_17 1.0
    V_G10_15 MINUP_G10_18 1.0
    V_G10_15 MINUP_G10_19 1.0
    W_G10_15 LOGIC_G10_15 1.0
    W_G10_15 MINDN_G10_15 1.0
    W_G10_15 MINDN_G10_16 1.0
    W_G10_15 MINDN_G10_17 1.0
    M12135 'MARKER' 'INTEND'
    P_G10_15 OBJ 39.28278518024004
    P_G10_15 PMIN_G10_15 1.0
    P_G10_15 PMAX_G10_15 1.0
    P_G10_15 RUP_G10_15 1.0
    P_G10_15 RDN_G10_15 -1.0
    P_G10_15 RUP_G10_16 -1.0
    P_G10_15 RDN_G10_16 1.0
    P_G10_15 DEM_15 1.0
    M12144 'MARKER' 'INTORG'
    U_G10_16 OBJ 351.10142262219233
    U_G10_16 PMIN_G10_16 -178.79317254160074
    U_G10_16 PMAX_G10_16 -393.72682313848696
    U_G10_16 LOGIC_G10_16 1.0
    U_G10_16 MINUP_G10_16 -1.0
    U_G10_16 MINDN_G10_16 1.0
    U_G10_16 LOGIC_G10_17 -1.0
    U_G10_16 RES_16 393.72682313848696
    V_G10_16 OBJ 850.0931585764408
    V_G10_16 LOGIC_G10_16 -1.0
    V_G10_16 MINUP_G10_16 1.0
    V_G10_16 MINUP_G10_17 1.0
    V_G10_16 MINUP_G10_18 1.0
    V_G10_16 MINUP_G10_19 1.0
    V_G10_16 MINUP_G10_20 1.0
    W_G10_16 LOGIC_G10_16 1.0
    W_G10_16 MINDN_G10_16 1.0
    W_G10_16 MINDN_G10_17 1.0
    W_G10_16 MINDN_G10_18 1.0
    M12164 'MARKER' 'INTEND'
    P_G10_16 OBJ 39.28278518024004
    P_G10_16 PMIN_G10_16 1.0
    P_G10_16 PMAX_G10_16 1.0
    P_G10_16 RUP_G10_16 1.0
    P_G10_16 RDN_G10_16 -1.0
    P_G10_16 RUP_G10_17 -1.0
    P_G10_16 RDN_G10_17 1.0
    P_G10_16 DEM_16 1.0
    M12173 'MARKER' 'INTORG'
    U_G10_17 OBJ 351.10142262219233
    U_G10_17 PMIN_G10_17 -178.79317254160074
    U_G10_17 PMAX_G10_17 -393.72682313848696
    U_G10_17 LOGIC_G10_17 1.0
    U_G10_17 MINUP_G10_17 -1.0
    U_G10_17 MINDN_G10_17 1.0
    U_G10_17 LOGIC_G10_18 -1.0
    U_G10_17 RES_17 393.72682313848696
    V_G10_17 OBJ 850.0931585764408
    V_G10_17 LOGIC_G10_17 -1.0
    V_G10_17 MINUP_G10_17 1.0
    V_G10_17 MINUP_G10_18 1.0
    V_G10_17 MINUP_G10_19 1.0
    V_G10_17 MINUP_G10_20 1.0
    V_G10_17 MINUP_G10_21 1.0
    W_G10_17 LOGIC_G10_17 1.0
    W_G10_17 MINDN_G10_17 1.0
    W_G10_17 MINDN_G10_18 1.0
    W_G10_17 MINDN_G10_19 1.0
    M12193 'MARKER' 'INTEND'
    P_G10_17 OBJ 39.28278518024004
    P_G10_17 PMIN_G10_17 1.0
    P_G10_17 PMAX_G10_17 1.0
    P_G10_17 RUP_G10_17 1.0
    P_G10_17 RDN_G10_17 -1.0
    P_G10_17 RUP_G10_18 -1.0
    P_G10_17 RDN_G10_18 1.0
    P_G10_17 DEM_17 1.0
    M12202 'MARKER' 'INTORG'
    U_G10_18 OBJ 351.10142262219233
    U_G10_18 PMIN_G10_18 -178.79317254160074
    U_G10_18 PMAX_G10_18 -393.72682313848696
    U_G10_18 LOGIC_G10_18 1.0
    U_G10_18 MINUP_G10_18 -1.0
    U_G10_18 MINDN_G10_18 1.0
    U_G10_18 LOGIC_G10_19 -1.0
    U_G10_18 RES_18 393.72682313848696
    V_G10_18 OBJ 850.0931585764408
    V_G10_18 LOGIC_G10_18 -1.0
    V_G10_18 MINUP_G10_18 1.0
    V_G10_18 MINUP_G10_19 1.0
    V_G10_18 MINUP_G10_20 1.0
    V_G10_18 MINUP_G10_21 1.0
    V_G10_18 MINUP_G10_22 1.0
    W_G10_18 LOGIC_G10_18 1.0
    W_G10_18 MINDN_G10_18 1.0
    W_G10_18 MINDN_G10_19 1.0
    W_G10_18 MINDN_G10_20 1.0
    M12222 'MARKER' 'INTEND'
    P_G10_18 OBJ 39.28278518024004
    P_G10_18 PMIN_G10_18 1.0
    P_G10_18 PMAX_G10_18 1.0
    P_G10_18 RUP_G10_18 1.0
    P_G10_18 RDN_G10_18 -1.0
    P_G10_18 RUP_G10_19 -1.0
    P_G10_18 RDN_G10_19 1.0
    P_G10_18 DEM_18 1.0
    M12231 'MARKER' 'INTORG'
    U_G10_19 OBJ 351.10142262219233
    U_G10_19 PMIN_G10_19 -178.79317254160074
    U_G10_19 PMAX_G10_19 -393.72682313848696
    U_G10_19 LOGIC_G10_19 1.0
    U_G10_19 MINUP_G10_19 -1.0
    U_G10_19 MINDN_G10_19 1.0
    U_G10_19 LOGIC_G10_20 -1.0
    U_G10_19 RES_19 393.72682313848696
    V_G10_19 OBJ 850.0931585764408
    V_G10_19 LOGIC_G10_19 -1.0
    V_G10_19 MINUP_G10_19 1.0
    V_G10_19 MINUP_G10_20 1.0
    V_G10_19 MINUP_G10_21 1.0
    V_G10_19 MINUP_G10_22 1.0
    V_G10_19 MINUP_G10_23 1.0
    W_G10_19 LOGIC_G10_19 1.0
    W_G10_19 MINDN_G10_19 1.0
    W_G10_19 MINDN_G10_20 1.0
    W_G10_19 MINDN_G10_21 1.0
    M12251 'MARKER' 'INTEND'
    P_G10_19 OBJ 39.28278518024004
    P_G10_19 PMIN_G10_19 1.0
    P_G10_19 PMAX_G10_19 1.0
    P_G10_19 RUP_G10_19 1.0
    P_G10_19 RDN_G10_19 -1.0
    P_G10_19 RUP_G10_20 -1.0
    P_G10_19 RDN_G10_20 1.0
    P_G10_19 DEM_19 1.0
    M12260 'MARKER' 'INTORG'
    U_G10_20 OBJ 351.10142262219233
    U_G10_20 PMIN_G10_20 -178.79317254160074
    U_G10_20 PMAX_G10_20 -393.72682313848696
    U_G10_20 LOGIC_G10_20 1.0
    U_G10_20 MINUP_G10_20 -1.0
    U_G10_20 MINDN_G10_20 1.0
    U_G10_20 LOGIC_G10_21 -1.0
    U_G10_20 RES_20 393.72682313848696
    V_G10_20 OBJ 850.0931585764408
    V_G10_20 LOGIC_G10_20 -1.0
    V_G10_20 MINUP_G10_20 1.0
    V_G10_20 MINUP_G10_21 1.0
    V_G10_20 MINUP_G10_22 1.0
    V_G10_20 MINUP_G10_23 1.0
    W_G10_20 LOGIC_G10_20 1.0
    W_G10_20 MINDN_G10_20 1.0
    W_G10_20 MINDN_G10_21 1.0
    W_G10_20 MINDN_G10_22 1.0
    M12279 'MARKER' 'INTEND'
    P_G10_20 OBJ 39.28278518024004
    P_G10_20 PMIN_G10_20 1.0
    P_G10_20 PMAX_G10_20 1.0
    P_G10_20 RUP_G10_20 1.0
    P_G10_20 RDN_G10_20 -1.0
    P_G10_20 RUP_G10_21 -1.0
    P_G10_20 RDN_G10_21 1.0
    P_G10_20 DEM_20 1.0
    M12288 'MARKER' 'INTORG'
    U_G10_21 OBJ 351.10142262219233
    U_G10_21 PMIN_G10_21 -178.79317254160074
    U_G10_21 PMAX_G10_21 -393.72682313848696
    U_G10_21 LOGIC_G10_21 1.0
    U_G10_21 MINUP_G10_21 -1.0
    U_G10_21 MINDN_G10_21 1.0
    U_G10_21 LOGIC_G10_22 -1.0
    U_G10_21 RES_21 393.72682313848696
    V_G10_21 OBJ 850.0931585764408
    V_G10_21 LOGIC_G10_21 -1.0
    V_G10_21 MINUP_G10_21 1.0
    V_G10_21 MINUP_G10_22 1.0
    V_G10_21 MINUP_G10_23 1.0
    W_G10_21 LOGIC_G10_21 1.0
    W_G10_21 MINDN_G10_21 1.0
    W_G10_21 MINDN_G10_22 1.0
    W_G10_21 MINDN_G10_23 1.0
    M12306 'MARKER' 'INTEND'
    P_G10_21 OBJ 39.28278518024004
    P_G10_21 PMIN_G10_21 1.0
    P_G10_21 PMAX_G10_21 1.0
    P_G10_21 RUP_G10_21 1.0
    P_G10_21 RDN_G10_21 -1.0
    P_G10_21 RUP_G10_22 -1.0
    P_G10_21 RDN_G10_22 1.0
    P_G10_21 DEM_21 1.0
    M12315 'MARKER' 'INTORG'
    U_G10_22 OBJ 351.10142262219233
    U_G10_22 PMIN_G10_22 -178.79317254160074
    U_G10_22 PMAX_G10_22 -393.72682313848696
    U_G10_22 LOGIC_G10_22 1.0
    U_G10_22 MINUP_G10_22 -1.0
    U_G10_22 MINDN_G10_22 1.0
    U_G10_22 LOGIC_G10_23 -1.0
    U_G10_22 RES_22 393.72682313848696
    V_G10_22 OBJ 850.0931585764408
    V_G10_22 LOGIC_G10_22 -1.0
    V_G10_22 MINUP_G10_22 1.0
    V_G10_22 MINUP_G10_23 1.0
    W_G10_22 LOGIC_G10_22 1.0
    W_G10_22 MINDN_G10_22 1.0
    W_G10_22 MINDN_G10_23 1.0
    M12331 'MARKER' 'INTEND'
    P_G10_22 OBJ 39.28278518024004
    P_G10_22 PMIN_G10_22 1.0
    P_G10_22 PMAX_G10_22 1.0
    P_G10_22 RUP_G10_22 1.0
    P_G10_22 RDN_G10_22 -1.0
    P_G10_22 RUP_G10_23 -1.0
    P_G10_22 RDN_G10_23 1.0
    P_G10_22 DEM_22 1.0
    M12340 'MARKER' 'INTORG'
    U_G10_23 OBJ 351.10142262219233
    U_G10_23 PMIN_G10_23 -178.79317254160074
    U_G10_23 PMAX_G10_23 -393.72682313848696
    U_G10_23 LOGIC_G10_23 1.0
    U_G10_23 MINUP_G10_23 -1.0
    U_G10_23 MINDN_G10_23 1.0
    U_G10_23 RES_23 393.72682313848696
    V_G10_23 OBJ 850.0931585764408
    V_G10_23 LOGIC_G10_23 -1.0
    V_G10_23 MINUP_G10_23 1.0
    W_G10_23 LOGIC_G10_23 1.0
    W_G10_23 MINDN_G10_23 1.0
    M12353 'MARKER' 'INTEND'
    P_G10_23 OBJ 39.28278518024004
    P_G10_23 PMIN_G10_23 1.0
    P_G10_23 PMAX_G10_23 1.0
    P_G10_23 RUP_G10_23 1.0
    P_G10_23 RDN_G10_23 -1.0
    P_G10_23 DEM_23 1.0
    M12360 'MARKER' 'INTORG'
    U_G11_0 OBJ 384.9906985110794
    U_G11_0 PMIN_G11_0 -74.55605932423195
    U_G11_0 PMAX_G11_0 -210.69610616873393
    U_G11_0 LOGIC_G11_0 1.0
    U_G11_0 MINUP_G11_0 -1.0
    U_G11_0 MINDN_G11_0 1.0
    U_G11_0 LOGIC_G11_1 -1.0
    U_G11_0 RES_0 210.69610616873393
    V_G11_0 OBJ 215.9855624611002
    V_G11_0 LOGIC_G11_0 -1.0
    V_G11_0 MINUP_G11_0 1.0
    V_G11_0 MINUP_G11_1 1.0
    V_G11_0 MINUP_G11_2 1.0
    V_G11_0 MINUP_G11_3 1.0
    V_G11_0 MINUP_G11_4 1.0
    W_G11_0 LOGIC_G11_0 1.0
    W_G11_0 MINDN_G11_0 1.0
    W_G11_0 MINDN_G11_1 1.0
    M12379 'MARKER' 'INTEND'
    P_G11_0 OBJ 39.659833925981204
    P_G11_0 PMIN_G11_0 1.0
    P_G11_0 PMAX_G11_0 1.0
    P_G11_0 RUP_G11_1 -1.0
    P_G11_0 RDN_G11_1 1.0
    P_G11_0 DEM_0 1.0
    M12386 'MARKER' 'INTORG'
    U_G11_1 OBJ 384.9906985110794
    U_G11_1 PMIN_G11_1 -74.55605932423195
    U_G11_1 PMAX_G11_1 -210.69610616873393
    U_G11_1 LOGIC_G11_1 1.0
    U_G11_1 MINUP_G11_1 -1.0
    U_G11_1 MINDN_G11_1 1.0
    U_G11_1 LOGIC_G11_2 -1.0
    U_G11_1 RES_1 210.69610616873393
    V_G11_1 OBJ 215.9855624611002
    V_G11_1 LOGIC_G11_1 -1.0
    V_G11_1 MINUP_G11_1 1.0
    V_G11_1 MINUP_G11_2 1.0
    V_G11_1 MINUP_G11_3 1.0
    V_G11_1 MINUP_G11_4 1.0
    V_G11_1 MINUP_G11_5 1.0
    W_G11_1 LOGIC_G11_1 1.0
    W_G11_1 MINDN_G11_1 1.0
    W_G11_1 MINDN_G11_2 1.0
    M12405 'MARKER' 'INTEND'
    P_G11_1 OBJ 39.659833925981204
    P_G11_1 PMIN_G11_1 1.0
    P_G11_1 PMAX_G11_1 1.0
    P_G11_1 RUP_G11_1 1.0
    P_G11_1 RDN_G11_1 -1.0
    P_G11_1 RUP_G11_2 -1.0
    P_G11_1 RDN_G11_2 1.0
    P_G11_1 DEM_1 1.0
    M12414 'MARKER' 'INTORG'
    U_G11_2 OBJ 384.9906985110794
    U_G11_2 PMIN_G11_2 -74.55605932423195
    U_G11_2 PMAX_G11_2 -210.69610616873393
    U_G11_2 LOGIC_G11_2 1.0
    U_G11_2 MINUP_G11_2 -1.0
    U_G11_2 MINDN_G11_2 1.0
    U_G11_2 LOGIC_G11_3 -1.0
    U_G11_2 RES_2 210.69610616873393
    V_G11_2 OBJ 215.9855624611002
    V_G11_2 LOGIC_G11_2 -1.0
    V_G11_2 MINUP_G11_2 1.0
    V_G11_2 MINUP_G11_3 1.0
    V_G11_2 MINUP_G11_4 1.0
    V_G11_2 MINUP_G11_5 1.0
    V_G11_2 MINUP_G11_6 1.0
    W_G11_2 LOGIC_G11_2 1.0
    W_G11_2 MINDN_G11_2 1.0
    W_G11_2 MINDN_G11_3 1.0
    M12433 'MARKER' 'INTEND'
    P_G11_2 OBJ 39.659833925981204
    P_G11_2 PMIN_G11_2 1.0
    P_G11_2 PMAX_G11_2 1.0
    P_G11_2 RUP_G11_2 1.0
    P_G11_2 RDN_G11_2 -1.0
    P_G11_2 RUP_G11_3 -1.0
    P_G11_2 RDN_G11_3 1.0
    P_G11_2 DEM_2 1.0
    M12442 'MARKER' 'INTORG'
    U_G11_3 OBJ 384.9906985110794
    U_G11_3 PMIN_G11_3 -74.55605932423195
    U_G11_3 PMAX_G11_3 -210.69610616873393
    U_G11_3 LOGIC_G11_3 1.0
    U_G11_3 MINUP_G11_3 -1.0
    U_G11_3 MINDN_G11_3 1.0
    U_G11_3 LOGIC_G11_4 -1.0
    U_G11_3 RES_3 210.69610616873393
    V_G11_3 OBJ 215.9855624611002
    V_G11_3 LOGIC_G11_3 -1.0
    V_G11_3 MINUP_G11_3 1.0
    V_G11_3 MINUP_G11_4 1.0
    V_G11_3 MINUP_G11_5 1.0
    V_G11_3 MINUP_G11_6 1.0
    V_G11_3 MINUP_G11_7 1.0
    W_G11_3 LOGIC_G11_3 1.0
    W_G11_3 MINDN_G11_3 1.0
    W_G11_3 MINDN_G11_4 1.0
    M12461 'MARKER' 'INTEND'
    P_G11_3 OBJ 39.659833925981204
    P_G11_3 PMIN_G11_3 1.0
    P_G11_3 PMAX_G11_3 1.0
    P_G11_3 RUP_G11_3 1.0
    P_G11_3 RDN_G11_3 -1.0
    P_G11_3 RUP_G11_4 -1.0
    P_G11_3 RDN_G11_4 1.0
    P_G11_3 DEM_3 1.0
    M12470 'MARKER' 'INTORG'
    U_G11_4 OBJ 384.9906985110794
    U_G11_4 PMIN_G11_4 -74.55605932423195
    U_G11_4 PMAX_G11_4 -210.69610616873393
    U_G11_4 LOGIC_G11_4 1.0
    U_G11_4 MINUP_G11_4 -1.0
    U_G11_4 MINDN_G11_4 1.0
    U_G11_4 LOGIC_G11_5 -1.0
    U_G11_4 RES_4 210.69610616873393
    V_G11_4 OBJ 215.9855624611002
    V_G11_4 LOGIC_G11_4 -1.0
    V_G11_4 MINUP_G11_4 1.0
    V_G11_4 MINUP_G11_5 1.0
    V_G11_4 MINUP_G11_6 1.0
    V_G11_4 MINUP_G11_7 1.0
    V_G11_4 MINUP_G11_8 1.0
    W_G11_4 LOGIC_G11_4 1.0
    W_G11_4 MINDN_G11_4 1.0
    W_G11_4 MINDN_G11_5 1.0
    M12489 'MARKER' 'INTEND'
    P_G11_4 OBJ 39.659833925981204
    P_G11_4 PMIN_G11_4 1.0
    P_G11_4 PMAX_G11_4 1.0
    P_G11_4 RUP_G11_4 1.0
    P_G11_4 RDN_G11_4 -1.0
    P_G11_4 RUP_G11_5 -1.0
    P_G11_4 RDN_G11_5 1.0
    P_G11_4 DEM_4 1.0
    M12498 'MARKER' 'INTORG'
    U_G11_5 OBJ 384.9906985110794
    U_G11_5 PMIN_G11_5 -74.55605932423195
    U_G11_5 PMAX_G11_5 -210.69610616873393
    U_G11_5 LOGIC_G11_5 1.0
    U_G11_5 MINUP_G11_5 -1.0
    U_G11_5 MINDN_G11_5 1.0
    U_G11_5 LOGIC_G11_6 -1.0
    U_G11_5 RES_5 210.69610616873393
    V_G11_5 OBJ 215.9855624611002
    V_G11_5 LOGIC_G11_5 -1.0
    V_G11_5 MINUP_G11_5 1.0
    V_G11_5 MINUP_G11_6 1.0
    V_G11_5 MINUP_G11_7 1.0
    V_G11_5 MINUP_G11_8 1.0
    V_G11_5 MINUP_G11_9 1.0
    W_G11_5 LOGIC_G11_5 1.0
    W_G11_5 MINDN_G11_5 1.0
    W_G11_5 MINDN_G11_6 1.0
    M12517 'MARKER' 'INTEND'
    P_G11_5 OBJ 39.659833925981204
    P_G11_5 PMIN_G11_5 1.0
    P_G11_5 PMAX_G11_5 1.0
    P_G11_5 RUP_G11_5 1.0
    P_G11_5 RDN_G11_5 -1.0
    P_G11_5 RUP_G11_6 -1.0
    P_G11_5 RDN_G11_6 1.0
    P_G11_5 DEM_5 1.0
    M12526 'MARKER' 'INTORG'
    U_G11_6 OBJ 384.9906985110794
    U_G11_6 PMIN_G11_6 -74.55605932423195
    U_G11_6 PMAX_G11_6 -210.69610616873393
    U_G11_6 LOGIC_G11_6 1.0
    U_G11_6 MINUP_G11_6 -1.0
    U_G11_6 MINDN_G11_6 1.0
    U_G11_6 LOGIC_G11_7 -1.0
    U_G11_6 RES_6 210.69610616873393
    V_G11_6 OBJ 215.9855624611002
    V_G11_6 LOGIC_G11_6 -1.0
    V_G11_6 MINUP_G11_6 1.0
    V_G11_6 MINUP_G11_7 1.0
    V_G11_6 MINUP_G11_8 1.0
    V_G11_6 MINUP_G11_9 1.0
    V_G11_6 MINUP_G11_10 1.0
    W_G11_6 LOGIC_G11_6 1.0
    W_G11_6 MINDN_G11_6 1.0
    W_G11_6 MINDN_G11_7 1.0
    M12545 'MARKER' 'INTEND'
    P_G11_6 OBJ 39.659833925981204
    P_G11_6 PMIN_G11_6 1.0
    P_G11_6 PMAX_G11_6 1.0
    P_G11_6 RUP_G11_6 1.0
    P_G11_6 RDN_G11_6 -1.0
    P_G11_6 RUP_G11_7 -1.0
    P_G11_6 RDN_G11_7 1.0
    P_G11_6 DEM_6 1.0
    M12554 'MARKER' 'INTORG'
    U_G11_7 OBJ 384.9906985110794
    U_G11_7 PMIN_G11_7 -74.55605932423195
    U_G11_7 PMAX_G11_7 -210.69610616873393
    U_G11_7 LOGIC_G11_7 1.0
    U_G11_7 MINUP_G11_7 -1.0
    U_G11_7 MINDN_G11_7 1.0
    U_G11_7 LOGIC_G11_8 -1.0
    U_G11_7 RES_7 210.69610616873393
    V_G11_7 OBJ 215.9855624611002
    V_G11_7 LOGIC_G11_7 -1.0
    V_G11_7 MINUP_G11_7 1.0
    V_G11_7 MINUP_G11_8 1.0
    V_G11_7 MINUP_G11_9 1.0
    V_G11_7 MINUP_G11_10 1.0
    V_G11_7 MINUP_G11_11 1.0
    W_G11_7 LOGIC_G11_7 1.0
    W_G11_7 MINDN_G11_7 1.0
    W_G11_7 MINDN_G11_8 1.0
    M12573 'MARKER' 'INTEND'
    P_G11_7 OBJ 39.659833925981204
    P_G11_7 PMIN_G11_7 1.0
    P_G11_7 PMAX_G11_7 1.0
    P_G11_7 RUP_G11_7 1.0
    P_G11_7 RDN_G11_7 -1.0
    P_G11_7 RUP_G11_8 -1.0
    P_G11_7 RDN_G11_8 1.0
    P_G11_7 DEM_7 1.0
    M12582 'MARKER' 'INTORG'
    U_G11_8 OBJ 384.9906985110794
    U_G11_8 PMIN_G11_8 -74.55605932423195
    U_G11_8 PMAX_G11_8 -210.69610616873393
    U_G11_8 LOGIC_G11_8 1.0
    U_G11_8 MINUP_G11_8 -1.0
    U_G11_8 MINDN_G11_8 1.0
    U_G11_8 LOGIC_G11_9 -1.0
    U_G11_8 RES_8 210.69610616873393
    V_G11_8 OBJ 215.9855624611002
    V_G11_8 LOGIC_G11_8 -1.0
    V_G11_8 MINUP_G11_8 1.0
    V_G11_8 MINUP_G11_9 1.0
    V_G11_8 MINUP_G11_10 1.0
    V_G11_8 MINUP_G11_11 1.0
    V_G11_8 MINUP_G11_12 1.0
    W_G11_8 LOGIC_G11_8 1.0
    W_G11_8 MINDN_G11_8 1.0
    W_G11_8 MINDN_G11_9 1.0
    M12601 'MARKER' 'INTEND'
    P_G11_8 OBJ 39.659833925981204
    P_G11_8 PMIN_G11_8 1.0
    P_G11_8 PMAX_G11_8 1.0
    P_G11_8 RUP_G11_8 1.0
    P_G11_8 RDN_G11_8 -1.0
    P_G11_8 RUP_G11_9 -1.0
    P_G11_8 RDN_G11_9 1.0
    P_G11_8 DEM_8 1.0
    M12610 'MARKER' 'INTORG'
    U_G11_9 OBJ 384.9906985110794
    U_G11_9 PMIN_G11_9 -74.55605932423195
    U_G11_9 PMAX_G11_9 -210.69610616873393
    U_G11_9 LOGIC_G11_9 1.0
    U_G11_9 MINUP_G11_9 -1.0
    U_G11_9 MINDN_G11_9 1.0
    U_G11_9 LOGIC_G11_10 -1.0
    U_G11_9 RES_9 210.69610616873393
    V_G11_9 OBJ 215.9855624611002
    V_G11_9 LOGIC_G11_9 -1.0
    V_G11_9 MINUP_G11_9 1.0
    V_G11_9 MINUP_G11_10 1.0
    V_G11_9 MINUP_G11_11 1.0
    V_G11_9 MINUP_G11_12 1.0
    V_G11_9 MINUP_G11_13 1.0
    W_G11_9 LOGIC_G11_9 1.0
    W_G11_9 MINDN_G11_9 1.0
    W_G11_9 MINDN_G11_10 1.0
    M12629 'MARKER' 'INTEND'
    P_G11_9 OBJ 39.659833925981204
    P_G11_9 PMIN_G11_9 1.0
    P_G11_9 PMAX_G11_9 1.0
    P_G11_9 RUP_G11_9 1.0
    P_G11_9 RDN_G11_9 -1.0
    P_G11_9 RUP_G11_10 -1.0
    P_G11_9 RDN_G11_10 1.0
    P_G11_9 DEM_9 1.0
    M12638 'MARKER' 'INTORG'
    U_G11_10 OBJ 384.9906985110794
    U_G11_10 PMIN_G11_10 -74.55605932423195
    U_G11_10 PMAX_G11_10 -210.69610616873393
    U_G11_10 LOGIC_G11_10 1.0
    U_G11_10 MINUP_G11_10 -1.0
    U_G11_10 MINDN_G11_10 1.0
    U_G11_10 LOGIC_G11_11 -1.0
    U_G11_10 RES_10 210.69610616873393
    V_G11_10 OBJ 215.9855624611002
    V_G11_10 LOGIC_G11_10 -1.0
    V_G11_10 MINUP_G11_10 1.0
    V_G11_10 MINUP_G11_11 1.0
    V_G11_10 MINUP_G11_12 1.0
    V_G11_10 MINUP_G11_13 1.0
    V_G11_10 MINUP_G11_14 1.0
    W_G11_10 LOGIC_G11_10 1.0
    W_G11_10 MINDN_G11_10 1.0
    W_G11_10 MINDN_G11_11 1.0
    M12657 'MARKER' 'INTEND'
    P_G11_10 OBJ 39.659833925981204
    P_G11_10 PMIN_G11_10 1.0
    P_G11_10 PMAX_G11_10 1.0
    P_G11_10 RUP_G11_10 1.0
    P_G11_10 RDN_G11_10 -1.0
    P_G11_10 RUP_G11_11 -1.0
    P_G11_10 RDN_G11_11 1.0
    P_G11_10 DEM_10 1.0
    M12666 'MARKER' 'INTORG'
    U_G11_11 OBJ 384.9906985110794
    U_G11_11 PMIN_G11_11 -74.55605932423195
    U_G11_11 PMAX_G11_11 -210.69610616873393
    U_G11_11 LOGIC_G11_11 1.0
    U_G11_11 MINUP_G11_11 -1.0
    U_G11_11 MINDN_G11_11 1.0
    U_G11_11 LOGIC_G11_12 -1.0
    U_G11_11 RES_11 210.69610616873393
    V_G11_11 OBJ 215.9855624611002
    V_G11_11 LOGIC_G11_11 -1.0
    V_G11_11 MINUP_G11_11 1.0
    V_G11_11 MINUP_G11_12 1.0
    V_G11_11 MINUP_G11_13 1.0
    V_G11_11 MINUP_G11_14 1.0
    V_G11_11 MINUP_G11_15 1.0
    W_G11_11 LOGIC_G11_11 1.0
    W_G11_11 MINDN_G11_11 1.0
    W_G11_11 MINDN_G11_12 1.0
    M12685 'MARKER' 'INTEND'
    P_G11_11 OBJ 39.659833925981204
    P_G11_11 PMIN_G11_11 1.0
    P_G11_11 PMAX_G11_11 1.0
    P_G11_11 RUP_G11_11 1.0
    P_G11_11 RDN_G11_11 -1.0
    P_G11_11 RUP_G11_12 -1.0
    P_G11_11 RDN_G11_12 1.0
    P_G11_11 DEM_11 1.0
    M12694 'MARKER' 'INTORG'
    U_G11_12 OBJ 384.9906985110794
    U_G11_12 PMIN_G11_12 -74.55605932423195
    U_G11_12 PMAX_G11_12 -210.69610616873393
    U_G11_12 LOGIC_G11_12 1.0
    U_G11_12 MINUP_G11_12 -1.0
    U_G11_12 MINDN_G11_12 1.0
    U_G11_12 LOGIC_G11_13 -1.0
    U_G11_12 RES_12 210.69610616873393
    V_G11_12 OBJ 215.9855624611002
    V_G11_12 LOGIC_G11_12 -1.0
    V_G11_12 MINUP_G11_12 1.0
    V_G11_12 MINUP_G11_13 1.0
    V_G11_12 MINUP_G11_14 1.0
    V_G11_12 MINUP_G11_15 1.0
    V_G11_12 MINUP_G11_16 1.0
    W_G11_12 LOGIC_G11_12 1.0
    W_G11_12 MINDN_G11_12 1.0
    W_G11_12 MINDN_G11_13 1.0
    M12713 'MARKER' 'INTEND'
    P_G11_12 OBJ 39.659833925981204
    P_G11_12 PMIN_G11_12 1.0
    P_G11_12 PMAX_G11_12 1.0
    P_G11_12 RUP_G11_12 1.0
    P_G11_12 RDN_G11_12 -1.0
    P_G11_12 RUP_G11_13 -1.0
    P_G11_12 RDN_G11_13 1.0
    P_G11_12 DEM_12 1.0
    M12722 'MARKER' 'INTORG'
    U_G11_13 OBJ 384.9906985110794
    U_G11_13 PMIN_G11_13 -74.55605932423195
    U_G11_13 PMAX_G11_13 -210.69610616873393
    U_G11_13 LOGIC_G11_13 1.0
    U_G11_13 MINUP_G11_13 -1.0
    U_G11_13 MINDN_G11_13 1.0
    U_G11_13 LOGIC_G11_14 -1.0
    U_G11_13 RES_13 210.69610616873393
    V_G11_13 OBJ 215.9855624611002
    V_G11_13 LOGIC_G11_13 -1.0
    V_G11_13 MINUP_G11_13 1.0
    V_G11_13 MINUP_G11_14 1.0
    V_G11_13 MINUP_G11_15 1.0
    V_G11_13 MINUP_G11_16 1.0
    V_G11_13 MINUP_G11_17 1.0
    W_G11_13 LOGIC_G11_13 1.0
    W_G11_13 MINDN_G11_13 1.0
    W_G11_13 MINDN_G11_14 1.0
    M12741 'MARKER' 'INTEND'
    P_G11_13 OBJ 39.659833925981204
    P_G11_13 PMIN_G11_13 1.0
    P_G11_13 PMAX_G11_13 1.0
    P_G11_13 RUP_G11_13 1.0
    P_G11_13 RDN_G11_13 -1.0
    P_G11_13 RUP_G11_14 -1.0
    P_G11_13 RDN_G11_14 1.0
    P_G11_13 DEM_13 1.0
    M12750 'MARKER' 'INTORG'
    U_G11_14 OBJ 384.9906985110794
    U_G11_14 PMIN_G11_14 -74.55605932423195
    U_G11_14 PMAX_G11_14 -210.69610616873393
    U_G11_14 LOGIC_G11_14 1.0
    U_G11_14 MINUP_G11_14 -1.0
    U_G11_14 MINDN_G11_14 1.0
    U_G11_14 LOGIC_G11_15 -1.0
    U_G11_14 RES_14 210.69610616873393
    V_G11_14 OBJ 215.9855624611002
    V_G11_14 LOGIC_G11_14 -1.0
    V_G11_14 MINUP_G11_14 1.0
    V_G11_14 MINUP_G11_15 1.0
    V_G11_14 MINUP_G11_16 1.0
    V_G11_14 MINUP_G11_17 1.0
    V_G11_14 MINUP_G11_18 1.0
    W_G11_14 LOGIC_G11_14 1.0
    W_G11_14 MINDN_G11_14 1.0
    W_G11_14 MINDN_G11_15 1.0
    M12769 'MARKER' 'INTEND'
    P_G11_14 OBJ 39.659833925981204
    P_G11_14 PMIN_G11_14 1.0
    P_G11_14 PMAX_G11_14 1.0
    P_G11_14 RUP_G11_14 1.0
    P_G11_14 RDN_G11_14 -1.0
    P_G11_14 RUP_G11_15 -1.0
    P_G11_14 RDN_G11_15 1.0
    P_G11_14 DEM_14 1.0
    M12778 'MARKER' 'INTORG'
    U_G11_15 OBJ 384.9906985110794
    U_G11_15 PMIN_G11_15 -74.55605932423195
    U_G11_15 PMAX_G11_15 -210.69610616873393
    U_G11_15 LOGIC_G11_15 1.0
    U_G11_15 MINUP_G11_15 -1.0
    U_G11_15 MINDN_G11_15 1.0
    U_G11_15 LOGIC_G11_16 -1.0
    U_G11_15 RES_15 210.69610616873393
    V_G11_15 OBJ 215.9855624611002
    V_G11_15 LOGIC_G11_15 -1.0
    V_G11_15 MINUP_G11_15 1.0
    V_G11_15 MINUP_G11_16 1.0
    V_G11_15 MINUP_G11_17 1.0
    V_G11_15 MINUP_G11_18 1.0
    V_G11_15 MINUP_G11_19 1.0
    W_G11_15 LOGIC_G11_15 1.0
    W_G11_15 MINDN_G11_15 1.0
    W_G11_15 MINDN_G11_16 1.0
    M12797 'MARKER' 'INTEND'
    P_G11_15 OBJ 39.659833925981204
    P_G11_15 PMIN_G11_15 1.0
    P_G11_15 PMAX_G11_15 1.0
    P_G11_15 RUP_G11_15 1.0
    P_G11_15 RDN_G11_15 -1.0
    P_G11_15 RUP_G11_16 -1.0
    P_G11_15 RDN_G11_16 1.0
    P_G11_15 DEM_15 1.0
    M12806 'MARKER' 'INTORG'
    U_G11_16 OBJ 384.9906985110794
    U_G11_16 PMIN_G11_16 -74.55605932423195
    U_G11_16 PMAX_G11_16 -210.69610616873393
    U_G11_16 LOGIC_G11_16 1.0
    U_G11_16 MINUP_G11_16 -1.0
    U_G11_16 MINDN_G11_16 1.0
    U_G11_16 LOGIC_G11_17 -1.0
    U_G11_16 RES_16 210.69610616873393
    V_G11_16 OBJ 215.9855624611002
    V_G11_16 LOGIC_G11_16 -1.0
    V_G11_16 MINUP_G11_16 1.0
    V_G11_16 MINUP_G11_17 1.0
    V_G11_16 MINUP_G11_18 1.0
    V_G11_16 MINUP_G11_19 1.0
    V_G11_16 MINUP_G11_20 1.0
    W_G11_16 LOGIC_G11_16 1.0
    W_G11_16 MINDN_G11_16 1.0
    W_G11_16 MINDN_G11_17 1.0
    M12825 'MARKER' 'INTEND'
    P_G11_16 OBJ 39.659833925981204
    P_G11_16 PMIN_G11_16 1.0
    P_G11_16 PMAX_G11_16 1.0
    P_G11_16 RUP_G11_16 1.0
    P_G11_16 RDN_G11_16 -1.0
    P_G11_16 RUP_G11_17 -1.0
    P_G11_16 RDN_G11_17 1.0
    P_G11_16 DEM_16 1.0
    M12834 'MARKER' 'INTORG'
    U_G11_17 OBJ 384.9906985110794
    U_G11_17 PMIN_G11_17 -74.55605932423195
    U_G11_17 PMAX_G11_17 -210.69610616873393
    U_G11_17 LOGIC_G11_17 1.0
    U_G11_17 MINUP_G11_17 -1.0
    U_G11_17 MINDN_G11_17 1.0
    U_G11_17 LOGIC_G11_18 -1.0
    U_G11_17 RES_17 210.69610616873393
    V_G11_17 OBJ 215.9855624611002
    V_G11_17 LOGIC_G11_17 -1.0
    V_G11_17 MINUP_G11_17 1.0
    V_G11_17 MINUP_G11_18 1.0
    V_G11_17 MINUP_G11_19 1.0
    V_G11_17 MINUP_G11_20 1.0
    V_G11_17 MINUP_G11_21 1.0
    W_G11_17 LOGIC_G11_17 1.0
    W_G11_17 MINDN_G11_17 1.0
    W_G11_17 MINDN_G11_18 1.0
    M12853 'MARKER' 'INTEND'
    P_G11_17 OBJ 39.659833925981204
    P_G11_17 PMIN_G11_17 1.0
    P_G11_17 PMAX_G11_17 1.0
    P_G11_17 RUP_G11_17 1.0
    P_G11_17 RDN_G11_17 -1.0
    P_G11_17 RUP_G11_18 -1.0
    P_G11_17 RDN_G11_18 1.0
    P_G11_17 DEM_17 1.0
    M12862 'MARKER' 'INTORG'
    U_G11_18 OBJ 384.9906985110794
    U_G11_18 PMIN_G11_18 -74.55605932423195
    U_G11_18 PMAX_G11_18 -210.69610616873393
    U_G11_18 LOGIC_G11_18 1.0
    U_G11_18 MINUP_G11_18 -1.0
    U_G11_18 MINDN_G11_18 1.0
    U_G11_18 LOGIC_G11_19 -1.0
    U_G11_18 RES_18 210.69610616873393
    V_G11_18 OBJ 215.9855624611002
    V_G11_18 LOGIC_G11_18 -1.0
    V_G11_18 MINUP_G11_18 1.0
    V_G11_18 MINUP_G11_19 1.0
    V_G11_18 MINUP_G11_20 1.0
    V_G11_18 MINUP_G11_21 1.0
    V_G11_18 MINUP_G11_22 1.0
    W_G11_18 LOGIC_G11_18 1.0
    W_G11_18 MINDN_G11_18 1.0
    W_G11_18 MINDN_G11_19 1.0
    M12881 'MARKER' 'INTEND'
    P_G11_18 OBJ 39.659833925981204
    P_G11_18 PMIN_G11_18 1.0
    P_G11_18 PMAX_G11_18 1.0
    P_G11_18 RUP_G11_18 1.0
    P_G11_18 RDN_G11_18 -1.0
    P_G11_18 RUP_G11_19 -1.0
    P_G11_18 RDN_G11_19 1.0
    P_G11_18 DEM_18 1.0
    M12890 'MARKER' 'INTORG'
    U_G11_19 OBJ 384.9906985110794
    U_G11_19 PMIN_G11_19 -74.55605932423195
    U_G11_19 PMAX_G11_19 -210.69610616873393
    U_G11_19 LOGIC_G11_19 1.0
    U_G11_19 MINUP_G11_19 -1.0
    U_G11_19 MINDN_G11_19 1.0
    U_G11_19 LOGIC_G11_20 -1.0
    U_G11_19 RES_19 210.69610616873393
    V_G11_19 OBJ 215.9855624611002
    V_G11_19 LOGIC_G11_19 -1.0
    V_G11_19 MINUP_G11_19 1.0
    V_G11_19 MINUP_G11_20 1.0
    V_G11_19 MINUP_G11_21 1.0
    V_G11_19 MINUP_G11_22 1.0
    V_G11_19 MINUP_G11_23 1.0
    W_G11_19 LOGIC_G11_19 1.0
    W_G11_19 MINDN_G11_19 1.0
    W_G11_19 MINDN_G11_20 1.0
    M12909 'MARKER' 'INTEND'
    P_G11_19 OBJ 39.659833925981204
    P_G11_19 PMIN_G11_19 1.0
    P_G11_19 PMAX_G11_19 1.0
    P_G11_19 RUP_G11_19 1.0
    P_G11_19 RDN_G11_19 -1.0
    P_G11_19 RUP_G11_20 -1.0
    P_G11_19 RDN_G11_20 1.0
    P_G11_19 DEM_19 1.0
    M12918 'MARKER' 'INTORG'
    U_G11_20 OBJ 384.9906985110794
    U_G11_20 PMIN_G11_20 -74.55605932423195
    U_G11_20 PMAX_G11_20 -210.69610616873393
    U_G11_20 LOGIC_G11_20 1.0
    U_G11_20 MINUP_G11_20 -1.0
    U_G11_20 MINDN_G11_20 1.0
    U_G11_20 LOGIC_G11_21 -1.0
    U_G11_20 RES_20 210.69610616873393
    V_G11_20 OBJ 215.9855624611002
    V_G11_20 LOGIC_G11_20 -1.0
    V_G11_20 MINUP_G11_20 1.0
    V_G11_20 MINUP_G11_21 1.0
    V_G11_20 MINUP_G11_22 1.0
    V_G11_20 MINUP_G11_23 1.0
    W_G11_20 LOGIC_G11_20 1.0
    W_G11_20 MINDN_G11_20 1.0
    W_G11_20 MINDN_G11_21 1.0
    M12936 'MARKER' 'INTEND'
    P_G11_20 OBJ 39.659833925981204
    P_G11_20 PMIN_G11_20 1.0
    P_G11_20 PMAX_G11_20 1.0
    P_G11_20 RUP_G11_20 1.0
    P_G11_20 RDN_G11_20 -1.0
    P_G11_20 RUP_G11_21 -1.0
    P_G11_20 RDN_G11_21 1.0
    P_G11_20 DEM_20 1.0
    M12945 'MARKER' 'INTORG'
    U_G11_21 OBJ 384.9906985110794
    U_G11_21 PMIN_G11_21 -74.55605932423195
    U_G11_21 PMAX_G11_21 -210.69610616873393
    U_G11_21 LOGIC_G11_21 1.0
    U_G11_21 MINUP_G11_21 -1.0
    U_G11_21 MINDN_G11_21 1.0
    U_G11_21 LOGIC_G11_22 -1.0
    U_G11_21 RES_21 210.69610616873393
    V_G11_21 OBJ 215.9855624611002
    V_G11_21 LOGIC_G11_21 -1.0
    V_G11_21 MINUP_G11_21 1.0
    V_G11_21 MINUP_G11_22 1.0
    V_G11_21 MINUP_G11_23 1.0
    W_G11_21 LOGIC_G11_21 1.0
    W_G11_21 MINDN_G11_21 1.0
    W_G11_21 MINDN_G11_22 1.0
    M12962 'MARKER' 'INTEND'
    P_G11_21 OBJ 39.659833925981204
    P_G11_21 PMIN_G11_21 1.0
    P_G11_21 PMAX_G11_21 1.0
    P_G11_21 RUP_G11_21 1.0
    P_G11_21 RDN_G11_21 -1.0
    P_G11_21 RUP_G11_22 -1.0
    P_G11_21 RDN_G11_22 1.0
    P_G11_21 DEM_21 1.0
    M12971 'MARKER' 'INTORG'
    U_G11_22 OBJ 384.9906985110794
    U_G11_22 PMIN_G11_22 -74.55605932423195
    U_G11_22 PMAX_G11_22 -210.69610616873393
    U_G11_22 LOGIC_G11_22 1.0
    U_G11_22 MINUP_G11_22 -1.0
    U_G11_22 MINDN_G11_22 1.0
    U_G11_22 LOGIC_G11_23 -1.0
    U_G11_22 RES_22 210.69610616873393
    V_G11_22 OBJ 215.9855624611002
    V_G11_22 LOGIC_G11_22 -1.0
    V_G11_22 MINUP_G11_22 1.0
    V_G11_22 MINUP_G11_23 1.0
    W_G11_22 LOGIC_G11_22 1.0
    W_G11_22 MINDN_G11_22 1.0
    W_G11_22 MINDN_G11_23 1.0
    M12987 'MARKER' 'INTEND'
    P_G11_22 OBJ 39.659833925981204
    P_G11_22 PMIN_G11_22 1.0
    P_G11_22 PMAX_G11_22 1.0
    P_G11_22 RUP_G11_22 1.0
    P_G11_22 RDN_G11_22 -1.0
    P_G11_22 RUP_G11_23 -1.0
    P_G11_22 RDN_G11_23 1.0
    P_G11_22 DEM_22 1.0
    M12996 'MARKER' 'INTORG'
    U_G11_23 OBJ 384.9906985110794
    U_G11_23 PMIN_G11_23 -74.55605932423195
    U_G11_23 PMAX_G11_23 -210.69610616873393
    U_G11_23 LOGIC_G11_23 1.0
    U_G11_23 MINUP_G11_23 -1.0
    U_G11_23 MINDN_G11_23 1.0
    U_G11_23 RES_23 210.69610616873393
    V_G11_23 OBJ 215.9855624611002
    V_G11_23 LOGIC_G11_23 -1.0
    V_G11_23 MINUP_G11_23 1.0
    W_G11_23 LOGIC_G11_23 1.0
    W_G11_23 MINDN_G11_23 1.0
    M13009 'MARKER' 'INTEND'
    P_G11_23 OBJ 39.659833925981204
    P_G11_23 PMIN_G11_23 1.0
    P_G11_23 PMAX_G11_23 1.0
    P_G11_23 RUP_G11_23 1.0
    P_G11_23 RDN_G11_23 -1.0
    P_G11_23 DEM_23 1.0
    M13016 'MARKER' 'INTORG'
    U_G12_0 OBJ 69.64315413225914
    U_G12_0 PMIN_G12_0 -95.45628777987609
    U_G12_0 PMAX_G12_0 -231.5373992330507
    U_G12_0 LOGIC_G12_0 1.0
    U_G12_0 MINUP_G12_0 -1.0
    U_G12_0 MINDN_G12_0 1.0
    U_G12_0 LOGIC_G12_1 -1.0
    U_G12_0 RES_0 231.5373992330507
    V_G12_0 OBJ 2636.0284344945917
    V_G12_0 LOGIC_G12_0 -1.0
    V_G12_0 MINUP_G12_0 1.0
    V_G12_0 MINUP_G12_1 1.0
    W_G12_0 LOGIC_G12_0 1.0
    W_G12_0 MINDN_G12_0 1.0
    W_G12_0 MINDN_G12_1 1.0
    W_G12_0 MINDN_G12_2 1.0
    W_G12_0 MINDN_G12_3 1.0
    W_G12_0 MINDN_G12_4 1.0
    M13035 'MARKER' 'INTEND'
    P_G12_0 OBJ 34.17408058596676
    P_G12_0 PMIN_G12_0 1.0
    P_G12_0 PMAX_G12_0 1.0
    P_G12_0 RUP_G12_1 -1.0
    P_G12_0 RDN_G12_1 1.0
    P_G12_0 DEM_0 1.0
    M13042 'MARKER' 'INTORG'
    U_G12_1 OBJ 69.64315413225914
    U_G12_1 PMIN_G12_1 -95.45628777987609
    U_G12_1 PMAX_G12_1 -231.5373992330507
    U_G12_1 LOGIC_G12_1 1.0
    U_G12_1 MINUP_G12_1 -1.0
    U_G12_1 MINDN_G12_1 1.0
    U_G12_1 LOGIC_G12_2 -1.0
    U_G12_1 RES_1 231.5373992330507
    V_G12_1 OBJ 2636.0284344945917
    V_G12_1 LOGIC_G12_1 -1.0
    V_G12_1 MINUP_G12_1 1.0
    V_G12_1 MINUP_G12_2 1.0
    W_G12_1 LOGIC_G12_1 1.0
    W_G12_1 MINDN_G12_1 1.0
    W_G12_1 MINDN_G12_2 1.0
    W_G12_1 MINDN_G12_3 1.0
    W_G12_1 MINDN_G12_4 1.0
    W_G12_1 MINDN_G12_5 1.0
    M13061 'MARKER' 'INTEND'
    P_G12_1 OBJ 34.17408058596676
    P_G12_1 PMIN_G12_1 1.0
    P_G12_1 PMAX_G12_1 1.0
    P_G12_1 RUP_G12_1 1.0
    P_G12_1 RDN_G12_1 -1.0
    P_G12_1 RUP_G12_2 -1.0
    P_G12_1 RDN_G12_2 1.0
    P_G12_1 DEM_1 1.0
    M13070 'MARKER' 'INTORG'
    U_G12_2 OBJ 69.64315413225914
    U_G12_2 PMIN_G12_2 -95.45628777987609
    U_G12_2 PMAX_G12_2 -231.5373992330507
    U_G12_2 LOGIC_G12_2 1.0
    U_G12_2 MINUP_G12_2 -1.0
    U_G12_2 MINDN_G12_2 1.0
    U_G12_2 LOGIC_G12_3 -1.0
    U_G12_2 RES_2 231.5373992330507
    V_G12_2 OBJ 2636.0284344945917
    V_G12_2 LOGIC_G12_2 -1.0
    V_G12_2 MINUP_G12_2 1.0
    V_G12_2 MINUP_G12_3 1.0
    W_G12_2 LOGIC_G12_2 1.0
    W_G12_2 MINDN_G12_2 1.0
    W_G12_2 MINDN_G12_3 1.0
    W_G12_2 MINDN_G12_4 1.0
    W_G12_2 MINDN_G12_5 1.0
    W_G12_2 MINDN_G12_6 1.0
    M13089 'MARKER' 'INTEND'
    P_G12_2 OBJ 34.17408058596676
    P_G12_2 PMIN_G12_2 1.0
    P_G12_2 PMAX_G12_2 1.0
    P_G12_2 RUP_G12_2 1.0
    P_G12_2 RDN_G12_2 -1.0
    P_G12_2 RUP_G12_3 -1.0
    P_G12_2 RDN_G12_3 1.0
    P_G12_2 DEM_2 1.0
    M13098 'MARKER' 'INTORG'
    U_G12_3 OBJ 69.64315413225914
    U_G12_3 PMIN_G12_3 -95.45628777987609
    U_G12_3 PMAX_G12_3 -231.5373992330507
    U_G12_3 LOGIC_G12_3 1.0
    U_G12_3 MINUP_G12_3 -1.0
    U_G12_3 MINDN_G12_3 1.0
    U_G12_3 LOGIC_G12_4 -1.0
    U_G12_3 RES_3 231.5373992330507
    V_G12_3 OBJ 2636.0284344945917
    V_G12_3 LOGIC_G12_3 -1.0
    V_G12_3 MINUP_G12_3 1.0
    V_G12_3 MINUP_G12_4 1.0
    W_G12_3 LOGIC_G12_3 1.0
    W_G12_3 MINDN_G12_3 1.0
    W_G12_3 MINDN_G12_4 1.0
    W_G12_3 MINDN_G12_5 1.0
    W_G12_3 MINDN_G12_6 1.0
    W_G12_3 MINDN_G12_7 1.0
    M13117 'MARKER' 'INTEND'
    P_G12_3 OBJ 34.17408058596676
    P_G12_3 PMIN_G12_3 1.0
    P_G12_3 PMAX_G12_3 1.0
    P_G12_3 RUP_G12_3 1.0
    P_G12_3 RDN_G12_3 -1.0
    P_G12_3 RUP_G12_4 -1.0
    P_G12_3 RDN_G12_4 1.0
    P_G12_3 DEM_3 1.0
    M13126 'MARKER' 'INTORG'
    U_G12_4 OBJ 69.64315413225914
    U_G12_4 PMIN_G12_4 -95.45628777987609
    U_G12_4 PMAX_G12_4 -231.5373992330507
    U_G12_4 LOGIC_G12_4 1.0
    U_G12_4 MINUP_G12_4 -1.0
    U_G12_4 MINDN_G12_4 1.0
    U_G12_4 LOGIC_G12_5 -1.0
    U_G12_4 RES_4 231.5373992330507
    V_G12_4 OBJ 2636.0284344945917
    V_G12_4 LOGIC_G12_4 -1.0
    V_G12_4 MINUP_G12_4 1.0
    V_G12_4 MINUP_G12_5 1.0
    W_G12_4 LOGIC_G12_4 1.0
    W_G12_4 MINDN_G12_4 1.0
    W_G12_4 MINDN_G12_5 1.0
    W_G12_4 MINDN_G12_6 1.0
    W_G12_4 MINDN_G12_7 1.0
    W_G12_4 MINDN_G12_8 1.0
    M13145 'MARKER' 'INTEND'
    P_G12_4 OBJ 34.17408058596676
    P_G12_4 PMIN_G12_4 1.0
    P_G12_4 PMAX_G12_4 1.0
    P_G12_4 RUP_G12_4 1.0
    P_G12_4 RDN_G12_4 -1.0
    P_G12_4 RUP_G12_5 -1.0
    P_G12_4 RDN_G12_5 1.0
    P_G12_4 DEM_4 1.0
    M13154 'MARKER' 'INTORG'
    U_G12_5 OBJ 69.64315413225914
    U_G12_5 PMIN_G12_5 -95.45628777987609
    U_G12_5 PMAX_G12_5 -231.5373992330507
    U_G12_5 LOGIC_G12_5 1.0
    U_G12_5 MINUP_G12_5 -1.0
    U_G12_5 MINDN_G12_5 1.0
    U_G12_5 LOGIC_G12_6 -1.0
    U_G12_5 RES_5 231.5373992330507
    V_G12_5 OBJ 2636.0284344945917
    V_G12_5 LOGIC_G12_5 -1.0
    V_G12_5 MINUP_G12_5 1.0
    V_G12_5 MINUP_G12_6 1.0
    W_G12_5 LOGIC_G12_5 1.0
    W_G12_5 MINDN_G12_5 1.0
    W_G12_5 MINDN_G12_6 1.0
    W_G12_5 MINDN_G12_7 1.0
    W_G12_5 MINDN_G12_8 1.0
    W_G12_5 MINDN_G12_9 1.0
    M13173 'MARKER' 'INTEND'
    P_G12_5 OBJ 34.17408058596676
    P_G12_5 PMIN_G12_5 1.0
    P_G12_5 PMAX_G12_5 1.0
    P_G12_5 RUP_G12_5 1.0
    P_G12_5 RDN_G12_5 -1.0
    P_G12_5 RUP_G12_6 -1.0
    P_G12_5 RDN_G12_6 1.0
    P_G12_5 DEM_5 1.0
    M13182 'MARKER' 'INTORG'
    U_G12_6 OBJ 69.64315413225914
    U_G12_6 PMIN_G12_6 -95.45628777987609
    U_G12_6 PMAX_G12_6 -231.5373992330507
    U_G12_6 LOGIC_G12_6 1.0
    U_G12_6 MINUP_G12_6 -1.0
    U_G12_6 MINDN_G12_6 1.0
    U_G12_6 LOGIC_G12_7 -1.0
    U_G12_6 RES_6 231.5373992330507
    V_G12_6 OBJ 2636.0284344945917
    V_G12_6 LOGIC_G12_6 -1.0
    V_G12_6 MINUP_G12_6 1.0
    V_G12_6 MINUP_G12_7 1.0
    W_G12_6 LOGIC_G12_6 1.0
    W_G12_6 MINDN_G12_6 1.0
    W_G12_6 MINDN_G12_7 1.0
    W_G12_6 MINDN_G12_8 1.0
    W_G12_6 MINDN_G12_9 1.0
    W_G12_6 MINDN_G12_10 1.0
    M13201 'MARKER' 'INTEND'
    P_G12_6 OBJ 34.17408058596676
    P_G12_6 PMIN_G12_6 1.0
    P_G12_6 PMAX_G12_6 1.0
    P_G12_6 RUP_G12_6 1.0
    P_G12_6 RDN_G12_6 -1.0
    P_G12_6 RUP_G12_7 -1.0
    P_G12_6 RDN_G12_7 1.0
    P_G12_6 DEM_6 1.0
    M13210 'MARKER' 'INTORG'
    U_G12_7 OBJ 69.64315413225914
    U_G12_7 PMIN_G12_7 -95.45628777987609
    U_G12_7 PMAX_G12_7 -231.5373992330507
    U_G12_7 LOGIC_G12_7 1.0
    U_G12_7 MINUP_G12_7 -1.0
    U_G12_7 MINDN_G12_7 1.0
    U_G12_7 LOGIC_G12_8 -1.0
    U_G12_7 RES_7 231.5373992330507
    V_G12_7 OBJ 2636.0284344945917
    V_G12_7 LOGIC_G12_7 -1.0
    V_G12_7 MINUP_G12_7 1.0
    V_G12_7 MINUP_G12_8 1.0
    W_G12_7 LOGIC_G12_7 1.0
    W_G12_7 MINDN_G12_7 1.0
    W_G12_7 MINDN_G12_8 1.0
    W_G12_7 MINDN_G12_9 1.0
    W_G12_7 MINDN_G12_10 1.0
    W_G12_7 MINDN_G12_11 1.0
    M13229 'MARKER' 'INTEND'
    P_G12_7 OBJ 34.17408058596676
    P_G12_7 PMIN_G12_7 1.0
    P_G12_7 PMAX_G12_7 1.0
    P_G12_7 RUP_G12_7 1.0
    P_G12_7 RDN_G12_7 -1.0
    P_G12_7 RUP_G12_8 -1.0
    P_G12_7 RDN_G12_8 1.0
    P_G12_7 DEM_7 1.0
    M13238 'MARKER' 'INTORG'
    U_G12_8 OBJ 69.64315413225914
    U_G12_8 PMIN_G12_8 -95.45628777987609
    U_G12_8 PMAX_G12_8 -231.5373992330507
    U_G12_8 LOGIC_G12_8 1.0
    U_G12_8 MINUP_G12_8 -1.0
    U_G12_8 MINDN_G12_8 1.0
    U_G12_8 LOGIC_G12_9 -1.0
    U_G12_8 RES_8 231.5373992330507
    V_G12_8 OBJ 2636.0284344945917
    V_G12_8 LOGIC_G12_8 -1.0
    V_G12_8 MINUP_G12_8 1.0
    V_G12_8 MINUP_G12_9 1.0
    W_G12_8 LOGIC_G12_8 1.0
    W_G12_8 MINDN_G12_8 1.0
    W_G12_8 MINDN_G12_9 1.0
    W_G12_8 MINDN_G12_10 1.0
    W_G12_8 MINDN_G12_11 1.0
    W_G12_8 MINDN_G12_12 1.0
    M13257 'MARKER' 'INTEND'
    P_G12_8 OBJ 34.17408058596676
    P_G12_8 PMIN_G12_8 1.0
    P_G12_8 PMAX_G12_8 1.0
    P_G12_8 RUP_G12_8 1.0
    P_G12_8 RDN_G12_8 -1.0
    P_G12_8 RUP_G12_9 -1.0
    P_G12_8 RDN_G12_9 1.0
    P_G12_8 DEM_8 1.0
    M13266 'MARKER' 'INTORG'
    U_G12_9 OBJ 69.64315413225914
    U_G12_9 PMIN_G12_9 -95.45628777987609
    U_G12_9 PMAX_G12_9 -231.5373992330507
    U_G12_9 LOGIC_G12_9 1.0
    U_G12_9 MINUP_G12_9 -1.0
    U_G12_9 MINDN_G12_9 1.0
    U_G12_9 LOGIC_G12_10 -1.0
    U_G12_9 RES_9 231.5373992330507
    V_G12_9 OBJ 2636.0284344945917
    V_G12_9 LOGIC_G12_9 -1.0
    V_G12_9 MINUP_G12_9 1.0
    V_G12_9 MINUP_G12_10 1.0
    W_G12_9 LOGIC_G12_9 1.0
    W_G12_9 MINDN_G12_9 1.0
    W_G12_9 MINDN_G12_10 1.0
    W_G12_9 MINDN_G12_11 1.0
    W_G12_9 MINDN_G12_12 1.0
    W_G12_9 MINDN_G12_13 1.0
    M13285 'MARKER' 'INTEND'
    P_G12_9 OBJ 34.17408058596676
    P_G12_9 PMIN_G12_9 1.0
    P_G12_9 PMAX_G12_9 1.0
    P_G12_9 RUP_G12_9 1.0
    P_G12_9 RDN_G12_9 -1.0
    P_G12_9 RUP_G12_10 -1.0
    P_G12_9 RDN_G12_10 1.0
    P_G12_9 DEM_9 1.0
    M13294 'MARKER' 'INTORG'
    U_G12_10 OBJ 69.64315413225914
    U_G12_10 PMIN_G12_10 -95.45628777987609
    U_G12_10 PMAX_G12_10 -231.5373992330507
    U_G12_10 LOGIC_G12_10 1.0
    U_G12_10 MINUP_G12_10 -1.0
    U_G12_10 MINDN_G12_10 1.0
    U_G12_10 LOGIC_G12_11 -1.0
    U_G12_10 RES_10 231.5373992330507
    V_G12_10 OBJ 2636.0284344945917
    V_G12_10 LOGIC_G12_10 -1.0
    V_G12_10 MINUP_G12_10 1.0
    V_G12_10 MINUP_G12_11 1.0
    W_G12_10 LOGIC_G12_10 1.0
    W_G12_10 MINDN_G12_10 1.0
    W_G12_10 MINDN_G12_11 1.0
    W_G12_10 MINDN_G12_12 1.0
    W_G12_10 MINDN_G12_13 1.0
    W_G12_10 MINDN_G12_14 1.0
    M13313 'MARKER' 'INTEND'
    P_G12_10 OBJ 34.17408058596676
    P_G12_10 PMIN_G12_10 1.0
    P_G12_10 PMAX_G12_10 1.0
    P_G12_10 RUP_G12_10 1.0
    P_G12_10 RDN_G12_10 -1.0
    P_G12_10 RUP_G12_11 -1.0
    P_G12_10 RDN_G12_11 1.0
    P_G12_10 DEM_10 1.0
    M13322 'MARKER' 'INTORG'
    U_G12_11 OBJ 69.64315413225914
    U_G12_11 PMIN_G12_11 -95.45628777987609
    U_G12_11 PMAX_G12_11 -231.5373992330507
    U_G12_11 LOGIC_G12_11 1.0
    U_G12_11 MINUP_G12_11 -1.0
    U_G12_11 MINDN_G12_11 1.0
    U_G12_11 LOGIC_G12_12 -1.0
    U_G12_11 RES_11 231.5373992330507
    V_G12_11 OBJ 2636.0284344945917
    V_G12_11 LOGIC_G12_11 -1.0
    V_G12_11 MINUP_G12_11 1.0
    V_G12_11 MINUP_G12_12 1.0
    W_G12_11 LOGIC_G12_11 1.0
    W_G12_11 MINDN_G12_11 1.0
    W_G12_11 MINDN_G12_12 1.0
    W_G12_11 MINDN_G12_13 1.0
    W_G12_11 MINDN_G12_14 1.0
    W_G12_11 MINDN_G12_15 1.0
    M13341 'MARKER' 'INTEND'
    P_G12_11 OBJ 34.17408058596676
    P_G12_11 PMIN_G12_11 1.0
    P_G12_11 PMAX_G12_11 1.0
    P_G12_11 RUP_G12_11 1.0
    P_G12_11 RDN_G12_11 -1.0
    P_G12_11 RUP_G12_12 -1.0
    P_G12_11 RDN_G12_12 1.0
    P_G12_11 DEM_11 1.0
    M13350 'MARKER' 'INTORG'
    U_G12_12 OBJ 69.64315413225914
    U_G12_12 PMIN_G12_12 -95.45628777987609
    U_G12_12 PMAX_G12_12 -231.5373992330507
    U_G12_12 LOGIC_G12_12 1.0
    U_G12_12 MINUP_G12_12 -1.0
    U_G12_12 MINDN_G12_12 1.0
    U_G12_12 LOGIC_G12_13 -1.0
    U_G12_12 RES_12 231.5373992330507
    V_G12_12 OBJ 2636.0284344945917
    V_G12_12 LOGIC_G12_12 -1.0
    V_G12_12 MINUP_G12_12 1.0
    V_G12_12 MINUP_G12_13 1.0
    W_G12_12 LOGIC_G12_12 1.0
    W_G12_12 MINDN_G12_12 1.0
    W_G12_12 MINDN_G12_13 1.0
    W_G12_12 MINDN_G12_14 1.0
    W_G12_12 MINDN_G12_15 1.0
    W_G12_12 MINDN_G12_16 1.0
    M13369 'MARKER' 'INTEND'
    P_G12_12 OBJ 34.17408058596676
    P_G12_12 PMIN_G12_12 1.0
    P_G12_12 PMAX_G12_12 1.0
    P_G12_12 RUP_G12_12 1.0
    P_G12_12 RDN_G12_12 -1.0
    P_G12_12 RUP_G12_13 -1.0
    P_G12_12 RDN_G12_13 1.0
    P_G12_12 DEM_12 1.0
    M13378 'MARKER' 'INTORG'
    U_G12_13 OBJ 69.64315413225914
    U_G12_13 PMIN_G12_13 -95.45628777987609
    U_G12_13 PMAX_G12_13 -231.5373992330507
    U_G12_13 LOGIC_G12_13 1.0
    U_G12_13 MINUP_G12_13 -1.0
    U_G12_13 MINDN_G12_13 1.0
    U_G12_13 LOGIC_G12_14 -1.0
    U_G12_13 RES_13 231.5373992330507
    V_G12_13 OBJ 2636.0284344945917
    V_G12_13 LOGIC_G12_13 -1.0
    V_G12_13 MINUP_G12_13 1.0
    V_G12_13 MINUP_G12_14 1.0
    W_G12_13 LOGIC_G12_13 1.0
    W_G12_13 MINDN_G12_13 1.0
    W_G12_13 MINDN_G12_14 1.0
    W_G12_13 MINDN_G12_15 1.0
    W_G12_13 MINDN_G12_16 1.0
    W_G12_13 MINDN_G12_17 1.0
    M13397 'MARKER' 'INTEND'
    P_G12_13 OBJ 34.17408058596676
    P_G12_13 PMIN_G12_13 1.0
    P_G12_13 PMAX_G12_13 1.0
    P_G12_13 RUP_G12_13 1.0
    P_G12_13 RDN_G12_13 -1.0
    P_G12_13 RUP_G12_14 -1.0
    P_G12_13 RDN_G12_14 1.0
    P_G12_13 DEM_13 1.0
    M13406 'MARKER' 'INTORG'
    U_G12_14 OBJ 69.64315413225914
    U_G12_14 PMIN_G12_14 -95.45628777987609
    U_G12_14 PMAX_G12_14 -231.5373992330507
    U_G12_14 LOGIC_G12_14 1.0
    U_G12_14 MINUP_G12_14 -1.0
    U_G12_14 MINDN_G12_14 1.0
    U_G12_14 LOGIC_G12_15 -1.0
    U_G12_14 RES_14 231.5373992330507
    V_G12_14 OBJ 2636.0284344945917
    V_G12_14 LOGIC_G12_14 -1.0
    V_G12_14 MINUP_G12_14 1.0
    V_G12_14 MINUP_G12_15 1.0
    W_G12_14 LOGIC_G12_14 1.0
    W_G12_14 MINDN_G12_14 1.0
    W_G12_14 MINDN_G12_15 1.0
    W_G12_14 MINDN_G12_16 1.0
    W_G12_14 MINDN_G12_17 1.0
    W_G12_14 MINDN_G12_18 1.0
    M13425 'MARKER' 'INTEND'
    P_G12_14 OBJ 34.17408058596676
    P_G12_14 PMIN_G12_14 1.0
    P_G12_14 PMAX_G12_14 1.0
    P_G12_14 RUP_G12_14 1.0
    P_G12_14 RDN_G12_14 -1.0
    P_G12_14 RUP_G12_15 -1.0
    P_G12_14 RDN_G12_15 1.0
    P_G12_14 DEM_14 1.0
    M13434 'MARKER' 'INTORG'
    U_G12_15 OBJ 69.64315413225914
    U_G12_15 PMIN_G12_15 -95.45628777987609
    U_G12_15 PMAX_G12_15 -231.5373992330507
    U_G12_15 LOGIC_G12_15 1.0
    U_G12_15 MINUP_G12_15 -1.0
    U_G12_15 MINDN_G12_15 1.0
    U_G12_15 LOGIC_G12_16 -1.0
    U_G12_15 RES_15 231.5373992330507
    V_G12_15 OBJ 2636.0284344945917
    V_G12_15 LOGIC_G12_15 -1.0
    V_G12_15 MINUP_G12_15 1.0
    V_G12_15 MINUP_G12_16 1.0
    W_G12_15 LOGIC_G12_15 1.0
    W_G12_15 MINDN_G12_15 1.0
    W_G12_15 MINDN_G12_16 1.0
    W_G12_15 MINDN_G12_17 1.0
    W_G12_15 MINDN_G12_18 1.0
    W_G12_15 MINDN_G12_19 1.0
    M13453 'MARKER' 'INTEND'
    P_G12_15 OBJ 34.17408058596676
    P_G12_15 PMIN_G12_15 1.0
    P_G12_15 PMAX_G12_15 1.0
    P_G12_15 RUP_G12_15 1.0
    P_G12_15 RDN_G12_15 -1.0
    P_G12_15 RUP_G12_16 -1.0
    P_G12_15 RDN_G12_16 1.0
    P_G12_15 DEM_15 1.0
    M13462 'MARKER' 'INTORG'
    U_G12_16 OBJ 69.64315413225914
    U_G12_16 PMIN_G12_16 -95.45628777987609
    U_G12_16 PMAX_G12_16 -231.5373992330507
    U_G12_16 LOGIC_G12_16 1.0
    U_G12_16 MINUP_G12_16 -1.0
    U_G12_16 MINDN_G12_16 1.0
    U_G12_16 LOGIC_G12_17 -1.0
    U_G12_16 RES_16 231.5373992330507
    V_G12_16 OBJ 2636.0284344945917
    V_G12_16 LOGIC_G12_16 -1.0
    V_G12_16 MINUP_G12_16 1.0
    V_G12_16 MINUP_G12_17 1.0
    W_G12_16 LOGIC_G12_16 1.0
    W_G12_16 MINDN_G12_16 1.0
    W_G12_16 MINDN_G12_17 1.0
    W_G12_16 MINDN_G12_18 1.0
    W_G12_16 MINDN_G12_19 1.0
    W_G12_16 MINDN_G12_20 1.0
    M13481 'MARKER' 'INTEND'
    P_G12_16 OBJ 34.17408058596676
    P_G12_16 PMIN_G12_16 1.0
    P_G12_16 PMAX_G12_16 1.0
    P_G12_16 RUP_G12_16 1.0
    P_G12_16 RDN_G12_16 -1.0
    P_G12_16 RUP_G12_17 -1.0
    P_G12_16 RDN_G12_17 1.0
    P_G12_16 DEM_16 1.0
    M13490 'MARKER' 'INTORG'
    U_G12_17 OBJ 69.64315413225914
    U_G12_17 PMIN_G12_17 -95.45628777987609
    U_G12_17 PMAX_G12_17 -231.5373992330507
    U_G12_17 LOGIC_G12_17 1.0
    U_G12_17 MINUP_G12_17 -1.0
    U_G12_17 MINDN_G12_17 1.0
    U_G12_17 LOGIC_G12_18 -1.0
    U_G12_17 RES_17 231.5373992330507
    V_G12_17 OBJ 2636.0284344945917
    V_G12_17 LOGIC_G12_17 -1.0
    V_G12_17 MINUP_G12_17 1.0
    V_G12_17 MINUP_G12_18 1.0
    W_G12_17 LOGIC_G12_17 1.0
    W_G12_17 MINDN_G12_17 1.0
    W_G12_17 MINDN_G12_18 1.0
    W_G12_17 MINDN_G12_19 1.0
    W_G12_17 MINDN_G12_20 1.0
    W_G12_17 MINDN_G12_21 1.0
    M13509 'MARKER' 'INTEND'
    P_G12_17 OBJ 34.17408058596676
    P_G12_17 PMIN_G12_17 1.0
    P_G12_17 PMAX_G12_17 1.0
    P_G12_17 RUP_G12_17 1.0
    P_G12_17 RDN_G12_17 -1.0
    P_G12_17 RUP_G12_18 -1.0
    P_G12_17 RDN_G12_18 1.0
    P_G12_17 DEM_17 1.0
    M13518 'MARKER' 'INTORG'
    U_G12_18 OBJ 69.64315413225914
    U_G12_18 PMIN_G12_18 -95.45628777987609
    U_G12_18 PMAX_G12_18 -231.5373992330507
    U_G12_18 LOGIC_G12_18 1.0
    U_G12_18 MINUP_G12_18 -1.0
    U_G12_18 MINDN_G12_18 1.0
    U_G12_18 LOGIC_G12_19 -1.0
    U_G12_18 RES_18 231.5373992330507
    V_G12_18 OBJ 2636.0284344945917
    V_G12_18 LOGIC_G12_18 -1.0
    V_G12_18 MINUP_G12_18 1.0
    V_G12_18 MINUP_G12_19 1.0
    W_G12_18 LOGIC_G12_18 1.0
    W_G12_18 MINDN_G12_18 1.0
    W_G12_18 MINDN_G12_19 1.0
    W_G12_18 MINDN_G12_20 1.0
    W_G12_18 MINDN_G12_21 1.0
    W_G12_18 MINDN_G12_22 1.0
    M13537 'MARKER' 'INTEND'
    P_G12_18 OBJ 34.17408058596676
    P_G12_18 PMIN_G12_18 1.0
    P_G12_18 PMAX_G12_18 1.0
    P_G12_18 RUP_G12_18 1.0
    P_G12_18 RDN_G12_18 -1.0
    P_G12_18 RUP_G12_19 -1.0
    P_G12_18 RDN_G12_19 1.0
    P_G12_18 DEM_18 1.0
    M13546 'MARKER' 'INTORG'
    U_G12_19 OBJ 69.64315413225914
    U_G12_19 PMIN_G12_19 -95.45628777987609
    U_G12_19 PMAX_G12_19 -231.5373992330507
    U_G12_19 LOGIC_G12_19 1.0
    U_G12_19 MINUP_G12_19 -1.0
    U_G12_19 MINDN_G12_19 1.0
    U_G12_19 LOGIC_G12_20 -1.0
    U_G12_19 RES_19 231.5373992330507
    V_G12_19 OBJ 2636.0284344945917
    V_G12_19 LOGIC_G12_19 -1.0
    V_G12_19 MINUP_G12_19 1.0
    V_G12_19 MINUP_G12_20 1.0
    W_G12_19 LOGIC_G12_19 1.0
    W_G12_19 MINDN_G12_19 1.0
    W_G12_19 MINDN_G12_20 1.0
    W_G12_19 MINDN_G12_21 1.0
    W_G12_19 MINDN_G12_22 1.0
    W_G12_19 MINDN_G12_23 1.0
    M13565 'MARKER' 'INTEND'
    P_G12_19 OBJ 34.17408058596676
    P_G12_19 PMIN_G12_19 1.0
    P_G12_19 PMAX_G12_19 1.0
    P_G12_19 RUP_G12_19 1.0
    P_G12_19 RDN_G12_19 -1.0
    P_G12_19 RUP_G12_20 -1.0
    P_G12_19 RDN_G12_20 1.0
    P_G12_19 DEM_19 1.0
    M13574 'MARKER' 'INTORG'
    U_G12_20 OBJ 69.64315413225914
    U_G12_20 PMIN_G12_20 -95.45628777987609
    U_G12_20 PMAX_G12_20 -231.5373992330507
    U_G12_20 LOGIC_G12_20 1.0
    U_G12_20 MINUP_G12_20 -1.0
    U_G12_20 MINDN_G12_20 1.0
    U_G12_20 LOGIC_G12_21 -1.0
    U_G12_20 RES_20 231.5373992330507
    V_G12_20 OBJ 2636.0284344945917
    V_G12_20 LOGIC_G12_20 -1.0
    V_G12_20 MINUP_G12_20 1.0
    V_G12_20 MINUP_G12_21 1.0
    W_G12_20 LOGIC_G12_20 1.0
    W_G12_20 MINDN_G12_20 1.0
    W_G12_20 MINDN_G12_21 1.0
    W_G12_20 MINDN_G12_22 1.0
    W_G12_20 MINDN_G12_23 1.0
    M13592 'MARKER' 'INTEND'
    P_G12_20 OBJ 34.17408058596676
    P_G12_20 PMIN_G12_20 1.0
    P_G12_20 PMAX_G12_20 1.0
    P_G12_20 RUP_G12_20 1.0
    P_G12_20 RDN_G12_20 -1.0
    P_G12_20 RUP_G12_21 -1.0
    P_G12_20 RDN_G12_21 1.0
    P_G12_20 DEM_20 1.0
    M13601 'MARKER' 'INTORG'
    U_G12_21 OBJ 69.64315413225914
    U_G12_21 PMIN_G12_21 -95.45628777987609
    U_G12_21 PMAX_G12_21 -231.5373992330507
    U_G12_21 LOGIC_G12_21 1.0
    U_G12_21 MINUP_G12_21 -1.0
    U_G12_21 MINDN_G12_21 1.0
    U_G12_21 LOGIC_G12_22 -1.0
    U_G12_21 RES_21 231.5373992330507
    V_G12_21 OBJ 2636.0284344945917
    V_G12_21 LOGIC_G12_21 -1.0
    V_G12_21 MINUP_G12_21 1.0
    V_G12_21 MINUP_G12_22 1.0
    W_G12_21 LOGIC_G12_21 1.0
    W_G12_21 MINDN_G12_21 1.0
    W_G12_21 MINDN_G12_22 1.0
    W_G12_21 MINDN_G12_23 1.0
    M13618 'MARKER' 'INTEND'
    P_G12_21 OBJ 34.17408058596676
    P_G12_21 PMIN_G12_21 1.0
    P_G12_21 PMAX_G12_21 1.0
    P_G12_21 RUP_G12_21 1.0
    P_G12_21 RDN_G12_21 -1.0
    P_G12_21 RUP_G12_22 -1.0
    P_G12_21 RDN_G12_22 1.0
    P_G12_21 DEM_21 1.0
    M13627 'MARKER' 'INTORG'
    U_G12_22 OBJ 69.64315413225914
    U_G12_22 PMIN_G12_22 -95.45628777987609
    U_G12_22 PMAX_G12_22 -231.5373992330507
    U_G12_22 LOGIC_G12_22 1.0
    U_G12_22 MINUP_G12_22 -1.0
    U_G12_22 MINDN_G12_22 1.0
    U_G12_22 LOGIC_G12_23 -1.0
    U_G12_22 RES_22 231.5373992330507
    V_G12_22 OBJ 2636.0284344945917
    V_G12_22 LOGIC_G12_22 -1.0
    V_G12_22 MINUP_G12_22 1.0
    V_G12_22 MINUP_G12_23 1.0
    W_G12_22 LOGIC_G12_22 1.0
    W_G12_22 MINDN_G12_22 1.0
    W_G12_22 MINDN_G12_23 1.0
    M13643 'MARKER' 'INTEND'
    P_G12_22 OBJ 34.17408058596676
    P_G12_22 PMIN_G12_22 1.0
    P_G12_22 PMAX_G12_22 1.0
    P_G12_22 RUP_G12_22 1.0
    P_G12_22 RDN_G12_22 -1.0
    P_G12_22 RUP_G12_23 -1.0
    P_G12_22 RDN_G12_23 1.0
    P_G12_22 DEM_22 1.0
    M13652 'MARKER' 'INTORG'
    U_G12_23 OBJ 69.64315413225914
    U_G12_23 PMIN_G12_23 -95.45628777987609
    U_G12_23 PMAX_G12_23 -231.5373992330507
    U_G12_23 LOGIC_G12_23 1.0
    U_G12_23 MINUP_G12_23 -1.0
    U_G12_23 MINDN_G12_23 1.0
    U_G12_23 RES_23 231.5373992330507
    V_G12_23 OBJ 2636.0284344945917
    V_G12_23 LOGIC_G12_23 -1.0
    V_G12_23 MINUP_G12_23 1.0
    W_G12_23 LOGIC_G12_23 1.0
    W_G12_23 MINDN_G12_23 1.0
    M13665 'MARKER' 'INTEND'
    P_G12_23 OBJ 34.17408058596676
    P_G12_23 PMIN_G12_23 1.0
    P_G12_23 PMAX_G12_23 1.0
    P_G12_23 RUP_G12_23 1.0
    P_G12_23 RDN_G12_23 -1.0
    P_G12_23 DEM_23 1.0
    M13672 'MARKER' 'INTORG'
    U_G13_0 OBJ 50.554662484434076
    U_G13_0 PMIN_G13_0 -90.0772878988643
    U_G13_0 PMAX_G13_0 -194.69001494142253
    U_G13_0 LOGIC_G13_0 1.0
    U_G13_0 MINUP_G13_0 -1.0
    U_G13_0 MINDN_G13_0 1.0
    U_G13_0 LOGIC_G13_1 -1.0
    U_G13_0 RES_0 194.69001494142253
    V_G13_0 OBJ 1712.3067598474802
    V_G13_0 LOGIC_G13_0 -1.0
    V_G13_0 MINUP_G13_0 1.0
    V_G13_0 MINUP_G13_1 1.0
    V_G13_0 MINUP_G13_2 1.0
    W_G13_0 LOGIC_G13_0 1.0
    W_G13_0 MINDN_G13_0 1.0
    W_G13_0 MINDN_G13_1 1.0
    W_G13_0 MINDN_G13_2 1.0
    W_G13_0 MINDN_G13_3 1.0
    M13691 'MARKER' 'INTEND'
    P_G13_0 OBJ 33.64910334775974
    P_G13_0 PMIN_G13_0 1.0
    P_G13_0 PMAX_G13_0 1.0
    P_G13_0 RUP_G13_1 -1.0
    P_G13_0 RDN_G13_1 1.0
    P_G13_0 DEM_0 1.0
    M13698 'MARKER' 'INTORG'
    U_G13_1 OBJ 50.554662484434076
    U_G13_1 PMIN_G13_1 -90.0772878988643
    U_G13_1 PMAX_G13_1 -194.69001494142253
    U_G13_1 LOGIC_G13_1 1.0
    U_G13_1 MINUP_G13_1 -1.0
    U_G13_1 MINDN_G13_1 1.0
    U_G13_1 LOGIC_G13_2 -1.0
    U_G13_1 RES_1 194.69001494142253
    V_G13_1 OBJ 1712.3067598474802
    V_G13_1 LOGIC_G13_1 -1.0
    V_G13_1 MINUP_G13_1 1.0
    V_G13_1 MINUP_G13_2 1.0
    V_G13_1 MINUP_G13_3 1.0
    W_G13_1 LOGIC_G13_1 1.0
    W_G13_1 MINDN_G13_1 1.0
    W_G13_1 MINDN_G13_2 1.0
    W_G13_1 MINDN_G13_3 1.0
    W_G13_1 MINDN_G13_4 1.0
    M13717 'MARKER' 'INTEND'
    P_G13_1 OBJ 33.64910334775974
    P_G13_1 PMIN_G13_1 1.0
    P_G13_1 PMAX_G13_1 1.0
    P_G13_1 RUP_G13_1 1.0
    P_G13_1 RDN_G13_1 -1.0
    P_G13_1 RUP_G13_2 -1.0
    P_G13_1 RDN_G13_2 1.0
    P_G13_1 DEM_1 1.0
    M13726 'MARKER' 'INTORG'
    U_G13_2 OBJ 50.554662484434076
    U_G13_2 PMIN_G13_2 -90.0772878988643
    U_G13_2 PMAX_G13_2 -194.69001494142253
    U_G13_2 LOGIC_G13_2 1.0
    U_G13_2 MINUP_G13_2 -1.0
    U_G13_2 MINDN_G13_2 1.0
    U_G13_2 LOGIC_G13_3 -1.0
    U_G13_2 RES_2 194.69001494142253
    V_G13_2 OBJ 1712.3067598474802
    V_G13_2 LOGIC_G13_2 -1.0
    V_G13_2 MINUP_G13_2 1.0
    V_G13_2 MINUP_G13_3 1.0
    V_G13_2 MINUP_G13_4 1.0
    W_G13_2 LOGIC_G13_2 1.0
    W_G13_2 MINDN_G13_2 1.0
    W_G13_2 MINDN_G13_3 1.0
    W_G13_2 MINDN_G13_4 1.0
    W_G13_2 MINDN_G13_5 1.0
    M13745 'MARKER' 'INTEND'
    P_G13_2 OBJ 33.64910334775974
    P_G13_2 PMIN_G13_2 1.0
    P_G13_2 PMAX_G13_2 1.0
    P_G13_2 RUP_G13_2 1.0
    P_G13_2 RDN_G13_2 -1.0
    P_G13_2 RUP_G13_3 -1.0
    P_G13_2 RDN_G13_3 1.0
    P_G13_2 DEM_2 1.0
    M13754 'MARKER' 'INTORG'
    U_G13_3 OBJ 50.554662484434076
    U_G13_3 PMIN_G13_3 -90.0772878988643
    U_G13_3 PMAX_G13_3 -194.69001494142253
    U_G13_3 LOGIC_G13_3 1.0
    U_G13_3 MINUP_G13_3 -1.0
    U_G13_3 MINDN_G13_3 1.0
    U_G13_3 LOGIC_G13_4 -1.0
    U_G13_3 RES_3 194.69001494142253
    V_G13_3 OBJ 1712.3067598474802
    V_G13_3 LOGIC_G13_3 -1.0
    V_G13_3 MINUP_G13_3 1.0
    V_G13_3 MINUP_G13_4 1.0
    V_G13_3 MINUP_G13_5 1.0
    W_G13_3 LOGIC_G13_3 1.0
    W_G13_3 MINDN_G13_3 1.0
    W_G13_3 MINDN_G13_4 1.0
    W_G13_3 MINDN_G13_5 1.0
    W_G13_3 MINDN_G13_6 1.0
    M13773 'MARKER' 'INTEND'
    P_G13_3 OBJ 33.64910334775974
    P_G13_3 PMIN_G13_3 1.0
    P_G13_3 PMAX_G13_3 1.0
    P_G13_3 RUP_G13_3 1.0
    P_G13_3 RDN_G13_3 -1.0
    P_G13_3 RUP_G13_4 -1.0
    P_G13_3 RDN_G13_4 1.0
    P_G13_3 DEM_3 1.0
    M13782 'MARKER' 'INTORG'
    U_G13_4 OBJ 50.554662484434076
    U_G13_4 PMIN_G13_4 -90.0772878988643
    U_G13_4 PMAX_G13_4 -194.69001494142253
    U_G13_4 LOGIC_G13_4 1.0
    U_G13_4 MINUP_G13_4 -1.0
    U_G13_4 MINDN_G13_4 1.0
    U_G13_4 LOGIC_G13_5 -1.0
    U_G13_4 RES_4 194.69001494142253
    V_G13_4 OBJ 1712.3067598474802
    V_G13_4 LOGIC_G13_4 -1.0
    V_G13_4 MINUP_G13_4 1.0
    V_G13_4 MINUP_G13_5 1.0
    V_G13_4 MINUP_G13_6 1.0
    W_G13_4 LOGIC_G13_4 1.0
    W_G13_4 MINDN_G13_4 1.0
    W_G13_4 MINDN_G13_5 1.0
    W_G13_4 MINDN_G13_6 1.0
    W_G13_4 MINDN_G13_7 1.0
    M13801 'MARKER' 'INTEND'
    P_G13_4 OBJ 33.64910334775974
    P_G13_4 PMIN_G13_4 1.0
    P_G13_4 PMAX_G13_4 1.0
    P_G13_4 RUP_G13_4 1.0
    P_G13_4 RDN_G13_4 -1.0
    P_G13_4 RUP_G13_5 -1.0
    P_G13_4 RDN_G13_5 1.0
    P_G13_4 DEM_4 1.0
    M13810 'MARKER' 'INTORG'
    U_G13_5 OBJ 50.554662484434076
    U_G13_5 PMIN_G13_5 -90.0772878988643
    U_G13_5 PMAX_G13_5 -194.69001494142253
    U_G13_5 LOGIC_G13_5 1.0
    U_G13_5 MINUP_G13_5 -1.0
    U_G13_5 MINDN_G13_5 1.0
    U_G13_5 LOGIC_G13_6 -1.0
    U_G13_5 RES_5 194.69001494142253
    V_G13_5 OBJ 1712.3067598474802
    V_G13_5 LOGIC_G13_5 -1.0
    V_G13_5 MINUP_G13_5 1.0
    V_G13_5 MINUP_G13_6 1.0
    V_G13_5 MINUP_G13_7 1.0
    W_G13_5 LOGIC_G13_5 1.0
    W_G13_5 MINDN_G13_5 1.0
    W_G13_5 MINDN_G13_6 1.0
    W_G13_5 MINDN_G13_7 1.0
    W_G13_5 MINDN_G13_8 1.0
    M13829 'MARKER' 'INTEND'
    P_G13_5 OBJ 33.64910334775974
    P_G13_5 PMIN_G13_5 1.0
    P_G13_5 PMAX_G13_5 1.0
    P_G13_5 RUP_G13_5 1.0
    P_G13_5 RDN_G13_5 -1.0
    P_G13_5 RUP_G13_6 -1.0
    P_G13_5 RDN_G13_6 1.0
    P_G13_5 DEM_5 1.0
    M13838 'MARKER' 'INTORG'
    U_G13_6 OBJ 50.554662484434076
    U_G13_6 PMIN_G13_6 -90.0772878988643
    U_G13_6 PMAX_G13_6 -194.69001494142253
    U_G13_6 LOGIC_G13_6 1.0
    U_G13_6 MINUP_G13_6 -1.0
    U_G13_6 MINDN_G13_6 1.0
    U_G13_6 LOGIC_G13_7 -1.0
    U_G13_6 RES_6 194.69001494142253
    V_G13_6 OBJ 1712.3067598474802
    V_G13_6 LOGIC_G13_6 -1.0
    V_G13_6 MINUP_G13_6 1.0
    V_G13_6 MINUP_G13_7 1.0
    V_G13_6 MINUP_G13_8 1.0
    W_G13_6 LOGIC_G13_6 1.0
    W_G13_6 MINDN_G13_6 1.0
    W_G13_6 MINDN_G13_7 1.0
    W_G13_6 MINDN_G13_8 1.0
    W_G13_6 MINDN_G13_9 1.0
    M13857 'MARKER' 'INTEND'
    P_G13_6 OBJ 33.64910334775974
    P_G13_6 PMIN_G13_6 1.0
    P_G13_6 PMAX_G13_6 1.0
    P_G13_6 RUP_G13_6 1.0
    P_G13_6 RDN_G13_6 -1.0
    P_G13_6 RUP_G13_7 -1.0
    P_G13_6 RDN_G13_7 1.0
    P_G13_6 DEM_6 1.0
    M13866 'MARKER' 'INTORG'
    U_G13_7 OBJ 50.554662484434076
    U_G13_7 PMIN_G13_7 -90.0772878988643
    U_G13_7 PMAX_G13_7 -194.69001494142253
    U_G13_7 LOGIC_G13_7 1.0
    U_G13_7 MINUP_G13_7 -1.0
    U_G13_7 MINDN_G13_7 1.0
    U_G13_7 LOGIC_G13_8 -1.0
    U_G13_7 RES_7 194.69001494142253
    V_G13_7 OBJ 1712.3067598474802
    V_G13_7 LOGIC_G13_7 -1.0
    V_G13_7 MINUP_G13_7 1.0
    V_G13_7 MINUP_G13_8 1.0
    V_G13_7 MINUP_G13_9 1.0
    W_G13_7 LOGIC_G13_7 1.0
    W_G13_7 MINDN_G13_7 1.0
    W_G13_7 MINDN_G13_8 1.0
    W_G13_7 MINDN_G13_9 1.0
    W_G13_7 MINDN_G13_10 1.0
    M13885 'MARKER' 'INTEND'
    P_G13_7 OBJ 33.64910334775974
    P_G13_7 PMIN_G13_7 1.0
    P_G13_7 PMAX_G13_7 1.0
    P_G13_7 RUP_G13_7 1.0
    P_G13_7 RDN_G13_7 -1.0
    P_G13_7 RUP_G13_8 -1.0
    P_G13_7 RDN_G13_8 1.0
    P_G13_7 DEM_7 1.0
    M13894 'MARKER' 'INTORG'
    U_G13_8 OBJ 50.554662484434076
    U_G13_8 PMIN_G13_8 -90.0772878988643
    U_G13_8 PMAX_G13_8 -194.69001494142253
    U_G13_8 LOGIC_G13_8 1.0
    U_G13_8 MINUP_G13_8 -1.0
    U_G13_8 MINDN_G13_8 1.0
    U_G13_8 LOGIC_G13_9 -1.0
    U_G13_8 RES_8 194.69001494142253
    V_G13_8 OBJ 1712.3067598474802
    V_G13_8 LOGIC_G13_8 -1.0
    V_G13_8 MINUP_G13_8 1.0
    V_G13_8 MINUP_G13_9 1.0
    V_G13_8 MINUP_G13_10 1.0
    W_G13_8 LOGIC_G13_8 1.0
    W_G13_8 MINDN_G13_8 1.0
    W_G13_8 MINDN_G13_9 1.0
    W_G13_8 MINDN_G13_10 1.0
    W_G13_8 MINDN_G13_11 1.0
    M13913 'MARKER' 'INTEND'
    P_G13_8 OBJ 33.64910334775974
    P_G13_8 PMIN_G13_8 1.0
    P_G13_8 PMAX_G13_8 1.0
    P_G13_8 RUP_G13_8 1.0
    P_G13_8 RDN_G13_8 -1.0
    P_G13_8 RUP_G13_9 -1.0
    P_G13_8 RDN_G13_9 1.0
    P_G13_8 DEM_8 1.0
    M13922 'MARKER' 'INTORG'
    U_G13_9 OBJ 50.554662484434076
    U_G13_9 PMIN_G13_9 -90.0772878988643
    U_G13_9 PMAX_G13_9 -194.69001494142253
    U_G13_9 LOGIC_G13_9 1.0
    U_G13_9 MINUP_G13_9 -1.0
    U_G13_9 MINDN_G13_9 1.0
    U_G13_9 LOGIC_G13_10 -1.0
    U_G13_9 RES_9 194.69001494142253
    V_G13_9 OBJ 1712.3067598474802
    V_G13_9 LOGIC_G13_9 -1.0
    V_G13_9 MINUP_G13_9 1.0
    V_G13_9 MINUP_G13_10 1.0
    V_G13_9 MINUP_G13_11 1.0
    W_G13_9 LOGIC_G13_9 1.0
    W_G13_9 MINDN_G13_9 1.0
    W_G13_9 MINDN_G13_10 1.0
    W_G13_9 MINDN_G13_11 1.0
    W_G13_9 MINDN_G13_12 1.0
    M13941 'MARKER' 'INTEND'
    P_G13_9 OBJ 33.64910334775974
    P_G13_9 PMIN_G13_9 1.0
    P_G13_9 PMAX_G13_9 1.0
    P_G13_9 RUP_G13_9 1.0
    P_G13_9 RDN_G13_9 -1.0
    P_G13_9 RUP_G13_10 -1.0
    P_G13_9 RDN_G13_10 1.0
    P_G13_9 DEM_9 1.0
    M13950 'MARKER' 'INTORG'
    U_G13_10 OBJ 50.554662484434076
    U_G13_10 PMIN_G13_10 -90.0772878988643
    U_G13_10 PMAX_G13_10 -194.69001494142253
    U_G13_10 LOGIC_G13_10 1.0
    U_G13_10 MINUP_G13_10 -1.0
    U_G13_10 MINDN_G13_10 1.0
    U_G13_10 LOGIC_G13_11 -1.0
    U_G13_10 RES_10 194.69001494142253
    V_G13_10 OBJ 1712.3067598474802
    V_G13_10 LOGIC_G13_10 -1.0
    V_G13_10 MINUP_G13_10 1.0
    V_G13_10 MINUP_G13_11 1.0
    V_G13_10 MINUP_G13_12 1.0
    W_G13_10 LOGIC_G13_10 1.0
    W_G13_10 MINDN_G13_10 1.0
    W_G13_10 MINDN_G13_11 1.0
    W_G13_10 MINDN_G13_12 1.0
    W_G13_10 MINDN_G13_13 1.0
    M13969 'MARKER' 'INTEND'
    P_G13_10 OBJ 33.64910334775974
    P_G13_10 PMIN_G13_10 1.0
    P_G13_10 PMAX_G13_10 1.0
    P_G13_10 RUP_G13_10 1.0
    P_G13_10 RDN_G13_10 -1.0
    P_G13_10 RUP_G13_11 -1.0
    P_G13_10 RDN_G13_11 1.0
    P_G13_10 DEM_10 1.0
    M13978 'MARKER' 'INTORG'
    U_G13_11 OBJ 50.554662484434076
    U_G13_11 PMIN_G13_11 -90.0772878988643
    U_G13_11 PMAX_G13_11 -194.69001494142253
    U_G13_11 LOGIC_G13_11 1.0
    U_G13_11 MINUP_G13_11 -1.0
    U_G13_11 MINDN_G13_11 1.0
    U_G13_11 LOGIC_G13_12 -1.0
    U_G13_11 RES_11 194.69001494142253
    V_G13_11 OBJ 1712.3067598474802
    V_G13_11 LOGIC_G13_11 -1.0
    V_G13_11 MINUP_G13_11 1.0
    V_G13_11 MINUP_G13_12 1.0
    V_G13_11 MINUP_G13_13 1.0
    W_G13_11 LOGIC_G13_11 1.0
    W_G13_11 MINDN_G13_11 1.0
    W_G13_11 MINDN_G13_12 1.0
    W_G13_11 MINDN_G13_13 1.0
    W_G13_11 MINDN_G13_14 1.0
    M13997 'MARKER' 'INTEND'
    P_G13_11 OBJ 33.64910334775974
    P_G13_11 PMIN_G13_11 1.0
    P_G13_11 PMAX_G13_11 1.0
    P_G13_11 RUP_G13_11 1.0
    P_G13_11 RDN_G13_11 -1.0
    P_G13_11 RUP_G13_12 -1.0
    P_G13_11 RDN_G13_12 1.0
    P_G13_11 DEM_11 1.0
    M14006 'MARKER' 'INTORG'
    U_G13_12 OBJ 50.554662484434076
    U_G13_12 PMIN_G13_12 -90.0772878988643
    U_G13_12 PMAX_G13_12 -194.69001494142253
    U_G13_12 LOGIC_G13_12 1.0
    U_G13_12 MINUP_G13_12 -1.0
    U_G13_12 MINDN_G13_12 1.0
    U_G13_12 LOGIC_G13_13 -1.0
    U_G13_12 RES_12 194.69001494142253
    V_G13_12 OBJ 1712.3067598474802
    V_G13_12 LOGIC_G13_12 -1.0
    V_G13_12 MINUP_G13_12 1.0
    V_G13_12 MINUP_G13_13 1.0
    V_G13_12 MINUP_G13_14 1.0
    W_G13_12 LOGIC_G13_12 1.0
    W_G13_12 MINDN_G13_12 1.0
    W_G13_12 MINDN_G13_13 1.0
    W_G13_12 MINDN_G13_14 1.0
    W_G13_12 MINDN_G13_15 1.0
    M14025 'MARKER' 'INTEND'
    P_G13_12 OBJ 33.64910334775974
    P_G13_12 PMIN_G13_12 1.0
    P_G13_12 PMAX_G13_12 1.0
    P_G13_12 RUP_G13_12 1.0
    P_G13_12 RDN_G13_12 -1.0
    P_G13_12 RUP_G13_13 -1.0
    P_G13_12 RDN_G13_13 1.0
    P_G13_12 DEM_12 1.0
    M14034 'MARKER' 'INTORG'
    U_G13_13 OBJ 50.554662484434076
    U_G13_13 PMIN_G13_13 -90.0772878988643
    U_G13_13 PMAX_G13_13 -194.69001494142253
    U_G13_13 LOGIC_G13_13 1.0
    U_G13_13 MINUP_G13_13 -1.0
    U_G13_13 MINDN_G13_13 1.0
    U_G13_13 LOGIC_G13_14 -1.0
    U_G13_13 RES_13 194.69001494142253
    V_G13_13 OBJ 1712.3067598474802
    V_G13_13 LOGIC_G13_13 -1.0
    V_G13_13 MINUP_G13_13 1.0
    V_G13_13 MINUP_G13_14 1.0
    V_G13_13 MINUP_G13_15 1.0
    W_G13_13 LOGIC_G13_13 1.0
    W_G13_13 MINDN_G13_13 1.0
    W_G13_13 MINDN_G13_14 1.0
    W_G13_13 MINDN_G13_15 1.0
    W_G13_13 MINDN_G13_16 1.0
    M14053 'MARKER' 'INTEND'
    P_G13_13 OBJ 33.64910334775974
    P_G13_13 PMIN_G13_13 1.0
    P_G13_13 PMAX_G13_13 1.0
    P_G13_13 RUP_G13_13 1.0
    P_G13_13 RDN_G13_13 -1.0
    P_G13_13 RUP_G13_14 -1.0
    P_G13_13 RDN_G13_14 1.0
    P_G13_13 DEM_13 1.0
    M14062 'MARKER' 'INTORG'
    U_G13_14 OBJ 50.554662484434076
    U_G13_14 PMIN_G13_14 -90.0772878988643
    U_G13_14 PMAX_G13_14 -194.69001494142253
    U_G13_14 LOGIC_G13_14 1.0
    U_G13_14 MINUP_G13_14 -1.0
    U_G13_14 MINDN_G13_14 1.0
    U_G13_14 LOGIC_G13_15 -1.0
    U_G13_14 RES_14 194.69001494142253
    V_G13_14 OBJ 1712.3067598474802
    V_G13_14 LOGIC_G13_14 -1.0
    V_G13_14 MINUP_G13_14 1.0
    V_G13_14 MINUP_G13_15 1.0
    V_G13_14 MINUP_G13_16 1.0
    W_G13_14 LOGIC_G13_14 1.0
    W_G13_14 MINDN_G13_14 1.0
    W_G13_14 MINDN_G13_15 1.0
    W_G13_14 MINDN_G13_16 1.0
    W_G13_14 MINDN_G13_17 1.0
    M14081 'MARKER' 'INTEND'
    P_G13_14 OBJ 33.64910334775974
    P_G13_14 PMIN_G13_14 1.0
    P_G13_14 PMAX_G13_14 1.0
    P_G13_14 RUP_G13_14 1.0
    P_G13_14 RDN_G13_14 -1.0
    P_G13_14 RUP_G13_15 -1.0
    P_G13_14 RDN_G13_15 1.0
    P_G13_14 DEM_14 1.0
    M14090 'MARKER' 'INTORG'
    U_G13_15 OBJ 50.554662484434076
    U_G13_15 PMIN_G13_15 -90.0772878988643
    U_G13_15 PMAX_G13_15 -194.69001494142253
    U_G13_15 LOGIC_G13_15 1.0
    U_G13_15 MINUP_G13_15 -1.0
    U_G13_15 MINDN_G13_15 1.0
    U_G13_15 LOGIC_G13_16 -1.0
    U_G13_15 RES_15 194.69001494142253
    V_G13_15 OBJ 1712.3067598474802
    V_G13_15 LOGIC_G13_15 -1.0
    V_G13_15 MINUP_G13_15 1.0
    V_G13_15 MINUP_G13_16 1.0
    V_G13_15 MINUP_G13_17 1.0
    W_G13_15 LOGIC_G13_15 1.0
    W_G13_15 MINDN_G13_15 1.0
    W_G13_15 MINDN_G13_16 1.0
    W_G13_15 MINDN_G13_17 1.0
    W_G13_15 MINDN_G13_18 1.0
    M14109 'MARKER' 'INTEND'
    P_G13_15 OBJ 33.64910334775974
    P_G13_15 PMIN_G13_15 1.0
    P_G13_15 PMAX_G13_15 1.0
    P_G13_15 RUP_G13_15 1.0
    P_G13_15 RDN_G13_15 -1.0
    P_G13_15 RUP_G13_16 -1.0
    P_G13_15 RDN_G13_16 1.0
    P_G13_15 DEM_15 1.0
    M14118 'MARKER' 'INTORG'
    U_G13_16 OBJ 50.554662484434076
    U_G13_16 PMIN_G13_16 -90.0772878988643
    U_G13_16 PMAX_G13_16 -194.69001494142253
    U_G13_16 LOGIC_G13_16 1.0
    U_G13_16 MINUP_G13_16 -1.0
    U_G13_16 MINDN_G13_16 1.0
    U_G13_16 LOGIC_G13_17 -1.0
    U_G13_16 RES_16 194.69001494142253
    V_G13_16 OBJ 1712.3067598474802
    V_G13_16 LOGIC_G13_16 -1.0
    V_G13_16 MINUP_G13_16 1.0
    V_G13_16 MINUP_G13_17 1.0
    V_G13_16 MINUP_G13_18 1.0
    W_G13_16 LOGIC_G13_16 1.0
    W_G13_16 MINDN_G13_16 1.0
    W_G13_16 MINDN_G13_17 1.0
    W_G13_16 MINDN_G13_18 1.0
    W_G13_16 MINDN_G13_19 1.0
    M14137 'MARKER' 'INTEND'
    P_G13_16 OBJ 33.64910334775974
    P_G13_16 PMIN_G13_16 1.0
    P_G13_16 PMAX_G13_16 1.0
    P_G13_16 RUP_G13_16 1.0
    P_G13_16 RDN_G13_16 -1.0
    P_G13_16 RUP_G13_17 -1.0
    P_G13_16 RDN_G13_17 1.0
    P_G13_16 DEM_16 1.0
    M14146 'MARKER' 'INTORG'
    U_G13_17 OBJ 50.554662484434076
    U_G13_17 PMIN_G13_17 -90.0772878988643
    U_G13_17 PMAX_G13_17 -194.69001494142253
    U_G13_17 LOGIC_G13_17 1.0
    U_G13_17 MINUP_G13_17 -1.0
    U_G13_17 MINDN_G13_17 1.0
    U_G13_17 LOGIC_G13_18 -1.0
    U_G13_17 RES_17 194.69001494142253
    V_G13_17 OBJ 1712.3067598474802
    V_G13_17 LOGIC_G13_17 -1.0
    V_G13_17 MINUP_G13_17 1.0
    V_G13_17 MINUP_G13_18 1.0
    V_G13_17 MINUP_G13_19 1.0
    W_G13_17 LOGIC_G13_17 1.0
    W_G13_17 MINDN_G13_17 1.0
    W_G13_17 MINDN_G13_18 1.0
    W_G13_17 MINDN_G13_19 1.0
    W_G13_17 MINDN_G13_20 1.0
    M14165 'MARKER' 'INTEND'
    P_G13_17 OBJ 33.64910334775974
    P_G13_17 PMIN_G13_17 1.0
    P_G13_17 PMAX_G13_17 1.0
    P_G13_17 RUP_G13_17 1.0
    P_G13_17 RDN_G13_17 -1.0
    P_G13_17 RUP_G13_18 -1.0
    P_G13_17 RDN_G13_18 1.0
    P_G13_17 DEM_17 1.0
    M14174 'MARKER' 'INTORG'
    U_G13_18 OBJ 50.554662484434076
    U_G13_18 PMIN_G13_18 -90.0772878988643
    U_G13_18 PMAX_G13_18 -194.69001494142253
    U_G13_18 LOGIC_G13_18 1.0
    U_G13_18 MINUP_G13_18 -1.0
    U_G13_18 MINDN_G13_18 1.0
    U_G13_18 LOGIC_G13_19 -1.0
    U_G13_18 RES_18 194.69001494142253
    V_G13_18 OBJ 1712.3067598474802
    V_G13_18 LOGIC_G13_18 -1.0
    V_G13_18 MINUP_G13_18 1.0
    V_G13_18 MINUP_G13_19 1.0
    V_G13_18 MINUP_G13_20 1.0
    W_G13_18 LOGIC_G13_18 1.0
    W_G13_18 MINDN_G13_18 1.0
    W_G13_18 MINDN_G13_19 1.0
    W_G13_18 MINDN_G13_20 1.0
    W_G13_18 MINDN_G13_21 1.0
    M14193 'MARKER' 'INTEND'
    P_G13_18 OBJ 33.64910334775974
    P_G13_18 PMIN_G13_18 1.0
    P_G13_18 PMAX_G13_18 1.0
    P_G13_18 RUP_G13_18 1.0
    P_G13_18 RDN_G13_18 -1.0
    P_G13_18 RUP_G13_19 -1.0
    P_G13_18 RDN_G13_19 1.0
    P_G13_18 DEM_18 1.0
    M14202 'MARKER' 'INTORG'
    U_G13_19 OBJ 50.554662484434076
    U_G13_19 PMIN_G13_19 -90.0772878988643
    U_G13_19 PMAX_G13_19 -194.69001494142253
    U_G13_19 LOGIC_G13_19 1.0
    U_G13_19 MINUP_G13_19 -1.0
    U_G13_19 MINDN_G13_19 1.0
    U_G13_19 LOGIC_G13_20 -1.0
    U_G13_19 RES_19 194.69001494142253
    V_G13_19 OBJ 1712.3067598474802
    V_G13_19 LOGIC_G13_19 -1.0
    V_G13_19 MINUP_G13_19 1.0
    V_G13_19 MINUP_G13_20 1.0
    V_G13_19 MINUP_G13_21 1.0
    W_G13_19 LOGIC_G13_19 1.0
    W_G13_19 MINDN_G13_19 1.0
    W_G13_19 MINDN_G13_20 1.0
    W_G13_19 MINDN_G13_21 1.0
    W_G13_19 MINDN_G13_22 1.0
    M14221 'MARKER' 'INTEND'
    P_G13_19 OBJ 33.64910334775974
    P_G13_19 PMIN_G13_19 1.0
    P_G13_19 PMAX_G13_19 1.0
    P_G13_19 RUP_G13_19 1.0
    P_G13_19 RDN_G13_19 -1.0
    P_G13_19 RUP_G13_20 -1.0
    P_G13_19 RDN_G13_20 1.0
    P_G13_19 DEM_19 1.0
    M14230 'MARKER' 'INTORG'
    U_G13_20 OBJ 50.554662484434076
    U_G13_20 PMIN_G13_20 -90.0772878988643
    U_G13_20 PMAX_G13_20 -194.69001494142253
    U_G13_20 LOGIC_G13_20 1.0
    U_G13_20 MINUP_G13_20 -1.0
    U_G13_20 MINDN_G13_20 1.0
    U_G13_20 LOGIC_G13_21 -1.0
    U_G13_20 RES_20 194.69001494142253
    V_G13_20 OBJ 1712.3067598474802
    V_G13_20 LOGIC_G13_20 -1.0
    V_G13_20 MINUP_G13_20 1.0
    V_G13_20 MINUP_G13_21 1.0
    V_G13_20 MINUP_G13_22 1.0
    W_G13_20 LOGIC_G13_20 1.0
    W_G13_20 MINDN_G13_20 1.0
    W_G13_20 MINDN_G13_21 1.0
    W_G13_20 MINDN_G13_22 1.0
    W_G13_20 MINDN_G13_23 1.0
    M14249 'MARKER' 'INTEND'
    P_G13_20 OBJ 33.64910334775974
    P_G13_20 PMIN_G13_20 1.0
    P_G13_20 PMAX_G13_20 1.0
    P_G13_20 RUP_G13_20 1.0
    P_G13_20 RDN_G13_20 -1.0
    P_G13_20 RUP_G13_21 -1.0
    P_G13_20 RDN_G13_21 1.0
    P_G13_20 DEM_20 1.0
    M14258 'MARKER' 'INTORG'
    U_G13_21 OBJ 50.554662484434076
    U_G13_21 PMIN_G13_21 -90.0772878988643
    U_G13_21 PMAX_G13_21 -194.69001494142253
    U_G13_21 LOGIC_G13_21 1.0
    U_G13_21 MINUP_G13_21 -1.0
    U_G13_21 MINDN_G13_21 1.0
    U_G13_21 LOGIC_G13_22 -1.0
    U_G13_21 RES_21 194.69001494142253
    V_G13_21 OBJ 1712.3067598474802
    V_G13_21 LOGIC_G13_21 -1.0
    V_G13_21 MINUP_G13_21 1.0
    V_G13_21 MINUP_G13_22 1.0
    V_G13_21 MINUP_G13_23 1.0
    W_G13_21 LOGIC_G13_21 1.0
    W_G13_21 MINDN_G13_21 1.0
    W_G13_21 MINDN_G13_22 1.0
    W_G13_21 MINDN_G13_23 1.0
    M14276 'MARKER' 'INTEND'
    P_G13_21 OBJ 33.64910334775974
    P_G13_21 PMIN_G13_21 1.0
    P_G13_21 PMAX_G13_21 1.0
    P_G13_21 RUP_G13_21 1.0
    P_G13_21 RDN_G13_21 -1.0
    P_G13_21 RUP_G13_22 -1.0
    P_G13_21 RDN_G13_22 1.0
    P_G13_21 DEM_21 1.0
    M14285 'MARKER' 'INTORG'
    U_G13_22 OBJ 50.554662484434076
    U_G13_22 PMIN_G13_22 -90.0772878988643
    U_G13_22 PMAX_G13_22 -194.69001494142253
    U_G13_22 LOGIC_G13_22 1.0
    U_G13_22 MINUP_G13_22 -1.0
    U_G13_22 MINDN_G13_22 1.0
    U_G13_22 LOGIC_G13_23 -1.0
    U_G13_22 RES_22 194.69001494142253
    V_G13_22 OBJ 1712.3067598474802
    V_G13_22 LOGIC_G13_22 -1.0
    V_G13_22 MINUP_G13_22 1.0
    V_G13_22 MINUP_G13_23 1.0
    W_G13_22 LOGIC_G13_22 1.0
    W_G13_22 MINDN_G13_22 1.0
    W_G13_22 MINDN_G13_23 1.0
    M14301 'MARKER' 'INTEND'
    P_G13_22 OBJ 33.64910334775974
    P_G13_22 PMIN_G13_22 1.0
    P_G13_22 PMAX_G13_22 1.0
    P_G13_22 RUP_G13_22 1.0
    P_G13_22 RDN_G13_22 -1.0
    P_G13_22 RUP_G13_23 -1.0
    P_G13_22 RDN_G13_23 1.0
    P_G13_22 DEM_22 1.0
    M14310 'MARKER' 'INTORG'
    U_G13_23 OBJ 50.554662484434076
    U_G13_23 PMIN_G13_23 -90.0772878988643
    U_G13_23 PMAX_G13_23 -194.69001494142253
    U_G13_23 LOGIC_G13_23 1.0
    U_G13_23 MINUP_G13_23 -1.0
    U_G13_23 MINDN_G13_23 1.0
    U_G13_23 RES_23 194.69001494142253
    V_G13_23 OBJ 1712.3067598474802
    V_G13_23 LOGIC_G13_23 -1.0
    V_G13_23 MINUP_G13_23 1.0
    W_G13_23 LOGIC_G13_23 1.0
    W_G13_23 MINDN_G13_23 1.0
    M14323 'MARKER' 'INTEND'
    P_G13_23 OBJ 33.64910334775974
    P_G13_23 PMIN_G13_23 1.0
    P_G13_23 PMAX_G13_23 1.0
    P_G13_23 RUP_G13_23 1.0
    P_G13_23 RDN_G13_23 -1.0
    P_G13_23 DEM_23 1.0
    M14330 'MARKER' 'INTORG'
    U_G14_0 OBJ 242.76469278753777
    U_G14_0 PMIN_G14_0 -119.81425162048205
    U_G14_0 PMAX_G14_0 -259.94931466721926
    U_G14_0 LOGIC_G14_0 1.0
    U_G14_0 MINUP_G14_0 -1.0
    U_G14_0 MINDN_G14_0 1.0
    U_G14_0 LOGIC_G14_1 -1.0
    U_G14_0 RES_0 259.94931466721926
    V_G14_0 OBJ 706.1951816888511
    V_G14_0 LOGIC_G14_0 -1.0
    V_G14_0 MINUP_G14_0 1.0
    V_G14_0 MINUP_G14_1 1.0
    V_G14_0 MINUP_G14_2 1.0
    V_G14_0 MINUP_G14_3 1.0
    V_G14_0 MINUP_G14_4 1.0
    W_G14_0 LOGIC_G14_0 1.0
    W_G14_0 MINDN_G14_0 1.0
    W_G14_0 MINDN_G14_1 1.0
    W_G14_0 MINDN_G14_2 1.0
    M14350 'MARKER' 'INTEND'
    P_G14_0 OBJ 43.59169906358798
    P_G14_0 PMIN_G14_0 1.0
    P_G14_0 PMAX_G14_0 1.0
    P_G14_0 RUP_G14_1 -1.0
    P_G14_0 RDN_G14_1 1.0
    P_G14_0 DEM_0 1.0
    M14357 'MARKER' 'INTORG'
    U_G14_1 OBJ 242.76469278753777
    U_G14_1 PMIN_G14_1 -119.81425162048205
    U_G14_1 PMAX_G14_1 -259.94931466721926
    U_G14_1 LOGIC_G14_1 1.0
    U_G14_1 MINUP_G14_1 -1.0
    U_G14_1 MINDN_G14_1 1.0
    U_G14_1 LOGIC_G14_2 -1.0
    U_G14_1 RES_1 259.94931466721926
    V_G14_1 OBJ 706.1951816888511
    V_G14_1 LOGIC_G14_1 -1.0
    V_G14_1 MINUP_G14_1 1.0
    V_G14_1 MINUP_G14_2 1.0
    V_G14_1 MINUP_G14_3 1.0
    V_G14_1 MINUP_G14_4 1.0
    V_G14_1 MINUP_G14_5 1.0
    W_G14_1 LOGIC_G14_1 1.0
    W_G14_1 MINDN_G14_1 1.0
    W_G14_1 MINDN_G14_2 1.0
    W_G14_1 MINDN_G14_3 1.0
    M14377 'MARKER' 'INTEND'
    P_G14_1 OBJ 43.59169906358798
    P_G14_1 PMIN_G14_1 1.0
    P_G14_1 PMAX_G14_1 1.0
    P_G14_1 RUP_G14_1 1.0
    P_G14_1 RDN_G14_1 -1.0
    P_G14_1 RUP_G14_2 -1.0
    P_G14_1 RDN_G14_2 1.0
    P_G14_1 DEM_1 1.0
    M14386 'MARKER' 'INTORG'
    U_G14_2 OBJ 242.76469278753777
    U_G14_2 PMIN_G14_2 -119.81425162048205
    U_G14_2 PMAX_G14_2 -259.94931466721926
    U_G14_2 LOGIC_G14_2 1.0
    U_G14_2 MINUP_G14_2 -1.0
    U_G14_2 MINDN_G14_2 1.0
    U_G14_2 LOGIC_G14_3 -1.0
    U_G14_2 RES_2 259.94931466721926
    V_G14_2 OBJ 706.1951816888511
    V_G14_2 LOGIC_G14_2 -1.0
    V_G14_2 MINUP_G14_2 1.0
    V_G14_2 MINUP_G14_3 1.0
    V_G14_2 MINUP_G14_4 1.0
    V_G14_2 MINUP_G14_5 1.0
    V_G14_2 MINUP_G14_6 1.0
    W_G14_2 LOGIC_G14_2 1.0
    W_G14_2 MINDN_G14_2 1.0
    W_G14_2 MINDN_G14_3 1.0
    W_G14_2 MINDN_G14_4 1.0
    M14406 'MARKER' 'INTEND'
    P_G14_2 OBJ 43.59169906358798
    P_G14_2 PMIN_G14_2 1.0
    P_G14_2 PMAX_G14_2 1.0
    P_G14_2 RUP_G14_2 1.0
    P_G14_2 RDN_G14_2 -1.0
    P_G14_2 RUP_G14_3 -1.0
    P_G14_2 RDN_G14_3 1.0
    P_G14_2 DEM_2 1.0
    M14415 'MARKER' 'INTORG'
    U_G14_3 OBJ 242.76469278753777
    U_G14_3 PMIN_G14_3 -119.81425162048205
    U_G14_3 PMAX_G14_3 -259.94931466721926
    U_G14_3 LOGIC_G14_3 1.0
    U_G14_3 MINUP_G14_3 -1.0
    U_G14_3 MINDN_G14_3 1.0
    U_G14_3 LOGIC_G14_4 -1.0
    U_G14_3 RES_3 259.94931466721926
    V_G14_3 OBJ 706.1951816888511
    V_G14_3 LOGIC_G14_3 -1.0
    V_G14_3 MINUP_G14_3 1.0
    V_G14_3 MINUP_G14_4 1.0
    V_G14_3 MINUP_G14_5 1.0
    V_G14_3 MINUP_G14_6 1.0
    V_G14_3 MINUP_G14_7 1.0
    W_G14_3 LOGIC_G14_3 1.0
    W_G14_3 MINDN_G14_3 1.0
    W_G14_3 MINDN_G14_4 1.0
    W_G14_3 MINDN_G14_5 1.0
    M14435 'MARKER' 'INTEND'
    P_G14_3 OBJ 43.59169906358798
    P_G14_3 PMIN_G14_3 1.0
    P_G14_3 PMAX_G14_3 1.0
    P_G14_3 RUP_G14_3 1.0
    P_G14_3 RDN_G14_3 -1.0
    P_G14_3 RUP_G14_4 -1.0
    P_G14_3 RDN_G14_4 1.0
    P_G14_3 DEM_3 1.0
    M14444 'MARKER' 'INTORG'
    U_G14_4 OBJ 242.76469278753777
    U_G14_4 PMIN_G14_4 -119.81425162048205
    U_G14_4 PMAX_G14_4 -259.94931466721926
    U_G14_4 LOGIC_G14_4 1.0
    U_G14_4 MINUP_G14_4 -1.0
    U_G14_4 MINDN_G14_4 1.0
    U_G14_4 LOGIC_G14_5 -1.0
    U_G14_4 RES_4 259.94931466721926
    V_G14_4 OBJ 706.1951816888511
    V_G14_4 LOGIC_G14_4 -1.0
    V_G14_4 MINUP_G14_4 1.0
    V_G14_4 MINUP_G14_5 1.0
    V_G14_4 MINUP_G14_6 1.0
    V_G14_4 MINUP_G14_7 1.0
    V_G14_4 MINUP_G14_8 1.0
    W_G14_4 LOGIC_G14_4 1.0
    W_G14_4 MINDN_G14_4 1.0
    W_G14_4 MINDN_G14_5 1.0
    W_G14_4 MINDN_G14_6 1.0
    M14464 'MARKER' 'INTEND'
    P_G14_4 OBJ 43.59169906358798
    P_G14_4 PMIN_G14_4 1.0
    P_G14_4 PMAX_G14_4 1.0
    P_G14_4 RUP_G14_4 1.0
    P_G14_4 RDN_G14_4 -1.0
    P_G14_4 RUP_G14_5 -1.0
    P_G14_4 RDN_G14_5 1.0
    P_G14_4 DEM_4 1.0
    M14473 'MARKER' 'INTORG'
    U_G14_5 OBJ 242.76469278753777
    U_G14_5 PMIN_G14_5 -119.81425162048205
    U_G14_5 PMAX_G14_5 -259.94931466721926
    U_G14_5 LOGIC_G14_5 1.0
    U_G14_5 MINUP_G14_5 -1.0
    U_G14_5 MINDN_G14_5 1.0
    U_G14_5 LOGIC_G14_6 -1.0
    U_G14_5 RES_5 259.94931466721926
    V_G14_5 OBJ 706.1951816888511
    V_G14_5 LOGIC_G14_5 -1.0
    V_G14_5 MINUP_G14_5 1.0
    V_G14_5 MINUP_G14_6 1.0
    V_G14_5 MINUP_G14_7 1.0
    V_G14_5 MINUP_G14_8 1.0
    V_G14_5 MINUP_G14_9 1.0
    W_G14_5 LOGIC_G14_5 1.0
    W_G14_5 MINDN_G14_5 1.0
    W_G14_5 MINDN_G14_6 1.0
    W_G14_5 MINDN_G14_7 1.0
    M14493 'MARKER' 'INTEND'
    P_G14_5 OBJ 43.59169906358798
    P_G14_5 PMIN_G14_5 1.0
    P_G14_5 PMAX_G14_5 1.0
    P_G14_5 RUP_G14_5 1.0
    P_G14_5 RDN_G14_5 -1.0
    P_G14_5 RUP_G14_6 -1.0
    P_G14_5 RDN_G14_6 1.0
    P_G14_5 DEM_5 1.0
    M14502 'MARKER' 'INTORG'
    U_G14_6 OBJ 242.76469278753777
    U_G14_6 PMIN_G14_6 -119.81425162048205
    U_G14_6 PMAX_G14_6 -259.94931466721926
    U_G14_6 LOGIC_G14_6 1.0
    U_G14_6 MINUP_G14_6 -1.0
    U_G14_6 MINDN_G14_6 1.0
    U_G14_6 LOGIC_G14_7 -1.0
    U_G14_6 RES_6 259.94931466721926
    V_G14_6 OBJ 706.1951816888511
    V_G14_6 LOGIC_G14_6 -1.0
    V_G14_6 MINUP_G14_6 1.0
    V_G14_6 MINUP_G14_7 1.0
    V_G14_6 MINUP_G14_8 1.0
    V_G14_6 MINUP_G14_9 1.0
    V_G14_6 MINUP_G14_10 1.0
    W_G14_6 LOGIC_G14_6 1.0
    W_G14_6 MINDN_G14_6 1.0
    W_G14_6 MINDN_G14_7 1.0
    W_G14_6 MINDN_G14_8 1.0
    M14522 'MARKER' 'INTEND'
    P_G14_6 OBJ 43.59169906358798
    P_G14_6 PMIN_G14_6 1.0
    P_G14_6 PMAX_G14_6 1.0
    P_G14_6 RUP_G14_6 1.0
    P_G14_6 RDN_G14_6 -1.0
    P_G14_6 RUP_G14_7 -1.0
    P_G14_6 RDN_G14_7 1.0
    P_G14_6 DEM_6 1.0
    M14531 'MARKER' 'INTORG'
    U_G14_7 OBJ 242.76469278753777
    U_G14_7 PMIN_G14_7 -119.81425162048205
    U_G14_7 PMAX_G14_7 -259.94931466721926
    U_G14_7 LOGIC_G14_7 1.0
    U_G14_7 MINUP_G14_7 -1.0
    U_G14_7 MINDN_G14_7 1.0
    U_G14_7 LOGIC_G14_8 -1.0
    U_G14_7 RES_7 259.94931466721926
    V_G14_7 OBJ 706.1951816888511
    V_G14_7 LOGIC_G14_7 -1.0
    V_G14_7 MINUP_G14_7 1.0
    V_G14_7 MINUP_G14_8 1.0
    V_G14_7 MINUP_G14_9 1.0
    V_G14_7 MINUP_G14_10 1.0
    V_G14_7 MINUP_G14_11 1.0
    W_G14_7 LOGIC_G14_7 1.0
    W_G14_7 MINDN_G14_7 1.0
    W_G14_7 MINDN_G14_8 1.0
    W_G14_7 MINDN_G14_9 1.0
    M14551 'MARKER' 'INTEND'
    P_G14_7 OBJ 43.59169906358798
    P_G14_7 PMIN_G14_7 1.0
    P_G14_7 PMAX_G14_7 1.0
    P_G14_7 RUP_G14_7 1.0
    P_G14_7 RDN_G14_7 -1.0
    P_G14_7 RUP_G14_8 -1.0
    P_G14_7 RDN_G14_8 1.0
    P_G14_7 DEM_7 1.0
    M14560 'MARKER' 'INTORG'
    U_G14_8 OBJ 242.76469278753777
    U_G14_8 PMIN_G14_8 -119.81425162048205
    U_G14_8 PMAX_G14_8 -259.94931466721926
    U_G14_8 LOGIC_G14_8 1.0
    U_G14_8 MINUP_G14_8 -1.0
    U_G14_8 MINDN_G14_8 1.0
    U_G14_8 LOGIC_G14_9 -1.0
    U_G14_8 RES_8 259.94931466721926
    V_G14_8 OBJ 706.1951816888511
    V_G14_8 LOGIC_G14_8 -1.0
    V_G14_8 MINUP_G14_8 1.0
    V_G14_8 MINUP_G14_9 1.0
    V_G14_8 MINUP_G14_10 1.0
    V_G14_8 MINUP_G14_11 1.0
    V_G14_8 MINUP_G14_12 1.0
    W_G14_8 LOGIC_G14_8 1.0
    W_G14_8 MINDN_G14_8 1.0
    W_G14_8 MINDN_G14_9 1.0
    W_G14_8 MINDN_G14_10 1.0
    M14580 'MARKER' 'INTEND'
    P_G14_8 OBJ 43.59169906358798
    P_G14_8 PMIN_G14_8 1.0
    P_G14_8 PMAX_G14_8 1.0
    P_G14_8 RUP_G14_8 1.0
    P_G14_8 RDN_G14_8 -1.0
    P_G14_8 RUP_G14_9 -1.0
    P_G14_8 RDN_G14_9 1.0
    P_G14_8 DEM_8 1.0
    M14589 'MARKER' 'INTORG'
    U_G14_9 OBJ 242.76469278753777
    U_G14_9 PMIN_G14_9 -119.81425162048205
    U_G14_9 PMAX_G14_9 -259.94931466721926
    U_G14_9 LOGIC_G14_9 1.0
    U_G14_9 MINUP_G14_9 -1.0
    U_G14_9 MINDN_G14_9 1.0
    U_G14_9 LOGIC_G14_10 -1.0
    U_G14_9 RES_9 259.94931466721926
    V_G14_9 OBJ 706.1951816888511
    V_G14_9 LOGIC_G14_9 -1.0
    V_G14_9 MINUP_G14_9 1.0
    V_G14_9 MINUP_G14_10 1.0
    V_G14_9 MINUP_G14_11 1.0
    V_G14_9 MINUP_G14_12 1.0
    V_G14_9 MINUP_G14_13 1.0
    W_G14_9 LOGIC_G14_9 1.0
    W_G14_9 MINDN_G14_9 1.0
    W_G14_9 MINDN_G14_10 1.0
    W_G14_9 MINDN_G14_11 1.0
    M14609 'MARKER' 'INTEND'
    P_G14_9 OBJ 43.59169906358798
    P_G14_9 PMIN_G14_9 1.0
    P_G14_9 PMAX_G14_9 1.0
    P_G14_9 RUP_G14_9 1.0
    P_G14_9 RDN_G14_9 -1.0
    P_G14_9 RUP_G14_10 -1.0
    P_G14_9 RDN_G14_10 1.0
    P_G14_9 DEM_9 1.0
    M14618 'MARKER' 'INTORG'
    U_G14_10 OBJ 242.76469278753777
    U_G14_10 PMIN_G14_10 -119.81425162048205
    U_G14_10 PMAX_G14_10 -259.94931466721926
    U_G14_10 LOGIC_G14_10 1.0
    U_G14_10 MINUP_G14_10 -1.0
    U_G14_10 MINDN_G14_10 1.0
    U_G14_10 LOGIC_G14_11 -1.0
    U_G14_10 RES_10 259.94931466721926
    V_G14_10 OBJ 706.1951816888511
    V_G14_10 LOGIC_G14_10 -1.0
    V_G14_10 MINUP_G14_10 1.0
    V_G14_10 MINUP_G14_11 1.0
    V_G14_10 MINUP_G14_12 1.0
    V_G14_10 MINUP_G14_13 1.0
    V_G14_10 MINUP_G14_14 1.0
    W_G14_10 LOGIC_G14_10 1.0
    W_G14_10 MINDN_G14_10 1.0
    W_G14_10 MINDN_G14_11 1.0
    W_G14_10 MINDN_G14_12 1.0
    M14638 'MARKER' 'INTEND'
    P_G14_10 OBJ 43.59169906358798
    P_G14_10 PMIN_G14_10 1.0
    P_G14_10 PMAX_G14_10 1.0
    P_G14_10 RUP_G14_10 1.0
    P_G14_10 RDN_G14_10 -1.0
    P_G14_10 RUP_G14_11 -1.0
    P_G14_10 RDN_G14_11 1.0
    P_G14_10 DEM_10 1.0
    M14647 'MARKER' 'INTORG'
    U_G14_11 OBJ 242.76469278753777
    U_G14_11 PMIN_G14_11 -119.81425162048205
    U_G14_11 PMAX_G14_11 -259.94931466721926
    U_G14_11 LOGIC_G14_11 1.0
    U_G14_11 MINUP_G14_11 -1.0
    U_G14_11 MINDN_G14_11 1.0
    U_G14_11 LOGIC_G14_12 -1.0
    U_G14_11 RES_11 259.94931466721926
    V_G14_11 OBJ 706.1951816888511
    V_G14_11 LOGIC_G14_11 -1.0
    V_G14_11 MINUP_G14_11 1.0
    V_G14_11 MINUP_G14_12 1.0
    V_G14_11 MINUP_G14_13 1.0
    V_G14_11 MINUP_G14_14 1.0
    V_G14_11 MINUP_G14_15 1.0
    W_G14_11 LOGIC_G14_11 1.0
    W_G14_11 MINDN_G14_11 1.0
    W_G14_11 MINDN_G14_12 1.0
    W_G14_11 MINDN_G14_13 1.0
    M14667 'MARKER' 'INTEND'
    P_G14_11 OBJ 43.59169906358798
    P_G14_11 PMIN_G14_11 1.0
    P_G14_11 PMAX_G14_11 1.0
    P_G14_11 RUP_G14_11 1.0
    P_G14_11 RDN_G14_11 -1.0
    P_G14_11 RUP_G14_12 -1.0
    P_G14_11 RDN_G14_12 1.0
    P_G14_11 DEM_11 1.0
    M14676 'MARKER' 'INTORG'
    U_G14_12 OBJ 242.76469278753777
    U_G14_12 PMIN_G14_12 -119.81425162048205
    U_G14_12 PMAX_G14_12 -259.94931466721926
    U_G14_12 LOGIC_G14_12 1.0
    U_G14_12 MINUP_G14_12 -1.0
    U_G14_12 MINDN_G14_12 1.0
    U_G14_12 LOGIC_G14_13 -1.0
    U_G14_12 RES_12 259.94931466721926
    V_G14_12 OBJ 706.1951816888511
    V_G14_12 LOGIC_G14_12 -1.0
    V_G14_12 MINUP_G14_12 1.0
    V_G14_12 MINUP_G14_13 1.0
    V_G14_12 MINUP_G14_14 1.0
    V_G14_12 MINUP_G14_15 1.0
    V_G14_12 MINUP_G14_16 1.0
    W_G14_12 LOGIC_G14_12 1.0
    W_G14_12 MINDN_G14_12 1.0
    W_G14_12 MINDN_G14_13 1.0
    W_G14_12 MINDN_G14_14 1.0
    M14696 'MARKER' 'INTEND'
    P_G14_12 OBJ 43.59169906358798
    P_G14_12 PMIN_G14_12 1.0
    P_G14_12 PMAX_G14_12 1.0
    P_G14_12 RUP_G14_12 1.0
    P_G14_12 RDN_G14_12 -1.0
    P_G14_12 RUP_G14_13 -1.0
    P_G14_12 RDN_G14_13 1.0
    P_G14_12 DEM_12 1.0
    M14705 'MARKER' 'INTORG'
    U_G14_13 OBJ 242.76469278753777
    U_G14_13 PMIN_G14_13 -119.81425162048205
    U_G14_13 PMAX_G14_13 -259.94931466721926
    U_G14_13 LOGIC_G14_13 1.0
    U_G14_13 MINUP_G14_13 -1.0
    U_G14_13 MINDN_G14_13 1.0
    U_G14_13 LOGIC_G14_14 -1.0
    U_G14_13 RES_13 259.94931466721926
    V_G14_13 OBJ 706.1951816888511
    V_G14_13 LOGIC_G14_13 -1.0
    V_G14_13 MINUP_G14_13 1.0
    V_G14_13 MINUP_G14_14 1.0
    V_G14_13 MINUP_G14_15 1.0
    V_G14_13 MINUP_G14_16 1.0
    V_G14_13 MINUP_G14_17 1.0
    W_G14_13 LOGIC_G14_13 1.0
    W_G14_13 MINDN_G14_13 1.0
    W_G14_13 MINDN_G14_14 1.0
    W_G14_13 MINDN_G14_15 1.0
    M14725 'MARKER' 'INTEND'
    P_G14_13 OBJ 43.59169906358798
    P_G14_13 PMIN_G14_13 1.0
    P_G14_13 PMAX_G14_13 1.0
    P_G14_13 RUP_G14_13 1.0
    P_G14_13 RDN_G14_13 -1.0
    P_G14_13 RUP_G14_14 -1.0
    P_G14_13 RDN_G14_14 1.0
    P_G14_13 DEM_13 1.0
    M14734 'MARKER' 'INTORG'
    U_G14_14 OBJ 242.76469278753777
    U_G14_14 PMIN_G14_14 -119.81425162048205
    U_G14_14 PMAX_G14_14 -259.94931466721926
    U_G14_14 LOGIC_G14_14 1.0
    U_G14_14 MINUP_G14_14 -1.0
    U_G14_14 MINDN_G14_14 1.0
    U_G14_14 LOGIC_G14_15 -1.0
    U_G14_14 RES_14 259.94931466721926
    V_G14_14 OBJ 706.1951816888511
    V_G14_14 LOGIC_G14_14 -1.0
    V_G14_14 MINUP_G14_14 1.0
    V_G14_14 MINUP_G14_15 1.0
    V_G14_14 MINUP_G14_16 1.0
    V_G14_14 MINUP_G14_17 1.0
    V_G14_14 MINUP_G14_18 1.0
    W_G14_14 LOGIC_G14_14 1.0
    W_G14_14 MINDN_G14_14 1.0
    W_G14_14 MINDN_G14_15 1.0
    W_G14_14 MINDN_G14_16 1.0
    M14754 'MARKER' 'INTEND'
    P_G14_14 OBJ 43.59169906358798
    P_G14_14 PMIN_G14_14 1.0
    P_G14_14 PMAX_G14_14 1.0
    P_G14_14 RUP_G14_14 1.0
    P_G14_14 RDN_G14_14 -1.0
    P_G14_14 RUP_G14_15 -1.0
    P_G14_14 RDN_G14_15 1.0
    P_G14_14 DEM_14 1.0
    M14763 'MARKER' 'INTORG'
    U_G14_15 OBJ 242.76469278753777
    U_G14_15 PMIN_G14_15 -119.81425162048205
    U_G14_15 PMAX_G14_15 -259.94931466721926
    U_G14_15 LOGIC_G14_15 1.0
    U_G14_15 MINUP_G14_15 -1.0
    U_G14_15 MINDN_G14_15 1.0
    U_G14_15 LOGIC_G14_16 -1.0
    U_G14_15 RES_15 259.94931466721926
    V_G14_15 OBJ 706.1951816888511
    V_G14_15 LOGIC_G14_15 -1.0
    V_G14_15 MINUP_G14_15 1.0
    V_G14_15 MINUP_G14_16 1.0
    V_G14_15 MINUP_G14_17 1.0
    V_G14_15 MINUP_G14_18 1.0
    V_G14_15 MINUP_G14_19 1.0
    W_G14_15 LOGIC_G14_15 1.0
    W_G14_15 MINDN_G14_15 1.0
    W_G14_15 MINDN_G14_16 1.0
    W_G14_15 MINDN_G14_17 1.0
    M14783 'MARKER' 'INTEND'
    P_G14_15 OBJ 43.59169906358798
    P_G14_15 PMIN_G14_15 1.0
    P_G14_15 PMAX_G14_15 1.0
    P_G14_15 RUP_G14_15 1.0
    P_G14_15 RDN_G14_15 -1.0
    P_G14_15 RUP_G14_16 -1.0
    P_G14_15 RDN_G14_16 1.0
    P_G14_15 DEM_15 1.0
    M14792 'MARKER' 'INTORG'
    U_G14_16 OBJ 242.76469278753777
    U_G14_16 PMIN_G14_16 -119.81425162048205
    U_G14_16 PMAX_G14_16 -259.94931466721926
    U_G14_16 LOGIC_G14_16 1.0
    U_G14_16 MINUP_G14_16 -1.0
    U_G14_16 MINDN_G14_16 1.0
    U_G14_16 LOGIC_G14_17 -1.0
    U_G14_16 RES_16 259.94931466721926
    V_G14_16 OBJ 706.1951816888511
    V_G14_16 LOGIC_G14_16 -1.0
    V_G14_16 MINUP_G14_16 1.0
    V_G14_16 MINUP_G14_17 1.0
    V_G14_16 MINUP_G14_18 1.0
    V_G14_16 MINUP_G14_19 1.0
    V_G14_16 MINUP_G14_20 1.0
    W_G14_16 LOGIC_G14_16 1.0
    W_G14_16 MINDN_G14_16 1.0
    W_G14_16 MINDN_G14_17 1.0
    W_G14_16 MINDN_G14_18 1.0
    M14812 'MARKER' 'INTEND'
    P_G14_16 OBJ 43.59169906358798
    P_G14_16 PMIN_G14_16 1.0
    P_G14_16 PMAX_G14_16 1.0
    P_G14_16 RUP_G14_16 1.0
    P_G14_16 RDN_G14_16 -1.0
    P_G14_16 RUP_G14_17 -1.0
    P_G14_16 RDN_G14_17 1.0
    P_G14_16 DEM_16 1.0
    M14821 'MARKER' 'INTORG'
    U_G14_17 OBJ 242.76469278753777
    U_G14_17 PMIN_G14_17 -119.81425162048205
    U_G14_17 PMAX_G14_17 -259.94931466721926
    U_G14_17 LOGIC_G14_17 1.0
    U_G14_17 MINUP_G14_17 -1.0
    U_G14_17 MINDN_G14_17 1.0
    U_G14_17 LOGIC_G14_18 -1.0
    U_G14_17 RES_17 259.94931466721926
    V_G14_17 OBJ 706.1951816888511
    V_G14_17 LOGIC_G14_17 -1.0
    V_G14_17 MINUP_G14_17 1.0
    V_G14_17 MINUP_G14_18 1.0
    V_G14_17 MINUP_G14_19 1.0
    V_G14_17 MINUP_G14_20 1.0
    V_G14_17 MINUP_G14_21 1.0
    W_G14_17 LOGIC_G14_17 1.0
    W_G14_17 MINDN_G14_17 1.0
    W_G14_17 MINDN_G14_18 1.0
    W_G14_17 MINDN_G14_19 1.0
    M14841 'MARKER' 'INTEND'
    P_G14_17 OBJ 43.59169906358798
    P_G14_17 PMIN_G14_17 1.0
    P_G14_17 PMAX_G14_17 1.0
    P_G14_17 RUP_G14_17 1.0
    P_G14_17 RDN_G14_17 -1.0
    P_G14_17 RUP_G14_18 -1.0
    P_G14_17 RDN_G14_18 1.0
    P_G14_17 DEM_17 1.0
    M14850 'MARKER' 'INTORG'
    U_G14_18 OBJ 242.76469278753777
    U_G14_18 PMIN_G14_18 -119.81425162048205
    U_G14_18 PMAX_G14_18 -259.94931466721926
    U_G14_18 LOGIC_G14_18 1.0
    U_G14_18 MINUP_G14_18 -1.0
    U_G14_18 MINDN_G14_18 1.0
    U_G14_18 LOGIC_G14_19 -1.0
    U_G14_18 RES_18 259.94931466721926
    V_G14_18 OBJ 706.1951816888511
    V_G14_18 LOGIC_G14_18 -1.0
    V_G14_18 MINUP_G14_18 1.0
    V_G14_18 MINUP_G14_19 1.0
    V_G14_18 MINUP_G14_20 1.0
    V_G14_18 MINUP_G14_21 1.0
    V_G14_18 MINUP_G14_22 1.0
    W_G14_18 LOGIC_G14_18 1.0
    W_G14_18 MINDN_G14_18 1.0
    W_G14_18 MINDN_G14_19 1.0
    W_G14_18 MINDN_G14_20 1.0
    M14870 'MARKER' 'INTEND'
    P_G14_18 OBJ 43.59169906358798
    P_G14_18 PMIN_G14_18 1.0
    P_G14_18 PMAX_G14_18 1.0
    P_G14_18 RUP_G14_18 1.0
    P_G14_18 RDN_G14_18 -1.0
    P_G14_18 RUP_G14_19 -1.0
    P_G14_18 RDN_G14_19 1.0
    P_G14_18 DEM_18 1.0
    M14879 'MARKER' 'INTORG'
    U_G14_19 OBJ 242.76469278753777
    U_G14_19 PMIN_G14_19 -119.81425162048205
    U_G14_19 PMAX_G14_19 -259.94931466721926
    U_G14_19 LOGIC_G14_19 1.0
    U_G14_19 MINUP_G14_19 -1.0
    U_G14_19 MINDN_G14_19 1.0
    U_G14_19 LOGIC_G14_20 -1.0
    U_G14_19 RES_19 259.94931466721926
    V_G14_19 OBJ 706.1951816888511
    V_G14_19 LOGIC_G14_19 -1.0
    V_G14_19 MINUP_G14_19 1.0
    V_G14_19 MINUP_G14_20 1.0
    V_G14_19 MINUP_G14_21 1.0
    V_G14_19 MINUP_G14_22 1.0
    V_G14_19 MINUP_G14_23 1.0
    W_G14_19 LOGIC_G14_19 1.0
    W_G14_19 MINDN_G14_19 1.0
    W_G14_19 MINDN_G14_20 1.0
    W_G14_19 MINDN_G14_21 1.0
    M14899 'MARKER' 'INTEND'
    P_G14_19 OBJ 43.59169906358798
    P_G14_19 PMIN_G14_19 1.0
    P_G14_19 PMAX_G14_19 1.0
    P_G14_19 RUP_G14_19 1.0
    P_G14_19 RDN_G14_19 -1.0
    P_G14_19 RUP_G14_20 -1.0
    P_G14_19 RDN_G14_20 1.0
    P_G14_19 DEM_19 1.0
    M14908 'MARKER' 'INTORG'
    U_G14_20 OBJ 242.76469278753777
    U_G14_20 PMIN_G14_20 -119.81425162048205
    U_G14_20 PMAX_G14_20 -259.94931466721926
    U_G14_20 LOGIC_G14_20 1.0
    U_G14_20 MINUP_G14_20 -1.0
    U_G14_20 MINDN_G14_20 1.0
    U_G14_20 LOGIC_G14_21 -1.0
    U_G14_20 RES_20 259.94931466721926
    V_G14_20 OBJ 706.1951816888511
    V_G14_20 LOGIC_G14_20 -1.0
    V_G14_20 MINUP_G14_20 1.0
    V_G14_20 MINUP_G14_21 1.0
    V_G14_20 MINUP_G14_22 1.0
    V_G14_20 MINUP_G14_23 1.0
    W_G14_20 LOGIC_G14_20 1.0
    W_G14_20 MINDN_G14_20 1.0
    W_G14_20 MINDN_G14_21 1.0
    W_G14_20 MINDN_G14_22 1.0
    M14927 'MARKER' 'INTEND'
    P_G14_20 OBJ 43.59169906358798
    P_G14_20 PMIN_G14_20 1.0
    P_G14_20 PMAX_G14_20 1.0
    P_G14_20 RUP_G14_20 1.0
    P_G14_20 RDN_G14_20 -1.0
    P_G14_20 RUP_G14_21 -1.0
    P_G14_20 RDN_G14_21 1.0
    P_G14_20 DEM_20 1.0
    M14936 'MARKER' 'INTORG'
    U_G14_21 OBJ 242.76469278753777
    U_G14_21 PMIN_G14_21 -119.81425162048205
    U_G14_21 PMAX_G14_21 -259.94931466721926
    U_G14_21 LOGIC_G14_21 1.0
    U_G14_21 MINUP_G14_21 -1.0
    U_G14_21 MINDN_G14_21 1.0
    U_G14_21 LOGIC_G14_22 -1.0
    U_G14_21 RES_21 259.94931466721926
    V_G14_21 OBJ 706.1951816888511
    V_G14_21 LOGIC_G14_21 -1.0
    V_G14_21 MINUP_G14_21 1.0
    V_G14_21 MINUP_G14_22 1.0
    V_G14_21 MINUP_G14_23 1.0
    W_G14_21 LOGIC_G14_21 1.0
    W_G14_21 MINDN_G14_21 1.0
    W_G14_21 MINDN_G14_22 1.0
    W_G14_21 MINDN_G14_23 1.0
    M14954 'MARKER' 'INTEND'
    P_G14_21 OBJ 43.59169906358798
    P_G14_21 PMIN_G14_21 1.0
    P_G14_21 PMAX_G14_21 1.0
    P_G14_21 RUP_G14_21 1.0
    P_G14_21 RDN_G14_21 -1.0
    P_G14_21 RUP_G14_22 -1.0
    P_G14_21 RDN_G14_22 1.0
    P_G14_21 DEM_21 1.0
    M14963 'MARKER' 'INTORG'
    U_G14_22 OBJ 242.76469278753777
    U_G14_22 PMIN_G14_22 -119.81425162048205
    U_G14_22 PMAX_G14_22 -259.94931466721926
    U_G14_22 LOGIC_G14_22 1.0
    U_G14_22 MINUP_G14_22 -1.0
    U_G14_22 MINDN_G14_22 1.0
    U_G14_22 LOGIC_G14_23 -1.0
    U_G14_22 RES_22 259.94931466721926
    V_G14_22 OBJ 706.1951816888511
    V_G14_22 LOGIC_G14_22 -1.0
    V_G14_22 MINUP_G14_22 1.0
    V_G14_22 MINUP_G14_23 1.0
    W_G14_22 LOGIC_G14_22 1.0
    W_G14_22 MINDN_G14_22 1.0
    W_G14_22 MINDN_G14_23 1.0
    M14979 'MARKER' 'INTEND'
    P_G14_22 OBJ 43.59169906358798
    P_G14_22 PMIN_G14_22 1.0
    P_G14_22 PMAX_G14_22 1.0
    P_G14_22 RUP_G14_22 1.0
    P_G14_22 RDN_G14_22 -1.0
    P_G14_22 RUP_G14_23 -1.0
    P_G14_22 RDN_G14_23 1.0
    P_G14_22 DEM_22 1.0
    M14988 'MARKER' 'INTORG'
    U_G14_23 OBJ 242.76469278753777
    U_G14_23 PMIN_G14_23 -119.81425162048205
    U_G14_23 PMAX_G14_23 -259.94931466721926
    U_G14_23 LOGIC_G14_23 1.0
    U_G14_23 MINUP_G14_23 -1.0
    U_G14_23 MINDN_G14_23 1.0
    U_G14_23 RES_23 259.94931466721926
    V_G14_23 OBJ 706.1951816888511
    V_G14_23 LOGIC_G14_23 -1.0
    V_G14_23 MINUP_G14_23 1.0
    W_G14_23 LOGIC_G14_23 1.0
    W_G14_23 MINDN_G14_23 1.0
    M15001 'MARKER' 'INTEND'
    P_G14_23 OBJ 43.59169906358798
    P_G14_23 PMIN_G14_23 1.0
    P_G14_23 PMAX_G14_23 1.0
    P_G14_23 RUP_G14_23 1.0
    P_G14_23 RDN_G14_23 -1.0
    P_G14_23 DEM_23 1.0
    M15008 'MARKER' 'INTORG'
    U_G15_0 OBJ 353.82733163119644
    U_G15_0 PMIN_G15_0 -29.987834259502602
    U_G15_0 PMAX_G15_0 -61.36069591798402
    U_G15_0 LOGIC_G15_0 1.0
    U_G15_0 MINUP_G15_0 -1.0
    U_G15_0 MINDN_G15_0 1.0
    U_G15_0 LOGIC_G15_1 -1.0
    U_G15_0 RES_0 61.36069591798402
    V_G15_0 OBJ 1468.3966043648713
    V_G15_0 LOGIC_G15_0 -1.0
    V_G15_0 MINUP_G15_0 1.0
    V_G15_0 MINUP_G15_1 1.0
    V_G15_0 MINUP_G15_2 1.0
    W_G15_0 LOGIC_G15_0 1.0
    W_G15_0 MINDN_G15_0 1.0
    W_G15_0 MINDN_G15_1 1.0
    M15025 'MARKER' 'INTEND'
    P_G15_0 OBJ 18.170406287502765
    P_G15_0 PMIN_G15_0 1.0
    P_G15_0 PMAX_G15_0 1.0
    P_G15_0 RUP_G15_1 -1.0
    P_G15_0 RDN_G15_1 1.0
    P_G15_0 DEM_0 1.0
    M15032 'MARKER' 'INTORG'
    U_G15_1 OBJ 353.82733163119644
    U_G15_1 PMIN_G15_1 -29.987834259502602
    U_G15_1 PMAX_G15_1 -61.36069591798402
    U_G15_1 LOGIC_G15_1 1.0
    U_G15_1 MINUP_G15_1 -1.0
    U_G15_1 MINDN_G15_1 1.0
    U_G15_1 LOGIC_G15_2 -1.0
    U_G15_1 RES_1 61.36069591798402
    V_G15_1 OBJ 1468.3966043648713
    V_G15_1 LOGIC_G15_1 -1.0
    V_G15_1 MINUP_G15_1 1.0
    V_G15_1 MINUP_G15_2 1.0
    V_G15_1 MINUP_G15_3 1.0
    W_G15_1 LOGIC_G15_1 1.0
    W_G15_1 MINDN_G15_1 1.0
    W_G15_1 MINDN_G15_2 1.0
    M15049 'MARKER' 'INTEND'
    P_G15_1 OBJ 18.170406287502765
    P_G15_1 PMIN_G15_1 1.0
    P_G15_1 PMAX_G15_1 1.0
    P_G15_1 RUP_G15_1 1.0
    P_G15_1 RDN_G15_1 -1.0
    P_G15_1 RUP_G15_2 -1.0
    P_G15_1 RDN_G15_2 1.0
    P_G15_1 DEM_1 1.0
    M15058 'MARKER' 'INTORG'
    U_G15_2 OBJ 353.82733163119644
    U_G15_2 PMIN_G15_2 -29.987834259502602
    U_G15_2 PMAX_G15_2 -61.36069591798402
    U_G15_2 LOGIC_G15_2 1.0
    U_G15_2 MINUP_G15_2 -1.0
    U_G15_2 MINDN_G15_2 1.0
    U_G15_2 LOGIC_G15_3 -1.0
    U_G15_2 RES_2 61.36069591798402
    V_G15_2 OBJ 1468.3966043648713
    V_G15_2 LOGIC_G15_2 -1.0
    V_G15_2 MINUP_G15_2 1.0
    V_G15_2 MINUP_G15_3 1.0
    V_G15_2 MINUP_G15_4 1.0
    W_G15_2 LOGIC_G15_2 1.0
    W_G15_2 MINDN_G15_2 1.0
    W_G15_2 MINDN_G15_3 1.0
    M15075 'MARKER' 'INTEND'
    P_G15_2 OBJ 18.170406287502765
    P_G15_2 PMIN_G15_2 1.0
    P_G15_2 PMAX_G15_2 1.0
    P_G15_2 RUP_G15_2 1.0
    P_G15_2 RDN_G15_2 -1.0
    P_G15_2 RUP_G15_3 -1.0
    P_G15_2 RDN_G15_3 1.0
    P_G15_2 DEM_2 1.0
    M15084 'MARKER' 'INTORG'
    U_G15_3 OBJ 353.82733163119644
    U_G15_3 PMIN_G15_3 -29.987834259502602
    U_G15_3 PMAX_G15_3 -61.36069591798402
    U_G15_3 LOGIC_G15_3 1.0
    U_G15_3 MINUP_G15_3 -1.0
    U_G15_3 MINDN_G15_3 1.0
    U_G15_3 LOGIC_G15_4 -1.0
    U_G15_3 RES_3 61.36069591798402
    V_G15_3 OBJ 1468.3966043648713
    V_G15_3 LOGIC_G15_3 -1.0
    V_G15_3 MINUP_G15_3 1.0
    V_G15_3 MINUP_G15_4 1.0
    V_G15_3 MINUP_G15_5 1.0
    W_G15_3 LOGIC_G15_3 1.0
    W_G15_3 MINDN_G15_3 1.0
    W_G15_3 MINDN_G15_4 1.0
    M15101 'MARKER' 'INTEND'
    P_G15_3 OBJ 18.170406287502765
    P_G15_3 PMIN_G15_3 1.0
    P_G15_3 PMAX_G15_3 1.0
    P_G15_3 RUP_G15_3 1.0
    P_G15_3 RDN_G15_3 -1.0
    P_G15_3 RUP_G15_4 -1.0
    P_G15_3 RDN_G15_4 1.0
    P_G15_3 DEM_3 1.0
    M15110 'MARKER' 'INTORG'
    U_G15_4 OBJ 353.82733163119644
    U_G15_4 PMIN_G15_4 -29.987834259502602
    U_G15_4 PMAX_G15_4 -61.36069591798402
    U_G15_4 LOGIC_G15_4 1.0
    U_G15_4 MINUP_G15_4 -1.0
    U_G15_4 MINDN_G15_4 1.0
    U_G15_4 LOGIC_G15_5 -1.0
    U_G15_4 RES_4 61.36069591798402
    V_G15_4 OBJ 1468.3966043648713
    V_G15_4 LOGIC_G15_4 -1.0
    V_G15_4 MINUP_G15_4 1.0
    V_G15_4 MINUP_G15_5 1.0
    V_G15_4 MINUP_G15_6 1.0
    W_G15_4 LOGIC_G15_4 1.0
    W_G15_4 MINDN_G15_4 1.0
    W_G15_4 MINDN_G15_5 1.0
    M15127 'MARKER' 'INTEND'
    P_G15_4 OBJ 18.170406287502765
    P_G15_4 PMIN_G15_4 1.0
    P_G15_4 PMAX_G15_4 1.0
    P_G15_4 RUP_G15_4 1.0
    P_G15_4 RDN_G15_4 -1.0
    P_G15_4 RUP_G15_5 -1.0
    P_G15_4 RDN_G15_5 1.0
    P_G15_4 DEM_4 1.0
    M15136 'MARKER' 'INTORG'
    U_G15_5 OBJ 353.82733163119644
    U_G15_5 PMIN_G15_5 -29.987834259502602
    U_G15_5 PMAX_G15_5 -61.36069591798402
    U_G15_5 LOGIC_G15_5 1.0
    U_G15_5 MINUP_G15_5 -1.0
    U_G15_5 MINDN_G15_5 1.0
    U_G15_5 LOGIC_G15_6 -1.0
    U_G15_5 RES_5 61.36069591798402
    V_G15_5 OBJ 1468.3966043648713
    V_G15_5 LOGIC_G15_5 -1.0
    V_G15_5 MINUP_G15_5 1.0
    V_G15_5 MINUP_G15_6 1.0
    V_G15_5 MINUP_G15_7 1.0
    W_G15_5 LOGIC_G15_5 1.0
    W_G15_5 MINDN_G15_5 1.0
    W_G15_5 MINDN_G15_6 1.0
    M15153 'MARKER' 'INTEND'
    P_G15_5 OBJ 18.170406287502765
    P_G15_5 PMIN_G15_5 1.0
    P_G15_5 PMAX_G15_5 1.0
    P_G15_5 RUP_G15_5 1.0
    P_G15_5 RDN_G15_5 -1.0
    P_G15_5 RUP_G15_6 -1.0
    P_G15_5 RDN_G15_6 1.0
    P_G15_5 DEM_5 1.0
    M15162 'MARKER' 'INTORG'
    U_G15_6 OBJ 353.82733163119644
    U_G15_6 PMIN_G15_6 -29.987834259502602
    U_G15_6 PMAX_G15_6 -61.36069591798402
    U_G15_6 LOGIC_G15_6 1.0
    U_G15_6 MINUP_G15_6 -1.0
    U_G15_6 MINDN_G15_6 1.0
    U_G15_6 LOGIC_G15_7 -1.0
    U_G15_6 RES_6 61.36069591798402
    V_G15_6 OBJ 1468.3966043648713
    V_G15_6 LOGIC_G15_6 -1.0
    V_G15_6 MINUP_G15_6 1.0
    V_G15_6 MINUP_G15_7 1.0
    V_G15_6 MINUP_G15_8 1.0
    W_G15_6 LOGIC_G15_6 1.0
    W_G15_6 MINDN_G15_6 1.0
    W_G15_6 MINDN_G15_7 1.0
    M15179 'MARKER' 'INTEND'
    P_G15_6 OBJ 18.170406287502765
    P_G15_6 PMIN_G15_6 1.0
    P_G15_6 PMAX_G15_6 1.0
    P_G15_6 RUP_G15_6 1.0
    P_G15_6 RDN_G15_6 -1.0
    P_G15_6 RUP_G15_7 -1.0
    P_G15_6 RDN_G15_7 1.0
    P_G15_6 DEM_6 1.0
    M15188 'MARKER' 'INTORG'
    U_G15_7 OBJ 353.82733163119644
    U_G15_7 PMIN_G15_7 -29.987834259502602
    U_G15_7 PMAX_G15_7 -61.36069591798402
    U_G15_7 LOGIC_G15_7 1.0
    U_G15_7 MINUP_G15_7 -1.0
    U_G15_7 MINDN_G15_7 1.0
    U_G15_7 LOGIC_G15_8 -1.0
    U_G15_7 RES_7 61.36069591798402
    V_G15_7 OBJ 1468.3966043648713
    V_G15_7 LOGIC_G15_7 -1.0
    V_G15_7 MINUP_G15_7 1.0
    V_G15_7 MINUP_G15_8 1.0
    V_G15_7 MINUP_G15_9 1.0
    W_G15_7 LOGIC_G15_7 1.0
    W_G15_7 MINDN_G15_7 1.0
    W_G15_7 MINDN_G15_8 1.0
    M15205 'MARKER' 'INTEND'
    P_G15_7 OBJ 18.170406287502765
    P_G15_7 PMIN_G15_7 1.0
    P_G15_7 PMAX_G15_7 1.0
    P_G15_7 RUP_G15_7 1.0
    P_G15_7 RDN_G15_7 -1.0
    P_G15_7 RUP_G15_8 -1.0
    P_G15_7 RDN_G15_8 1.0
    P_G15_7 DEM_7 1.0
    M15214 'MARKER' 'INTORG'
    U_G15_8 OBJ 353.82733163119644
    U_G15_8 PMIN_G15_8 -29.987834259502602
    U_G15_8 PMAX_G15_8 -61.36069591798402
    U_G15_8 LOGIC_G15_8 1.0
    U_G15_8 MINUP_G15_8 -1.0
    U_G15_8 MINDN_G15_8 1.0
    U_G15_8 LOGIC_G15_9 -1.0
    U_G15_8 RES_8 61.36069591798402
    V_G15_8 OBJ 1468.3966043648713
    V_G15_8 LOGIC_G15_8 -1.0
    V_G15_8 MINUP_G15_8 1.0
    V_G15_8 MINUP_G15_9 1.0
    V_G15_8 MINUP_G15_10 1.0
    W_G15_8 LOGIC_G15_8 1.0
    W_G15_8 MINDN_G15_8 1.0
    W_G15_8 MINDN_G15_9 1.0
    M15231 'MARKER' 'INTEND'
    P_G15_8 OBJ 18.170406287502765
    P_G15_8 PMIN_G15_8 1.0
    P_G15_8 PMAX_G15_8 1.0
    P_G15_8 RUP_G15_8 1.0
    P_G15_8 RDN_G15_8 -1.0
    P_G15_8 RUP_G15_9 -1.0
    P_G15_8 RDN_G15_9 1.0
    P_G15_8 DEM_8 1.0
    M15240 'MARKER' 'INTORG'
    U_G15_9 OBJ 353.82733163119644
    U_G15_9 PMIN_G15_9 -29.987834259502602
    U_G15_9 PMAX_G15_9 -61.36069591798402
    U_G15_9 LOGIC_G15_9 1.0
    U_G15_9 MINUP_G15_9 -1.0
    U_G15_9 MINDN_G15_9 1.0
    U_G15_9 LOGIC_G15_10 -1.0
    U_G15_9 RES_9 61.36069591798402
    V_G15_9 OBJ 1468.3966043648713
    V_G15_9 LOGIC_G15_9 -1.0
    V_G15_9 MINUP_G15_9 1.0
    V_G15_9 MINUP_G15_10 1.0
    V_G15_9 MINUP_G15_11 1.0
    W_G15_9 LOGIC_G15_9 1.0
    W_G15_9 MINDN_G15_9 1.0
    W_G15_9 MINDN_G15_10 1.0
    M15257 'MARKER' 'INTEND'
    P_G15_9 OBJ 18.170406287502765
    P_G15_9 PMIN_G15_9 1.0
    P_G15_9 PMAX_G15_9 1.0
    P_G15_9 RUP_G15_9 1.0
    P_G15_9 RDN_G15_9 -1.0
    P_G15_9 RUP_G15_10 -1.0
    P_G15_9 RDN_G15_10 1.0
    P_G15_9 DEM_9 1.0
    M15266 'MARKER' 'INTORG'
    U_G15_10 OBJ 353.82733163119644
    U_G15_10 PMIN_G15_10 -29.987834259502602
    U_G15_10 PMAX_G15_10 -61.36069591798402
    U_G15_10 LOGIC_G15_10 1.0
    U_G15_10 MINUP_G15_10 -1.0
    U_G15_10 MINDN_G15_10 1.0
    U_G15_10 LOGIC_G15_11 -1.0
    U_G15_10 RES_10 61.36069591798402
    V_G15_10 OBJ 1468.3966043648713
    V_G15_10 LOGIC_G15_10 -1.0
    V_G15_10 MINUP_G15_10 1.0
    V_G15_10 MINUP_G15_11 1.0
    V_G15_10 MINUP_G15_12 1.0
    W_G15_10 LOGIC_G15_10 1.0
    W_G15_10 MINDN_G15_10 1.0
    W_G15_10 MINDN_G15_11 1.0
    M15283 'MARKER' 'INTEND'
    P_G15_10 OBJ 18.170406287502765
    P_G15_10 PMIN_G15_10 1.0
    P_G15_10 PMAX_G15_10 1.0
    P_G15_10 RUP_G15_10 1.0
    P_G15_10 RDN_G15_10 -1.0
    P_G15_10 RUP_G15_11 -1.0
    P_G15_10 RDN_G15_11 1.0
    P_G15_10 DEM_10 1.0
    M15292 'MARKER' 'INTORG'
    U_G15_11 OBJ 353.82733163119644
    U_G15_11 PMIN_G15_11 -29.987834259502602
    U_G15_11 PMAX_G15_11 -61.36069591798402
    U_G15_11 LOGIC_G15_11 1.0
    U_G15_11 MINUP_G15_11 -1.0
    U_G15_11 MINDN_G15_11 1.0
    U_G15_11 LOGIC_G15_12 -1.0
    U_G15_11 RES_11 61.36069591798402
    V_G15_11 OBJ 1468.3966043648713
    V_G15_11 LOGIC_G15_11 -1.0
    V_G15_11 MINUP_G15_11 1.0
    V_G15_11 MINUP_G15_12 1.0
    V_G15_11 MINUP_G15_13 1.0
    W_G15_11 LOGIC_G15_11 1.0
    W_G15_11 MINDN_G15_11 1.0
    W_G15_11 MINDN_G15_12 1.0
    M15309 'MARKER' 'INTEND'
    P_G15_11 OBJ 18.170406287502765
    P_G15_11 PMIN_G15_11 1.0
    P_G15_11 PMAX_G15_11 1.0
    P_G15_11 RUP_G15_11 1.0
    P_G15_11 RDN_G15_11 -1.0
    P_G15_11 RUP_G15_12 -1.0
    P_G15_11 RDN_G15_12 1.0
    P_G15_11 DEM_11 1.0
    M15318 'MARKER' 'INTORG'
    U_G15_12 OBJ 353.82733163119644
    U_G15_12 PMIN_G15_12 -29.987834259502602
    U_G15_12 PMAX_G15_12 -61.36069591798402
    U_G15_12 LOGIC_G15_12 1.0
    U_G15_12 MINUP_G15_12 -1.0
    U_G15_12 MINDN_G15_12 1.0
    U_G15_12 LOGIC_G15_13 -1.0
    U_G15_12 RES_12 61.36069591798402
    V_G15_12 OBJ 1468.3966043648713
    V_G15_12 LOGIC_G15_12 -1.0
    V_G15_12 MINUP_G15_12 1.0
    V_G15_12 MINUP_G15_13 1.0
    V_G15_12 MINUP_G15_14 1.0
    W_G15_12 LOGIC_G15_12 1.0
    W_G15_12 MINDN_G15_12 1.0
    W_G15_12 MINDN_G15_13 1.0
    M15335 'MARKER' 'INTEND'
    P_G15_12 OBJ 18.170406287502765
    P_G15_12 PMIN_G15_12 1.0
    P_G15_12 PMAX_G15_12 1.0
    P_G15_12 RUP_G15_12 1.0
    P_G15_12 RDN_G15_12 -1.0
    P_G15_12 RUP_G15_13 -1.0
    P_G15_12 RDN_G15_13 1.0
    P_G15_12 DEM_12 1.0
    M15344 'MARKER' 'INTORG'
    U_G15_13 OBJ 353.82733163119644
    U_G15_13 PMIN_G15_13 -29.987834259502602
    U_G15_13 PMAX_G15_13 -61.36069591798402
    U_G15_13 LOGIC_G15_13 1.0
    U_G15_13 MINUP_G15_13 -1.0
    U_G15_13 MINDN_G15_13 1.0
    U_G15_13 LOGIC_G15_14 -1.0
    U_G15_13 RES_13 61.36069591798402
    V_G15_13 OBJ 1468.3966043648713
    V_G15_13 LOGIC_G15_13 -1.0
    V_G15_13 MINUP_G15_13 1.0
    V_G15_13 MINUP_G15_14 1.0
    V_G15_13 MINUP_G15_15 1.0
    W_G15_13 LOGIC_G15_13 1.0
    W_G15_13 MINDN_G15_13 1.0
    W_G15_13 MINDN_G15_14 1.0
    M15361 'MARKER' 'INTEND'
    P_G15_13 OBJ 18.170406287502765
    P_G15_13 PMIN_G15_13 1.0
    P_G15_13 PMAX_G15_13 1.0
    P_G15_13 RUP_G15_13 1.0
    P_G15_13 RDN_G15_13 -1.0
    P_G15_13 RUP_G15_14 -1.0
    P_G15_13 RDN_G15_14 1.0
    P_G15_13 DEM_13 1.0
    M15370 'MARKER' 'INTORG'
    U_G15_14 OBJ 353.82733163119644
    U_G15_14 PMIN_G15_14 -29.987834259502602
    U_G15_14 PMAX_G15_14 -61.36069591798402
    U_G15_14 LOGIC_G15_14 1.0
    U_G15_14 MINUP_G15_14 -1.0
    U_G15_14 MINDN_G15_14 1.0
    U_G15_14 LOGIC_G15_15 -1.0
    U_G15_14 RES_14 61.36069591798402
    V_G15_14 OBJ 1468.3966043648713
    V_G15_14 LOGIC_G15_14 -1.0
    V_G15_14 MINUP_G15_14 1.0
    V_G15_14 MINUP_G15_15 1.0
    V_G15_14 MINUP_G15_16 1.0
    W_G15_14 LOGIC_G15_14 1.0
    W_G15_14 MINDN_G15_14 1.0
    W_G15_14 MINDN_G15_15 1.0
    M15387 'MARKER' 'INTEND'
    P_G15_14 OBJ 18.170406287502765
    P_G15_14 PMIN_G15_14 1.0
    P_G15_14 PMAX_G15_14 1.0
    P_G15_14 RUP_G15_14 1.0
    P_G15_14 RDN_G15_14 -1.0
    P_G15_14 RUP_G15_15 -1.0
    P_G15_14 RDN_G15_15 1.0
    P_G15_14 DEM_14 1.0
    M15396 'MARKER' 'INTORG'
    U_G15_15 OBJ 353.82733163119644
    U_G15_15 PMIN_G15_15 -29.987834259502602
    U_G15_15 PMAX_G15_15 -61.36069591798402
    U_G15_15 LOGIC_G15_15 1.0
    U_G15_15 MINUP_G15_15 -1.0
    U_G15_15 MINDN_G15_15 1.0
    U_G15_15 LOGIC_G15_16 -1.0
    U_G15_15 RES_15 61.36069591798402
    V_G15_15 OBJ 1468.3966043648713
    V_G15_15 LOGIC_G15_15 -1.0
    V_G15_15 MINUP_G15_15 1.0
    V_G15_15 MINUP_G15_16 1.0
    V_G15_15 MINUP_G15_17 1.0
    W_G15_15 LOGIC_G15_15 1.0
    W_G15_15 MINDN_G15_15 1.0
    W_G15_15 MINDN_G15_16 1.0
    M15413 'MARKER' 'INTEND'
    P_G15_15 OBJ 18.170406287502765
    P_G15_15 PMIN_G15_15 1.0
    P_G15_15 PMAX_G15_15 1.0
    P_G15_15 RUP_G15_15 1.0
    P_G15_15 RDN_G15_15 -1.0
    P_G15_15 RUP_G15_16 -1.0
    P_G15_15 RDN_G15_16 1.0
    P_G15_15 DEM_15 1.0
    M15422 'MARKER' 'INTORG'
    U_G15_16 OBJ 353.82733163119644
    U_G15_16 PMIN_G15_16 -29.987834259502602
    U_G15_16 PMAX_G15_16 -61.36069591798402
    U_G15_16 LOGIC_G15_16 1.0
    U_G15_16 MINUP_G15_16 -1.0
    U_G15_16 MINDN_G15_16 1.0
    U_G15_16 LOGIC_G15_17 -1.0
    U_G15_16 RES_16 61.36069591798402
    V_G15_16 OBJ 1468.3966043648713
    V_G15_16 LOGIC_G15_16 -1.0
    V_G15_16 MINUP_G15_16 1.0
    V_G15_16 MINUP_G15_17 1.0
    V_G15_16 MINUP_G15_18 1.0
    W_G15_16 LOGIC_G15_16 1.0
    W_G15_16 MINDN_G15_16 1.0
    W_G15_16 MINDN_G15_17 1.0
    M15439 'MARKER' 'INTEND'
    P_G15_16 OBJ 18.170406287502765
    P_G15_16 PMIN_G15_16 1.0
    P_G15_16 PMAX_G15_16 1.0
    P_G15_16 RUP_G15_16 1.0
    P_G15_16 RDN_G15_16 -1.0
    P_G15_16 RUP_G15_17 -1.0
    P_G15_16 RDN_G15_17 1.0
    P_G15_16 DEM_16 1.0
    M15448 'MARKER' 'INTORG'
    U_G15_17 OBJ 353.82733163119644
    U_G15_17 PMIN_G15_17 -29.987834259502602
    U_G15_17 PMAX_G15_17 -61.36069591798402
    U_G15_17 LOGIC_G15_17 1.0
    U_G15_17 MINUP_G15_17 -1.0
    U_G15_17 MINDN_G15_17 1.0
    U_G15_17 LOGIC_G15_18 -1.0
    U_G15_17 RES_17 61.36069591798402
    V_G15_17 OBJ 1468.3966043648713
    V_G15_17 LOGIC_G15_17 -1.0
    V_G15_17 MINUP_G15_17 1.0
    V_G15_17 MINUP_G15_18 1.0
    V_G15_17 MINUP_G15_19 1.0
    W_G15_17 LOGIC_G15_17 1.0
    W_G15_17 MINDN_G15_17 1.0
    W_G15_17 MINDN_G15_18 1.0
    M15465 'MARKER' 'INTEND'
    P_G15_17 OBJ 18.170406287502765
    P_G15_17 PMIN_G15_17 1.0
    P_G15_17 PMAX_G15_17 1.0
    P_G15_17 RUP_G15_17 1.0
    P_G15_17 RDN_G15_17 -1.0
    P_G15_17 RUP_G15_18 -1.0
    P_G15_17 RDN_G15_18 1.0
    P_G15_17 DEM_17 1.0
    M15474 'MARKER' 'INTORG'
    U_G15_18 OBJ 353.82733163119644
    U_G15_18 PMIN_G15_18 -29.987834259502602
    U_G15_18 PMAX_G15_18 -61.36069591798402
    U_G15_18 LOGIC_G15_18 1.0
    U_G15_18 MINUP_G15_18 -1.0
    U_G15_18 MINDN_G15_18 1.0
    U_G15_18 LOGIC_G15_19 -1.0
    U_G15_18 RES_18 61.36069591798402
    V_G15_18 OBJ 1468.3966043648713
    V_G15_18 LOGIC_G15_18 -1.0
    V_G15_18 MINUP_G15_18 1.0
    V_G15_18 MINUP_G15_19 1.0
    V_G15_18 MINUP_G15_20 1.0
    W_G15_18 LOGIC_G15_18 1.0
    W_G15_18 MINDN_G15_18 1.0
    W_G15_18 MINDN_G15_19 1.0
    M15491 'MARKER' 'INTEND'
    P_G15_18 OBJ 18.170406287502765
    P_G15_18 PMIN_G15_18 1.0
    P_G15_18 PMAX_G15_18 1.0
    P_G15_18 RUP_G15_18 1.0
    P_G15_18 RDN_G15_18 -1.0
    P_G15_18 RUP_G15_19 -1.0
    P_G15_18 RDN_G15_19 1.0
    P_G15_18 DEM_18 1.0
    M15500 'MARKER' 'INTORG'
    U_G15_19 OBJ 353.82733163119644
    U_G15_19 PMIN_G15_19 -29.987834259502602
    U_G15_19 PMAX_G15_19 -61.36069591798402
    U_G15_19 LOGIC_G15_19 1.0
    U_G15_19 MINUP_G15_19 -1.0
    U_G15_19 MINDN_G15_19 1.0
    U_G15_19 LOGIC_G15_20 -1.0
    U_G15_19 RES_19 61.36069591798402
    V_G15_19 OBJ 1468.3966043648713
    V_G15_19 LOGIC_G15_19 -1.0
    V_G15_19 MINUP_G15_19 1.0
    V_G15_19 MINUP_G15_20 1.0
    V_G15_19 MINUP_G15_21 1.0
    W_G15_19 LOGIC_G15_19 1.0
    W_G15_19 MINDN_G15_19 1.0
    W_G15_19 MINDN_G15_20 1.0
    M15517 'MARKER' 'INTEND'
    P_G15_19 OBJ 18.170406287502765
    P_G15_19 PMIN_G15_19 1.0
    P_G15_19 PMAX_G15_19 1.0
    P_G15_19 RUP_G15_19 1.0
    P_G15_19 RDN_G15_19 -1.0
    P_G15_19 RUP_G15_20 -1.0
    P_G15_19 RDN_G15_20 1.0
    P_G15_19 DEM_19 1.0
    M15526 'MARKER' 'INTORG'
    U_G15_20 OBJ 353.82733163119644
    U_G15_20 PMIN_G15_20 -29.987834259502602
    U_G15_20 PMAX_G15_20 -61.36069591798402
    U_G15_20 LOGIC_G15_20 1.0
    U_G15_20 MINUP_G15_20 -1.0
    U_G15_20 MINDN_G15_20 1.0
    U_G15_20 LOGIC_G15_21 -1.0
    U_G15_20 RES_20 61.36069591798402
    V_G15_20 OBJ 1468.3966043648713
    V_G15_20 LOGIC_G15_20 -1.0
    V_G15_20 MINUP_G15_20 1.0
    V_G15_20 MINUP_G15_21 1.0
    V_G15_20 MINUP_G15_22 1.0
    W_G15_20 LOGIC_G15_20 1.0
    W_G15_20 MINDN_G15_20 1.0
    W_G15_20 MINDN_G15_21 1.0
    M15543 'MARKER' 'INTEND'
    P_G15_20 OBJ 18.170406287502765
    P_G15_20 PMIN_G15_20 1.0
    P_G15_20 PMAX_G15_20 1.0
    P_G15_20 RUP_G15_20 1.0
    P_G15_20 RDN_G15_20 -1.0
    P_G15_20 RUP_G15_21 -1.0
    P_G15_20 RDN_G15_21 1.0
    P_G15_20 DEM_20 1.0
    M15552 'MARKER' 'INTORG'
    U_G15_21 OBJ 353.82733163119644
    U_G15_21 PMIN_G15_21 -29.987834259502602
    U_G15_21 PMAX_G15_21 -61.36069591798402
    U_G15_21 LOGIC_G15_21 1.0
    U_G15_21 MINUP_G15_21 -1.0
    U_G15_21 MINDN_G15_21 1.0
    U_G15_21 LOGIC_G15_22 -1.0
    U_G15_21 RES_21 61.36069591798402
    V_G15_21 OBJ 1468.3966043648713
    V_G15_21 LOGIC_G15_21 -1.0
    V_G15_21 MINUP_G15_21 1.0
    V_G15_21 MINUP_G15_22 1.0
    V_G15_21 MINUP_G15_23 1.0
    W_G15_21 LOGIC_G15_21 1.0
    W_G15_21 MINDN_G15_21 1.0
    W_G15_21 MINDN_G15_22 1.0
    M15569 'MARKER' 'INTEND'
    P_G15_21 OBJ 18.170406287502765
    P_G15_21 PMIN_G15_21 1.0
    P_G15_21 PMAX_G15_21 1.0
    P_G15_21 RUP_G15_21 1.0
    P_G15_21 RDN_G15_21 -1.0
    P_G15_21 RUP_G15_22 -1.0
    P_G15_21 RDN_G15_22 1.0
    P_G15_21 DEM_21 1.0
    M15578 'MARKER' 'INTORG'
    U_G15_22 OBJ 353.82733163119644
    U_G15_22 PMIN_G15_22 -29.987834259502602
    U_G15_22 PMAX_G15_22 -61.36069591798402
    U_G15_22 LOGIC_G15_22 1.0
    U_G15_22 MINUP_G15_22 -1.0
    U_G15_22 MINDN_G15_22 1.0
    U_G15_22 LOGIC_G15_23 -1.0
    U_G15_22 RES_22 61.36069591798402
    V_G15_22 OBJ 1468.3966043648713
    V_G15_22 LOGIC_G15_22 -1.0
    V_G15_22 MINUP_G15_22 1.0
    V_G15_22 MINUP_G15_23 1.0
    W_G15_22 LOGIC_G15_22 1.0
    W_G15_22 MINDN_G15_22 1.0
    W_G15_22 MINDN_G15_23 1.0
    M15594 'MARKER' 'INTEND'
    P_G15_22 OBJ 18.170406287502765
    P_G15_22 PMIN_G15_22 1.0
    P_G15_22 PMAX_G15_22 1.0
    P_G15_22 RUP_G15_22 1.0
    P_G15_22 RDN_G15_22 -1.0
    P_G15_22 RUP_G15_23 -1.0
    P_G15_22 RDN_G15_23 1.0
    P_G15_22 DEM_22 1.0
    M15603 'MARKER' 'INTORG'
    U_G15_23 OBJ 353.82733163119644
    U_G15_23 PMIN_G15_23 -29.987834259502602
    U_G15_23 PMAX_G15_23 -61.36069591798402
    U_G15_23 LOGIC_G15_23 1.0
    U_G15_23 MINUP_G15_23 -1.0
    U_G15_23 MINDN_G15_23 1.0
    U_G15_23 RES_23 61.36069591798402
    V_G15_23 OBJ 1468.3966043648713
    V_G15_23 LOGIC_G15_23 -1.0
    V_G15_23 MINUP_G15_23 1.0
    W_G15_23 LOGIC_G15_23 1.0
    W_G15_23 MINDN_G15_23 1.0
    M15616 'MARKER' 'INTEND'
    P_G15_23 OBJ 18.170406287502765
    P_G15_23 PMIN_G15_23 1.0
    P_G15_23 PMAX_G15_23 1.0
    P_G15_23 RUP_G15_23 1.0
    P_G15_23 RDN_G15_23 -1.0
    P_G15_23 DEM_23 1.0
    M15623 'MARKER' 'INTORG'
    U_G16_0 OBJ 151.59951243050682
    U_G16_0 PMIN_G16_0 -66.17319191957047
    U_G16_0 PMAX_G16_0 -144.0246067071037
    U_G16_0 LOGIC_G16_0 1.0
    U_G16_0 MINUP_G16_0 -1.0
    U_G16_0 MINDN_G16_0 1.0
    U_G16_0 LOGIC_G16_1 -1.0
    U_G16_0 RES_0 144.0246067071037
    V_G16_0 OBJ 668.916860572632
    V_G16_0 LOGIC_G16_0 -1.0
    V_G16_0 MINUP_G16_0 1.0
    V_G16_0 MINUP_G16_1 1.0
    W_G16_0 LOGIC_G16_0 1.0
    W_G16_0 MINDN_G16_0 1.0
    W_G16_0 MINDN_G16_1 1.0
    W_G16_0 MINDN_G16_2 1.0
    M15640 'MARKER' 'INTEND'
    P_G16_0 OBJ 23.3074582405316
    P_G16_0 PMIN_G16_0 1.0
    P_G16_0 PMAX_G16_0 1.0
    P_G16_0 RUP_G16_1 -1.0
    P_G16_0 RDN_G16_1 1.0
    P_G16_0 DEM_0 1.0
    M15647 'MARKER' 'INTORG'
    U_G16_1 OBJ 151.59951243050682
    U_G16_1 PMIN_G16_1 -66.17319191957047
    U_G16_1 PMAX_G16_1 -144.0246067071037
    U_G16_1 LOGIC_G16_1 1.0
    U_G16_1 MINUP_G16_1 -1.0
    U_G16_1 MINDN_G16_1 1.0
    U_G16_1 LOGIC_G16_2 -1.0
    U_G16_1 RES_1 144.0246067071037
    V_G16_1 OBJ 668.916860572632
    V_G16_1 LOGIC_G16_1 -1.0
    V_G16_1 MINUP_G16_1 1.0
    V_G16_1 MINUP_G16_2 1.0
    W_G16_1 LOGIC_G16_1 1.0
    W_G16_1 MINDN_G16_1 1.0
    W_G16_1 MINDN_G16_2 1.0
    W_G16_1 MINDN_G16_3 1.0
    M15664 'MARKER' 'INTEND'
    P_G16_1 OBJ 23.3074582405316
    P_G16_1 PMIN_G16_1 1.0
    P_G16_1 PMAX_G16_1 1.0
    P_G16_1 RUP_G16_1 1.0
    P_G16_1 RDN_G16_1 -1.0
    P_G16_1 RUP_G16_2 -1.0
    P_G16_1 RDN_G16_2 1.0
    P_G16_1 DEM_1 1.0
    M15673 'MARKER' 'INTORG'
    U_G16_2 OBJ 151.59951243050682
    U_G16_2 PMIN_G16_2 -66.17319191957047
    U_G16_2 PMAX_G16_2 -144.0246067071037
    U_G16_2 LOGIC_G16_2 1.0
    U_G16_2 MINUP_G16_2 -1.0
    U_G16_2 MINDN_G16_2 1.0
    U_G16_2 LOGIC_G16_3 -1.0
    U_G16_2 RES_2 144.0246067071037
    V_G16_2 OBJ 668.916860572632
    V_G16_2 LOGIC_G16_2 -1.0
    V_G16_2 MINUP_G16_2 1.0
    V_G16_2 MINUP_G16_3 1.0
    W_G16_2 LOGIC_G16_2 1.0
    W_G16_2 MINDN_G16_2 1.0
    W_G16_2 MINDN_G16_3 1.0
    W_G16_2 MINDN_G16_4 1.0
    M15690 'MARKER' 'INTEND'
    P_G16_2 OBJ 23.3074582405316
    P_G16_2 PMIN_G16_2 1.0
    P_G16_2 PMAX_G16_2 1.0
    P_G16_2 RUP_G16_2 1.0
    P_G16_2 RDN_G16_2 -1.0
    P_G16_2 RUP_G16_3 -1.0
    P_G16_2 RDN_G16_3 1.0
    P_G16_2 DEM_2 1.0
    M15699 'MARKER' 'INTORG'
    U_G16_3 OBJ 151.59951243050682
    U_G16_3 PMIN_G16_3 -66.17319191957047
    U_G16_3 PMAX_G16_3 -144.0246067071037
    U_G16_3 LOGIC_G16_3 1.0
    U_G16_3 MINUP_G16_3 -1.0
    U_G16_3 MINDN_G16_3 1.0
    U_G16_3 LOGIC_G16_4 -1.0
    U_G16_3 RES_3 144.0246067071037
    V_G16_3 OBJ 668.916860572632
    V_G16_3 LOGIC_G16_3 -1.0
    V_G16_3 MINUP_G16_3 1.0
    V_G16_3 MINUP_G16_4 1.0
    W_G16_3 LOGIC_G16_3 1.0
    W_G16_3 MINDN_G16_3 1.0
    W_G16_3 MINDN_G16_4 1.0
    W_G16_3 MINDN_G16_5 1.0
    M15716 'MARKER' 'INTEND'
    P_G16_3 OBJ 23.3074582405316
    P_G16_3 PMIN_G16_3 1.0
    P_G16_3 PMAX_G16_3 1.0
    P_G16_3 RUP_G16_3 1.0
    P_G16_3 RDN_G16_3 -1.0
    P_G16_3 RUP_G16_4 -1.0
    P_G16_3 RDN_G16_4 1.0
    P_G16_3 DEM_3 1.0
    M15725 'MARKER' 'INTORG'
    U_G16_4 OBJ 151.59951243050682
    U_G16_4 PMIN_G16_4 -66.17319191957047
    U_G16_4 PMAX_G16_4 -144.0246067071037
    U_G16_4 LOGIC_G16_4 1.0
    U_G16_4 MINUP_G16_4 -1.0
    U_G16_4 MINDN_G16_4 1.0
    U_G16_4 LOGIC_G16_5 -1.0
    U_G16_4 RES_4 144.0246067071037
    V_G16_4 OBJ 668.916860572632
    V_G16_4 LOGIC_G16_4 -1.0
    V_G16_4 MINUP_G16_4 1.0
    V_G16_4 MINUP_G16_5 1.0
    W_G16_4 LOGIC_G16_4 1.0
    W_G16_4 MINDN_G16_4 1.0
    W_G16_4 MINDN_G16_5 1.0
    W_G16_4 MINDN_G16_6 1.0
    M15742 'MARKER' 'INTEND'
    P_G16_4 OBJ 23.3074582405316
    P_G16_4 PMIN_G16_4 1.0
    P_G16_4 PMAX_G16_4 1.0
    P_G16_4 RUP_G16_4 1.0
    P_G16_4 RDN_G16_4 -1.0
    P_G16_4 RUP_G16_5 -1.0
    P_G16_4 RDN_G16_5 1.0
    P_G16_4 DEM_4 1.0
    M15751 'MARKER' 'INTORG'
    U_G16_5 OBJ 151.59951243050682
    U_G16_5 PMIN_G16_5 -66.17319191957047
    U_G16_5 PMAX_G16_5 -144.0246067071037
    U_G16_5 LOGIC_G16_5 1.0
    U_G16_5 MINUP_G16_5 -1.0
    U_G16_5 MINDN_G16_5 1.0
    U_G16_5 LOGIC_G16_6 -1.0
    U_G16_5 RES_5 144.0246067071037
    V_G16_5 OBJ 668.916860572632
    V_G16_5 LOGIC_G16_5 -1.0
    V_G16_5 MINUP_G16_5 1.0
    V_G16_5 MINUP_G16_6 1.0
    W_G16_5 LOGIC_G16_5 1.0
    W_G16_5 MINDN_G16_5 1.0
    W_G16_5 MINDN_G16_6 1.0
    W_G16_5 MINDN_G16_7 1.0
    M15768 'MARKER' 'INTEND'
    P_G16_5 OBJ 23.3074582405316
    P_G16_5 PMIN_G16_5 1.0
    P_G16_5 PMAX_G16_5 1.0
    P_G16_5 RUP_G16_5 1.0
    P_G16_5 RDN_G16_5 -1.0
    P_G16_5 RUP_G16_6 -1.0
    P_G16_5 RDN_G16_6 1.0
    P_G16_5 DEM_5 1.0
    M15777 'MARKER' 'INTORG'
    U_G16_6 OBJ 151.59951243050682
    U_G16_6 PMIN_G16_6 -66.17319191957047
    U_G16_6 PMAX_G16_6 -144.0246067071037
    U_G16_6 LOGIC_G16_6 1.0
    U_G16_6 MINUP_G16_6 -1.0
    U_G16_6 MINDN_G16_6 1.0
    U_G16_6 LOGIC_G16_7 -1.0
    U_G16_6 RES_6 144.0246067071037
    V_G16_6 OBJ 668.916860572632
    V_G16_6 LOGIC_G16_6 -1.0
    V_G16_6 MINUP_G16_6 1.0
    V_G16_6 MINUP_G16_7 1.0
    W_G16_6 LOGIC_G16_6 1.0
    W_G16_6 MINDN_G16_6 1.0
    W_G16_6 MINDN_G16_7 1.0
    W_G16_6 MINDN_G16_8 1.0
    M15794 'MARKER' 'INTEND'
    P_G16_6 OBJ 23.3074582405316
    P_G16_6 PMIN_G16_6 1.0
    P_G16_6 PMAX_G16_6 1.0
    P_G16_6 RUP_G16_6 1.0
    P_G16_6 RDN_G16_6 -1.0
    P_G16_6 RUP_G16_7 -1.0
    P_G16_6 RDN_G16_7 1.0
    P_G16_6 DEM_6 1.0
    M15803 'MARKER' 'INTORG'
    U_G16_7 OBJ 151.59951243050682
    U_G16_7 PMIN_G16_7 -66.17319191957047
    U_G16_7 PMAX_G16_7 -144.0246067071037
    U_G16_7 LOGIC_G16_7 1.0
    U_G16_7 MINUP_G16_7 -1.0
    U_G16_7 MINDN_G16_7 1.0
    U_G16_7 LOGIC_G16_8 -1.0
    U_G16_7 RES_7 144.0246067071037
    V_G16_7 OBJ 668.916860572632
    V_G16_7 LOGIC_G16_7 -1.0
    V_G16_7 MINUP_G16_7 1.0
    V_G16_7 MINUP_G16_8 1.0
    W_G16_7 LOGIC_G16_7 1.0
    W_G16_7 MINDN_G16_7 1.0
    W_G16_7 MINDN_G16_8 1.0
    W_G16_7 MINDN_G16_9 1.0
    M15820 'MARKER' 'INTEND'
    P_G16_7 OBJ 23.3074582405316
    P_G16_7 PMIN_G16_7 1.0
    P_G16_7 PMAX_G16_7 1.0
    P_G16_7 RUP_G16_7 1.0
    P_G16_7 RDN_G16_7 -1.0
    P_G16_7 RUP_G16_8 -1.0
    P_G16_7 RDN_G16_8 1.0
    P_G16_7 DEM_7 1.0
    M15829 'MARKER' 'INTORG'
    U_G16_8 OBJ 151.59951243050682
    U_G16_8 PMIN_G16_8 -66.17319191957047
    U_G16_8 PMAX_G16_8 -144.0246067071037
    U_G16_8 LOGIC_G16_8 1.0
    U_G16_8 MINUP_G16_8 -1.0
    U_G16_8 MINDN_G16_8 1.0
    U_G16_8 LOGIC_G16_9 -1.0
    U_G16_8 RES_8 144.0246067071037
    V_G16_8 OBJ 668.916860572632
    V_G16_8 LOGIC_G16_8 -1.0
    V_G16_8 MINUP_G16_8 1.0
    V_G16_8 MINUP_G16_9 1.0
    W_G16_8 LOGIC_G16_8 1.0
    W_G16_8 MINDN_G16_8 1.0
    W_G16_8 MINDN_G16_9 1.0
    W_G16_8 MINDN_G16_10 1.0
    M15846 'MARKER' 'INTEND'
    P_G16_8 OBJ 23.3074582405316
    P_G16_8 PMIN_G16_8 1.0
    P_G16_8 PMAX_G16_8 1.0
    P_G16_8 RUP_G16_8 1.0
    P_G16_8 RDN_G16_8 -1.0
    P_G16_8 RUP_G16_9 -1.0
    P_G16_8 RDN_G16_9 1.0
    P_G16_8 DEM_8 1.0
    M15855 'MARKER' 'INTORG'
    U_G16_9 OBJ 151.59951243050682
    U_G16_9 PMIN_G16_9 -66.17319191957047
    U_G16_9 PMAX_G16_9 -144.0246067071037
    U_G16_9 LOGIC_G16_9 1.0
    U_G16_9 MINUP_G16_9 -1.0
    U_G16_9 MINDN_G16_9 1.0
    U_G16_9 LOGIC_G16_10 -1.0
    U_G16_9 RES_9 144.0246067071037
    V_G16_9 OBJ 668.916860572632
    V_G16_9 LOGIC_G16_9 -1.0
    V_G16_9 MINUP_G16_9 1.0
    V_G16_9 MINUP_G16_10 1.0
    W_G16_9 LOGIC_G16_9 1.0
    W_G16_9 MINDN_G16_9 1.0
    W_G16_9 MINDN_G16_10 1.0
    W_G16_9 MINDN_G16_11 1.0
    M15872 'MARKER' 'INTEND'
    P_G16_9 OBJ 23.3074582405316
    P_G16_9 PMIN_G16_9 1.0
    P_G16_9 PMAX_G16_9 1.0
    P_G16_9 RUP_G16_9 1.0
    P_G16_9 RDN_G16_9 -1.0
    P_G16_9 RUP_G16_10 -1.0
    P_G16_9 RDN_G16_10 1.0
    P_G16_9 DEM_9 1.0
    M15881 'MARKER' 'INTORG'
    U_G16_10 OBJ 151.59951243050682
    U_G16_10 PMIN_G16_10 -66.17319191957047
    U_G16_10 PMAX_G16_10 -144.0246067071037
    U_G16_10 LOGIC_G16_10 1.0
    U_G16_10 MINUP_G16_10 -1.0
    U_G16_10 MINDN_G16_10 1.0
    U_G16_10 LOGIC_G16_11 -1.0
    U_G16_10 RES_10 144.0246067071037
    V_G16_10 OBJ 668.916860572632
    V_G16_10 LOGIC_G16_10 -1.0
    V_G16_10 MINUP_G16_10 1.0
    V_G16_10 MINUP_G16_11 1.0
    W_G16_10 LOGIC_G16_10 1.0
    W_G16_10 MINDN_G16_10 1.0
    W_G16_10 MINDN_G16_11 1.0
    W_G16_10 MINDN_G16_12 1.0
    M15898 'MARKER' 'INTEND'
    P_G16_10 OBJ 23.3074582405316
    P_G16_10 PMIN_G16_10 1.0
    P_G16_10 PMAX_G16_10 1.0
    P_G16_10 RUP_G16_10 1.0
    P_G16_10 RDN_G16_10 -1.0
    P_G16_10 RUP_G16_11 -1.0
    P_G16_10 RDN_G16_11 1.0
    P_G16_10 DEM_10 1.0
    M15907 'MARKER' 'INTORG'
    U_G16_11 OBJ 151.59951243050682
    U_G16_11 PMIN_G16_11 -66.17319191957047
    U_G16_11 PMAX_G16_11 -144.0246067071037
    U_G16_11 LOGIC_G16_11 1.0
    U_G16_11 MINUP_G16_11 -1.0
    U_G16_11 MINDN_G16_11 1.0
    U_G16_11 LOGIC_G16_12 -1.0
    U_G16_11 RES_11 144.0246067071037
    V_G16_11 OBJ 668.916860572632
    V_G16_11 LOGIC_G16_11 -1.0
    V_G16_11 MINUP_G16_11 1.0
    V_G16_11 MINUP_G16_12 1.0
    W_G16_11 LOGIC_G16_11 1.0
    W_G16_11 MINDN_G16_11 1.0
    W_G16_11 MINDN_G16_12 1.0
    W_G16_11 MINDN_G16_13 1.0
    M15924 'MARKER' 'INTEND'
    P_G16_11 OBJ 23.3074582405316
    P_G16_11 PMIN_G16_11 1.0
    P_G16_11 PMAX_G16_11 1.0
    P_G16_11 RUP_G16_11 1.0
    P_G16_11 RDN_G16_11 -1.0
    P_G16_11 RUP_G16_12 -1.0
    P_G16_11 RDN_G16_12 1.0
    P_G16_11 DEM_11 1.0
    M15933 'MARKER' 'INTORG'
    U_G16_12 OBJ 151.59951243050682
    U_G16_12 PMIN_G16_12 -66.17319191957047
    U_G16_12 PMAX_G16_12 -144.0246067071037
    U_G16_12 LOGIC_G16_12 1.0
    U_G16_12 MINUP_G16_12 -1.0
    U_G16_12 MINDN_G16_12 1.0
    U_G16_12 LOGIC_G16_13 -1.0
    U_G16_12 RES_12 144.0246067071037
    V_G16_12 OBJ 668.916860572632
    V_G16_12 LOGIC_G16_12 -1.0
    V_G16_12 MINUP_G16_12 1.0
    V_G16_12 MINUP_G16_13 1.0
    W_G16_12 LOGIC_G16_12 1.0
    W_G16_12 MINDN_G16_12 1.0
    W_G16_12 MINDN_G16_13 1.0
    W_G16_12 MINDN_G16_14 1.0
    M15950 'MARKER' 'INTEND'
    P_G16_12 OBJ 23.3074582405316
    P_G16_12 PMIN_G16_12 1.0
    P_G16_12 PMAX_G16_12 1.0
    P_G16_12 RUP_G16_12 1.0
    P_G16_12 RDN_G16_12 -1.0
    P_G16_12 RUP_G16_13 -1.0
    P_G16_12 RDN_G16_13 1.0
    P_G16_12 DEM_12 1.0
    M15959 'MARKER' 'INTORG'
    U_G16_13 OBJ 151.59951243050682
    U_G16_13 PMIN_G16_13 -66.17319191957047
    U_G16_13 PMAX_G16_13 -144.0246067071037
    U_G16_13 LOGIC_G16_13 1.0
    U_G16_13 MINUP_G16_13 -1.0
    U_G16_13 MINDN_G16_13 1.0
    U_G16_13 LOGIC_G16_14 -1.0
    U_G16_13 RES_13 144.0246067071037
    V_G16_13 OBJ 668.916860572632
    V_G16_13 LOGIC_G16_13 -1.0
    V_G16_13 MINUP_G16_13 1.0
    V_G16_13 MINUP_G16_14 1.0
    W_G16_13 LOGIC_G16_13 1.0
    W_G16_13 MINDN_G16_13 1.0
    W_G16_13 MINDN_G16_14 1.0
    W_G16_13 MINDN_G16_15 1.0
    M15976 'MARKER' 'INTEND'
    P_G16_13 OBJ 23.3074582405316
    P_G16_13 PMIN_G16_13 1.0
    P_G16_13 PMAX_G16_13 1.0
    P_G16_13 RUP_G16_13 1.0
    P_G16_13 RDN_G16_13 -1.0
    P_G16_13 RUP_G16_14 -1.0
    P_G16_13 RDN_G16_14 1.0
    P_G16_13 DEM_13 1.0
    M15985 'MARKER' 'INTORG'
    U_G16_14 OBJ 151.59951243050682
    U_G16_14 PMIN_G16_14 -66.17319191957047
    U_G16_14 PMAX_G16_14 -144.0246067071037
    U_G16_14 LOGIC_G16_14 1.0
    U_G16_14 MINUP_G16_14 -1.0
    U_G16_14 MINDN_G16_14 1.0
    U_G16_14 LOGIC_G16_15 -1.0
    U_G16_14 RES_14 144.0246067071037
    V_G16_14 OBJ 668.916860572632
    V_G16_14 LOGIC_G16_14 -1.0
    V_G16_14 MINUP_G16_14 1.0
    V_G16_14 MINUP_G16_15 1.0
    W_G16_14 LOGIC_G16_14 1.0
    W_G16_14 MINDN_G16_14 1.0
    W_G16_14 MINDN_G16_15 1.0
    W_G16_14 MINDN_G16_16 1.0
    M16002 'MARKER' 'INTEND'
    P_G16_14 OBJ 23.3074582405316
    P_G16_14 PMIN_G16_14 1.0
    P_G16_14 PMAX_G16_14 1.0
    P_G16_14 RUP_G16_14 1.0
    P_G16_14 RDN_G16_14 -1.0
    P_G16_14 RUP_G16_15 -1.0
    P_G16_14 RDN_G16_15 1.0
    P_G16_14 DEM_14 1.0
    M16011 'MARKER' 'INTORG'
    U_G16_15 OBJ 151.59951243050682
    U_G16_15 PMIN_G16_15 -66.17319191957047
    U_G16_15 PMAX_G16_15 -144.0246067071037
    U_G16_15 LOGIC_G16_15 1.0
    U_G16_15 MINUP_G16_15 -1.0
    U_G16_15 MINDN_G16_15 1.0
    U_G16_15 LOGIC_G16_16 -1.0
    U_G16_15 RES_15 144.0246067071037
    V_G16_15 OBJ 668.916860572632
    V_G16_15 LOGIC_G16_15 -1.0
    V_G16_15 MINUP_G16_15 1.0
    V_G16_15 MINUP_G16_16 1.0
    W_G16_15 LOGIC_G16_15 1.0
    W_G16_15 MINDN_G16_15 1.0
    W_G16_15 MINDN_G16_16 1.0
    W_G16_15 MINDN_G16_17 1.0
    M16028 'MARKER' 'INTEND'
    P_G16_15 OBJ 23.3074582405316
    P_G16_15 PMIN_G16_15 1.0
    P_G16_15 PMAX_G16_15 1.0
    P_G16_15 RUP_G16_15 1.0
    P_G16_15 RDN_G16_15 -1.0
    P_G16_15 RUP_G16_16 -1.0
    P_G16_15 RDN_G16_16 1.0
    P_G16_15 DEM_15 1.0
    M16037 'MARKER' 'INTORG'
    U_G16_16 OBJ 151.59951243050682
    U_G16_16 PMIN_G16_16 -66.17319191957047
    U_G16_16 PMAX_G16_16 -144.0246067071037
    U_G16_16 LOGIC_G16_16 1.0
    U_G16_16 MINUP_G16_16 -1.0
    U_G16_16 MINDN_G16_16 1.0
    U_G16_16 LOGIC_G16_17 -1.0
    U_G16_16 RES_16 144.0246067071037
    V_G16_16 OBJ 668.916860572632
    V_G16_16 LOGIC_G16_16 -1.0
    V_G16_16 MINUP_G16_16 1.0
    V_G16_16 MINUP_G16_17 1.0
    W_G16_16 LOGIC_G16_16 1.0
    W_G16_16 MINDN_G16_16 1.0
    W_G16_16 MINDN_G16_17 1.0
    W_G16_16 MINDN_G16_18 1.0
    M16054 'MARKER' 'INTEND'
    P_G16_16 OBJ 23.3074582405316
    P_G16_16 PMIN_G16_16 1.0
    P_G16_16 PMAX_G16_16 1.0
    P_G16_16 RUP_G16_16 1.0
    P_G16_16 RDN_G16_16 -1.0
    P_G16_16 RUP_G16_17 -1.0
    P_G16_16 RDN_G16_17 1.0
    P_G16_16 DEM_16 1.0
    M16063 'MARKER' 'INTORG'
    U_G16_17 OBJ 151.59951243050682
    U_G16_17 PMIN_G16_17 -66.17319191957047
    U_G16_17 PMAX_G16_17 -144.0246067071037
    U_G16_17 LOGIC_G16_17 1.0
    U_G16_17 MINUP_G16_17 -1.0
    U_G16_17 MINDN_G16_17 1.0
    U_G16_17 LOGIC_G16_18 -1.0
    U_G16_17 RES_17 144.0246067071037
    V_G16_17 OBJ 668.916860572632
    V_G16_17 LOGIC_G16_17 -1.0
    V_G16_17 MINUP_G16_17 1.0
    V_G16_17 MINUP_G16_18 1.0
    W_G16_17 LOGIC_G16_17 1.0
    W_G16_17 MINDN_G16_17 1.0
    W_G16_17 MINDN_G16_18 1.0
    W_G16_17 MINDN_G16_19 1.0
    M16080 'MARKER' 'INTEND'
    P_G16_17 OBJ 23.3074582405316
    P_G16_17 PMIN_G16_17 1.0
    P_G16_17 PMAX_G16_17 1.0
    P_G16_17 RUP_G16_17 1.0
    P_G16_17 RDN_G16_17 -1.0
    P_G16_17 RUP_G16_18 -1.0
    P_G16_17 RDN_G16_18 1.0
    P_G16_17 DEM_17 1.0
    M16089 'MARKER' 'INTORG'
    U_G16_18 OBJ 151.59951243050682
    U_G16_18 PMIN_G16_18 -66.17319191957047
    U_G16_18 PMAX_G16_18 -144.0246067071037
    U_G16_18 LOGIC_G16_18 1.0
    U_G16_18 MINUP_G16_18 -1.0
    U_G16_18 MINDN_G16_18 1.0
    U_G16_18 LOGIC_G16_19 -1.0
    U_G16_18 RES_18 144.0246067071037
    V_G16_18 OBJ 668.916860572632
    V_G16_18 LOGIC_G16_18 -1.0
    V_G16_18 MINUP_G16_18 1.0
    V_G16_18 MINUP_G16_19 1.0
    W_G16_18 LOGIC_G16_18 1.0
    W_G16_18 MINDN_G16_18 1.0
    W_G16_18 MINDN_G16_19 1.0
    W_G16_18 MINDN_G16_20 1.0
    M16106 'MARKER' 'INTEND'
    P_G16_18 OBJ 23.3074582405316
    P_G16_18 PMIN_G16_18 1.0
    P_G16_18 PMAX_G16_18 1.0
    P_G16_18 RUP_G16_18 1.0
    P_G16_18 RDN_G16_18 -1.0
    P_G16_18 RUP_G16_19 -1.0
    P_G16_18 RDN_G16_19 1.0
    P_G16_18 DEM_18 1.0
    M16115 'MARKER' 'INTORG'
    U_G16_19 OBJ 151.59951243050682
    U_G16_19 PMIN_G16_19 -66.17319191957047
    U_G16_19 PMAX_G16_19 -144.0246067071037
    U_G16_19 LOGIC_G16_19 1.0
    U_G16_19 MINUP_G16_19 -1.0
    U_G16_19 MINDN_G16_19 1.0
    U_G16_19 LOGIC_G16_20 -1.0
    U_G16_19 RES_19 144.0246067071037
    V_G16_19 OBJ 668.916860572632
    V_G16_19 LOGIC_G16_19 -1.0
    V_G16_19 MINUP_G16_19 1.0
    V_G16_19 MINUP_G16_20 1.0
    W_G16_19 LOGIC_G16_19 1.0
    W_G16_19 MINDN_G16_19 1.0
    W_G16_19 MINDN_G16_20 1.0
    W_G16_19 MINDN_G16_21 1.0
    M16132 'MARKER' 'INTEND'
    P_G16_19 OBJ 23.3074582405316
    P_G16_19 PMIN_G16_19 1.0
    P_G16_19 PMAX_G16_19 1.0
    P_G16_19 RUP_G16_19 1.0
    P_G16_19 RDN_G16_19 -1.0
    P_G16_19 RUP_G16_20 -1.0
    P_G16_19 RDN_G16_20 1.0
    P_G16_19 DEM_19 1.0
    M16141 'MARKER' 'INTORG'
    U_G16_20 OBJ 151.59951243050682
    U_G16_20 PMIN_G16_20 -66.17319191957047
    U_G16_20 PMAX_G16_20 -144.0246067071037
    U_G16_20 LOGIC_G16_20 1.0
    U_G16_20 MINUP_G16_20 -1.0
    U_G16_20 MINDN_G16_20 1.0
    U_G16_20 LOGIC_G16_21 -1.0
    U_G16_20 RES_20 144.0246067071037
    V_G16_20 OBJ 668.916860572632
    V_G16_20 LOGIC_G16_20 -1.0
    V_G16_20 MINUP_G16_20 1.0
    V_G16_20 MINUP_G16_21 1.0
    W_G16_20 LOGIC_G16_20 1.0
    W_G16_20 MINDN_G16_20 1.0
    W_G16_20 MINDN_G16_21 1.0
    W_G16_20 MINDN_G16_22 1.0
    M16158 'MARKER' 'INTEND'
    P_G16_20 OBJ 23.3074582405316
    P_G16_20 PMIN_G16_20 1.0
    P_G16_20 PMAX_G16_20 1.0
    P_G16_20 RUP_G16_20 1.0
    P_G16_20 RDN_G16_20 -1.0
    P_G16_20 RUP_G16_21 -1.0
    P_G16_20 RDN_G16_21 1.0
    P_G16_20 DEM_20 1.0
    M16167 'MARKER' 'INTORG'
    U_G16_21 OBJ 151.59951243050682
    U_G16_21 PMIN_G16_21 -66.17319191957047
    U_G16_21 PMAX_G16_21 -144.0246067071037
    U_G16_21 LOGIC_G16_21 1.0
    U_G16_21 MINUP_G16_21 -1.0
    U_G16_21 MINDN_G16_21 1.0
    U_G16_21 LOGIC_G16_22 -1.0
    U_G16_21 RES_21 144.0246067071037
    V_G16_21 OBJ 668.916860572632
    V_G16_21 LOGIC_G16_21 -1.0
    V_G16_21 MINUP_G16_21 1.0
    V_G16_21 MINUP_G16_22 1.0
    W_G16_21 LOGIC_G16_21 1.0
    W_G16_21 MINDN_G16_21 1.0
    W_G16_21 MINDN_G16_22 1.0
    W_G16_21 MINDN_G16_23 1.0
    M16184 'MARKER' 'INTEND'
    P_G16_21 OBJ 23.3074582405316
    P_G16_21 PMIN_G16_21 1.0
    P_G16_21 PMAX_G16_21 1.0
    P_G16_21 RUP_G16_21 1.0
    P_G16_21 RDN_G16_21 -1.0
    P_G16_21 RUP_G16_22 -1.0
    P_G16_21 RDN_G16_22 1.0
    P_G16_21 DEM_21 1.0
    M16193 'MARKER' 'INTORG'
    U_G16_22 OBJ 151.59951243050682
    U_G16_22 PMIN_G16_22 -66.17319191957047
    U_G16_22 PMAX_G16_22 -144.0246067071037
    U_G16_22 LOGIC_G16_22 1.0
    U_G16_22 MINUP_G16_22 -1.0
    U_G16_22 MINDN_G16_22 1.0
    U_G16_22 LOGIC_G16_23 -1.0
    U_G16_22 RES_22 144.0246067071037
    V_G16_22 OBJ 668.916860572632
    V_G16_22 LOGIC_G16_22 -1.0
    V_G16_22 MINUP_G16_22 1.0
    V_G16_22 MINUP_G16_23 1.0
    W_G16_22 LOGIC_G16_22 1.0
    W_G16_22 MINDN_G16_22 1.0
    W_G16_22 MINDN_G16_23 1.0
    M16209 'MARKER' 'INTEND'
    P_G16_22 OBJ 23.3074582405316
    P_G16_22 PMIN_G16_22 1.0
    P_G16_22 PMAX_G16_22 1.0
    P_G16_22 RUP_G16_22 1.0
    P_G16_22 RDN_G16_22 -1.0
    P_G16_22 RUP_G16_23 -1.0
    P_G16_22 RDN_G16_23 1.0
    P_G16_22 DEM_22 1.0
    M16218 'MARKER' 'INTORG'
    U_G16_23 OBJ 151.59951243050682
    U_G16_23 PMIN_G16_23 -66.17319191957047
    U_G16_23 PMAX_G16_23 -144.0246067071037
    U_G16_23 LOGIC_G16_23 1.0
    U_G16_23 MINUP_G16_23 -1.0
    U_G16_23 MINDN_G16_23 1.0
    U_G16_23 RES_23 144.0246067071037
    V_G16_23 OBJ 668.916860572632
    V_G16_23 LOGIC_G16_23 -1.0
    V_G16_23 MINUP_G16_23 1.0
    W_G16_23 LOGIC_G16_23 1.0
    W_G16_23 MINDN_G16_23 1.0
    M16231 'MARKER' 'INTEND'
    P_G16_23 OBJ 23.3074582405316
    P_G16_23 PMIN_G16_23 1.0
    P_G16_23 PMAX_G16_23 1.0
    P_G16_23 RUP_G16_23 1.0
    P_G16_23 RDN_G16_23 -1.0
    P_G16_23 DEM_23 1.0
    M16238 'MARKER' 'INTORG'
    U_G17_0 OBJ 223.77277959748992
    U_G17_0 PMIN_G17_0 -99.36859533279085
    U_G17_0 PMAX_G17_0 -276.87098159683103
    U_G17_0 LOGIC_G17_0 1.0
    U_G17_0 MINUP_G17_0 -1.0
    U_G17_0 MINDN_G17_0 1.0
    U_G17_0 LOGIC_G17_1 -1.0
    U_G17_0 RES_0 276.87098159683103
    V_G17_0 OBJ 519.733807937628
    V_G17_0 LOGIC_G17_0 -1.0
    V_G17_0 MINUP_G17_0 1.0
    V_G17_0 MINUP_G17_1 1.0
    V_G17_0 MINUP_G17_2 1.0
    W_G17_0 LOGIC_G17_0 1.0
    W_G17_0 MINDN_G17_0 1.0
    W_G17_0 MINDN_G17_1 1.0
    W_G17_0 MINDN_G17_2 1.0
    W_G17_0 MINDN_G17_3 1.0
    M16257 'MARKER' 'INTEND'
    P_G17_0 OBJ 46.618149872795335
    P_G17_0 PMIN_G17_0 1.0
    P_G17_0 PMAX_G17_0 1.0
    P_G17_0 RUP_G17_1 -1.0
    P_G17_0 RDN_G17_1 1.0
    P_G17_0 DEM_0 1.0
    M16264 'MARKER' 'INTORG'
    U_G17_1 OBJ 223.77277959748992
    U_G17_1 PMIN_G17_1 -99.36859533279085
    U_G17_1 PMAX_G17_1 -276.87098159683103
    U_G17_1 LOGIC_G17_1 1.0
    U_G17_1 MINUP_G17_1 -1.0
    U_G17_1 MINDN_G17_1 1.0
    U_G17_1 LOGIC_G17_2 -1.0
    U_G17_1 RES_1 276.87098159683103
    V_G17_1 OBJ 519.733807937628
    V_G17_1 LOGIC_G17_1 -1.0
    V_G17_1 MINUP_G17_1 1.0
    V_G17_1 MINUP_G17_2 1.0
    V_G17_1 MINUP_G17_3 1.0
    W_G17_1 LOGIC_G17_1 1.0
    W_G17_1 MINDN_G17_1 1.0
    W_G17_1 MINDN_G17_2 1.0
    W_G17_1 MINDN_G17_3 1.0
    W_G17_1 MINDN_G17_4 1.0
    M16283 'MARKER' 'INTEND'
    P_G17_1 OBJ 46.618149872795335
    P_G17_1 PMIN_G17_1 1.0
    P_G17_1 PMAX_G17_1 1.0
    P_G17_1 RUP_G17_1 1.0
    P_G17_1 RDN_G17_1 -1.0
    P_G17_1 RUP_G17_2 -1.0
    P_G17_1 RDN_G17_2 1.0
    P_G17_1 DEM_1 1.0
    M16292 'MARKER' 'INTORG'
    U_G17_2 OBJ 223.77277959748992
    U_G17_2 PMIN_G17_2 -99.36859533279085
    U_G17_2 PMAX_G17_2 -276.87098159683103
    U_G17_2 LOGIC_G17_2 1.0
    U_G17_2 MINUP_G17_2 -1.0
    U_G17_2 MINDN_G17_2 1.0
    U_G17_2 LOGIC_G17_3 -1.0
    U_G17_2 RES_2 276.87098159683103
    V_G17_2 OBJ 519.733807937628
    V_G17_2 LOGIC_G17_2 -1.0
    V_G17_2 MINUP_G17_2 1.0
    V_G17_2 MINUP_G17_3 1.0
    V_G17_2 MINUP_G17_4 1.0
    W_G17_2 LOGIC_G17_2 1.0
    W_G17_2 MINDN_G17_2 1.0
    W_G17_2 MINDN_G17_3 1.0
    W_G17_2 MINDN_G17_4 1.0
    W_G17_2 MINDN_G17_5 1.0
    M16311 'MARKER' 'INTEND'
    P_G17_2 OBJ 46.618149872795335
    P_G17_2 PMIN_G17_2 1.0
    P_G17_2 PMAX_G17_2 1.0
    P_G17_2 RUP_G17_2 1.0
    P_G17_2 RDN_G17_2 -1.0
    P_G17_2 RUP_G17_3 -1.0
    P_G17_2 RDN_G17_3 1.0
    P_G17_2 DEM_2 1.0
    M16320 'MARKER' 'INTORG'
    U_G17_3 OBJ 223.77277959748992
    U_G17_3 PMIN_G17_3 -99.36859533279085
    U_G17_3 PMAX_G17_3 -276.87098159683103
    U_G17_3 LOGIC_G17_3 1.0
    U_G17_3 MINUP_G17_3 -1.0
    U_G17_3 MINDN_G17_3 1.0
    U_G17_3 LOGIC_G17_4 -1.0
    U_G17_3 RES_3 276.87098159683103
    V_G17_3 OBJ 519.733807937628
    V_G17_3 LOGIC_G17_3 -1.0
    V_G17_3 MINUP_G17_3 1.0
    V_G17_3 MINUP_G17_4 1.0
    V_G17_3 MINUP_G17_5 1.0
    W_G17_3 LOGIC_G17_3 1.0
    W_G17_3 MINDN_G17_3 1.0
    W_G17_3 MINDN_G17_4 1.0
    W_G17_3 MINDN_G17_5 1.0
    W_G17_3 MINDN_G17_6 1.0
    M16339 'MARKER' 'INTEND'
    P_G17_3 OBJ 46.618149872795335
    P_G17_3 PMIN_G17_3 1.0
    P_G17_3 PMAX_G17_3 1.0
    P_G17_3 RUP_G17_3 1.0
    P_G17_3 RDN_G17_3 -1.0
    P_G17_3 RUP_G17_4 -1.0
    P_G17_3 RDN_G17_4 1.0
    P_G17_3 DEM_3 1.0
    M16348 'MARKER' 'INTORG'
    U_G17_4 OBJ 223.77277959748992
    U_G17_4 PMIN_G17_4 -99.36859533279085
    U_G17_4 PMAX_G17_4 -276.87098159683103
    U_G17_4 LOGIC_G17_4 1.0
    U_G17_4 MINUP_G17_4 -1.0
    U_G17_4 MINDN_G17_4 1.0
    U_G17_4 LOGIC_G17_5 -1.0
    U_G17_4 RES_4 276.87098159683103
    V_G17_4 OBJ 519.733807937628
    V_G17_4 LOGIC_G17_4 -1.0
    V_G17_4 MINUP_G17_4 1.0
    V_G17_4 MINUP_G17_5 1.0
    V_G17_4 MINUP_G17_6 1.0
    W_G17_4 LOGIC_G17_4 1.0
    W_G17_4 MINDN_G17_4 1.0
    W_G17_4 MINDN_G17_5 1.0
    W_G17_4 MINDN_G17_6 1.0
    W_G17_4 MINDN_G17_7 1.0
    M16367 'MARKER' 'INTEND'
    P_G17_4 OBJ 46.618149872795335
    P_G17_4 PMIN_G17_4 1.0
    P_G17_4 PMAX_G17_4 1.0
    P_G17_4 RUP_G17_4 1.0
    P_G17_4 RDN_G17_4 -1.0
    P_G17_4 RUP_G17_5 -1.0
    P_G17_4 RDN_G17_5 1.0
    P_G17_4 DEM_4 1.0
    M16376 'MARKER' 'INTORG'
    U_G17_5 OBJ 223.77277959748992
    U_G17_5 PMIN_G17_5 -99.36859533279085
    U_G17_5 PMAX_G17_5 -276.87098159683103
    U_G17_5 LOGIC_G17_5 1.0
    U_G17_5 MINUP_G17_5 -1.0
    U_G17_5 MINDN_G17_5 1.0
    U_G17_5 LOGIC_G17_6 -1.0
    U_G17_5 RES_5 276.87098159683103
    V_G17_5 OBJ 519.733807937628
    V_G17_5 LOGIC_G17_5 -1.0
    V_G17_5 MINUP_G17_5 1.0
    V_G17_5 MINUP_G17_6 1.0
    V_G17_5 MINUP_G17_7 1.0
    W_G17_5 LOGIC_G17_5 1.0
    W_G17_5 MINDN_G17_5 1.0
    W_G17_5 MINDN_G17_6 1.0
    W_G17_5 MINDN_G17_7 1.0
    W_G17_5 MINDN_G17_8 1.0
    M16395 'MARKER' 'INTEND'
    P_G17_5 OBJ 46.618149872795335
    P_G17_5 PMIN_G17_5 1.0
    P_G17_5 PMAX_G17_5 1.0
    P_G17_5 RUP_G17_5 1.0
    P_G17_5 RDN_G17_5 -1.0
    P_G17_5 RUP_G17_6 -1.0
    P_G17_5 RDN_G17_6 1.0
    P_G17_5 DEM_5 1.0
    M16404 'MARKER' 'INTORG'
    U_G17_6 OBJ 223.77277959748992
    U_G17_6 PMIN_G17_6 -99.36859533279085
    U_G17_6 PMAX_G17_6 -276.87098159683103
    U_G17_6 LOGIC_G17_6 1.0
    U_G17_6 MINUP_G17_6 -1.0
    U_G17_6 MINDN_G17_6 1.0
    U_G17_6 LOGIC_G17_7 -1.0
    U_G17_6 RES_6 276.87098159683103
    V_G17_6 OBJ 519.733807937628
    V_G17_6 LOGIC_G17_6 -1.0
    V_G17_6 MINUP_G17_6 1.0
    V_G17_6 MINUP_G17_7 1.0
    V_G17_6 MINUP_G17_8 1.0
    W_G17_6 LOGIC_G17_6 1.0
    W_G17_6 MINDN_G17_6 1.0
    W_G17_6 MINDN_G17_7 1.0
    W_G17_6 MINDN_G17_8 1.0
    W_G17_6 MINDN_G17_9 1.0
    M16423 'MARKER' 'INTEND'
    P_G17_6 OBJ 46.618149872795335
    P_G17_6 PMIN_G17_6 1.0
    P_G17_6 PMAX_G17_6 1.0
    P_G17_6 RUP_G17_6 1.0
    P_G17_6 RDN_G17_6 -1.0
    P_G17_6 RUP_G17_7 -1.0
    P_G17_6 RDN_G17_7 1.0
    P_G17_6 DEM_6 1.0
    M16432 'MARKER' 'INTORG'
    U_G17_7 OBJ 223.77277959748992
    U_G17_7 PMIN_G17_7 -99.36859533279085
    U_G17_7 PMAX_G17_7 -276.87098159683103
    U_G17_7 LOGIC_G17_7 1.0
    U_G17_7 MINUP_G17_7 -1.0
    U_G17_7 MINDN_G17_7 1.0
    U_G17_7 LOGIC_G17_8 -1.0
    U_G17_7 RES_7 276.87098159683103
    V_G17_7 OBJ 519.733807937628
    V_G17_7 LOGIC_G17_7 -1.0
    V_G17_7 MINUP_G17_7 1.0
    V_G17_7 MINUP_G17_8 1.0
    V_G17_7 MINUP_G17_9 1.0
    W_G17_7 LOGIC_G17_7 1.0
    W_G17_7 MINDN_G17_7 1.0
    W_G17_7 MINDN_G17_8 1.0
    W_G17_7 MINDN_G17_9 1.0
    W_G17_7 MINDN_G17_10 1.0
    M16451 'MARKER' 'INTEND'
    P_G17_7 OBJ 46.618149872795335
    P_G17_7 PMIN_G17_7 1.0
    P_G17_7 PMAX_G17_7 1.0
    P_G17_7 RUP_G17_7 1.0
    P_G17_7 RDN_G17_7 -1.0
    P_G17_7 RUP_G17_8 -1.0
    P_G17_7 RDN_G17_8 1.0
    P_G17_7 DEM_7 1.0
    M16460 'MARKER' 'INTORG'
    U_G17_8 OBJ 223.77277959748992
    U_G17_8 PMIN_G17_8 -99.36859533279085
    U_G17_8 PMAX_G17_8 -276.87098159683103
    U_G17_8 LOGIC_G17_8 1.0
    U_G17_8 MINUP_G17_8 -1.0
    U_G17_8 MINDN_G17_8 1.0
    U_G17_8 LOGIC_G17_9 -1.0
    U_G17_8 RES_8 276.87098159683103
    V_G17_8 OBJ 519.733807937628
    V_G17_8 LOGIC_G17_8 -1.0
    V_G17_8 MINUP_G17_8 1.0
    V_G17_8 MINUP_G17_9 1.0
    V_G17_8 MINUP_G17_10 1.0
    W_G17_8 LOGIC_G17_8 1.0
    W_G17_8 MINDN_G17_8 1.0
    W_G17_8 MINDN_G17_9 1.0
    W_G17_8 MINDN_G17_10 1.0
    W_G17_8 MINDN_G17_11 1.0
    M16479 'MARKER' 'INTEND'
    P_G17_8 OBJ 46.618149872795335
    P_G17_8 PMIN_G17_8 1.0
    P_G17_8 PMAX_G17_8 1.0
    P_G17_8 RUP_G17_8 1.0
    P_G17_8 RDN_G17_8 -1.0
    P_G17_8 RUP_G17_9 -1.0
    P_G17_8 RDN_G17_9 1.0
    P_G17_8 DEM_8 1.0
    M16488 'MARKER' 'INTORG'
    U_G17_9 OBJ 223.77277959748992
    U_G17_9 PMIN_G17_9 -99.36859533279085
    U_G17_9 PMAX_G17_9 -276.87098159683103
    U_G17_9 LOGIC_G17_9 1.0
    U_G17_9 MINUP_G17_9 -1.0
    U_G17_9 MINDN_G17_9 1.0
    U_G17_9 LOGIC_G17_10 -1.0
    U_G17_9 RES_9 276.87098159683103
    V_G17_9 OBJ 519.733807937628
    V_G17_9 LOGIC_G17_9 -1.0
    V_G17_9 MINUP_G17_9 1.0
    V_G17_9 MINUP_G17_10 1.0
    V_G17_9 MINUP_G17_11 1.0
    W_G17_9 LOGIC_G17_9 1.0
    W_G17_9 MINDN_G17_9 1.0
    W_G17_9 MINDN_G17_10 1.0
    W_G17_9 MINDN_G17_11 1.0
    W_G17_9 MINDN_G17_12 1.0
    M16507 'MARKER' 'INTEND'
    P_G17_9 OBJ 46.618149872795335
    P_G17_9 PMIN_G17_9 1.0
    P_G17_9 PMAX_G17_9 1.0
    P_G17_9 RUP_G17_9 1.0
    P_G17_9 RDN_G17_9 -1.0
    P_G17_9 RUP_G17_10 -1.0
    P_G17_9 RDN_G17_10 1.0
    P_G17_9 DEM_9 1.0
    M16516 'MARKER' 'INTORG'
    U_G17_10 OBJ 223.77277959748992
    U_G17_10 PMIN_G17_10 -99.36859533279085
    U_G17_10 PMAX_G17_10 -276.87098159683103
    U_G17_10 LOGIC_G17_10 1.0
    U_G17_10 MINUP_G17_10 -1.0
    U_G17_10 MINDN_G17_10 1.0
    U_G17_10 LOGIC_G17_11 -1.0
    U_G17_10 RES_10 276.87098159683103
    V_G17_10 OBJ 519.733807937628
    V_G17_10 LOGIC_G17_10 -1.0
    V_G17_10 MINUP_G17_10 1.0
    V_G17_10 MINUP_G17_11 1.0
    V_G17_10 MINUP_G17_12 1.0
    W_G17_10 LOGIC_G17_10 1.0
    W_G17_10 MINDN_G17_10 1.0
    W_G17_10 MINDN_G17_11 1.0
    W_G17_10 MINDN_G17_12 1.0
    W_G17_10 MINDN_G17_13 1.0
    M16535 'MARKER' 'INTEND'
    P_G17_10 OBJ 46.618149872795335
    P_G17_10 PMIN_G17_10 1.0
    P_G17_10 PMAX_G17_10 1.0
    P_G17_10 RUP_G17_10 1.0
    P_G17_10 RDN_G17_10 -1.0
    P_G17_10 RUP_G17_11 -1.0
    P_G17_10 RDN_G17_11 1.0
    P_G17_10 DEM_10 1.0
    M16544 'MARKER' 'INTORG'
    U_G17_11 OBJ 223.77277959748992
    U_G17_11 PMIN_G17_11 -99.36859533279085
    U_G17_11 PMAX_G17_11 -276.87098159683103
    U_G17_11 LOGIC_G17_11 1.0
    U_G17_11 MINUP_G17_11 -1.0
    U_G17_11 MINDN_G17_11 1.0
    U_G17_11 LOGIC_G17_12 -1.0
    U_G17_11 RES_11 276.87098159683103
    V_G17_11 OBJ 519.733807937628
    V_G17_11 LOGIC_G17_11 -1.0
    V_G17_11 MINUP_G17_11 1.0
    V_G17_11 MINUP_G17_12 1.0
    V_G17_11 MINUP_G17_13 1.0
    W_G17_11 LOGIC_G17_11 1.0
    W_G17_11 MINDN_G17_11 1.0
    W_G17_11 MINDN_G17_12 1.0
    W_G17_11 MINDN_G17_13 1.0
    W_G17_11 MINDN_G17_14 1.0
    M16563 'MARKER' 'INTEND'
    P_G17_11 OBJ 46.618149872795335
    P_G17_11 PMIN_G17_11 1.0
    P_G17_11 PMAX_G17_11 1.0
    P_G17_11 RUP_G17_11 1.0
    P_G17_11 RDN_G17_11 -1.0
    P_G17_11 RUP_G17_12 -1.0
    P_G17_11 RDN_G17_12 1.0
    P_G17_11 DEM_11 1.0
    M16572 'MARKER' 'INTORG'
    U_G17_12 OBJ 223.77277959748992
    U_G17_12 PMIN_G17_12 -99.36859533279085
    U_G17_12 PMAX_G17_12 -276.87098159683103
    U_G17_12 LOGIC_G17_12 1.0
    U_G17_12 MINUP_G17_12 -1.0
    U_G17_12 MINDN_G17_12 1.0
    U_G17_12 LOGIC_G17_13 -1.0
    U_G17_12 RES_12 276.87098159683103
    V_G17_12 OBJ 519.733807937628
    V_G17_12 LOGIC_G17_12 -1.0
    V_G17_12 MINUP_G17_12 1.0
    V_G17_12 MINUP_G17_13 1.0
    V_G17_12 MINUP_G17_14 1.0
    W_G17_12 LOGIC_G17_12 1.0
    W_G17_12 MINDN_G17_12 1.0
    W_G17_12 MINDN_G17_13 1.0
    W_G17_12 MINDN_G17_14 1.0
    W_G17_12 MINDN_G17_15 1.0
    M16591 'MARKER' 'INTEND'
    P_G17_12 OBJ 46.618149872795335
    P_G17_12 PMIN_G17_12 1.0
    P_G17_12 PMAX_G17_12 1.0
    P_G17_12 RUP_G17_12 1.0
    P_G17_12 RDN_G17_12 -1.0
    P_G17_12 RUP_G17_13 -1.0
    P_G17_12 RDN_G17_13 1.0
    P_G17_12 DEM_12 1.0
    M16600 'MARKER' 'INTORG'
    U_G17_13 OBJ 223.77277959748992
    U_G17_13 PMIN_G17_13 -99.36859533279085
    U_G17_13 PMAX_G17_13 -276.87098159683103
    U_G17_13 LOGIC_G17_13 1.0
    U_G17_13 MINUP_G17_13 -1.0
    U_G17_13 MINDN_G17_13 1.0
    U_G17_13 LOGIC_G17_14 -1.0
    U_G17_13 RES_13 276.87098159683103
    V_G17_13 OBJ 519.733807937628
    V_G17_13 LOGIC_G17_13 -1.0
    V_G17_13 MINUP_G17_13 1.0
    V_G17_13 MINUP_G17_14 1.0
    V_G17_13 MINUP_G17_15 1.0
    W_G17_13 LOGIC_G17_13 1.0
    W_G17_13 MINDN_G17_13 1.0
    W_G17_13 MINDN_G17_14 1.0
    W_G17_13 MINDN_G17_15 1.0
    W_G17_13 MINDN_G17_16 1.0
    M16619 'MARKER' 'INTEND'
    P_G17_13 OBJ 46.618149872795335
    P_G17_13 PMIN_G17_13 1.0
    P_G17_13 PMAX_G17_13 1.0
    P_G17_13 RUP_G17_13 1.0
    P_G17_13 RDN_G17_13 -1.0
    P_G17_13 RUP_G17_14 -1.0
    P_G17_13 RDN_G17_14 1.0
    P_G17_13 DEM_13 1.0
    M16628 'MARKER' 'INTORG'
    U_G17_14 OBJ 223.77277959748992
    U_G17_14 PMIN_G17_14 -99.36859533279085
    U_G17_14 PMAX_G17_14 -276.87098159683103
    U_G17_14 LOGIC_G17_14 1.0
    U_G17_14 MINUP_G17_14 -1.0
    U_G17_14 MINDN_G17_14 1.0
    U_G17_14 LOGIC_G17_15 -1.0
    U_G17_14 RES_14 276.87098159683103
    V_G17_14 OBJ 519.733807937628
    V_G17_14 LOGIC_G17_14 -1.0
    V_G17_14 MINUP_G17_14 1.0
    V_G17_14 MINUP_G17_15 1.0
    V_G17_14 MINUP_G17_16 1.0
    W_G17_14 LOGIC_G17_14 1.0
    W_G17_14 MINDN_G17_14 1.0
    W_G17_14 MINDN_G17_15 1.0
    W_G17_14 MINDN_G17_16 1.0
    W_G17_14 MINDN_G17_17 1.0
    M16647 'MARKER' 'INTEND'
    P_G17_14 OBJ 46.618149872795335
    P_G17_14 PMIN_G17_14 1.0
    P_G17_14 PMAX_G17_14 1.0
    P_G17_14 RUP_G17_14 1.0
    P_G17_14 RDN_G17_14 -1.0
    P_G17_14 RUP_G17_15 -1.0
    P_G17_14 RDN_G17_15 1.0
    P_G17_14 DEM_14 1.0
    M16656 'MARKER' 'INTORG'
    U_G17_15 OBJ 223.77277959748992
    U_G17_15 PMIN_G17_15 -99.36859533279085
    U_G17_15 PMAX_G17_15 -276.87098159683103
    U_G17_15 LOGIC_G17_15 1.0
    U_G17_15 MINUP_G17_15 -1.0
    U_G17_15 MINDN_G17_15 1.0
    U_G17_15 LOGIC_G17_16 -1.0
    U_G17_15 RES_15 276.87098159683103
    V_G17_15 OBJ 519.733807937628
    V_G17_15 LOGIC_G17_15 -1.0
    V_G17_15 MINUP_G17_15 1.0
    V_G17_15 MINUP_G17_16 1.0
    V_G17_15 MINUP_G17_17 1.0
    W_G17_15 LOGIC_G17_15 1.0
    W_G17_15 MINDN_G17_15 1.0
    W_G17_15 MINDN_G17_16 1.0
    W_G17_15 MINDN_G17_17 1.0
    W_G17_15 MINDN_G17_18 1.0
    M16675 'MARKER' 'INTEND'
    P_G17_15 OBJ 46.618149872795335
    P_G17_15 PMIN_G17_15 1.0
    P_G17_15 PMAX_G17_15 1.0
    P_G17_15 RUP_G17_15 1.0
    P_G17_15 RDN_G17_15 -1.0
    P_G17_15 RUP_G17_16 -1.0
    P_G17_15 RDN_G17_16 1.0
    P_G17_15 DEM_15 1.0
    M16684 'MARKER' 'INTORG'
    U_G17_16 OBJ 223.77277959748992
    U_G17_16 PMIN_G17_16 -99.36859533279085
    U_G17_16 PMAX_G17_16 -276.87098159683103
    U_G17_16 LOGIC_G17_16 1.0
    U_G17_16 MINUP_G17_16 -1.0
    U_G17_16 MINDN_G17_16 1.0
    U_G17_16 LOGIC_G17_17 -1.0
    U_G17_16 RES_16 276.87098159683103
    V_G17_16 OBJ 519.733807937628
    V_G17_16 LOGIC_G17_16 -1.0
    V_G17_16 MINUP_G17_16 1.0
    V_G17_16 MINUP_G17_17 1.0
    V_G17_16 MINUP_G17_18 1.0
    W_G17_16 LOGIC_G17_16 1.0
    W_G17_16 MINDN_G17_16 1.0
    W_G17_16 MINDN_G17_17 1.0
    W_G17_16 MINDN_G17_18 1.0
    W_G17_16 MINDN_G17_19 1.0
    M16703 'MARKER' 'INTEND'
    P_G17_16 OBJ 46.618149872795335
    P_G17_16 PMIN_G17_16 1.0
    P_G17_16 PMAX_G17_16 1.0
    P_G17_16 RUP_G17_16 1.0
    P_G17_16 RDN_G17_16 -1.0
    P_G17_16 RUP_G17_17 -1.0
    P_G17_16 RDN_G17_17 1.0
    P_G17_16 DEM_16 1.0
    M16712 'MARKER' 'INTORG'
    U_G17_17 OBJ 223.77277959748992
    U_G17_17 PMIN_G17_17 -99.36859533279085
    U_G17_17 PMAX_G17_17 -276.87098159683103
    U_G17_17 LOGIC_G17_17 1.0
    U_G17_17 MINUP_G17_17 -1.0
    U_G17_17 MINDN_G17_17 1.0
    U_G17_17 LOGIC_G17_18 -1.0
    U_G17_17 RES_17 276.87098159683103
    V_G17_17 OBJ 519.733807937628
    V_G17_17 LOGIC_G17_17 -1.0
    V_G17_17 MINUP_G17_17 1.0
    V_G17_17 MINUP_G17_18 1.0
    V_G17_17 MINUP_G17_19 1.0
    W_G17_17 LOGIC_G17_17 1.0
    W_G17_17 MINDN_G17_17 1.0
    W_G17_17 MINDN_G17_18 1.0
    W_G17_17 MINDN_G17_19 1.0
    W_G17_17 MINDN_G17_20 1.0
    M16731 'MARKER' 'INTEND'
    P_G17_17 OBJ 46.618149872795335
    P_G17_17 PMIN_G17_17 1.0
    P_G17_17 PMAX_G17_17 1.0
    P_G17_17 RUP_G17_17 1.0
    P_G17_17 RDN_G17_17 -1.0
    P_G17_17 RUP_G17_18 -1.0
    P_G17_17 RDN_G17_18 1.0
    P_G17_17 DEM_17 1.0
    M16740 'MARKER' 'INTORG'
    U_G17_18 OBJ 223.77277959748992
    U_G17_18 PMIN_G17_18 -99.36859533279085
    U_G17_18 PMAX_G17_18 -276.87098159683103
    U_G17_18 LOGIC_G17_18 1.0
    U_G17_18 MINUP_G17_18 -1.0
    U_G17_18 MINDN_G17_18 1.0
    U_G17_18 LOGIC_G17_19 -1.0
    U_G17_18 RES_18 276.87098159683103
    V_G17_18 OBJ 519.733807937628
    V_G17_18 LOGIC_G17_18 -1.0
    V_G17_18 MINUP_G17_18 1.0
    V_G17_18 MINUP_G17_19 1.0
    V_G17_18 MINUP_G17_20 1.0
    W_G17_18 LOGIC_G17_18 1.0
    W_G17_18 MINDN_G17_18 1.0
    W_G17_18 MINDN_G17_19 1.0
    W_G17_18 MINDN_G17_20 1.0
    W_G17_18 MINDN_G17_21 1.0
    M16759 'MARKER' 'INTEND'
    P_G17_18 OBJ 46.618149872795335
    P_G17_18 PMIN_G17_18 1.0
    P_G17_18 PMAX_G17_18 1.0
    P_G17_18 RUP_G17_18 1.0
    P_G17_18 RDN_G17_18 -1.0
    P_G17_18 RUP_G17_19 -1.0
    P_G17_18 RDN_G17_19 1.0
    P_G17_18 DEM_18 1.0
    M16768 'MARKER' 'INTORG'
    U_G17_19 OBJ 223.77277959748992
    U_G17_19 PMIN_G17_19 -99.36859533279085
    U_G17_19 PMAX_G17_19 -276.87098159683103
    U_G17_19 LOGIC_G17_19 1.0
    U_G17_19 MINUP_G17_19 -1.0
    U_G17_19 MINDN_G17_19 1.0
    U_G17_19 LOGIC_G17_20 -1.0
    U_G17_19 RES_19 276.87098159683103
    V_G17_19 OBJ 519.733807937628
    V_G17_19 LOGIC_G17_19 -1.0
    V_G17_19 MINUP_G17_19 1.0
    V_G17_19 MINUP_G17_20 1.0
    V_G17_19 MINUP_G17_21 1.0
    W_G17_19 LOGIC_G17_19 1.0
    W_G17_19 MINDN_G17_19 1.0
    W_G17_19 MINDN_G17_20 1.0
    W_G17_19 MINDN_G17_21 1.0
    W_G17_19 MINDN_G17_22 1.0
    M16787 'MARKER' 'INTEND'
    P_G17_19 OBJ 46.618149872795335
    P_G17_19 PMIN_G17_19 1.0
    P_G17_19 PMAX_G17_19 1.0
    P_G17_19 RUP_G17_19 1.0
    P_G17_19 RDN_G17_19 -1.0
    P_G17_19 RUP_G17_20 -1.0
    P_G17_19 RDN_G17_20 1.0
    P_G17_19 DEM_19 1.0
    M16796 'MARKER' 'INTORG'
    U_G17_20 OBJ 223.77277959748992
    U_G17_20 PMIN_G17_20 -99.36859533279085
    U_G17_20 PMAX_G17_20 -276.87098159683103
    U_G17_20 LOGIC_G17_20 1.0
    U_G17_20 MINUP_G17_20 -1.0
    U_G17_20 MINDN_G17_20 1.0
    U_G17_20 LOGIC_G17_21 -1.0
    U_G17_20 RES_20 276.87098159683103
    V_G17_20 OBJ 519.733807937628
    V_G17_20 LOGIC_G17_20 -1.0
    V_G17_20 MINUP_G17_20 1.0
    V_G17_20 MINUP_G17_21 1.0
    V_G17_20 MINUP_G17_22 1.0
    W_G17_20 LOGIC_G17_20 1.0
    W_G17_20 MINDN_G17_20 1.0
    W_G17_20 MINDN_G17_21 1.0
    W_G17_20 MINDN_G17_22 1.0
    W_G17_20 MINDN_G17_23 1.0
    M16815 'MARKER' 'INTEND'
    P_G17_20 OBJ 46.618149872795335
    P_G17_20 PMIN_G17_20 1.0
    P_G17_20 PMAX_G17_20 1.0
    P_G17_20 RUP_G17_20 1.0
    P_G17_20 RDN_G17_20 -1.0
    P_G17_20 RUP_G17_21 -1.0
    P_G17_20 RDN_G17_21 1.0
    P_G17_20 DEM_20 1.0
    M16824 'MARKER' 'INTORG'
    U_G17_21 OBJ 223.77277959748992
    U_G17_21 PMIN_G17_21 -99.36859533279085
    U_G17_21 PMAX_G17_21 -276.87098159683103
    U_G17_21 LOGIC_G17_21 1.0
    U_G17_21 MINUP_G17_21 -1.0
    U_G17_21 MINDN_G17_21 1.0
    U_G17_21 LOGIC_G17_22 -1.0
    U_G17_21 RES_21 276.87098159683103
    V_G17_21 OBJ 519.733807937628
    V_G17_21 LOGIC_G17_21 -1.0
    V_G17_21 MINUP_G17_21 1.0
    V_G17_21 MINUP_G17_22 1.0
    V_G17_21 MINUP_G17_23 1.0
    W_G17_21 LOGIC_G17_21 1.0
    W_G17_21 MINDN_G17_21 1.0
    W_G17_21 MINDN_G17_22 1.0
    W_G17_21 MINDN_G17_23 1.0
    M16842 'MARKER' 'INTEND'
    P_G17_21 OBJ 46.618149872795335
    P_G17_21 PMIN_G17_21 1.0
    P_G17_21 PMAX_G17_21 1.0
    P_G17_21 RUP_G17_21 1.0
    P_G17_21 RDN_G17_21 -1.0
    P_G17_21 RUP_G17_22 -1.0
    P_G17_21 RDN_G17_22 1.0
    P_G17_21 DEM_21 1.0
    M16851 'MARKER' 'INTORG'
    U_G17_22 OBJ 223.77277959748992
    U_G17_22 PMIN_G17_22 -99.36859533279085
    U_G17_22 PMAX_G17_22 -276.87098159683103
    U_G17_22 LOGIC_G17_22 1.0
    U_G17_22 MINUP_G17_22 -1.0
    U_G17_22 MINDN_G17_22 1.0
    U_G17_22 LOGIC_G17_23 -1.0
    U_G17_22 RES_22 276.87098159683103
    V_G17_22 OBJ 519.733807937628
    V_G17_22 LOGIC_G17_22 -1.0
    V_G17_22 MINUP_G17_22 1.0
    V_G17_22 MINUP_G17_23 1.0
    W_G17_22 LOGIC_G17_22 1.0
    W_G17_22 MINDN_G17_22 1.0
    W_G17_22 MINDN_G17_23 1.0
    M16867 'MARKER' 'INTEND'
    P_G17_22 OBJ 46.618149872795335
    P_G17_22 PMIN_G17_22 1.0
    P_G17_22 PMAX_G17_22 1.0
    P_G17_22 RUP_G17_22 1.0
    P_G17_22 RDN_G17_22 -1.0
    P_G17_22 RUP_G17_23 -1.0
    P_G17_22 RDN_G17_23 1.0
    P_G17_22 DEM_22 1.0
    M16876 'MARKER' 'INTORG'
    U_G17_23 OBJ 223.77277959748992
    U_G17_23 PMIN_G17_23 -99.36859533279085
    U_G17_23 PMAX_G17_23 -276.87098159683103
    U_G17_23 LOGIC_G17_23 1.0
    U_G17_23 MINUP_G17_23 -1.0
    U_G17_23 MINDN_G17_23 1.0
    U_G17_23 RES_23 276.87098159683103
    V_G17_23 OBJ 519.733807937628
    V_G17_23 LOGIC_G17_23 -1.0
    V_G17_23 MINUP_G17_23 1.0
    W_G17_23 LOGIC_G17_23 1.0
    W_G17_23 MINDN_G17_23 1.0
    M16889 'MARKER' 'INTEND'
    P_G17_23 OBJ 46.618149872795335
    P_G17_23 PMIN_G17_23 1.0
    P_G17_23 PMAX_G17_23 1.0
    P_G17_23 RUP_G17_23 1.0
    P_G17_23 RDN_G17_23 -1.0
    P_G17_23 DEM_23 1.0
    M16896 'MARKER' 'INTORG'
    U_G18_0 OBJ 305.55328077480635
    U_G18_0 PMIN_G18_0 -115.58840569903222
    U_G18_0 PMAX_G18_0 -328.6710539148283
    U_G18_0 LOGIC_G18_0 1.0
    U_G18_0 MINUP_G18_0 -1.0
    U_G18_0 MINDN_G18_0 1.0
    U_G18_0 LOGIC_G18_1 -1.0
    U_G18_0 RES_0 328.6710539148283
    V_G18_0 OBJ 2934.867171834817
    V_G18_0 LOGIC_G18_0 -1.0
    V_G18_0 MINUP_G18_0 1.0
    V_G18_0 MINUP_G18_1 1.0
    V_G18_0 MINUP_G18_2 1.0
    V_G18_0 MINUP_G18_3 1.0
    W_G18_0 LOGIC_G18_0 1.0
    W_G18_0 MINDN_G18_0 1.0
    M16913 'MARKER' 'INTEND'
    P_G18_0 OBJ 26.405616704313697
    P_G18_0 PMIN_G18_0 1.0
    P_G18_0 PMAX_G18_0 1.0
    P_G18_0 RUP_G18_1 -1.0
    P_G18_0 RDN_G18_1 1.0
    P_G18_0 DEM_0 1.0
    M16920 'MARKER' 'INTORG'
    U_G18_1 OBJ 305.55328077480635
    U_G18_1 PMIN_G18_1 -115.58840569903222
    U_G18_1 PMAX_G18_1 -328.6710539148283
    U_G18_1 LOGIC_G18_1 1.0
    U_G18_1 MINUP_G18_1 -1.0
    U_G18_1 MINDN_G18_1 1.0
    U_G18_1 LOGIC_G18_2 -1.0
    U_G18_1 RES_1 328.6710539148283
    V_G18_1 OBJ 2934.867171834817
    V_G18_1 LOGIC_G18_1 -1.0
    V_G18_1 MINUP_G18_1 1.0
    V_G18_1 MINUP_G18_2 1.0
    V_G18_1 MINUP_G18_3 1.0
    V_G18_1 MINUP_G18_4 1.0
    W_G18_1 LOGIC_G18_1 1.0
    W_G18_1 MINDN_G18_1 1.0
    M16937 'MARKER' 'INTEND'
    P_G18_1 OBJ 26.405616704313697
    P_G18_1 PMIN_G18_1 1.0
    P_G18_1 PMAX_G18_1 1.0
    P_G18_1 RUP_G18_1 1.0
    P_G18_1 RDN_G18_1 -1.0
    P_G18_1 RUP_G18_2 -1.0
    P_G18_1 RDN_G18_2 1.0
    P_G18_1 DEM_1 1.0
    M16946 'MARKER' 'INTORG'
    U_G18_2 OBJ 305.55328077480635
    U_G18_2 PMIN_G18_2 -115.58840569903222
    U_G18_2 PMAX_G18_2 -328.6710539148283
    U_G18_2 LOGIC_G18_2 1.0
    U_G18_2 MINUP_G18_2 -1.0
    U_G18_2 MINDN_G18_2 1.0
    U_G18_2 LOGIC_G18_3 -1.0
    U_G18_2 RES_2 328.6710539148283
    V_G18_2 OBJ 2934.867171834817
    V_G18_2 LOGIC_G18_2 -1.0
    V_G18_2 MINUP_G18_2 1.0
    V_G18_2 MINUP_G18_3 1.0
    V_G18_2 MINUP_G18_4 1.0
    V_G18_2 MINUP_G18_5 1.0
    W_G18_2 LOGIC_G18_2 1.0
    W_G18_2 MINDN_G18_2 1.0
    M16963 'MARKER' 'INTEND'
    P_G18_2 OBJ 26.405616704313697
    P_G18_2 PMIN_G18_2 1.0
    P_G18_2 PMAX_G18_2 1.0
    P_G18_2 RUP_G18_2 1.0
    P_G18_2 RDN_G18_2 -1.0
    P_G18_2 RUP_G18_3 -1.0
    P_G18_2 RDN_G18_3 1.0
    P_G18_2 DEM_2 1.0
    M16972 'MARKER' 'INTORG'
    U_G18_3 OBJ 305.55328077480635
    U_G18_3 PMIN_G18_3 -115.58840569903222
    U_G18_3 PMAX_G18_3 -328.6710539148283
    U_G18_3 LOGIC_G18_3 1.0
    U_G18_3 MINUP_G18_3 -1.0
    U_G18_3 MINDN_G18_3 1.0
    U_G18_3 LOGIC_G18_4 -1.0
    U_G18_3 RES_3 328.6710539148283
    V_G18_3 OBJ 2934.867171834817
    V_G18_3 LOGIC_G18_3 -1.0
    V_G18_3 MINUP_G18_3 1.0
    V_G18_3 MINUP_G18_4 1.0
    V_G18_3 MINUP_G18_5 1.0
    V_G18_3 MINUP_G18_6 1.0
    W_G18_3 LOGIC_G18_3 1.0
    W_G18_3 MINDN_G18_3 1.0
    M16989 'MARKER' 'INTEND'
    P_G18_3 OBJ 26.405616704313697
    P_G18_3 PMIN_G18_3 1.0
    P_G18_3 PMAX_G18_3 1.0
    P_G18_3 RUP_G18_3 1.0
    P_G18_3 RDN_G18_3 -1.0
    P_G18_3 RUP_G18_4 -1.0
    P_G18_3 RDN_G18_4 1.0
    P_G18_3 DEM_3 1.0
    M16998 'MARKER' 'INTORG'
    U_G18_4 OBJ 305.55328077480635
    U_G18_4 PMIN_G18_4 -115.58840569903222
    U_G18_4 PMAX_G18_4 -328.6710539148283
    U_G18_4 LOGIC_G18_4 1.0
    U_G18_4 MINUP_G18_4 -1.0
    U_G18_4 MINDN_G18_4 1.0
    U_G18_4 LOGIC_G18_5 -1.0
    U_G18_4 RES_4 328.6710539148283
    V_G18_4 OBJ 2934.867171834817
    V_G18_4 LOGIC_G18_4 -1.0
    V_G18_4 MINUP_G18_4 1.0
    V_G18_4 MINUP_G18_5 1.0
    V_G18_4 MINUP_G18_6 1.0
    V_G18_4 MINUP_G18_7 1.0
    W_G18_4 LOGIC_G18_4 1.0
    W_G18_4 MINDN_G18_4 1.0
    M17015 'MARKER' 'INTEND'
    P_G18_4 OBJ 26.405616704313697
    P_G18_4 PMIN_G18_4 1.0
    P_G18_4 PMAX_G18_4 1.0
    P_G18_4 RUP_G18_4 1.0
    P_G18_4 RDN_G18_4 -1.0
    P_G18_4 RUP_G18_5 -1.0
    P_G18_4 RDN_G18_5 1.0
    P_G18_4 DEM_4 1.0
    M17024 'MARKER' 'INTORG'
    U_G18_5 OBJ 305.55328077480635
    U_G18_5 PMIN_G18_5 -115.58840569903222
    U_G18_5 PMAX_G18_5 -328.6710539148283
    U_G18_5 LOGIC_G18_5 1.0
    U_G18_5 MINUP_G18_5 -1.0
    U_G18_5 MINDN_G18_5 1.0
    U_G18_5 LOGIC_G18_6 -1.0
    U_G18_5 RES_5 328.6710539148283
    V_G18_5 OBJ 2934.867171834817
    V_G18_5 LOGIC_G18_5 -1.0
    V_G18_5 MINUP_G18_5 1.0
    V_G18_5 MINUP_G18_6 1.0
    V_G18_5 MINUP_G18_7 1.0
    V_G18_5 MINUP_G18_8 1.0
    W_G18_5 LOGIC_G18_5 1.0
    W_G18_5 MINDN_G18_5 1.0
    M17041 'MARKER' 'INTEND'
    P_G18_5 OBJ 26.405616704313697
    P_G18_5 PMIN_G18_5 1.0
    P_G18_5 PMAX_G18_5 1.0
    P_G18_5 RUP_G18_5 1.0
    P_G18_5 RDN_G18_5 -1.0
    P_G18_5 RUP_G18_6 -1.0
    P_G18_5 RDN_G18_6 1.0
    P_G18_5 DEM_5 1.0
    M17050 'MARKER' 'INTORG'
    U_G18_6 OBJ 305.55328077480635
    U_G18_6 PMIN_G18_6 -115.58840569903222
    U_G18_6 PMAX_G18_6 -328.6710539148283
    U_G18_6 LOGIC_G18_6 1.0
    U_G18_6 MINUP_G18_6 -1.0
    U_G18_6 MINDN_G18_6 1.0
    U_G18_6 LOGIC_G18_7 -1.0
    U_G18_6 RES_6 328.6710539148283
    V_G18_6 OBJ 2934.867171834817
    V_G18_6 LOGIC_G18_6 -1.0
    V_G18_6 MINUP_G18_6 1.0
    V_G18_6 MINUP_G18_7 1.0
    V_G18_6 MINUP_G18_8 1.0
    V_G18_6 MINUP_G18_9 1.0
    W_G18_6 LOGIC_G18_6 1.0
    W_G18_6 MINDN_G18_6 1.0
    M17067 'MARKER' 'INTEND'
    P_G18_6 OBJ 26.405616704313697
    P_G18_6 PMIN_G18_6 1.0
    P_G18_6 PMAX_G18_6 1.0
    P_G18_6 RUP_G18_6 1.0
    P_G18_6 RDN_G18_6 -1.0
    P_G18_6 RUP_G18_7 -1.0
    P_G18_6 RDN_G18_7 1.0
    P_G18_6 DEM_6 1.0
    M17076 'MARKER' 'INTORG'
    U_G18_7 OBJ 305.55328077480635
    U_G18_7 PMIN_G18_7 -115.58840569903222
    U_G18_7 PMAX_G18_7 -328.6710539148283
    U_G18_7 LOGIC_G18_7 1.0
    U_G18_7 MINUP_G18_7 -1.0
    U_G18_7 MINDN_G18_7 1.0
    U_G18_7 LOGIC_G18_8 -1.0
    U_G18_7 RES_7 328.6710539148283
    V_G18_7 OBJ 2934.867171834817
    V_G18_7 LOGIC_G18_7 -1.0
    V_G18_7 MINUP_G18_7 1.0
    V_G18_7 MINUP_G18_8 1.0
    V_G18_7 MINUP_G18_9 1.0
    V_G18_7 MINUP_G18_10 1.0
    W_G18_7 LOGIC_G18_7 1.0
    W_G18_7 MINDN_G18_7 1.0
    M17093 'MARKER' 'INTEND'
    P_G18_7 OBJ 26.405616704313697
    P_G18_7 PMIN_G18_7 1.0
    P_G18_7 PMAX_G18_7 1.0
    P_G18_7 RUP_G18_7 1.0
    P_G18_7 RDN_G18_7 -1.0
    P_G18_7 RUP_G18_8 -1.0
    P_G18_7 RDN_G18_8 1.0
    P_G18_7 DEM_7 1.0
    M17102 'MARKER' 'INTORG'
    U_G18_8 OBJ 305.55328077480635
    U_G18_8 PMIN_G18_8 -115.58840569903222
    U_G18_8 PMAX_G18_8 -328.6710539148283
    U_G18_8 LOGIC_G18_8 1.0
    U_G18_8 MINUP_G18_8 -1.0
    U_G18_8 MINDN_G18_8 1.0
    U_G18_8 LOGIC_G18_9 -1.0
    U_G18_8 RES_8 328.6710539148283
    V_G18_8 OBJ 2934.867171834817
    V_G18_8 LOGIC_G18_8 -1.0
    V_G18_8 MINUP_G18_8 1.0
    V_G18_8 MINUP_G18_9 1.0
    V_G18_8 MINUP_G18_10 1.0
    V_G18_8 MINUP_G18_11 1.0
    W_G18_8 LOGIC_G18_8 1.0
    W_G18_8 MINDN_G18_8 1.0
    M17119 'MARKER' 'INTEND'
    P_G18_8 OBJ 26.405616704313697
    P_G18_8 PMIN_G18_8 1.0
    P_G18_8 PMAX_G18_8 1.0
    P_G18_8 RUP_G18_8 1.0
    P_G18_8 RDN_G18_8 -1.0
    P_G18_8 RUP_G18_9 -1.0
    P_G18_8 RDN_G18_9 1.0
    P_G18_8 DEM_8 1.0
    M17128 'MARKER' 'INTORG'
    U_G18_9 OBJ 305.55328077480635
    U_G18_9 PMIN_G18_9 -115.58840569903222
    U_G18_9 PMAX_G18_9 -328.6710539148283
    U_G18_9 LOGIC_G18_9 1.0
    U_G18_9 MINUP_G18_9 -1.0
    U_G18_9 MINDN_G18_9 1.0
    U_G18_9 LOGIC_G18_10 -1.0
    U_G18_9 RES_9 328.6710539148283
    V_G18_9 OBJ 2934.867171834817
    V_G18_9 LOGIC_G18_9 -1.0
    V_G18_9 MINUP_G18_9 1.0
    V_G18_9 MINUP_G18_10 1.0
    V_G18_9 MINUP_G18_11 1.0
    V_G18_9 MINUP_G18_12 1.0
    W_G18_9 LOGIC_G18_9 1.0
    W_G18_9 MINDN_G18_9 1.0
    M17145 'MARKER' 'INTEND'
    P_G18_9 OBJ 26.405616704313697
    P_G18_9 PMIN_G18_9 1.0
    P_G18_9 PMAX_G18_9 1.0
    P_G18_9 RUP_G18_9 1.0
    P_G18_9 RDN_G18_9 -1.0
    P_G18_9 RUP_G18_10 -1.0
    P_G18_9 RDN_G18_10 1.0
    P_G18_9 DEM_9 1.0
    M17154 'MARKER' 'INTORG'
    U_G18_10 OBJ 305.55328077480635
    U_G18_10 PMIN_G18_10 -115.58840569903222
    U_G18_10 PMAX_G18_10 -328.6710539148283
    U_G18_10 LOGIC_G18_10 1.0
    U_G18_10 MINUP_G18_10 -1.0
    U_G18_10 MINDN_G18_10 1.0
    U_G18_10 LOGIC_G18_11 -1.0
    U_G18_10 RES_10 328.6710539148283
    V_G18_10 OBJ 2934.867171834817
    V_G18_10 LOGIC_G18_10 -1.0
    V_G18_10 MINUP_G18_10 1.0
    V_G18_10 MINUP_G18_11 1.0
    V_G18_10 MINUP_G18_12 1.0
    V_G18_10 MINUP_G18_13 1.0
    W_G18_10 LOGIC_G18_10 1.0
    W_G18_10 MINDN_G18_10 1.0
    M17171 'MARKER' 'INTEND'
    P_G18_10 OBJ 26.405616704313697
    P_G18_10 PMIN_G18_10 1.0
    P_G18_10 PMAX_G18_10 1.0
    P_G18_10 RUP_G18_10 1.0
    P_G18_10 RDN_G18_10 -1.0
    P_G18_10 RUP_G18_11 -1.0
    P_G18_10 RDN_G18_11 1.0
    P_G18_10 DEM_10 1.0
    M17180 'MARKER' 'INTORG'
    U_G18_11 OBJ 305.55328077480635
    U_G18_11 PMIN_G18_11 -115.58840569903222
    U_G18_11 PMAX_G18_11 -328.6710539148283
    U_G18_11 LOGIC_G18_11 1.0
    U_G18_11 MINUP_G18_11 -1.0
    U_G18_11 MINDN_G18_11 1.0
    U_G18_11 LOGIC_G18_12 -1.0
    U_G18_11 RES_11 328.6710539148283
    V_G18_11 OBJ 2934.867171834817
    V_G18_11 LOGIC_G18_11 -1.0
    V_G18_11 MINUP_G18_11 1.0
    V_G18_11 MINUP_G18_12 1.0
    V_G18_11 MINUP_G18_13 1.0
    V_G18_11 MINUP_G18_14 1.0
    W_G18_11 LOGIC_G18_11 1.0
    W_G18_11 MINDN_G18_11 1.0
    M17197 'MARKER' 'INTEND'
    P_G18_11 OBJ 26.405616704313697
    P_G18_11 PMIN_G18_11 1.0
    P_G18_11 PMAX_G18_11 1.0
    P_G18_11 RUP_G18_11 1.0
    P_G18_11 RDN_G18_11 -1.0
    P_G18_11 RUP_G18_12 -1.0
    P_G18_11 RDN_G18_12 1.0
    P_G18_11 DEM_11 1.0
    M17206 'MARKER' 'INTORG'
    U_G18_12 OBJ 305.55328077480635
    U_G18_12 PMIN_G18_12 -115.58840569903222
    U_G18_12 PMAX_G18_12 -328.6710539148283
    U_G18_12 LOGIC_G18_12 1.0
    U_G18_12 MINUP_G18_12 -1.0
    U_G18_12 MINDN_G18_12 1.0
    U_G18_12 LOGIC_G18_13 -1.0
    U_G18_12 RES_12 328.6710539148283
    V_G18_12 OBJ 2934.867171834817
    V_G18_12 LOGIC_G18_12 -1.0
    V_G18_12 MINUP_G18_12 1.0
    V_G18_12 MINUP_G18_13 1.0
    V_G18_12 MINUP_G18_14 1.0
    V_G18_12 MINUP_G18_15 1.0
    W_G18_12 LOGIC_G18_12 1.0
    W_G18_12 MINDN_G18_12 1.0
    M17223 'MARKER' 'INTEND'
    P_G18_12 OBJ 26.405616704313697
    P_G18_12 PMIN_G18_12 1.0
    P_G18_12 PMAX_G18_12 1.0
    P_G18_12 RUP_G18_12 1.0
    P_G18_12 RDN_G18_12 -1.0
    P_G18_12 RUP_G18_13 -1.0
    P_G18_12 RDN_G18_13 1.0
    P_G18_12 DEM_12 1.0
    M17232 'MARKER' 'INTORG'
    U_G18_13 OBJ 305.55328077480635
    U_G18_13 PMIN_G18_13 -115.58840569903222
    U_G18_13 PMAX_G18_13 -328.6710539148283
    U_G18_13 LOGIC_G18_13 1.0
    U_G18_13 MINUP_G18_13 -1.0
    U_G18_13 MINDN_G18_13 1.0
    U_G18_13 LOGIC_G18_14 -1.0
    U_G18_13 RES_13 328.6710539148283
    V_G18_13 OBJ 2934.867171834817
    V_G18_13 LOGIC_G18_13 -1.0
    V_G18_13 MINUP_G18_13 1.0
    V_G18_13 MINUP_G18_14 1.0
    V_G18_13 MINUP_G18_15 1.0
    V_G18_13 MINUP_G18_16 1.0
    W_G18_13 LOGIC_G18_13 1.0
    W_G18_13 MINDN_G18_13 1.0
    M17249 'MARKER' 'INTEND'
    P_G18_13 OBJ 26.405616704313697
    P_G18_13 PMIN_G18_13 1.0
    P_G18_13 PMAX_G18_13 1.0
    P_G18_13 RUP_G18_13 1.0
    P_G18_13 RDN_G18_13 -1.0
    P_G18_13 RUP_G18_14 -1.0
    P_G18_13 RDN_G18_14 1.0
    P_G18_13 DEM_13 1.0
    M17258 'MARKER' 'INTORG'
    U_G18_14 OBJ 305.55328077480635
    U_G18_14 PMIN_G18_14 -115.58840569903222
    U_G18_14 PMAX_G18_14 -328.6710539148283
    U_G18_14 LOGIC_G18_14 1.0
    U_G18_14 MINUP_G18_14 -1.0
    U_G18_14 MINDN_G18_14 1.0
    U_G18_14 LOGIC_G18_15 -1.0
    U_G18_14 RES_14 328.6710539148283
    V_G18_14 OBJ 2934.867171834817
    V_G18_14 LOGIC_G18_14 -1.0
    V_G18_14 MINUP_G18_14 1.0
    V_G18_14 MINUP_G18_15 1.0
    V_G18_14 MINUP_G18_16 1.0
    V_G18_14 MINUP_G18_17 1.0
    W_G18_14 LOGIC_G18_14 1.0
    W_G18_14 MINDN_G18_14 1.0
    M17275 'MARKER' 'INTEND'
    P_G18_14 OBJ 26.405616704313697
    P_G18_14 PMIN_G18_14 1.0
    P_G18_14 PMAX_G18_14 1.0
    P_G18_14 RUP_G18_14 1.0
    P_G18_14 RDN_G18_14 -1.0
    P_G18_14 RUP_G18_15 -1.0
    P_G18_14 RDN_G18_15 1.0
    P_G18_14 DEM_14 1.0
    M17284 'MARKER' 'INTORG'
    U_G18_15 OBJ 305.55328077480635
    U_G18_15 PMIN_G18_15 -115.58840569903222
    U_G18_15 PMAX_G18_15 -328.6710539148283
    U_G18_15 LOGIC_G18_15 1.0
    U_G18_15 MINUP_G18_15 -1.0
    U_G18_15 MINDN_G18_15 1.0
    U_G18_15 LOGIC_G18_16 -1.0
    U_G18_15 RES_15 328.6710539148283
    V_G18_15 OBJ 2934.867171834817
    V_G18_15 LOGIC_G18_15 -1.0
    V_G18_15 MINUP_G18_15 1.0
    V_G18_15 MINUP_G18_16 1.0
    V_G18_15 MINUP_G18_17 1.0
    V_G18_15 MINUP_G18_18 1.0
    W_G18_15 LOGIC_G18_15 1.0
    W_G18_15 MINDN_G18_15 1.0
    M17301 'MARKER' 'INTEND'
    P_G18_15 OBJ 26.405616704313697
    P_G18_15 PMIN_G18_15 1.0
    P_G18_15 PMAX_G18_15 1.0
    P_G18_15 RUP_G18_15 1.0
    P_G18_15 RDN_G18_15 -1.0
    P_G18_15 RUP_G18_16 -1.0
    P_G18_15 RDN_G18_16 1.0
    P_G18_15 DEM_15 1.0
    M17310 'MARKER' 'INTORG'
    U_G18_16 OBJ 305.55328077480635
    U_G18_16 PMIN_G18_16 -115.58840569903222
    U_G18_16 PMAX_G18_16 -328.6710539148283
    U_G18_16 LOGIC_G18_16 1.0
    U_G18_16 MINUP_G18_16 -1.0
    U_G18_16 MINDN_G18_16 1.0
    U_G18_16 LOGIC_G18_17 -1.0
    U_G18_16 RES_16 328.6710539148283
    V_G18_16 OBJ 2934.867171834817
    V_G18_16 LOGIC_G18_16 -1.0
    V_G18_16 MINUP_G18_16 1.0
    V_G18_16 MINUP_G18_17 1.0
    V_G18_16 MINUP_G18_18 1.0
    V_G18_16 MINUP_G18_19 1.0
    W_G18_16 LOGIC_G18_16 1.0
    W_G18_16 MINDN_G18_16 1.0
    M17327 'MARKER' 'INTEND'
    P_G18_16 OBJ 26.405616704313697
    P_G18_16 PMIN_G18_16 1.0
    P_G18_16 PMAX_G18_16 1.0
    P_G18_16 RUP_G18_16 1.0
    P_G18_16 RDN_G18_16 -1.0
    P_G18_16 RUP_G18_17 -1.0
    P_G18_16 RDN_G18_17 1.0
    P_G18_16 DEM_16 1.0
    M17336 'MARKER' 'INTORG'
    U_G18_17 OBJ 305.55328077480635
    U_G18_17 PMIN_G18_17 -115.58840569903222
    U_G18_17 PMAX_G18_17 -328.6710539148283
    U_G18_17 LOGIC_G18_17 1.0
    U_G18_17 MINUP_G18_17 -1.0
    U_G18_17 MINDN_G18_17 1.0
    U_G18_17 LOGIC_G18_18 -1.0
    U_G18_17 RES_17 328.6710539148283
    V_G18_17 OBJ 2934.867171834817
    V_G18_17 LOGIC_G18_17 -1.0
    V_G18_17 MINUP_G18_17 1.0
    V_G18_17 MINUP_G18_18 1.0
    V_G18_17 MINUP_G18_19 1.0
    V_G18_17 MINUP_G18_20 1.0
    W_G18_17 LOGIC_G18_17 1.0
    W_G18_17 MINDN_G18_17 1.0
    M17353 'MARKER' 'INTEND'
    P_G18_17 OBJ 26.405616704313697
    P_G18_17 PMIN_G18_17 1.0
    P_G18_17 PMAX_G18_17 1.0
    P_G18_17 RUP_G18_17 1.0
    P_G18_17 RDN_G18_17 -1.0
    P_G18_17 RUP_G18_18 -1.0
    P_G18_17 RDN_G18_18 1.0
    P_G18_17 DEM_17 1.0
    M17362 'MARKER' 'INTORG'
    U_G18_18 OBJ 305.55328077480635
    U_G18_18 PMIN_G18_18 -115.58840569903222
    U_G18_18 PMAX_G18_18 -328.6710539148283
    U_G18_18 LOGIC_G18_18 1.0
    U_G18_18 MINUP_G18_18 -1.0
    U_G18_18 MINDN_G18_18 1.0
    U_G18_18 LOGIC_G18_19 -1.0
    U_G18_18 RES_18 328.6710539148283
    V_G18_18 OBJ 2934.867171834817
    V_G18_18 LOGIC_G18_18 -1.0
    V_G18_18 MINUP_G18_18 1.0
    V_G18_18 MINUP_G18_19 1.0
    V_G18_18 MINUP_G18_20 1.0
    V_G18_18 MINUP_G18_21 1.0
    W_G18_18 LOGIC_G18_18 1.0
    W_G18_18 MINDN_G18_18 1.0
    M17379 'MARKER' 'INTEND'
    P_G18_18 OBJ 26.405616704313697
    P_G18_18 PMIN_G18_18 1.0
    P_G18_18 PMAX_G18_18 1.0
    P_G18_18 RUP_G18_18 1.0
    P_G18_18 RDN_G18_18 -1.0
    P_G18_18 RUP_G18_19 -1.0
    P_G18_18 RDN_G18_19 1.0
    P_G18_18 DEM_18 1.0
    M17388 'MARKER' 'INTORG'
    U_G18_19 OBJ 305.55328077480635
    U_G18_19 PMIN_G18_19 -115.58840569903222
    U_G18_19 PMAX_G18_19 -328.6710539148283
    U_G18_19 LOGIC_G18_19 1.0
    U_G18_19 MINUP_G18_19 -1.0
    U_G18_19 MINDN_G18_19 1.0
    U_G18_19 LOGIC_G18_20 -1.0
    U_G18_19 RES_19 328.6710539148283
    V_G18_19 OBJ 2934.867171834817
    V_G18_19 LOGIC_G18_19 -1.0
    V_G18_19 MINUP_G18_19 1.0
    V_G18_19 MINUP_G18_20 1.0
    V_G18_19 MINUP_G18_21 1.0
    V_G18_19 MINUP_G18_22 1.0
    W_G18_19 LOGIC_G18_19 1.0
    W_G18_19 MINDN_G18_19 1.0
    M17405 'MARKER' 'INTEND'
    P_G18_19 OBJ 26.405616704313697
    P_G18_19 PMIN_G18_19 1.0
    P_G18_19 PMAX_G18_19 1.0
    P_G18_19 RUP_G18_19 1.0
    P_G18_19 RDN_G18_19 -1.0
    P_G18_19 RUP_G18_20 -1.0
    P_G18_19 RDN_G18_20 1.0
    P_G18_19 DEM_19 1.0
    M17414 'MARKER' 'INTORG'
    U_G18_20 OBJ 305.55328077480635
    U_G18_20 PMIN_G18_20 -115.58840569903222
    U_G18_20 PMAX_G18_20 -328.6710539148283
    U_G18_20 LOGIC_G18_20 1.0
    U_G18_20 MINUP_G18_20 -1.0
    U_G18_20 MINDN_G18_20 1.0
    U_G18_20 LOGIC_G18_21 -1.0
    U_G18_20 RES_20 328.6710539148283
    V_G18_20 OBJ 2934.867171834817
    V_G18_20 LOGIC_G18_20 -1.0
    V_G18_20 MINUP_G18_20 1.0
    V_G18_20 MINUP_G18_21 1.0
    V_G18_20 MINUP_G18_22 1.0
    V_G18_20 MINUP_G18_23 1.0
    W_G18_20 LOGIC_G18_20 1.0
    W_G18_20 MINDN_G18_20 1.0
    M17431 'MARKER' 'INTEND'
    P_G18_20 OBJ 26.405616704313697
    P_G18_20 PMIN_G18_20 1.0
    P_G18_20 PMAX_G18_20 1.0
    P_G18_20 RUP_G18_20 1.0
    P_G18_20 RDN_G18_20 -1.0
    P_G18_20 RUP_G18_21 -1.0
    P_G18_20 RDN_G18_21 1.0
    P_G18_20 DEM_20 1.0
    M17440 'MARKER' 'INTORG'
    U_G18_21 OBJ 305.55328077480635
    U_G18_21 PMIN_G18_21 -115.58840569903222
    U_G18_21 PMAX_G18_21 -328.6710539148283
    U_G18_21 LOGIC_G18_21 1.0
    U_G18_21 MINUP_G18_21 -1.0
    U_G18_21 MINDN_G18_21 1.0
    U_G18_21 LOGIC_G18_22 -1.0
    U_G18_21 RES_21 328.6710539148283
    V_G18_21 OBJ 2934.867171834817
    V_G18_21 LOGIC_G18_21 -1.0
    V_G18_21 MINUP_G18_21 1.0
    V_G18_21 MINUP_G18_22 1.0
    V_G18_21 MINUP_G18_23 1.0
    W_G18_21 LOGIC_G18_21 1.0
    W_G18_21 MINDN_G18_21 1.0
    M17456 'MARKER' 'INTEND'
    P_G18_21 OBJ 26.405616704313697
    P_G18_21 PMIN_G18_21 1.0
    P_G18_21 PMAX_G18_21 1.0
    P_G18_21 RUP_G18_21 1.0
    P_G18_21 RDN_G18_21 -1.0
    P_G18_21 RUP_G18_22 -1.0
    P_G18_21 RDN_G18_22 1.0
    P_G18_21 DEM_21 1.0
    M17465 'MARKER' 'INTORG'
    U_G18_22 OBJ 305.55328077480635
    U_G18_22 PMIN_G18_22 -115.58840569903222
    U_G18_22 PMAX_G18_22 -328.6710539148283
    U_G18_22 LOGIC_G18_22 1.0
    U_G18_22 MINUP_G18_22 -1.0
    U_G18_22 MINDN_G18_22 1.0
    U_G18_22 LOGIC_G18_23 -1.0
    U_G18_22 RES_22 328.6710539148283
    V_G18_22 OBJ 2934.867171834817
    V_G18_22 LOGIC_G18_22 -1.0
    V_G18_22 MINUP_G18_22 1.0
    V_G18_22 MINUP_G18_23 1.0
    W_G18_22 LOGIC_G18_22 1.0
    W_G18_22 MINDN_G18_22 1.0
    M17480 'MARKER' 'INTEND'
    P_G18_22 OBJ 26.405616704313697
    P_G18_22 PMIN_G18_22 1.0
    P_G18_22 PMAX_G18_22 1.0
    P_G18_22 RUP_G18_22 1.0
    P_G18_22 RDN_G18_22 -1.0
    P_G18_22 RUP_G18_23 -1.0
    P_G18_22 RDN_G18_23 1.0
    P_G18_22 DEM_22 1.0
    M17489 'MARKER' 'INTORG'
    U_G18_23 OBJ 305.55328077480635
    U_G18_23 PMIN_G18_23 -115.58840569903222
    U_G18_23 PMAX_G18_23 -328.6710539148283
    U_G18_23 LOGIC_G18_23 1.0
    U_G18_23 MINUP_G18_23 -1.0
    U_G18_23 MINDN_G18_23 1.0
    U_G18_23 RES_23 328.6710539148283
    V_G18_23 OBJ 2934.867171834817
    V_G18_23 LOGIC_G18_23 -1.0
    V_G18_23 MINUP_G18_23 1.0
    W_G18_23 LOGIC_G18_23 1.0
    W_G18_23 MINDN_G18_23 1.0
    M17502 'MARKER' 'INTEND'
    P_G18_23 OBJ 26.405616704313697
    P_G18_23 PMIN_G18_23 1.0
    P_G18_23 PMAX_G18_23 1.0
    P_G18_23 RUP_G18_23 1.0
    P_G18_23 RDN_G18_23 -1.0
    P_G18_23 DEM_23 1.0
    M17509 'MARKER' 'INTORG'
    U_G19_0 OBJ 385.96266102850177
    U_G19_0 PMIN_G19_0 -48.90554424078417
    U_G19_0 PMAX_G19_0 -128.88090466151073
    U_G19_0 LOGIC_G19_0 1.0
    U_G19_0 MINUP_G19_0 -1.0
    U_G19_0 MINDN_G19_0 1.0
    U_G19_0 LOGIC_G19_1 -1.0
    U_G19_0 RES_0 128.88090466151073
    V_G19_0 OBJ 1447.8718457586747
    V_G19_0 LOGIC_G19_0 -1.0
    V_G19_0 MINUP_G19_0 1.0
    V_G19_0 MINUP_G19_1 1.0
    V_G19_0 MINUP_G19_2 1.0
    V_G19_0 MINUP_G19_3 1.0
    W_G19_0 LOGIC_G19_0 1.0
    W_G19_0 MINDN_G19_0 1.0
    W_G19_0 MINDN_G19_1 1.0
    W_G19_0 MINDN_G19_2 1.0
    W_G19_0 MINDN_G19_3 1.0
    W_G19_0 MINDN_G19_4 1.0
    M17530 'MARKER' 'INTEND'
    P_G19_0 OBJ 16.589672098663417
    P_G19_0 PMIN_G19_0 1.0
    P_G19_0 PMAX_G19_0 1.0
    P_G19_0 RUP_G19_1 -1.0
    P_G19_0 RDN_G19_1 1.0
    P_G19_0 DEM_0 1.0
    M17537 'MARKER' 'INTORG'
    U_G19_1 OBJ 385.96266102850177
    U_G19_1 PMIN_G19_1 -48.90554424078417
    U_G19_1 PMAX_G19_1 -128.88090466151073
    U_G19_1 LOGIC_G19_1 1.0
    U_G19_1 MINUP_G19_1 -1.0
    U_G19_1 MINDN_G19_1 1.0
    U_G19_1 LOGIC_G19_2 -1.0
    U_G19_1 RES_1 128.88090466151073
    V_G19_1 OBJ 1447.8718457586747
    V_G19_1 LOGIC_G19_1 -1.0
    V_G19_1 MINUP_G19_1 1.0
    V_G19_1 MINUP_G19_2 1.0
    V_G19_1 MINUP_G19_3 1.0
    V_G19_1 MINUP_G19_4 1.0
    W_G19_1 LOGIC_G19_1 1.0
    W_G19_1 MINDN_G19_1 1.0
    W_G19_1 MINDN_G19_2 1.0
    W_G19_1 MINDN_G19_3 1.0
    W_G19_1 MINDN_G19_4 1.0
    W_G19_1 MINDN_G19_5 1.0
    M17558 'MARKER' 'INTEND'
    P_G19_1 OBJ 16.589672098663417
    P_G19_1 PMIN_G19_1 1.0
    P_G19_1 PMAX_G19_1 1.0
    P_G19_1 RUP_G19_1 1.0
    P_G19_1 RDN_G19_1 -1.0
    P_G19_1 RUP_G19_2 -1.0
    P_G19_1 RDN_G19_2 1.0
    P_G19_1 DEM_1 1.0
    M17567 'MARKER' 'INTORG'
    U_G19_2 OBJ 385.96266102850177
    U_G19_2 PMIN_G19_2 -48.90554424078417
    U_G19_2 PMAX_G19_2 -128.88090466151073
    U_G19_2 LOGIC_G19_2 1.0
    U_G19_2 MINUP_G19_2 -1.0
    U_G19_2 MINDN_G19_2 1.0
    U_G19_2 LOGIC_G19_3 -1.0
    U_G19_2 RES_2 128.88090466151073
    V_G19_2 OBJ 1447.8718457586747
    V_G19_2 LOGIC_G19_2 -1.0
    V_G19_2 MINUP_G19_2 1.0
    V_G19_2 MINUP_G19_3 1.0
    V_G19_2 MINUP_G19_4 1.0
    V_G19_2 MINUP_G19_5 1.0
    W_G19_2 LOGIC_G19_2 1.0
    W_G19_2 MINDN_G19_2 1.0
    W_G19_2 MINDN_G19_3 1.0
    W_G19_2 MINDN_G19_4 1.0
    W_G19_2 MINDN_G19_5 1.0
    W_G19_2 MINDN_G19_6 1.0
    M17588 'MARKER' 'INTEND'
    P_G19_2 OBJ 16.589672098663417
    P_G19_2 PMIN_G19_2 1.0
    P_G19_2 PMAX_G19_2 1.0
    P_G19_2 RUP_G19_2 1.0
    P_G19_2 RDN_G19_2 -1.0
    P_G19_2 RUP_G19_3 -1.0
    P_G19_2 RDN_G19_3 1.0
    P_G19_2 DEM_2 1.0
    M17597 'MARKER' 'INTORG'
    U_G19_3 OBJ 385.96266102850177
    U_G19_3 PMIN_G19_3 -48.90554424078417
    U_G19_3 PMAX_G19_3 -128.88090466151073
    U_G19_3 LOGIC_G19_3 1.0
    U_G19_3 MINUP_G19_3 -1.0
    U_G19_3 MINDN_G19_3 1.0
    U_G19_3 LOGIC_G19_4 -1.0
    U_G19_3 RES_3 128.88090466151073
    V_G19_3 OBJ 1447.8718457586747
    V_G19_3 LOGIC_G19_3 -1.0
    V_G19_3 MINUP_G19_3 1.0
    V_G19_3 MINUP_G19_4 1.0
    V_G19_3 MINUP_G19_5 1.0
    V_G19_3 MINUP_G19_6 1.0
    W_G19_3 LOGIC_G19_3 1.0
    W_G19_3 MINDN_G19_3 1.0
    W_G19_3 MINDN_G19_4 1.0
    W_G19_3 MINDN_G19_5 1.0
    W_G19_3 MINDN_G19_6 1.0
    W_G19_3 MINDN_G19_7 1.0
    M17618 'MARKER' 'INTEND'
    P_G19_3 OBJ 16.589672098663417
    P_G19_3 PMIN_G19_3 1.0
    P_G19_3 PMAX_G19_3 1.0
    P_G19_3 RUP_G19_3 1.0
    P_G19_3 RDN_G19_3 -1.0
    P_G19_3 RUP_G19_4 -1.0
    P_G19_3 RDN_G19_4 1.0
    P_G19_3 DEM_3 1.0
    M17627 'MARKER' 'INTORG'
    U_G19_4 OBJ 385.96266102850177
    U_G19_4 PMIN_G19_4 -48.90554424078417
    U_G19_4 PMAX_G19_4 -128.88090466151073
    U_G19_4 LOGIC_G19_4 1.0
    U_G19_4 MINUP_G19_4 -1.0
    U_G19_4 MINDN_G19_4 1.0
    U_G19_4 LOGIC_G19_5 -1.0
    U_G19_4 RES_4 128.88090466151073
    V_G19_4 OBJ 1447.8718457586747
    V_G19_4 LOGIC_G19_4 -1.0
    V_G19_4 MINUP_G19_4 1.0
    V_G19_4 MINUP_G19_5 1.0
    V_G19_4 MINUP_G19_6 1.0
    V_G19_4 MINUP_G19_7 1.0
    W_G19_4 LOGIC_G19_4 1.0
    W_G19_4 MINDN_G19_4 1.0
    W_G19_4 MINDN_G19_5 1.0
    W_G19_4 MINDN_G19_6 1.0
    W_G19_4 MINDN_G19_7 1.0
    W_G19_4 MINDN_G19_8 1.0
    M17648 'MARKER' 'INTEND'
    P_G19_4 OBJ 16.589672098663417
    P_G19_4 PMIN_G19_4 1.0
    P_G19_4 PMAX_G19_4 1.0
    P_G19_4 RUP_G19_4 1.0
    P_G19_4 RDN_G19_4 -1.0
    P_G19_4 RUP_G19_5 -1.0
    P_G19_4 RDN_G19_5 1.0
    P_G19_4 DEM_4 1.0
    M17657 'MARKER' 'INTORG'
    U_G19_5 OBJ 385.96266102850177
    U_G19_5 PMIN_G19_5 -48.90554424078417
    U_G19_5 PMAX_G19_5 -128.88090466151073
    U_G19_5 LOGIC_G19_5 1.0
    U_G19_5 MINUP_G19_5 -1.0
    U_G19_5 MINDN_G19_5 1.0
    U_G19_5 LOGIC_G19_6 -1.0
    U_G19_5 RES_5 128.88090466151073
    V_G19_5 OBJ 1447.8718457586747
    V_G19_5 LOGIC_G19_5 -1.0
    V_G19_5 MINUP_G19_5 1.0
    V_G19_5 MINUP_G19_6 1.0
    V_G19_5 MINUP_G19_7 1.0
    V_G19_5 MINUP_G19_8 1.0
    W_G19_5 LOGIC_G19_5 1.0
    W_G19_5 MINDN_G19_5 1.0
    W_G19_5 MINDN_G19_6 1.0
    W_G19_5 MINDN_G19_7 1.0
    W_G19_5 MINDN_G19_8 1.0
    W_G19_5 MINDN_G19_9 1.0
    M17678 'MARKER' 'INTEND'
    P_G19_5 OBJ 16.589672098663417
    P_G19_5 PMIN_G19_5 1.0
    P_G19_5 PMAX_G19_5 1.0
    P_G19_5 RUP_G19_5 1.0
    P_G19_5 RDN_G19_5 -1.0
    P_G19_5 RUP_G19_6 -1.0
    P_G19_5 RDN_G19_6 1.0
    P_G19_5 DEM_5 1.0
    M17687 'MARKER' 'INTORG'
    U_G19_6 OBJ 385.96266102850177
    U_G19_6 PMIN_G19_6 -48.90554424078417
    U_G19_6 PMAX_G19_6 -128.88090466151073
    U_G19_6 LOGIC_G19_6 1.0
    U_G19_6 MINUP_G19_6 -1.0
    U_G19_6 MINDN_G19_6 1.0
    U_G19_6 LOGIC_G19_7 -1.0
    U_G19_6 RES_6 128.88090466151073
    V_G19_6 OBJ 1447.8718457586747
    V_G19_6 LOGIC_G19_6 -1.0
    V_G19_6 MINUP_G19_6 1.0
    V_G19_6 MINUP_G19_7 1.0
    V_G19_6 MINUP_G19_8 1.0
    V_G19_6 MINUP_G19_9 1.0
    W_G19_6 LOGIC_G19_6 1.0
    W_G19_6 MINDN_G19_6 1.0
    W_G19_6 MINDN_G19_7 1.0
    W_G19_6 MINDN_G19_8 1.0
    W_G19_6 MINDN_G19_9 1.0
    W_G19_6 MINDN_G19_10 1.0
    M17708 'MARKER' 'INTEND'
    P_G19_6 OBJ 16.589672098663417
    P_G19_6 PMIN_G19_6 1.0
    P_G19_6 PMAX_G19_6 1.0
    P_G19_6 RUP_G19_6 1.0
    P_G19_6 RDN_G19_6 -1.0
    P_G19_6 RUP_G19_7 -1.0
    P_G19_6 RDN_G19_7 1.0
    P_G19_6 DEM_6 1.0
    M17717 'MARKER' 'INTORG'
    U_G19_7 OBJ 385.96266102850177
    U_G19_7 PMIN_G19_7 -48.90554424078417
    U_G19_7 PMAX_G19_7 -128.88090466151073
    U_G19_7 LOGIC_G19_7 1.0
    U_G19_7 MINUP_G19_7 -1.0
    U_G19_7 MINDN_G19_7 1.0
    U_G19_7 LOGIC_G19_8 -1.0
    U_G19_7 RES_7 128.88090466151073
    V_G19_7 OBJ 1447.8718457586747
    V_G19_7 LOGIC_G19_7 -1.0
    V_G19_7 MINUP_G19_7 1.0
    V_G19_7 MINUP_G19_8 1.0
    V_G19_7 MINUP_G19_9 1.0
    V_G19_7 MINUP_G19_10 1.0
    W_G19_7 LOGIC_G19_7 1.0
    W_G19_7 MINDN_G19_7 1.0
    W_G19_7 MINDN_G19_8 1.0
    W_G19_7 MINDN_G19_9 1.0
    W_G19_7 MINDN_G19_10 1.0
    W_G19_7 MINDN_G19_11 1.0
    M17738 'MARKER' 'INTEND'
    P_G19_7 OBJ 16.589672098663417
    P_G19_7 PMIN_G19_7 1.0
    P_G19_7 PMAX_G19_7 1.0
    P_G19_7 RUP_G19_7 1.0
    P_G19_7 RDN_G19_7 -1.0
    P_G19_7 RUP_G19_8 -1.0
    P_G19_7 RDN_G19_8 1.0
    P_G19_7 DEM_7 1.0
    M17747 'MARKER' 'INTORG'
    U_G19_8 OBJ 385.96266102850177
    U_G19_8 PMIN_G19_8 -48.90554424078417
    U_G19_8 PMAX_G19_8 -128.88090466151073
    U_G19_8 LOGIC_G19_8 1.0
    U_G19_8 MINUP_G19_8 -1.0
    U_G19_8 MINDN_G19_8 1.0
    U_G19_8 LOGIC_G19_9 -1.0
    U_G19_8 RES_8 128.88090466151073
    V_G19_8 OBJ 1447.8718457586747
    V_G19_8 LOGIC_G19_8 -1.0
    V_G19_8 MINUP_G19_8 1.0
    V_G19_8 MINUP_G19_9 1.0
    V_G19_8 MINUP_G19_10 1.0
    V_G19_8 MINUP_G19_11 1.0
    W_G19_8 LOGIC_G19_8 1.0
    W_G19_8 MINDN_G19_8 1.0
    W_G19_8 MINDN_G19_9 1.0
    W_G19_8 MINDN_G19_10 1.0
    W_G19_8 MINDN_G19_11 1.0
    W_G19_8 MINDN_G19_12 1.0
    M17768 'MARKER' 'INTEND'
    P_G19_8 OBJ 16.589672098663417
    P_G19_8 PMIN_G19_8 1.0
    P_G19_8 PMAX_G19_8 1.0
    P_G19_8 RUP_G19_8 1.0
    P_G19_8 RDN_G19_8 -1.0
    P_G19_8 RUP_G19_9 -1.0
    P_G19_8 RDN_G19_9 1.0
    P_G19_8 DEM_8 1.0
    M17777 'MARKER' 'INTORG'
    U_G19_9 OBJ 385.96266102850177
    U_G19_9 PMIN_G19_9 -48.90554424078417
    U_G19_9 PMAX_G19_9 -128.88090466151073
    U_G19_9 LOGIC_G19_9 1.0
    U_G19_9 MINUP_G19_9 -1.0
    U_G19_9 MINDN_G19_9 1.0
    U_G19_9 LOGIC_G19_10 -1.0
    U_G19_9 RES_9 128.88090466151073
    V_G19_9 OBJ 1447.8718457586747
    V_G19_9 LOGIC_G19_9 -1.0
    V_G19_9 MINUP_G19_9 1.0
    V_G19_9 MINUP_G19_10 1.0
    V_G19_9 MINUP_G19_11 1.0
    V_G19_9 MINUP_G19_12 1.0
    W_G19_9 LOGIC_G19_9 1.0
    W_G19_9 MINDN_G19_9 1.0
    W_G19_9 MINDN_G19_10 1.0
    W_G19_9 MINDN_G19_11 1.0
    W_G19_9 MINDN_G19_12 1.0
    W_G19_9 MINDN_G19_13 1.0
    M17798 'MARKER' 'INTEND'
    P_G19_9 OBJ 16.589672098663417
    P_G19_9 PMIN_G19_9 1.0
    P_G19_9 PMAX_G19_9 1.0
    P_G19_9 RUP_G19_9 1.0
    P_G19_9 RDN_G19_9 -1.0
    P_G19_9 RUP_G19_10 -1.0
    P_G19_9 RDN_G19_10 1.0
    P_G19_9 DEM_9 1.0
    M17807 'MARKER' 'INTORG'
    U_G19_10 OBJ 385.96266102850177
    U_G19_10 PMIN_G19_10 -48.90554424078417
    U_G19_10 PMAX_G19_10 -128.88090466151073
    U_G19_10 LOGIC_G19_10 1.0
    U_G19_10 MINUP_G19_10 -1.0
    U_G19_10 MINDN_G19_10 1.0
    U_G19_10 LOGIC_G19_11 -1.0
    U_G19_10 RES_10 128.88090466151073
    V_G19_10 OBJ 1447.8718457586747
    V_G19_10 LOGIC_G19_10 -1.0
    V_G19_10 MINUP_G19_10 1.0
    V_G19_10 MINUP_G19_11 1.0
    V_G19_10 MINUP_G19_12 1.0
    V_G19_10 MINUP_G19_13 1.0
    W_G19_10 LOGIC_G19_10 1.0
    W_G19_10 MINDN_G19_10 1.0
    W_G19_10 MINDN_G19_11 1.0
    W_G19_10 MINDN_G19_12 1.0
    W_G19_10 MINDN_G19_13 1.0
    W_G19_10 MINDN_G19_14 1.0
    M17828 'MARKER' 'INTEND'
    P_G19_10 OBJ 16.589672098663417
    P_G19_10 PMIN_G19_10 1.0
    P_G19_10 PMAX_G19_10 1.0
    P_G19_10 RUP_G19_10 1.0
    P_G19_10 RDN_G19_10 -1.0
    P_G19_10 RUP_G19_11 -1.0
    P_G19_10 RDN_G19_11 1.0
    P_G19_10 DEM_10 1.0
    M17837 'MARKER' 'INTORG'
    U_G19_11 OBJ 385.96266102850177
    U_G19_11 PMIN_G19_11 -48.90554424078417
    U_G19_11 PMAX_G19_11 -128.88090466151073
    U_G19_11 LOGIC_G19_11 1.0
    U_G19_11 MINUP_G19_11 -1.0
    U_G19_11 MINDN_G19_11 1.0
    U_G19_11 LOGIC_G19_12 -1.0
    U_G19_11 RES_11 128.88090466151073
    V_G19_11 OBJ 1447.8718457586747
    V_G19_11 LOGIC_G19_11 -1.0
    V_G19_11 MINUP_G19_11 1.0
    V_G19_11 MINUP_G19_12 1.0
    V_G19_11 MINUP_G19_13 1.0
    V_G19_11 MINUP_G19_14 1.0
    W_G19_11 LOGIC_G19_11 1.0
    W_G19_11 MINDN_G19_11 1.0
    W_G19_11 MINDN_G19_12 1.0
    W_G19_11 MINDN_G19_13 1.0
    W_G19_11 MINDN_G19_14 1.0
    W_G19_11 MINDN_G19_15 1.0
    M17858 'MARKER' 'INTEND'
    P_G19_11 OBJ 16.589672098663417
    P_G19_11 PMIN_G19_11 1.0
    P_G19_11 PMAX_G19_11 1.0
    P_G19_11 RUP_G19_11 1.0
    P_G19_11 RDN_G19_11 -1.0
    P_G19_11 RUP_G19_12 -1.0
    P_G19_11 RDN_G19_12 1.0
    P_G19_11 DEM_11 1.0
    M17867 'MARKER' 'INTORG'
    U_G19_12 OBJ 385.96266102850177
    U_G19_12 PMIN_G19_12 -48.90554424078417
    U_G19_12 PMAX_G19_12 -128.88090466151073
    U_G19_12 LOGIC_G19_12 1.0
    U_G19_12 MINUP_G19_12 -1.0
    U_G19_12 MINDN_G19_12 1.0
    U_G19_12 LOGIC_G19_13 -1.0
    U_G19_12 RES_12 128.88090466151073
    V_G19_12 OBJ 1447.8718457586747
    V_G19_12 LOGIC_G19_12 -1.0
    V_G19_12 MINUP_G19_12 1.0
    V_G19_12 MINUP_G19_13 1.0
    V_G19_12 MINUP_G19_14 1.0
    V_G19_12 MINUP_G19_15 1.0
    W_G19_12 LOGIC_G19_12 1.0
    W_G19_12 MINDN_G19_12 1.0
    W_G19_12 MINDN_G19_13 1.0
    W_G19_12 MINDN_G19_14 1.0
    W_G19_12 MINDN_G19_15 1.0
    W_G19_12 MINDN_G19_16 1.0
    M17888 'MARKER' 'INTEND'
    P_G19_12 OBJ 16.589672098663417
    P_G19_12 PMIN_G19_12 1.0
    P_G19_12 PMAX_G19_12 1.0
    P_G19_12 RUP_G19_12 1.0
    P_G19_12 RDN_G19_12 -1.0
    P_G19_12 RUP_G19_13 -1.0
    P_G19_12 RDN_G19_13 1.0
    P_G19_12 DEM_12 1.0
    M17897 'MARKER' 'INTORG'
    U_G19_13 OBJ 385.96266102850177
    U_G19_13 PMIN_G19_13 -48.90554424078417
    U_G19_13 PMAX_G19_13 -128.88090466151073
    U_G19_13 LOGIC_G19_13 1.0
    U_G19_13 MINUP_G19_13 -1.0
    U_G19_13 MINDN_G19_13 1.0
    U_G19_13 LOGIC_G19_14 -1.0
    U_G19_13 RES_13 128.88090466151073
    V_G19_13 OBJ 1447.8718457586747
    V_G19_13 LOGIC_G19_13 -1.0
    V_G19_13 MINUP_G19_13 1.0
    V_G19_13 MINUP_G19_14 1.0
    V_G19_13 MINUP_G19_15 1.0
    V_G19_13 MINUP_G19_16 1.0
    W_G19_13 LOGIC_G19_13 1.0
    W_G19_13 MINDN_G19_13 1.0
    W_G19_13 MINDN_G19_14 1.0
    W_G19_13 MINDN_G19_15 1.0
    W_G19_13 MINDN_G19_16 1.0
    W_G19_13 MINDN_G19_17 1.0
    M17918 'MARKER' 'INTEND'
    P_G19_13 OBJ 16.589672098663417
    P_G19_13 PMIN_G19_13 1.0
    P_G19_13 PMAX_G19_13 1.0
    P_G19_13 RUP_G19_13 1.0
    P_G19_13 RDN_G19_13 -1.0
    P_G19_13 RUP_G19_14 -1.0
    P_G19_13 RDN_G19_14 1.0
    P_G19_13 DEM_13 1.0
    M17927 'MARKER' 'INTORG'
    U_G19_14 OBJ 385.96266102850177
    U_G19_14 PMIN_G19_14 -48.90554424078417
    U_G19_14 PMAX_G19_14 -128.88090466151073
    U_G19_14 LOGIC_G19_14 1.0
    U_G19_14 MINUP_G19_14 -1.0
    U_G19_14 MINDN_G19_14 1.0
    U_G19_14 LOGIC_G19_15 -1.0
    U_G19_14 RES_14 128.88090466151073
    V_G19_14 OBJ 1447.8718457586747
    V_G19_14 LOGIC_G19_14 -1.0
    V_G19_14 MINUP_G19_14 1.0
    V_G19_14 MINUP_G19_15 1.0
    V_G19_14 MINUP_G19_16 1.0
    V_G19_14 MINUP_G19_17 1.0
    W_G19_14 LOGIC_G19_14 1.0
    W_G19_14 MINDN_G19_14 1.0
    W_G19_14 MINDN_G19_15 1.0
    W_G19_14 MINDN_G19_16 1.0
    W_G19_14 MINDN_G19_17 1.0
    W_G19_14 MINDN_G19_18 1.0
    M17948 'MARKER' 'INTEND'
    P_G19_14 OBJ 16.589672098663417
    P_G19_14 PMIN_G19_14 1.0
    P_G19_14 PMAX_G19_14 1.0
    P_G19_14 RUP_G19_14 1.0
    P_G19_14 RDN_G19_14 -1.0
    P_G19_14 RUP_G19_15 -1.0
    P_G19_14 RDN_G19_15 1.0
    P_G19_14 DEM_14 1.0
    M17957 'MARKER' 'INTORG'
    U_G19_15 OBJ 385.96266102850177
    U_G19_15 PMIN_G19_15 -48.90554424078417
    U_G19_15 PMAX_G19_15 -128.88090466151073
    U_G19_15 LOGIC_G19_15 1.0
    U_G19_15 MINUP_G19_15 -1.0
    U_G19_15 MINDN_G19_15 1.0
    U_G19_15 LOGIC_G19_16 -1.0
    U_G19_15 RES_15 128.88090466151073
    V_G19_15 OBJ 1447.8718457586747
    V_G19_15 LOGIC_G19_15 -1.0
    V_G19_15 MINUP_G19_15 1.0
    V_G19_15 MINUP_G19_16 1.0
    V_G19_15 MINUP_G19_17 1.0
    V_G19_15 MINUP_G19_18 1.0
    W_G19_15 LOGIC_G19_15 1.0
    W_G19_15 MINDN_G19_15 1.0
    W_G19_15 MINDN_G19_16 1.0
    W_G19_15 MINDN_G19_17 1.0
    W_G19_15 MINDN_G19_18 1.0
    W_G19_15 MINDN_G19_19 1.0
    M17978 'MARKER' 'INTEND'
    P_G19_15 OBJ 16.589672098663417
    P_G19_15 PMIN_G19_15 1.0
    P_G19_15 PMAX_G19_15 1.0
    P_G19_15 RUP_G19_15 1.0
    P_G19_15 RDN_G19_15 -1.0
    P_G19_15 RUP_G19_16 -1.0
    P_G19_15 RDN_G19_16 1.0
    P_G19_15 DEM_15 1.0
    M17987 'MARKER' 'INTORG'
    U_G19_16 OBJ 385.96266102850177
    U_G19_16 PMIN_G19_16 -48.90554424078417
    U_G19_16 PMAX_G19_16 -128.88090466151073
    U_G19_16 LOGIC_G19_16 1.0
    U_G19_16 MINUP_G19_16 -1.0
    U_G19_16 MINDN_G19_16 1.0
    U_G19_16 LOGIC_G19_17 -1.0
    U_G19_16 RES_16 128.88090466151073
    V_G19_16 OBJ 1447.8718457586747
    V_G19_16 LOGIC_G19_16 -1.0
    V_G19_16 MINUP_G19_16 1.0
    V_G19_16 MINUP_G19_17 1.0
    V_G19_16 MINUP_G19_18 1.0
    V_G19_16 MINUP_G19_19 1.0
    W_G19_16 LOGIC_G19_16 1.0
    W_G19_16 MINDN_G19_16 1.0
    W_G19_16 MINDN_G19_17 1.0
    W_G19_16 MINDN_G19_18 1.0
    W_G19_16 MINDN_G19_19 1.0
    W_G19_16 MINDN_G19_20 1.0
    M18008 'MARKER' 'INTEND'
    P_G19_16 OBJ 16.589672098663417
    P_G19_16 PMIN_G19_16 1.0
    P_G19_16 PMAX_G19_16 1.0
    P_G19_16 RUP_G19_16 1.0
    P_G19_16 RDN_G19_16 -1.0
    P_G19_16 RUP_G19_17 -1.0
    P_G19_16 RDN_G19_17 1.0
    P_G19_16 DEM_16 1.0
    M18017 'MARKER' 'INTORG'
    U_G19_17 OBJ 385.96266102850177
    U_G19_17 PMIN_G19_17 -48.90554424078417
    U_G19_17 PMAX_G19_17 -128.88090466151073
    U_G19_17 LOGIC_G19_17 1.0
    U_G19_17 MINUP_G19_17 -1.0
    U_G19_17 MINDN_G19_17 1.0
    U_G19_17 LOGIC_G19_18 -1.0
    U_G19_17 RES_17 128.88090466151073
    V_G19_17 OBJ 1447.8718457586747
    V_G19_17 LOGIC_G19_17 -1.0
    V_G19_17 MINUP_G19_17 1.0
    V_G19_17 MINUP_G19_18 1.0
    V_G19_17 MINUP_G19_19 1.0
    V_G19_17 MINUP_G19_20 1.0
    W_G19_17 LOGIC_G19_17 1.0
    W_G19_17 MINDN_G19_17 1.0
    W_G19_17 MINDN_G19_18 1.0
    W_G19_17 MINDN_G19_19 1.0
    W_G19_17 MINDN_G19_20 1.0
    W_G19_17 MINDN_G19_21 1.0
    M18038 'MARKER' 'INTEND'
    P_G19_17 OBJ 16.589672098663417
    P_G19_17 PMIN_G19_17 1.0
    P_G19_17 PMAX_G19_17 1.0
    P_G19_17 RUP_G19_17 1.0
    P_G19_17 RDN_G19_17 -1.0
    P_G19_17 RUP_G19_18 -1.0
    P_G19_17 RDN_G19_18 1.0
    P_G19_17 DEM_17 1.0
    M18047 'MARKER' 'INTORG'
    U_G19_18 OBJ 385.96266102850177
    U_G19_18 PMIN_G19_18 -48.90554424078417
    U_G19_18 PMAX_G19_18 -128.88090466151073
    U_G19_18 LOGIC_G19_18 1.0
    U_G19_18 MINUP_G19_18 -1.0
    U_G19_18 MINDN_G19_18 1.0
    U_G19_18 LOGIC_G19_19 -1.0
    U_G19_18 RES_18 128.88090466151073
    V_G19_18 OBJ 1447.8718457586747
    V_G19_18 LOGIC_G19_18 -1.0
    V_G19_18 MINUP_G19_18 1.0
    V_G19_18 MINUP_G19_19 1.0
    V_G19_18 MINUP_G19_20 1.0
    V_G19_18 MINUP_G19_21 1.0
    W_G19_18 LOGIC_G19_18 1.0
    W_G19_18 MINDN_G19_18 1.0
    W_G19_18 MINDN_G19_19 1.0
    W_G19_18 MINDN_G19_20 1.0
    W_G19_18 MINDN_G19_21 1.0
    W_G19_18 MINDN_G19_22 1.0
    M18068 'MARKER' 'INTEND'
    P_G19_18 OBJ 16.589672098663417
    P_G19_18 PMIN_G19_18 1.0
    P_G19_18 PMAX_G19_18 1.0
    P_G19_18 RUP_G19_18 1.0
    P_G19_18 RDN_G19_18 -1.0
    P_G19_18 RUP_G19_19 -1.0
    P_G19_18 RDN_G19_19 1.0
    P_G19_18 DEM_18 1.0
    M18077 'MARKER' 'INTORG'
    U_G19_19 OBJ 385.96266102850177
    U_G19_19 PMIN_G19_19 -48.90554424078417
    U_G19_19 PMAX_G19_19 -128.88090466151073
    U_G19_19 LOGIC_G19_19 1.0
    U_G19_19 MINUP_G19_19 -1.0
    U_G19_19 MINDN_G19_19 1.0
    U_G19_19 LOGIC_G19_20 -1.0
    U_G19_19 RES_19 128.88090466151073
    V_G19_19 OBJ 1447.8718457586747
    V_G19_19 LOGIC_G19_19 -1.0
    V_G19_19 MINUP_G19_19 1.0
    V_G19_19 MINUP_G19_20 1.0
    V_G19_19 MINUP_G19_21 1.0
    V_G19_19 MINUP_G19_22 1.0
    W_G19_19 LOGIC_G19_19 1.0
    W_G19_19 MINDN_G19_19 1.0
    W_G19_19 MINDN_G19_20 1.0
    W_G19_19 MINDN_G19_21 1.0
    W_G19_19 MINDN_G19_22 1.0
    W_G19_19 MINDN_G19_23 1.0
    M18098 'MARKER' 'INTEND'
    P_G19_19 OBJ 16.589672098663417
    P_G19_19 PMIN_G19_19 1.0
    P_G19_19 PMAX_G19_19 1.0
    P_G19_19 RUP_G19_19 1.0
    P_G19_19 RDN_G19_19 -1.0
    P_G19_19 RUP_G19_20 -1.0
    P_G19_19 RDN_G19_20 1.0
    P_G19_19 DEM_19 1.0
    M18107 'MARKER' 'INTORG'
    U_G19_20 OBJ 385.96266102850177
    U_G19_20 PMIN_G19_20 -48.90554424078417
    U_G19_20 PMAX_G19_20 -128.88090466151073
    U_G19_20 LOGIC_G19_20 1.0
    U_G19_20 MINUP_G19_20 -1.0
    U_G19_20 MINDN_G19_20 1.0
    U_G19_20 LOGIC_G19_21 -1.0
    U_G19_20 RES_20 128.88090466151073
    V_G19_20 OBJ 1447.8718457586747
    V_G19_20 LOGIC_G19_20 -1.0
    V_G19_20 MINUP_G19_20 1.0
    V_G19_20 MINUP_G19_21 1.0
    V_G19_20 MINUP_G19_22 1.0
    V_G19_20 MINUP_G19_23 1.0
    W_G19_20 LOGIC_G19_20 1.0
    W_G19_20 MINDN_G19_20 1.0
    W_G19_20 MINDN_G19_21 1.0
    W_G19_20 MINDN_G19_22 1.0
    W_G19_20 MINDN_G19_23 1.0
    M18127 'MARKER' 'INTEND'
    P_G19_20 OBJ 16.589672098663417
    P_G19_20 PMIN_G19_20 1.0
    P_G19_20 PMAX_G19_20 1.0
    P_G19_20 RUP_G19_20 1.0
    P_G19_20 RDN_G19_20 -1.0
    P_G19_20 RUP_G19_21 -1.0
    P_G19_20 RDN_G19_21 1.0
    P_G19_20 DEM_20 1.0
    M18136 'MARKER' 'INTORG'
    U_G19_21 OBJ 385.96266102850177
    U_G19_21 PMIN_G19_21 -48.90554424078417
    U_G19_21 PMAX_G19_21 -128.88090466151073
    U_G19_21 LOGIC_G19_21 1.0
    U_G19_21 MINUP_G19_21 -1.0
    U_G19_21 MINDN_G19_21 1.0
    U_G19_21 LOGIC_G19_22 -1.0
    U_G19_21 RES_21 128.88090466151073
    V_G19_21 OBJ 1447.8718457586747
    V_G19_21 LOGIC_G19_21 -1.0
    V_G19_21 MINUP_G19_21 1.0
    V_G19_21 MINUP_G19_22 1.0
    V_G19_21 MINUP_G19_23 1.0
    W_G19_21 LOGIC_G19_21 1.0
    W_G19_21 MINDN_G19_21 1.0
    W_G19_21 MINDN_G19_22 1.0
    W_G19_21 MINDN_G19_23 1.0
    M18154 'MARKER' 'INTEND'
    P_G19_21 OBJ 16.589672098663417
    P_G19_21 PMIN_G19_21 1.0
    P_G19_21 PMAX_G19_21 1.0
    P_G19_21 RUP_G19_21 1.0
    P_G19_21 RDN_G19_21 -1.0
    P_G19_21 RUP_G19_22 -1.0
    P_G19_21 RDN_G19_22 1.0
    P_G19_21 DEM_21 1.0
    M18163 'MARKER' 'INTORG'
    U_G19_22 OBJ 385.96266102850177
    U_G19_22 PMIN_G19_22 -48.90554424078417
    U_G19_22 PMAX_G19_22 -128.88090466151073
    U_G19_22 LOGIC_G19_22 1.0
    U_G19_22 MINUP_G19_22 -1.0
    U_G19_22 MINDN_G19_22 1.0
    U_G19_22 LOGIC_G19_23 -1.0
    U_G19_22 RES_22 128.88090466151073
    V_G19_22 OBJ 1447.8718457586747
    V_G19_22 LOGIC_G19_22 -1.0
    V_G19_22 MINUP_G19_22 1.0
    V_G19_22 MINUP_G19_23 1.0
    W_G19_22 LOGIC_G19_22 1.0
    W_G19_22 MINDN_G19_22 1.0
    W_G19_22 MINDN_G19_23 1.0
    M18179 'MARKER' 'INTEND'
    P_G19_22 OBJ 16.589672098663417
    P_G19_22 PMIN_G19_22 1.0
    P_G19_22 PMAX_G19_22 1.0
    P_G19_22 RUP_G19_22 1.0
    P_G19_22 RDN_G19_22 -1.0
    P_G19_22 RUP_G19_23 -1.0
    P_G19_22 RDN_G19_23 1.0
    P_G19_22 DEM_22 1.0
    M18188 'MARKER' 'INTORG'
    U_G19_23 OBJ 385.96266102850177
    U_G19_23 PMIN_G19_23 -48.90554424078417
    U_G19_23 PMAX_G19_23 -128.88090466151073
    U_G19_23 LOGIC_G19_23 1.0
    U_G19_23 MINUP_G19_23 -1.0
    U_G19_23 MINDN_G19_23 1.0
    U_G19_23 RES_23 128.88090466151073
    V_G19_23 OBJ 1447.8718457586747
    V_G19_23 LOGIC_G19_23 -1.0
    V_G19_23 MINUP_G19_23 1.0
    W_G19_23 LOGIC_G19_23 1.0
    W_G19_23 MINDN_G19_23 1.0
    M18201 'MARKER' 'INTEND'
    P_G19_23 OBJ 16.589672098663417
    P_G19_23 PMIN_G19_23 1.0
    P_G19_23 PMAX_G19_23 1.0
    P_G19_23 RUP_G19_23 1.0
    P_G19_23 RDN_G19_23 -1.0
    P_G19_23 DEM_23 1.0
    M18208 'MARKER' 'INTORG'
    U_G20_0 OBJ 293.2678120643633
    U_G20_0 PMIN_G20_0 -169.0713164702915
    U_G20_0 PMAX_G20_0 -341.2857165724777
    U_G20_0 LOGIC_G20_0 1.0
    U_G20_0 MINUP_G20_0 -1.0
    U_G20_0 MINDN_G20_0 1.0
    U_G20_0 LOGIC_G20_1 -1.0
    U_G20_0 RES_0 341.2857165724777
    V_G20_0 OBJ 1462.3660759996487
    V_G20_0 LOGIC_G20_0 -1.0
    V_G20_0 MINUP_G20_0 1.0
    W_G20_0 LOGIC_G20_0 1.0
    W_G20_0 MINDN_G20_0 1.0
    W_G20_0 MINDN_G20_1 1.0
    W_G20_0 MINDN_G20_2 1.0
    W_G20_0 MINDN_G20_3 1.0
    M18225 'MARKER' 'INTEND'
    P_G20_0 OBJ 43.38473264799631
    P_G20_0 PMIN_G20_0 1.0
    P_G20_0 PMAX_G20_0 1.0
    P_G20_0 RUP_G20_1 -1.0
    P_G20_0 RDN_G20_1 1.0
    P_G20_0 DEM_0 1.0
    M18232 'MARKER' 'INTORG'
    U_G20_1 OBJ 293.2678120643633
    U_G20_1 PMIN_G20_1 -169.0713164702915
    U_G20_1 PMAX_G20_1 -341.2857165724777
    U_G20_1 LOGIC_G20_1 1.0
    U_G20_1 MINUP_G20_1 -1.0
    U_G20_1 MINDN_G20_1 1.0
    U_G20_1 LOGIC_G20_2 -1.0
    U_G20_1 RES_1 341.2857165724777
    V_G20_1 OBJ 1462.3660759996487
    V_G20_1 LOGIC_G20_1 -1.0
    V_G20_1 MINUP_G20_1 1.0
    W_G20_1 LOGIC_G20_1 1.0
    W_G20_1 MINDN_G20_1 1.0
    W_G20_1 MINDN_G20_2 1.0
    W_G20_1 MINDN_G20_3 1.0
    W_G20_1 MINDN_G20_4 1.0
    M18249 'MARKER' 'INTEND'
    P_G20_1 OBJ 43.38473264799631
    P_G20_1 PMIN_G20_1 1.0
    P_G20_1 PMAX_G20_1 1.0
    P_G20_1 RUP_G20_1 1.0
    P_G20_1 RDN_G20_1 -1.0
    P_G20_1 RUP_G20_2 -1.0
    P_G20_1 RDN_G20_2 1.0
    P_G20_1 DEM_1 1.0
    M18258 'MARKER' 'INTORG'
    U_G20_2 OBJ 293.2678120643633
    U_G20_2 PMIN_G20_2 -169.0713164702915
    U_G20_2 PMAX_G20_2 -341.2857165724777
    U_G20_2 LOGIC_G20_2 1.0
    U_G20_2 MINUP_G20_2 -1.0
    U_G20_2 MINDN_G20_2 1.0
    U_G20_2 LOGIC_G20_3 -1.0
    U_G20_2 RES_2 341.2857165724777
    V_G20_2 OBJ 1462.3660759996487
    V_G20_2 LOGIC_G20_2 -1.0
    V_G20_2 MINUP_G20_2 1.0
    W_G20_2 LOGIC_G20_2 1.0
    W_G20_2 MINDN_G20_2 1.0
    W_G20_2 MINDN_G20_3 1.0
    W_G20_2 MINDN_G20_4 1.0
    W_G20_2 MINDN_G20_5 1.0
    M18275 'MARKER' 'INTEND'
    P_G20_2 OBJ 43.38473264799631
    P_G20_2 PMIN_G20_2 1.0
    P_G20_2 PMAX_G20_2 1.0
    P_G20_2 RUP_G20_2 1.0
    P_G20_2 RDN_G20_2 -1.0
    P_G20_2 RUP_G20_3 -1.0
    P_G20_2 RDN_G20_3 1.0
    P_G20_2 DEM_2 1.0
    M18284 'MARKER' 'INTORG'
    U_G20_3 OBJ 293.2678120643633
    U_G20_3 PMIN_G20_3 -169.0713164702915
    U_G20_3 PMAX_G20_3 -341.2857165724777
    U_G20_3 LOGIC_G20_3 1.0
    U_G20_3 MINUP_G20_3 -1.0
    U_G20_3 MINDN_G20_3 1.0
    U_G20_3 LOGIC_G20_4 -1.0
    U_G20_3 RES_3 341.2857165724777
    V_G20_3 OBJ 1462.3660759996487
    V_G20_3 LOGIC_G20_3 -1.0
    V_G20_3 MINUP_G20_3 1.0
    W_G20_3 LOGIC_G20_3 1.0
    W_G20_3 MINDN_G20_3 1.0
    W_G20_3 MINDN_G20_4 1.0
    W_G20_3 MINDN_G20_5 1.0
    W_G20_3 MINDN_G20_6 1.0
    M18301 'MARKER' 'INTEND'
    P_G20_3 OBJ 43.38473264799631
    P_G20_3 PMIN_G20_3 1.0
    P_G20_3 PMAX_G20_3 1.0
    P_G20_3 RUP_G20_3 1.0
    P_G20_3 RDN_G20_3 -1.0
    P_G20_3 RUP_G20_4 -1.0
    P_G20_3 RDN_G20_4 1.0
    P_G20_3 DEM_3 1.0
    M18310 'MARKER' 'INTORG'
    U_G20_4 OBJ 293.2678120643633
    U_G20_4 PMIN_G20_4 -169.0713164702915
    U_G20_4 PMAX_G20_4 -341.2857165724777
    U_G20_4 LOGIC_G20_4 1.0
    U_G20_4 MINUP_G20_4 -1.0
    U_G20_4 MINDN_G20_4 1.0
    U_G20_4 LOGIC_G20_5 -1.0
    U_G20_4 RES_4 341.2857165724777
    V_G20_4 OBJ 1462.3660759996487
    V_G20_4 LOGIC_G20_4 -1.0
    V_G20_4 MINUP_G20_4 1.0
    W_G20_4 LOGIC_G20_4 1.0
    W_G20_4 MINDN_G20_4 1.0
    W_G20_4 MINDN_G20_5 1.0
    W_G20_4 MINDN_G20_6 1.0
    W_G20_4 MINDN_G20_7 1.0
    M18327 'MARKER' 'INTEND'
    P_G20_4 OBJ 43.38473264799631
    P_G20_4 PMIN_G20_4 1.0
    P_G20_4 PMAX_G20_4 1.0
    P_G20_4 RUP_G20_4 1.0
    P_G20_4 RDN_G20_4 -1.0
    P_G20_4 RUP_G20_5 -1.0
    P_G20_4 RDN_G20_5 1.0
    P_G20_4 DEM_4 1.0
    M18336 'MARKER' 'INTORG'
    U_G20_5 OBJ 293.2678120643633
    U_G20_5 PMIN_G20_5 -169.0713164702915
    U_G20_5 PMAX_G20_5 -341.2857165724777
    U_G20_5 LOGIC_G20_5 1.0
    U_G20_5 MINUP_G20_5 -1.0
    U_G20_5 MINDN_G20_5 1.0
    U_G20_5 LOGIC_G20_6 -1.0
    U_G20_5 RES_5 341.2857165724777
    V_G20_5 OBJ 1462.3660759996487
    V_G20_5 LOGIC_G20_5 -1.0
    V_G20_5 MINUP_G20_5 1.0
    W_G20_5 LOGIC_G20_5 1.0
    W_G20_5 MINDN_G20_5 1.0
    W_G20_5 MINDN_G20_6 1.0
    W_G20_5 MINDN_G20_7 1.0
    W_G20_5 MINDN_G20_8 1.0
    M18353 'MARKER' 'INTEND'
    P_G20_5 OBJ 43.38473264799631
    P_G20_5 PMIN_G20_5 1.0
    P_G20_5 PMAX_G20_5 1.0
    P_G20_5 RUP_G20_5 1.0
    P_G20_5 RDN_G20_5 -1.0
    P_G20_5 RUP_G20_6 -1.0
    P_G20_5 RDN_G20_6 1.0
    P_G20_5 DEM_5 1.0
    M18362 'MARKER' 'INTORG'
    U_G20_6 OBJ 293.2678120643633
    U_G20_6 PMIN_G20_6 -169.0713164702915
    U_G20_6 PMAX_G20_6 -341.2857165724777
    U_G20_6 LOGIC_G20_6 1.0
    U_G20_6 MINUP_G20_6 -1.0
    U_G20_6 MINDN_G20_6 1.0
    U_G20_6 LOGIC_G20_7 -1.0
    U_G20_6 RES_6 341.2857165724777
    V_G20_6 OBJ 1462.3660759996487
    V_G20_6 LOGIC_G20_6 -1.0
    V_G20_6 MINUP_G20_6 1.0
    W_G20_6 LOGIC_G20_6 1.0
    W_G20_6 MINDN_G20_6 1.0
    W_G20_6 MINDN_G20_7 1.0
    W_G20_6 MINDN_G20_8 1.0
    W_G20_6 MINDN_G20_9 1.0
    M18379 'MARKER' 'INTEND'
    P_G20_6 OBJ 43.38473264799631
    P_G20_6 PMIN_G20_6 1.0
    P_G20_6 PMAX_G20_6 1.0
    P_G20_6 RUP_G20_6 1.0
    P_G20_6 RDN_G20_6 -1.0
    P_G20_6 RUP_G20_7 -1.0
    P_G20_6 RDN_G20_7 1.0
    P_G20_6 DEM_6 1.0
    M18388 'MARKER' 'INTORG'
    U_G20_7 OBJ 293.2678120643633
    U_G20_7 PMIN_G20_7 -169.0713164702915
    U_G20_7 PMAX_G20_7 -341.2857165724777
    U_G20_7 LOGIC_G20_7 1.0
    U_G20_7 MINUP_G20_7 -1.0
    U_G20_7 MINDN_G20_7 1.0
    U_G20_7 LOGIC_G20_8 -1.0
    U_G20_7 RES_7 341.2857165724777
    V_G20_7 OBJ 1462.3660759996487
    V_G20_7 LOGIC_G20_7 -1.0
    V_G20_7 MINUP_G20_7 1.0
    W_G20_7 LOGIC_G20_7 1.0
    W_G20_7 MINDN_G20_7 1.0
    W_G20_7 MINDN_G20_8 1.0
    W_G20_7 MINDN_G20_9 1.0
    W_G20_7 MINDN_G20_10 1.0
    M18405 'MARKER' 'INTEND'
    P_G20_7 OBJ 43.38473264799631
    P_G20_7 PMIN_G20_7 1.0
    P_G20_7 PMAX_G20_7 1.0
    P_G20_7 RUP_G20_7 1.0
    P_G20_7 RDN_G20_7 -1.0
    P_G20_7 RUP_G20_8 -1.0
    P_G20_7 RDN_G20_8 1.0
    P_G20_7 DEM_7 1.0
    M18414 'MARKER' 'INTORG'
    U_G20_8 OBJ 293.2678120643633
    U_G20_8 PMIN_G20_8 -169.0713164702915
    U_G20_8 PMAX_G20_8 -341.2857165724777
    U_G20_8 LOGIC_G20_8 1.0
    U_G20_8 MINUP_G20_8 -1.0
    U_G20_8 MINDN_G20_8 1.0
    U_G20_8 LOGIC_G20_9 -1.0
    U_G20_8 RES_8 341.2857165724777
    V_G20_8 OBJ 1462.3660759996487
    V_G20_8 LOGIC_G20_8 -1.0
    V_G20_8 MINUP_G20_8 1.0
    W_G20_8 LOGIC_G20_8 1.0
    W_G20_8 MINDN_G20_8 1.0
    W_G20_8 MINDN_G20_9 1.0
    W_G20_8 MINDN_G20_10 1.0
    W_G20_8 MINDN_G20_11 1.0
    M18431 'MARKER' 'INTEND'
    P_G20_8 OBJ 43.38473264799631
    P_G20_8 PMIN_G20_8 1.0
    P_G20_8 PMAX_G20_8 1.0
    P_G20_8 RUP_G20_8 1.0
    P_G20_8 RDN_G20_8 -1.0
    P_G20_8 RUP_G20_9 -1.0
    P_G20_8 RDN_G20_9 1.0
    P_G20_8 DEM_8 1.0
    M18440 'MARKER' 'INTORG'
    U_G20_9 OBJ 293.2678120643633
    U_G20_9 PMIN_G20_9 -169.0713164702915
    U_G20_9 PMAX_G20_9 -341.2857165724777
    U_G20_9 LOGIC_G20_9 1.0
    U_G20_9 MINUP_G20_9 -1.0
    U_G20_9 MINDN_G20_9 1.0
    U_G20_9 LOGIC_G20_10 -1.0
    U_G20_9 RES_9 341.2857165724777
    V_G20_9 OBJ 1462.3660759996487
    V_G20_9 LOGIC_G20_9 -1.0
    V_G20_9 MINUP_G20_9 1.0
    W_G20_9 LOGIC_G20_9 1.0
    W_G20_9 MINDN_G20_9 1.0
    W_G20_9 MINDN_G20_10 1.0
    W_G20_9 MINDN_G20_11 1.0
    W_G20_9 MINDN_G20_12 1.0
    M18457 'MARKER' 'INTEND'
    P_G20_9 OBJ 43.38473264799631
    P_G20_9 PMIN_G20_9 1.0
    P_G20_9 PMAX_G20_9 1.0
    P_G20_9 RUP_G20_9 1.0
    P_G20_9 RDN_G20_9 -1.0
    P_G20_9 RUP_G20_10 -1.0
    P_G20_9 RDN_G20_10 1.0
    P_G20_9 DEM_9 1.0
    M18466 'MARKER' 'INTORG'
    U_G20_10 OBJ 293.2678120643633
    U_G20_10 PMIN_G20_10 -169.0713164702915
    U_G20_10 PMAX_G20_10 -341.2857165724777
    U_G20_10 LOGIC_G20_10 1.0
    U_G20_10 MINUP_G20_10 -1.0
    U_G20_10 MINDN_G20_10 1.0
    U_G20_10 LOGIC_G20_11 -1.0
    U_G20_10 RES_10 341.2857165724777
    V_G20_10 OBJ 1462.3660759996487
    V_G20_10 LOGIC_G20_10 -1.0
    V_G20_10 MINUP_G20_10 1.0
    W_G20_10 LOGIC_G20_10 1.0
    W_G20_10 MINDN_G20_10 1.0
    W_G20_10 MINDN_G20_11 1.0
    W_G20_10 MINDN_G20_12 1.0
    W_G20_10 MINDN_G20_13 1.0
    M18483 'MARKER' 'INTEND'
    P_G20_10 OBJ 43.38473264799631
    P_G20_10 PMIN_G20_10 1.0
    P_G20_10 PMAX_G20_10 1.0
    P_G20_10 RUP_G20_10 1.0
    P_G20_10 RDN_G20_10 -1.0
    P_G20_10 RUP_G20_11 -1.0
    P_G20_10 RDN_G20_11 1.0
    P_G20_10 DEM_10 1.0
    M18492 'MARKER' 'INTORG'
    U_G20_11 OBJ 293.2678120643633
    U_G20_11 PMIN_G20_11 -169.0713164702915
    U_G20_11 PMAX_G20_11 -341.2857165724777
    U_G20_11 LOGIC_G20_11 1.0
    U_G20_11 MINUP_G20_11 -1.0
    U_G20_11 MINDN_G20_11 1.0
    U_G20_11 LOGIC_G20_12 -1.0
    U_G20_11 RES_11 341.2857165724777
    V_G20_11 OBJ 1462.3660759996487
    V_G20_11 LOGIC_G20_11 -1.0
    V_G20_11 MINUP_G20_11 1.0
    W_G20_11 LOGIC_G20_11 1.0
    W_G20_11 MINDN_G20_11 1.0
    W_G20_11 MINDN_G20_12 1.0
    W_G20_11 MINDN_G20_13 1.0
    W_G20_11 MINDN_G20_14 1.0
    M18509 'MARKER' 'INTEND'
    P_G20_11 OBJ 43.38473264799631
    P_G20_11 PMIN_G20_11 1.0
    P_G20_11 PMAX_G20_11 1.0
    P_G20_11 RUP_G20_11 1.0
    P_G20_11 RDN_G20_11 -1.0
    P_G20_11 RUP_G20_12 -1.0
    P_G20_11 RDN_G20_12 1.0
    P_G20_11 DEM_11 1.0
    M18518 'MARKER' 'INTORG'
    U_G20_12 OBJ 293.2678120643633
    U_G20_12 PMIN_G20_12 -169.0713164702915
    U_G20_12 PMAX_G20_12 -341.2857165724777
    U_G20_12 LOGIC_G20_12 1.0
    U_G20_12 MINUP_G20_12 -1.0
    U_G20_12 MINDN_G20_12 1.0
    U_G20_12 LOGIC_G20_13 -1.0
    U_G20_12 RES_12 341.2857165724777
    V_G20_12 OBJ 1462.3660759996487
    V_G20_12 LOGIC_G20_12 -1.0
    V_G20_12 MINUP_G20_12 1.0
    W_G20_12 LOGIC_G20_12 1.0
    W_G20_12 MINDN_G20_12 1.0
    W_G20_12 MINDN_G20_13 1.0
    W_G20_12 MINDN_G20_14 1.0
    W_G20_12 MINDN_G20_15 1.0
    M18535 'MARKER' 'INTEND'
    P_G20_12 OBJ 43.38473264799631
    P_G20_12 PMIN_G20_12 1.0
    P_G20_12 PMAX_G20_12 1.0
    P_G20_12 RUP_G20_12 1.0
    P_G20_12 RDN_G20_12 -1.0
    P_G20_12 RUP_G20_13 -1.0
    P_G20_12 RDN_G20_13 1.0
    P_G20_12 DEM_12 1.0
    M18544 'MARKER' 'INTORG'
    U_G20_13 OBJ 293.2678120643633
    U_G20_13 PMIN_G20_13 -169.0713164702915
    U_G20_13 PMAX_G20_13 -341.2857165724777
    U_G20_13 LOGIC_G20_13 1.0
    U_G20_13 MINUP_G20_13 -1.0
    U_G20_13 MINDN_G20_13 1.0
    U_G20_13 LOGIC_G20_14 -1.0
    U_G20_13 RES_13 341.2857165724777
    V_G20_13 OBJ 1462.3660759996487
    V_G20_13 LOGIC_G20_13 -1.0
    V_G20_13 MINUP_G20_13 1.0
    W_G20_13 LOGIC_G20_13 1.0
    W_G20_13 MINDN_G20_13 1.0
    W_G20_13 MINDN_G20_14 1.0
    W_G20_13 MINDN_G20_15 1.0
    W_G20_13 MINDN_G20_16 1.0
    M18561 'MARKER' 'INTEND'
    P_G20_13 OBJ 43.38473264799631
    P_G20_13 PMIN_G20_13 1.0
    P_G20_13 PMAX_G20_13 1.0
    P_G20_13 RUP_G20_13 1.0
    P_G20_13 RDN_G20_13 -1.0
    P_G20_13 RUP_G20_14 -1.0
    P_G20_13 RDN_G20_14 1.0
    P_G20_13 DEM_13 1.0
    M18570 'MARKER' 'INTORG'
    U_G20_14 OBJ 293.2678120643633
    U_G20_14 PMIN_G20_14 -169.0713164702915
    U_G20_14 PMAX_G20_14 -341.2857165724777
    U_G20_14 LOGIC_G20_14 1.0
    U_G20_14 MINUP_G20_14 -1.0
    U_G20_14 MINDN_G20_14 1.0
    U_G20_14 LOGIC_G20_15 -1.0
    U_G20_14 RES_14 341.2857165724777
    V_G20_14 OBJ 1462.3660759996487
    V_G20_14 LOGIC_G20_14 -1.0
    V_G20_14 MINUP_G20_14 1.0
    W_G20_14 LOGIC_G20_14 1.0
    W_G20_14 MINDN_G20_14 1.0
    W_G20_14 MINDN_G20_15 1.0
    W_G20_14 MINDN_G20_16 1.0
    W_G20_14 MINDN_G20_17 1.0
    M18587 'MARKER' 'INTEND'
    P_G20_14 OBJ 43.38473264799631
    P_G20_14 PMIN_G20_14 1.0
    P_G20_14 PMAX_G20_14 1.0
    P_G20_14 RUP_G20_14 1.0
    P_G20_14 RDN_G20_14 -1.0
    P_G20_14 RUP_G20_15 -1.0
    P_G20_14 RDN_G20_15 1.0
    P_G20_14 DEM_14 1.0
    M18596 'MARKER' 'INTORG'
    U_G20_15 OBJ 293.2678120643633
    U_G20_15 PMIN_G20_15 -169.0713164702915
    U_G20_15 PMAX_G20_15 -341.2857165724777
    U_G20_15 LOGIC_G20_15 1.0
    U_G20_15 MINUP_G20_15 -1.0
    U_G20_15 MINDN_G20_15 1.0
    U_G20_15 LOGIC_G20_16 -1.0
    U_G20_15 RES_15 341.2857165724777
    V_G20_15 OBJ 1462.3660759996487
    V_G20_15 LOGIC_G20_15 -1.0
    V_G20_15 MINUP_G20_15 1.0
    W_G20_15 LOGIC_G20_15 1.0
    W_G20_15 MINDN_G20_15 1.0
    W_G20_15 MINDN_G20_16 1.0
    W_G20_15 MINDN_G20_17 1.0
    W_G20_15 MINDN_G20_18 1.0
    M18613 'MARKER' 'INTEND'
    P_G20_15 OBJ 43.38473264799631
    P_G20_15 PMIN_G20_15 1.0
    P_G20_15 PMAX_G20_15 1.0
    P_G20_15 RUP_G20_15 1.0
    P_G20_15 RDN_G20_15 -1.0
    P_G20_15 RUP_G20_16 -1.0
    P_G20_15 RDN_G20_16 1.0
    P_G20_15 DEM_15 1.0
    M18622 'MARKER' 'INTORG'
    U_G20_16 OBJ 293.2678120643633
    U_G20_16 PMIN_G20_16 -169.0713164702915
    U_G20_16 PMAX_G20_16 -341.2857165724777
    U_G20_16 LOGIC_G20_16 1.0
    U_G20_16 MINUP_G20_16 -1.0
    U_G20_16 MINDN_G20_16 1.0
    U_G20_16 LOGIC_G20_17 -1.0
    U_G20_16 RES_16 341.2857165724777
    V_G20_16 OBJ 1462.3660759996487
    V_G20_16 LOGIC_G20_16 -1.0
    V_G20_16 MINUP_G20_16 1.0
    W_G20_16 LOGIC_G20_16 1.0
    W_G20_16 MINDN_G20_16 1.0
    W_G20_16 MINDN_G20_17 1.0
    W_G20_16 MINDN_G20_18 1.0
    W_G20_16 MINDN_G20_19 1.0
    M18639 'MARKER' 'INTEND'
    P_G20_16 OBJ 43.38473264799631
    P_G20_16 PMIN_G20_16 1.0
    P_G20_16 PMAX_G20_16 1.0
    P_G20_16 RUP_G20_16 1.0
    P_G20_16 RDN_G20_16 -1.0
    P_G20_16 RUP_G20_17 -1.0
    P_G20_16 RDN_G20_17 1.0
    P_G20_16 DEM_16 1.0
    M18648 'MARKER' 'INTORG'
    U_G20_17 OBJ 293.2678120643633
    U_G20_17 PMIN_G20_17 -169.0713164702915
    U_G20_17 PMAX_G20_17 -341.2857165724777
    U_G20_17 LOGIC_G20_17 1.0
    U_G20_17 MINUP_G20_17 -1.0
    U_G20_17 MINDN_G20_17 1.0
    U_G20_17 LOGIC_G20_18 -1.0
    U_G20_17 RES_17 341.2857165724777
    V_G20_17 OBJ 1462.3660759996487
    V_G20_17 LOGIC_G20_17 -1.0
    V_G20_17 MINUP_G20_17 1.0
    W_G20_17 LOGIC_G20_17 1.0
    W_G20_17 MINDN_G20_17 1.0
    W_G20_17 MINDN_G20_18 1.0
    W_G20_17 MINDN_G20_19 1.0
    W_G20_17 MINDN_G20_20 1.0
    M18665 'MARKER' 'INTEND'
    P_G20_17 OBJ 43.38473264799631
    P_G20_17 PMIN_G20_17 1.0
    P_G20_17 PMAX_G20_17 1.0
    P_G20_17 RUP_G20_17 1.0
    P_G20_17 RDN_G20_17 -1.0
    P_G20_17 RUP_G20_18 -1.0
    P_G20_17 RDN_G20_18 1.0
    P_G20_17 DEM_17 1.0
    M18674 'MARKER' 'INTORG'
    U_G20_18 OBJ 293.2678120643633
    U_G20_18 PMIN_G20_18 -169.0713164702915
    U_G20_18 PMAX_G20_18 -341.2857165724777
    U_G20_18 LOGIC_G20_18 1.0
    U_G20_18 MINUP_G20_18 -1.0
    U_G20_18 MINDN_G20_18 1.0
    U_G20_18 LOGIC_G20_19 -1.0
    U_G20_18 RES_18 341.2857165724777
    V_G20_18 OBJ 1462.3660759996487
    V_G20_18 LOGIC_G20_18 -1.0
    V_G20_18 MINUP_G20_18 1.0
    W_G20_18 LOGIC_G20_18 1.0
    W_G20_18 MINDN_G20_18 1.0
    W_G20_18 MINDN_G20_19 1.0
    W_G20_18 MINDN_G20_20 1.0
    W_G20_18 MINDN_G20_21 1.0
    M18691 'MARKER' 'INTEND'
    P_G20_18 OBJ 43.38473264799631
    P_G20_18 PMIN_G20_18 1.0
    P_G20_18 PMAX_G20_18 1.0
    P_G20_18 RUP_G20_18 1.0
    P_G20_18 RDN_G20_18 -1.0
    P_G20_18 RUP_G20_19 -1.0
    P_G20_18 RDN_G20_19 1.0
    P_G20_18 DEM_18 1.0
    M18700 'MARKER' 'INTORG'
    U_G20_19 OBJ 293.2678120643633
    U_G20_19 PMIN_G20_19 -169.0713164702915
    U_G20_19 PMAX_G20_19 -341.2857165724777
    U_G20_19 LOGIC_G20_19 1.0
    U_G20_19 MINUP_G20_19 -1.0
    U_G20_19 MINDN_G20_19 1.0
    U_G20_19 LOGIC_G20_20 -1.0
    U_G20_19 RES_19 341.2857165724777
    V_G20_19 OBJ 1462.3660759996487
    V_G20_19 LOGIC_G20_19 -1.0
    V_G20_19 MINUP_G20_19 1.0
    W_G20_19 LOGIC_G20_19 1.0
    W_G20_19 MINDN_G20_19 1.0
    W_G20_19 MINDN_G20_20 1.0
    W_G20_19 MINDN_G20_21 1.0
    W_G20_19 MINDN_G20_22 1.0
    M18717 'MARKER' 'INTEND'
    P_G20_19 OBJ 43.38473264799631
    P_G20_19 PMIN_G20_19 1.0
    P_G20_19 PMAX_G20_19 1.0
    P_G20_19 RUP_G20_19 1.0
    P_G20_19 RDN_G20_19 -1.0
    P_G20_19 RUP_G20_20 -1.0
    P_G20_19 RDN_G20_20 1.0
    P_G20_19 DEM_19 1.0
    M18726 'MARKER' 'INTORG'
    U_G20_20 OBJ 293.2678120643633
    U_G20_20 PMIN_G20_20 -169.0713164702915
    U_G20_20 PMAX_G20_20 -341.2857165724777
    U_G20_20 LOGIC_G20_20 1.0
    U_G20_20 MINUP_G20_20 -1.0
    U_G20_20 MINDN_G20_20 1.0
    U_G20_20 LOGIC_G20_21 -1.0
    U_G20_20 RES_20 341.2857165724777
    V_G20_20 OBJ 1462.3660759996487
    V_G20_20 LOGIC_G20_20 -1.0
    V_G20_20 MINUP_G20_20 1.0
    W_G20_20 LOGIC_G20_20 1.0
    W_G20_20 MINDN_G20_20 1.0
    W_G20_20 MINDN_G20_21 1.0
    W_G20_20 MINDN_G20_22 1.0
    W_G20_20 MINDN_G20_23 1.0
    M18743 'MARKER' 'INTEND'
    P_G20_20 OBJ 43.38473264799631
    P_G20_20 PMIN_G20_20 1.0
    P_G20_20 PMAX_G20_20 1.0
    P_G20_20 RUP_G20_20 1.0
    P_G20_20 RDN_G20_20 -1.0
    P_G20_20 RUP_G20_21 -1.0
    P_G20_20 RDN_G20_21 1.0
    P_G20_20 DEM_20 1.0
    M18752 'MARKER' 'INTORG'
    U_G20_21 OBJ 293.2678120643633
    U_G20_21 PMIN_G20_21 -169.0713164702915
    U_G20_21 PMAX_G20_21 -341.2857165724777
    U_G20_21 LOGIC_G20_21 1.0
    U_G20_21 MINUP_G20_21 -1.0
    U_G20_21 MINDN_G20_21 1.0
    U_G20_21 LOGIC_G20_22 -1.0
    U_G20_21 RES_21 341.2857165724777
    V_G20_21 OBJ 1462.3660759996487
    V_G20_21 LOGIC_G20_21 -1.0
    V_G20_21 MINUP_G20_21 1.0
    W_G20_21 LOGIC_G20_21 1.0
    W_G20_21 MINDN_G20_21 1.0
    W_G20_21 MINDN_G20_22 1.0
    W_G20_21 MINDN_G20_23 1.0
    M18768 'MARKER' 'INTEND'
    P_G20_21 OBJ 43.38473264799631
    P_G20_21 PMIN_G20_21 1.0
    P_G20_21 PMAX_G20_21 1.0
    P_G20_21 RUP_G20_21 1.0
    P_G20_21 RDN_G20_21 -1.0
    P_G20_21 RUP_G20_22 -1.0
    P_G20_21 RDN_G20_22 1.0
    P_G20_21 DEM_21 1.0
    M18777 'MARKER' 'INTORG'
    U_G20_22 OBJ 293.2678120643633
    U_G20_22 PMIN_G20_22 -169.0713164702915
    U_G20_22 PMAX_G20_22 -341.2857165724777
    U_G20_22 LOGIC_G20_22 1.0
    U_G20_22 MINUP_G20_22 -1.0
    U_G20_22 MINDN_G20_22 1.0
    U_G20_22 LOGIC_G20_23 -1.0
    U_G20_22 RES_22 341.2857165724777
    V_G20_22 OBJ 1462.3660759996487
    V_G20_22 LOGIC_G20_22 -1.0
    V_G20_22 MINUP_G20_22 1.0
    W_G20_22 LOGIC_G20_22 1.0
    W_G20_22 MINDN_G20_22 1.0
    W_G20_22 MINDN_G20_23 1.0
    M18792 'MARKER' 'INTEND'
    P_G20_22 OBJ 43.38473264799631
    P_G20_22 PMIN_G20_22 1.0
    P_G20_22 PMAX_G20_22 1.0
    P_G20_22 RUP_G20_22 1.0
    P_G20_22 RDN_G20_22 -1.0
    P_G20_22 RUP_G20_23 -1.0
    P_G20_22 RDN_G20_23 1.0
    P_G20_22 DEM_22 1.0
    M18801 'MARKER' 'INTORG'
    U_G20_23 OBJ 293.2678120643633
    U_G20_23 PMIN_G20_23 -169.0713164702915
    U_G20_23 PMAX_G20_23 -341.2857165724777
    U_G20_23 LOGIC_G20_23 1.0
    U_G20_23 MINUP_G20_23 -1.0
    U_G20_23 MINDN_G20_23 1.0
    U_G20_23 RES_23 341.2857165724777
    V_G20_23 OBJ 1462.3660759996487
    V_G20_23 LOGIC_G20_23 -1.0
    V_G20_23 MINUP_G20_23 1.0
    W_G20_23 LOGIC_G20_23 1.0
    W_G20_23 MINDN_G20_23 1.0
    M18814 'MARKER' 'INTEND'
    P_G20_23 OBJ 43.38473264799631
    P_G20_23 PMIN_G20_23 1.0
    P_G20_23 PMAX_G20_23 1.0
    P_G20_23 RUP_G20_23 1.0
    P_G20_23 RDN_G20_23 -1.0
    P_G20_23 DEM_23 1.0
    M18821 'MARKER' 'INTORG'
    U_G21_0 OBJ 199.20478254984906
    U_G21_0 PMIN_G21_0 -131.85311253678825
    U_G21_0 PMAX_G21_0 -286.21590213139416
    U_G21_0 LOGIC_G21_0 1.0
    U_G21_0 MINUP_G21_0 -1.0
    U_G21_0 MINDN_G21_0 1.0
    U_G21_0 LOGIC_G21_1 -1.0
    U_G21_0 RES_0 286.21590213139416
    V_G21_0 OBJ 2264.8635002679875
    V_G21_0 LOGIC_G21_0 -1.0
    V_G21_0 MINUP_G21_0 1.0
    V_G21_0 MINUP_G21_1 1.0
    W_G21_0 LOGIC_G21_0 1.0
    W_G21_0 MINDN_G21_0 1.0
    M18836 'MARKER' 'INTEND'
    P_G21_0 OBJ 44.692075128798585
    P_G21_0 PMIN_G21_0 1.0
    P_G21_0 PMAX_G21_0 1.0
    P_G21_0 RUP_G21_1 -1.0
    P_G21_0 RDN_G21_1 1.0
    P_G21_0 DEM_0 1.0
    M18843 'MARKER' 'INTORG'
    U_G21_1 OBJ 199.20478254984906
    U_G21_1 PMIN_G21_1 -131.85311253678825
    U_G21_1 PMAX_G21_1 -286.21590213139416
    U_G21_1 LOGIC_G21_1 1.0
    U_G21_1 MINUP_G21_1 -1.0
    U_G21_1 MINDN_G21_1 1.0
    U_G21_1 LOGIC_G21_2 -1.0
    U_G21_1 RES_1 286.21590213139416
    V_G21_1 OBJ 2264.8635002679875
    V_G21_1 LOGIC_G21_1 -1.0
    V_G21_1 MINUP_G21_1 1.0
    V_G21_1 MINUP_G21_2 1.0
    W_G21_1 LOGIC_G21_1 1.0
    W_G21_1 MINDN_G21_1 1.0
    M18858 'MARKER' 'INTEND'
    P_G21_1 OBJ 44.692075128798585
    P_G21_1 PMIN_G21_1 1.0
    P_G21_1 PMAX_G21_1 1.0
    P_G21_1 RUP_G21_1 1.0
    P_G21_1 RDN_G21_1 -1.0
    P_G21_1 RUP_G21_2 -1.0
    P_G21_1 RDN_G21_2 1.0
    P_G21_1 DEM_1 1.0
    M18867 'MARKER' 'INTORG'
    U_G21_2 OBJ 199.20478254984906
    U_G21_2 PMIN_G21_2 -131.85311253678825
    U_G21_2 PMAX_G21_2 -286.21590213139416
    U_G21_2 LOGIC_G21_2 1.0
    U_G21_2 MINUP_G21_2 -1.0
    U_G21_2 MINDN_G21_2 1.0
    U_G21_2 LOGIC_G21_3 -1.0
    U_G21_2 RES_2 286.21590213139416
    V_G21_2 OBJ 2264.8635002679875
    V_G21_2 LOGIC_G21_2 -1.0
    V_G21_2 MINUP_G21_2 1.0
    V_G21_2 MINUP_G21_3 1.0
    W_G21_2 LOGIC_G21_2 1.0
    W_G21_2 MINDN_G21_2 1.0
    M18882 'MARKER' 'INTEND'
    P_G21_2 OBJ 44.692075128798585
    P_G21_2 PMIN_G21_2 1.0
    P_G21_2 PMAX_G21_2 1.0
    P_G21_2 RUP_G21_2 1.0
    P_G21_2 RDN_G21_2 -1.0
    P_G21_2 RUP_G21_3 -1.0
    P_G21_2 RDN_G21_3 1.0
    P_G21_2 DEM_2 1.0
    M18891 'MARKER' 'INTORG'
    U_G21_3 OBJ 199.20478254984906
    U_G21_3 PMIN_G21_3 -131.85311253678825
    U_G21_3 PMAX_G21_3 -286.21590213139416
    U_G21_3 LOGIC_G21_3 1.0
    U_G21_3 MINUP_G21_3 -1.0
    U_G21_3 MINDN_G21_3 1.0
    U_G21_3 LOGIC_G21_4 -1.0
    U_G21_3 RES_3 286.21590213139416
    V_G21_3 OBJ 2264.8635002679875
    V_G21_3 LOGIC_G21_3 -1.0
    V_G21_3 MINUP_G21_3 1.0
    V_G21_3 MINUP_G21_4 1.0
    W_G21_3 LOGIC_G21_3 1.0
    W_G21_3 MINDN_G21_3 1.0
    M18906 'MARKER' 'INTEND'
    P_G21_3 OBJ 44.692075128798585
    P_G21_3 PMIN_G21_3 1.0
    P_G21_3 PMAX_G21_3 1.0
    P_G21_3 RUP_G21_3 1.0
    P_G21_3 RDN_G21_3 -1.0
    P_G21_3 RUP_G21_4 -1.0
    P_G21_3 RDN_G21_4 1.0
    P_G21_3 DEM_3 1.0
    M18915 'MARKER' 'INTORG'
    U_G21_4 OBJ 199.20478254984906
    U_G21_4 PMIN_G21_4 -131.85311253678825
    U_G21_4 PMAX_G21_4 -286.21590213139416
    U_G21_4 LOGIC_G21_4 1.0
    U_G21_4 MINUP_G21_4 -1.0
    U_G21_4 MINDN_G21_4 1.0
    U_G21_4 LOGIC_G21_5 -1.0
    U_G21_4 RES_4 286.21590213139416
    V_G21_4 OBJ 2264.8635002679875
    V_G21_4 LOGIC_G21_4 -1.0
    V_G21_4 MINUP_G21_4 1.0
    V_G21_4 MINUP_G21_5 1.0
    W_G21_4 LOGIC_G21_4 1.0
    W_G21_4 MINDN_G21_4 1.0
    M18930 'MARKER' 'INTEND'
    P_G21_4 OBJ 44.692075128798585
    P_G21_4 PMIN_G21_4 1.0
    P_G21_4 PMAX_G21_4 1.0
    P_G21_4 RUP_G21_4 1.0
    P_G21_4 RDN_G21_4 -1.0
    P_G21_4 RUP_G21_5 -1.0
    P_G21_4 RDN_G21_5 1.0
    P_G21_4 DEM_4 1.0
    M18939 'MARKER' 'INTORG'
    U_G21_5 OBJ 199.20478254984906
    U_G21_5 PMIN_G21_5 -131.85311253678825
    U_G21_5 PMAX_G21_5 -286.21590213139416
    U_G21_5 LOGIC_G21_5 1.0
    U_G21_5 MINUP_G21_5 -1.0
    U_G21_5 MINDN_G21_5 1.0
    U_G21_5 LOGIC_G21_6 -1.0
    U_G21_5 RES_5 286.21590213139416
    V_G21_5 OBJ 2264.8635002679875
    V_G21_5 LOGIC_G21_5 -1.0
    V_G21_5 MINUP_G21_5 1.0
    V_G21_5 MINUP_G21_6 1.0
    W_G21_5 LOGIC_G21_5 1.0
    W_G21_5 MINDN_G21_5 1.0
    M18954 'MARKER' 'INTEND'
    P_G21_5 OBJ 44.692075128798585
    P_G21_5 PMIN_G21_5 1.0
    P_G21_5 PMAX_G21_5 1.0
    P_G21_5 RUP_G21_5 1.0
    P_G21_5 RDN_G21_5 -1.0
    P_G21_5 RUP_G21_6 -1.0
    P_G21_5 RDN_G21_6 1.0
    P_G21_5 DEM_5 1.0
    M18963 'MARKER' 'INTORG'
    U_G21_6 OBJ 199.20478254984906
    U_G21_6 PMIN_G21_6 -131.85311253678825
    U_G21_6 PMAX_G21_6 -286.21590213139416
    U_G21_6 LOGIC_G21_6 1.0
    U_G21_6 MINUP_G21_6 -1.0
    U_G21_6 MINDN_G21_6 1.0
    U_G21_6 LOGIC_G21_7 -1.0
    U_G21_6 RES_6 286.21590213139416
    V_G21_6 OBJ 2264.8635002679875
    V_G21_6 LOGIC_G21_6 -1.0
    V_G21_6 MINUP_G21_6 1.0
    V_G21_6 MINUP_G21_7 1.0
    W_G21_6 LOGIC_G21_6 1.0
    W_G21_6 MINDN_G21_6 1.0
    M18978 'MARKER' 'INTEND'
    P_G21_6 OBJ 44.692075128798585
    P_G21_6 PMIN_G21_6 1.0
    P_G21_6 PMAX_G21_6 1.0
    P_G21_6 RUP_G21_6 1.0
    P_G21_6 RDN_G21_6 -1.0
    P_G21_6 RUP_G21_7 -1.0
    P_G21_6 RDN_G21_7 1.0
    P_G21_6 DEM_6 1.0
    M18987 'MARKER' 'INTORG'
    U_G21_7 OBJ 199.20478254984906
    U_G21_7 PMIN_G21_7 -131.85311253678825
    U_G21_7 PMAX_G21_7 -286.21590213139416
    U_G21_7 LOGIC_G21_7 1.0
    U_G21_7 MINUP_G21_7 -1.0
    U_G21_7 MINDN_G21_7 1.0
    U_G21_7 LOGIC_G21_8 -1.0
    U_G21_7 RES_7 286.21590213139416
    V_G21_7 OBJ 2264.8635002679875
    V_G21_7 LOGIC_G21_7 -1.0
    V_G21_7 MINUP_G21_7 1.0
    V_G21_7 MINUP_G21_8 1.0
    W_G21_7 LOGIC_G21_7 1.0
    W_G21_7 MINDN_G21_7 1.0
    M19002 'MARKER' 'INTEND'
    P_G21_7 OBJ 44.692075128798585
    P_G21_7 PMIN_G21_7 1.0
    P_G21_7 PMAX_G21_7 1.0
    P_G21_7 RUP_G21_7 1.0
    P_G21_7 RDN_G21_7 -1.0
    P_G21_7 RUP_G21_8 -1.0
    P_G21_7 RDN_G21_8 1.0
    P_G21_7 DEM_7 1.0
    M19011 'MARKER' 'INTORG'
    U_G21_8 OBJ 199.20478254984906
    U_G21_8 PMIN_G21_8 -131.85311253678825
    U_G21_8 PMAX_G21_8 -286.21590213139416
    U_G21_8 LOGIC_G21_8 1.0
    U_G21_8 MINUP_G21_8 -1.0
    U_G21_8 MINDN_G21_8 1.0
    U_G21_8 LOGIC_G21_9 -1.0
    U_G21_8 RES_8 286.21590213139416
    V_G21_8 OBJ 2264.8635002679875
    V_G21_8 LOGIC_G21_8 -1.0
    V_G21_8 MINUP_G21_8 1.0
    V_G21_8 MINUP_G21_9 1.0
    W_G21_8 LOGIC_G21_8 1.0
    W_G21_8 MINDN_G21_8 1.0
    M19026 'MARKER' 'INTEND'
    P_G21_8 OBJ 44.692075128798585
    P_G21_8 PMIN_G21_8 1.0
    P_G21_8 PMAX_G21_8 1.0
    P_G21_8 RUP_G21_8 1.0
    P_G21_8 RDN_G21_8 -1.0
    P_G21_8 RUP_G21_9 -1.0
    P_G21_8 RDN_G21_9 1.0
    P_G21_8 DEM_8 1.0
    M19035 'MARKER' 'INTORG'
    U_G21_9 OBJ 199.20478254984906
    U_G21_9 PMIN_G21_9 -131.85311253678825
    U_G21_9 PMAX_G21_9 -286.21590213139416
    U_G21_9 LOGIC_G21_9 1.0
    U_G21_9 MINUP_G21_9 -1.0
    U_G21_9 MINDN_G21_9 1.0
    U_G21_9 LOGIC_G21_10 -1.0
    U_G21_9 RES_9 286.21590213139416
    V_G21_9 OBJ 2264.8635002679875
    V_G21_9 LOGIC_G21_9 -1.0
    V_G21_9 MINUP_G21_9 1.0
    V_G21_9 MINUP_G21_10 1.0
    W_G21_9 LOGIC_G21_9 1.0
    W_G21_9 MINDN_G21_9 1.0
    M19050 'MARKER' 'INTEND'
    P_G21_9 OBJ 44.692075128798585
    P_G21_9 PMIN_G21_9 1.0
    P_G21_9 PMAX_G21_9 1.0
    P_G21_9 RUP_G21_9 1.0
    P_G21_9 RDN_G21_9 -1.0
    P_G21_9 RUP_G21_10 -1.0
    P_G21_9 RDN_G21_10 1.0
    P_G21_9 DEM_9 1.0
    M19059 'MARKER' 'INTORG'
    U_G21_10 OBJ 199.20478254984906
    U_G21_10 PMIN_G21_10 -131.85311253678825
    U_G21_10 PMAX_G21_10 -286.21590213139416
    U_G21_10 LOGIC_G21_10 1.0
    U_G21_10 MINUP_G21_10 -1.0
    U_G21_10 MINDN_G21_10 1.0
    U_G21_10 LOGIC_G21_11 -1.0
    U_G21_10 RES_10 286.21590213139416
    V_G21_10 OBJ 2264.8635002679875
    V_G21_10 LOGIC_G21_10 -1.0
    V_G21_10 MINUP_G21_10 1.0
    V_G21_10 MINUP_G21_11 1.0
    W_G21_10 LOGIC_G21_10 1.0
    W_G21_10 MINDN_G21_10 1.0
    M19074 'MARKER' 'INTEND'
    P_G21_10 OBJ 44.692075128798585
    P_G21_10 PMIN_G21_10 1.0
    P_G21_10 PMAX_G21_10 1.0
    P_G21_10 RUP_G21_10 1.0
    P_G21_10 RDN_G21_10 -1.0
    P_G21_10 RUP_G21_11 -1.0
    P_G21_10 RDN_G21_11 1.0
    P_G21_10 DEM_10 1.0
    M19083 'MARKER' 'INTORG'
    U_G21_11 OBJ 199.20478254984906
    U_G21_11 PMIN_G21_11 -131.85311253678825
    U_G21_11 PMAX_G21_11 -286.21590213139416
    U_G21_11 LOGIC_G21_11 1.0
    U_G21_11 MINUP_G21_11 -1.0
    U_G21_11 MINDN_G21_11 1.0
    U_G21_11 LOGIC_G21_12 -1.0
    U_G21_11 RES_11 286.21590213139416
    V_G21_11 OBJ 2264.8635002679875
    V_G21_11 LOGIC_G21_11 -1.0
    V_G21_11 MINUP_G21_11 1.0
    V_G21_11 MINUP_G21_12 1.0
    W_G21_11 LOGIC_G21_11 1.0
    W_G21_11 MINDN_G21_11 1.0
    M19098 'MARKER' 'INTEND'
    P_G21_11 OBJ 44.692075128798585
    P_G21_11 PMIN_G21_11 1.0
    P_G21_11 PMAX_G21_11 1.0
    P_G21_11 RUP_G21_11 1.0
    P_G21_11 RDN_G21_11 -1.0
    P_G21_11 RUP_G21_12 -1.0
    P_G21_11 RDN_G21_12 1.0
    P_G21_11 DEM_11 1.0
    M19107 'MARKER' 'INTORG'
    U_G21_12 OBJ 199.20478254984906
    U_G21_12 PMIN_G21_12 -131.85311253678825
    U_G21_12 PMAX_G21_12 -286.21590213139416
    U_G21_12 LOGIC_G21_12 1.0
    U_G21_12 MINUP_G21_12 -1.0
    U_G21_12 MINDN_G21_12 1.0
    U_G21_12 LOGIC_G21_13 -1.0
    U_G21_12 RES_12 286.21590213139416
    V_G21_12 OBJ 2264.8635002679875
    V_G21_12 LOGIC_G21_12 -1.0
    V_G21_12 MINUP_G21_12 1.0
    V_G21_12 MINUP_G21_13 1.0
    W_G21_12 LOGIC_G21_12 1.0
    W_G21_12 MINDN_G21_12 1.0
    M19122 'MARKER' 'INTEND'
    P_G21_12 OBJ 44.692075128798585
    P_G21_12 PMIN_G21_12 1.0
    P_G21_12 PMAX_G21_12 1.0
    P_G21_12 RUP_G21_12 1.0
    P_G21_12 RDN_G21_12 -1.0
    P_G21_12 RUP_G21_13 -1.0
    P_G21_12 RDN_G21_13 1.0
    P_G21_12 DEM_12 1.0
    M19131 'MARKER' 'INTORG'
    U_G21_13 OBJ 199.20478254984906
    U_G21_13 PMIN_G21_13 -131.85311253678825
    U_G21_13 PMAX_G21_13 -286.21590213139416
    U_G21_13 LOGIC_G21_13 1.0
    U_G21_13 MINUP_G21_13 -1.0
    U_G21_13 MINDN_G21_13 1.0
    U_G21_13 LOGIC_G21_14 -1.0
    U_G21_13 RES_13 286.21590213139416
    V_G21_13 OBJ 2264.8635002679875
    V_G21_13 LOGIC_G21_13 -1.0
    V_G21_13 MINUP_G21_13 1.0
    V_G21_13 MINUP_G21_14 1.0
    W_G21_13 LOGIC_G21_13 1.0
    W_G21_13 MINDN_G21_13 1.0
    M19146 'MARKER' 'INTEND'
    P_G21_13 OBJ 44.692075128798585
    P_G21_13 PMIN_G21_13 1.0
    P_G21_13 PMAX_G21_13 1.0
    P_G21_13 RUP_G21_13 1.0
    P_G21_13 RDN_G21_13 -1.0
    P_G21_13 RUP_G21_14 -1.0
    P_G21_13 RDN_G21_14 1.0
    P_G21_13 DEM_13 1.0
    M19155 'MARKER' 'INTORG'
    U_G21_14 OBJ 199.20478254984906
    U_G21_14 PMIN_G21_14 -131.85311253678825
    U_G21_14 PMAX_G21_14 -286.21590213139416
    U_G21_14 LOGIC_G21_14 1.0
    U_G21_14 MINUP_G21_14 -1.0
    U_G21_14 MINDN_G21_14 1.0
    U_G21_14 LOGIC_G21_15 -1.0
    U_G21_14 RES_14 286.21590213139416
    V_G21_14 OBJ 2264.8635002679875
    V_G21_14 LOGIC_G21_14 -1.0
    V_G21_14 MINUP_G21_14 1.0
    V_G21_14 MINUP_G21_15 1.0
    W_G21_14 LOGIC_G21_14 1.0
    W_G21_14 MINDN_G21_14 1.0
    M19170 'MARKER' 'INTEND'
    P_G21_14 OBJ 44.692075128798585
    P_G21_14 PMIN_G21_14 1.0
    P_G21_14 PMAX_G21_14 1.0
    P_G21_14 RUP_G21_14 1.0
    P_G21_14 RDN_G21_14 -1.0
    P_G21_14 RUP_G21_15 -1.0
    P_G21_14 RDN_G21_15 1.0
    P_G21_14 DEM_14 1.0
    M19179 'MARKER' 'INTORG'
    U_G21_15 OBJ 199.20478254984906
    U_G21_15 PMIN_G21_15 -131.85311253678825
    U_G21_15 PMAX_G21_15 -286.21590213139416
    U_G21_15 LOGIC_G21_15 1.0
    U_G21_15 MINUP_G21_15 -1.0
    U_G21_15 MINDN_G21_15 1.0
    U_G21_15 LOGIC_G21_16 -1.0
    U_G21_15 RES_15 286.21590213139416
    V_G21_15 OBJ 2264.8635002679875
    V_G21_15 LOGIC_G21_15 -1.0
    V_G21_15 MINUP_G21_15 1.0
    V_G21_15 MINUP_G21_16 1.0
    W_G21_15 LOGIC_G21_15 1.0
    W_G21_15 MINDN_G21_15 1.0
    M19194 'MARKER' 'INTEND'
    P_G21_15 OBJ 44.692075128798585
    P_G21_15 PMIN_G21_15 1.0
    P_G21_15 PMAX_G21_15 1.0
    P_G21_15 RUP_G21_15 1.0
    P_G21_15 RDN_G21_15 -1.0
    P_G21_15 RUP_G21_16 -1.0
    P_G21_15 RDN_G21_16 1.0
    P_G21_15 DEM_15 1.0
    M19203 'MARKER' 'INTORG'
    U_G21_16 OBJ 199.20478254984906
    U_G21_16 PMIN_G21_16 -131.85311253678825
    U_G21_16 PMAX_G21_16 -286.21590213139416
    U_G21_16 LOGIC_G21_16 1.0
    U_G21_16 MINUP_G21_16 -1.0
    U_G21_16 MINDN_G21_16 1.0
    U_G21_16 LOGIC_G21_17 -1.0
    U_G21_16 RES_16 286.21590213139416
    V_G21_16 OBJ 2264.8635002679875
    V_G21_16 LOGIC_G21_16 -1.0
    V_G21_16 MINUP_G21_16 1.0
    V_G21_16 MINUP_G21_17 1.0
    W_G21_16 LOGIC_G21_16 1.0
    W_G21_16 MINDN_G21_16 1.0
    M19218 'MARKER' 'INTEND'
    P_G21_16 OBJ 44.692075128798585
    P_G21_16 PMIN_G21_16 1.0
    P_G21_16 PMAX_G21_16 1.0
    P_G21_16 RUP_G21_16 1.0
    P_G21_16 RDN_G21_16 -1.0
    P_G21_16 RUP_G21_17 -1.0
    P_G21_16 RDN_G21_17 1.0
    P_G21_16 DEM_16 1.0
    M19227 'MARKER' 'INTORG'
    U_G21_17 OBJ 199.20478254984906
    U_G21_17 PMIN_G21_17 -131.85311253678825
    U_G21_17 PMAX_G21_17 -286.21590213139416
    U_G21_17 LOGIC_G21_17 1.0
    U_G21_17 MINUP_G21_17 -1.0
    U_G21_17 MINDN_G21_17 1.0
    U_G21_17 LOGIC_G21_18 -1.0
    U_G21_17 RES_17 286.21590213139416
    V_G21_17 OBJ 2264.8635002679875
    V_G21_17 LOGIC_G21_17 -1.0
    V_G21_17 MINUP_G21_17 1.0
    V_G21_17 MINUP_G21_18 1.0
    W_G21_17 LOGIC_G21_17 1.0
    W_G21_17 MINDN_G21_17 1.0
    M19242 'MARKER' 'INTEND'
    P_G21_17 OBJ 44.692075128798585
    P_G21_17 PMIN_G21_17 1.0
    P_G21_17 PMAX_G21_17 1.0
    P_G21_17 RUP_G21_17 1.0
    P_G21_17 RDN_G21_17 -1.0
    P_G21_17 RUP_G21_18 -1.0
    P_G21_17 RDN_G21_18 1.0
    P_G21_17 DEM_17 1.0
    M19251 'MARKER' 'INTORG'
    U_G21_18 OBJ 199.20478254984906
    U_G21_18 PMIN_G21_18 -131.85311253678825
    U_G21_18 PMAX_G21_18 -286.21590213139416
    U_G21_18 LOGIC_G21_18 1.0
    U_G21_18 MINUP_G21_18 -1.0
    U_G21_18 MINDN_G21_18 1.0
    U_G21_18 LOGIC_G21_19 -1.0
    U_G21_18 RES_18 286.21590213139416
    V_G21_18 OBJ 2264.8635002679875
    V_G21_18 LOGIC_G21_18 -1.0
    V_G21_18 MINUP_G21_18 1.0
    V_G21_18 MINUP_G21_19 1.0
    W_G21_18 LOGIC_G21_18 1.0
    W_G21_18 MINDN_G21_18 1.0
    M19266 'MARKER' 'INTEND'
    P_G21_18 OBJ 44.692075128798585
    P_G21_18 PMIN_G21_18 1.0
    P_G21_18 PMAX_G21_18 1.0
    P_G21_18 RUP_G21_18 1.0
    P_G21_18 RDN_G21_18 -1.0
    P_G21_18 RUP_G21_19 -1.0
    P_G21_18 RDN_G21_19 1.0
    P_G21_18 DEM_18 1.0
    M19275 'MARKER' 'INTORG'
    U_G21_19 OBJ 199.20478254984906
    U_G21_19 PMIN_G21_19 -131.85311253678825
    U_G21_19 PMAX_G21_19 -286.21590213139416
    U_G21_19 LOGIC_G21_19 1.0
    U_G21_19 MINUP_G21_19 -1.0
    U_G21_19 MINDN_G21_19 1.0
    U_G21_19 LOGIC_G21_20 -1.0
    U_G21_19 RES_19 286.21590213139416
    V_G21_19 OBJ 2264.8635002679875
    V_G21_19 LOGIC_G21_19 -1.0
    V_G21_19 MINUP_G21_19 1.0
    V_G21_19 MINUP_G21_20 1.0
    W_G21_19 LOGIC_G21_19 1.0
    W_G21_19 MINDN_G21_19 1.0
    M19290 'MARKER' 'INTEND'
    P_G21_19 OBJ 44.692075128798585
    P_G21_19 PMIN_G21_19 1.0
    P_G21_19 PMAX_G21_19 1.0
    P_G21_19 RUP_G21_19 1.0
    P_G21_19 RDN_G21_19 -1.0
    P_G21_19 RUP_G21_20 -1.0
    P_G21_19 RDN_G21_20 1.0
    P_G21_19 DEM_19 1.0
    M19299 'MARKER' 'INTORG'
    U_G21_20 OBJ 199.20478254984906
    U_G21_20 PMIN_G21_20 -131.85311253678825
    U_G21_20 PMAX_G21_20 -286.21590213139416
    U_G21_20 LOGIC_G21_20 1.0
    U_G21_20 MINUP_G21_20 -1.0
    U_G21_20 MINDN_G21_20 1.0
    U_G21_20 LOGIC_G21_21 -1.0
    U_G21_20 RES_20 286.21590213139416
    V_G21_20 OBJ 2264.8635002679875
    V_G21_20 LOGIC_G21_20 -1.0
    V_G21_20 MINUP_G21_20 1.0
    V_G21_20 MINUP_G21_21 1.0
    W_G21_20 LOGIC_G21_20 1.0
    W_G21_20 MINDN_G21_20 1.0
    M19314 'MARKER' 'INTEND'
    P_G21_20 OBJ 44.692075128798585
    P_G21_20 PMIN_G21_20 1.0
    P_G21_20 PMAX_G21_20 1.0
    P_G21_20 RUP_G21_20 1.0
    P_G21_20 RDN_G21_20 -1.0
    P_G21_20 RUP_G21_21 -1.0
    P_G21_20 RDN_G21_21 1.0
    P_G21_20 DEM_20 1.0
    M19323 'MARKER' 'INTORG'
    U_G21_21 OBJ 199.20478254984906
    U_G21_21 PMIN_G21_21 -131.85311253678825
    U_G21_21 PMAX_G21_21 -286.21590213139416
    U_G21_21 LOGIC_G21_21 1.0
    U_G21_21 MINUP_G21_21 -1.0
    U_G21_21 MINDN_G21_21 1.0
    U_G21_21 LOGIC_G21_22 -1.0
    U_G21_21 RES_21 286.21590213139416
    V_G21_21 OBJ 2264.8635002679875
    V_G21_21 LOGIC_G21_21 -1.0
    V_G21_21 MINUP_G21_21 1.0
    V_G21_21 MINUP_G21_22 1.0
    W_G21_21 LOGIC_G21_21 1.0
    W_G21_21 MINDN_G21_21 1.0
    M19338 'MARKER' 'INTEND'
    P_G21_21 OBJ 44.692075128798585
    P_G21_21 PMIN_G21_21 1.0
    P_G21_21 PMAX_G21_21 1.0
    P_G21_21 RUP_G21_21 1.0
    P_G21_21 RDN_G21_21 -1.0
    P_G21_21 RUP_G21_22 -1.0
    P_G21_21 RDN_G21_22 1.0
    P_G21_21 DEM_21 1.0
    M19347 'MARKER' 'INTORG'
    U_G21_22 OBJ 199.20478254984906
    U_G21_22 PMIN_G21_22 -131.85311253678825
    U_G21_22 PMAX_G21_22 -286.21590213139416
    U_G21_22 LOGIC_G21_22 1.0
    U_G21_22 MINUP_G21_22 -1.0
    U_G21_22 MINDN_G21_22 1.0
    U_G21_22 LOGIC_G21_23 -1.0
    U_G21_22 RES_22 286.21590213139416
    V_G21_22 OBJ 2264.8635002679875
    V_G21_22 LOGIC_G21_22 -1.0
    V_G21_22 MINUP_G21_22 1.0
    V_G21_22 MINUP_G21_23 1.0
    W_G21_22 LOGIC_G21_22 1.0
    W_G21_22 MINDN_G21_22 1.0
    M19362 'MARKER' 'INTEND'
    P_G21_22 OBJ 44.692075128798585
    P_G21_22 PMIN_G21_22 1.0
    P_G21_22 PMAX_G21_22 1.0
    P_G21_22 RUP_G21_22 1.0
    P_G21_22 RDN_G21_22 -1.0
    P_G21_22 RUP_G21_23 -1.0
    P_G21_22 RDN_G21_23 1.0
    P_G21_22 DEM_22 1.0
    M19371 'MARKER' 'INTORG'
    U_G21_23 OBJ 199.20478254984906
    U_G21_23 PMIN_G21_23 -131.85311253678825
    U_G21_23 PMAX_G21_23 -286.21590213139416
    U_G21_23 LOGIC_G21_23 1.0
    U_G21_23 MINUP_G21_23 -1.0
    U_G21_23 MINDN_G21_23 1.0
    U_G21_23 RES_23 286.21590213139416
    V_G21_23 OBJ 2264.8635002679875
    V_G21_23 LOGIC_G21_23 -1.0
    V_G21_23 MINUP_G21_23 1.0
    W_G21_23 LOGIC_G21_23 1.0
    W_G21_23 MINDN_G21_23 1.0
    M19384 'MARKER' 'INTEND'
    P_G21_23 OBJ 44.692075128798585
    P_G21_23 PMIN_G21_23 1.0
    P_G21_23 PMAX_G21_23 1.0
    P_G21_23 RUP_G21_23 1.0
    P_G21_23 RDN_G21_23 -1.0
    P_G21_23 DEM_23 1.0
    M19391 'MARKER' 'INTORG'
    U_G22_0 OBJ 378.75095124734884
    U_G22_0 PMIN_G22_0 -74.16835212152566
    U_G22_0 PMAX_G22_0 -157.23531711663608
    U_G22_0 LOGIC_G22_0 1.0
    U_G22_0 MINUP_G22_0 -1.0
    U_G22_0 MINDN_G22_0 1.0
    U_G22_0 LOGIC_G22_1 -1.0
    U_G22_0 RES_0 157.23531711663608
    V_G22_0 OBJ 2282.7579322679394
    V_G22_0 LOGIC_G22_0 -1.0
    V_G22_0 MINUP_G22_0 1.0
    V_G22_0 MINUP_G22_1 1.0
    V_G22_0 MINUP_G22_2 1.0
    W_G22_0 LOGIC_G22_0 1.0
    W_G22_0 MINDN_G22_0 1.0
    W_G22_0 MINDN_G22_1 1.0
    M19408 'MARKER' 'INTEND'
    P_G22_0 OBJ 28.966363230891034
    P_G22_0 PMIN_G22_0 1.0
    P_G22_0 PMAX_G22_0 1.0
    P_G22_0 RUP_G22_1 -1.0
    P_G22_0 RDN_G22_1 1.0
    P_G22_0 DEM_0 1.0
    M19415 'MARKER' 'INTORG'
    U_G22_1 OBJ 378.75095124734884
    U_G22_1 PMIN_G22_1 -74.16835212152566
    U_G22_1 PMAX_G22_1 -157.23531711663608
    U_G22_1 LOGIC_G22_1 1.0
    U_G22_1 MINUP_G22_1 -1.0
    U_G22_1 MINDN_G22_1 1.0
    U_G22_1 LOGIC_G22_2 -1.0
    U_G22_1 RES_1 157.23531711663608
    V_G22_1 OBJ 2282.7579322679394
    V_G22_1 LOGIC_G22_1 -1.0
    V_G22_1 MINUP_G22_1 1.0
    V_G22_1 MINUP_G22_2 1.0
    V_G22_1 MINUP_G22_3 1.0
    W_G22_1 LOGIC_G22_1 1.0
    W_G22_1 MINDN_G22_1 1.0
    W_G22_1 MINDN_G22_2 1.0
    M19432 'MARKER' 'INTEND'
    P_G22_1 OBJ 28.966363230891034
    P_G22_1 PMIN_G22_1 1.0
    P_G22_1 PMAX_G22_1 1.0
    P_G22_1 RUP_G22_1 1.0
    P_G22_1 RDN_G22_1 -1.0
    P_G22_1 RUP_G22_2 -1.0
    P_G22_1 RDN_G22_2 1.0
    P_G22_1 DEM_1 1.0
    M19441 'MARKER' 'INTORG'
    U_G22_2 OBJ 378.75095124734884
    U_G22_2 PMIN_G22_2 -74.16835212152566
    U_G22_2 PMAX_G22_2 -157.23531711663608
    U_G22_2 LOGIC_G22_2 1.0
    U_G22_2 MINUP_G22_2 -1.0
    U_G22_2 MINDN_G22_2 1.0
    U_G22_2 LOGIC_G22_3 -1.0
    U_G22_2 RES_2 157.23531711663608
    V_G22_2 OBJ 2282.7579322679394
    V_G22_2 LOGIC_G22_2 -1.0
    V_G22_2 MINUP_G22_2 1.0
    V_G22_2 MINUP_G22_3 1.0
    V_G22_2 MINUP_G22_4 1.0
    W_G22_2 LOGIC_G22_2 1.0
    W_G22_2 MINDN_G22_2 1.0
    W_G22_2 MINDN_G22_3 1.0
    M19458 'MARKER' 'INTEND'
    P_G22_2 OBJ 28.966363230891034
    P_G22_2 PMIN_G22_2 1.0
    P_G22_2 PMAX_G22_2 1.0
    P_G22_2 RUP_G22_2 1.0
    P_G22_2 RDN_G22_2 -1.0
    P_G22_2 RUP_G22_3 -1.0
    P_G22_2 RDN_G22_3 1.0
    P_G22_2 DEM_2 1.0
    M19467 'MARKER' 'INTORG'
    U_G22_3 OBJ 378.75095124734884
    U_G22_3 PMIN_G22_3 -74.16835212152566
    U_G22_3 PMAX_G22_3 -157.23531711663608
    U_G22_3 LOGIC_G22_3 1.0
    U_G22_3 MINUP_G22_3 -1.0
    U_G22_3 MINDN_G22_3 1.0
    U_G22_3 LOGIC_G22_4 -1.0
    U_G22_3 RES_3 157.23531711663608
    V_G22_3 OBJ 2282.7579322679394
    V_G22_3 LOGIC_G22_3 -1.0
    V_G22_3 MINUP_G22_3 1.0
    V_G22_3 MINUP_G22_4 1.0
    V_G22_3 MINUP_G22_5 1.0
    W_G22_3 LOGIC_G22_3 1.0
    W_G22_3 MINDN_G22_3 1.0
    W_G22_3 MINDN_G22_4 1.0
    M19484 'MARKER' 'INTEND'
    P_G22_3 OBJ 28.966363230891034
    P_G22_3 PMIN_G22_3 1.0
    P_G22_3 PMAX_G22_3 1.0
    P_G22_3 RUP_G22_3 1.0
    P_G22_3 RDN_G22_3 -1.0
    P_G22_3 RUP_G22_4 -1.0
    P_G22_3 RDN_G22_4 1.0
    P_G22_3 DEM_3 1.0
    M19493 'MARKER' 'INTORG'
    U_G22_4 OBJ 378.75095124734884
    U_G22_4 PMIN_G22_4 -74.16835212152566
    U_G22_4 PMAX_G22_4 -157.23531711663608
    U_G22_4 LOGIC_G22_4 1.0
    U_G22_4 MINUP_G22_4 -1.0
    U_G22_4 MINDN_G22_4 1.0
    U_G22_4 LOGIC_G22_5 -1.0
    U_G22_4 RES_4 157.23531711663608
    V_G22_4 OBJ 2282.7579322679394
    V_G22_4 LOGIC_G22_4 -1.0
    V_G22_4 MINUP_G22_4 1.0
    V_G22_4 MINUP_G22_5 1.0
    V_G22_4 MINUP_G22_6 1.0
    W_G22_4 LOGIC_G22_4 1.0
    W_G22_4 MINDN_G22_4 1.0
    W_G22_4 MINDN_G22_5 1.0
    M19510 'MARKER' 'INTEND'
    P_G22_4 OBJ 28.966363230891034
    P_G22_4 PMIN_G22_4 1.0
    P_G22_4 PMAX_G22_4 1.0
    P_G22_4 RUP_G22_4 1.0
    P_G22_4 RDN_G22_4 -1.0
    P_G22_4 RUP_G22_5 -1.0
    P_G22_4 RDN_G22_5 1.0
    P_G22_4 DEM_4 1.0
    M19519 'MARKER' 'INTORG'
    U_G22_5 OBJ 378.75095124734884
    U_G22_5 PMIN_G22_5 -74.16835212152566
    U_G22_5 PMAX_G22_5 -157.23531711663608
    U_G22_5 LOGIC_G22_5 1.0
    U_G22_5 MINUP_G22_5 -1.0
    U_G22_5 MINDN_G22_5 1.0
    U_G22_5 LOGIC_G22_6 -1.0
    U_G22_5 RES_5 157.23531711663608
    V_G22_5 OBJ 2282.7579322679394
    V_G22_5 LOGIC_G22_5 -1.0
    V_G22_5 MINUP_G22_5 1.0
    V_G22_5 MINUP_G22_6 1.0
    V_G22_5 MINUP_G22_7 1.0
    W_G22_5 LOGIC_G22_5 1.0
    W_G22_5 MINDN_G22_5 1.0
    W_G22_5 MINDN_G22_6 1.0
    M19536 'MARKER' 'INTEND'
    P_G22_5 OBJ 28.966363230891034
    P_G22_5 PMIN_G22_5 1.0
    P_G22_5 PMAX_G22_5 1.0
    P_G22_5 RUP_G22_5 1.0
    P_G22_5 RDN_G22_5 -1.0
    P_G22_5 RUP_G22_6 -1.0
    P_G22_5 RDN_G22_6 1.0
    P_G22_5 DEM_5 1.0
    M19545 'MARKER' 'INTORG'
    U_G22_6 OBJ 378.75095124734884
    U_G22_6 PMIN_G22_6 -74.16835212152566
    U_G22_6 PMAX_G22_6 -157.23531711663608
    U_G22_6 LOGIC_G22_6 1.0
    U_G22_6 MINUP_G22_6 -1.0
    U_G22_6 MINDN_G22_6 1.0
    U_G22_6 LOGIC_G22_7 -1.0
    U_G22_6 RES_6 157.23531711663608
    V_G22_6 OBJ 2282.7579322679394
    V_G22_6 LOGIC_G22_6 -1.0
    V_G22_6 MINUP_G22_6 1.0
    V_G22_6 MINUP_G22_7 1.0
    V_G22_6 MINUP_G22_8 1.0
    W_G22_6 LOGIC_G22_6 1.0
    W_G22_6 MINDN_G22_6 1.0
    W_G22_6 MINDN_G22_7 1.0
    M19562 'MARKER' 'INTEND'
    P_G22_6 OBJ 28.966363230891034
    P_G22_6 PMIN_G22_6 1.0
    P_G22_6 PMAX_G22_6 1.0
    P_G22_6 RUP_G22_6 1.0
    P_G22_6 RDN_G22_6 -1.0
    P_G22_6 RUP_G22_7 -1.0
    P_G22_6 RDN_G22_7 1.0
    P_G22_6 DEM_6 1.0
    M19571 'MARKER' 'INTORG'
    U_G22_7 OBJ 378.75095124734884
    U_G22_7 PMIN_G22_7 -74.16835212152566
    U_G22_7 PMAX_G22_7 -157.23531711663608
    U_G22_7 LOGIC_G22_7 1.0
    U_G22_7 MINUP_G22_7 -1.0
    U_G22_7 MINDN_G22_7 1.0
    U_G22_7 LOGIC_G22_8 -1.0
    U_G22_7 RES_7 157.23531711663608
    V_G22_7 OBJ 2282.7579322679394
    V_G22_7 LOGIC_G22_7 -1.0
    V_G22_7 MINUP_G22_7 1.0
    V_G22_7 MINUP_G22_8 1.0
    V_G22_7 MINUP_G22_9 1.0
    W_G22_7 LOGIC_G22_7 1.0
    W_G22_7 MINDN_G22_7 1.0
    W_G22_7 MINDN_G22_8 1.0
    M19588 'MARKER' 'INTEND'
    P_G22_7 OBJ 28.966363230891034
    P_G22_7 PMIN_G22_7 1.0
    P_G22_7 PMAX_G22_7 1.0
    P_G22_7 RUP_G22_7 1.0
    P_G22_7 RDN_G22_7 -1.0
    P_G22_7 RUP_G22_8 -1.0
    P_G22_7 RDN_G22_8 1.0
    P_G22_7 DEM_7 1.0
    M19597 'MARKER' 'INTORG'
    U_G22_8 OBJ 378.75095124734884
    U_G22_8 PMIN_G22_8 -74.16835212152566
    U_G22_8 PMAX_G22_8 -157.23531711663608
    U_G22_8 LOGIC_G22_8 1.0
    U_G22_8 MINUP_G22_8 -1.0
    U_G22_8 MINDN_G22_8 1.0
    U_G22_8 LOGIC_G22_9 -1.0
    U_G22_8 RES_8 157.23531711663608
    V_G22_8 OBJ 2282.7579322679394
    V_G22_8 LOGIC_G22_8 -1.0
    V_G22_8 MINUP_G22_8 1.0
    V_G22_8 MINUP_G22_9 1.0
    V_G22_8 MINUP_G22_10 1.0
    W_G22_8 LOGIC_G22_8 1.0
    W_G22_8 MINDN_G22_8 1.0
    W_G22_8 MINDN_G22_9 1.0
    M19614 'MARKER' 'INTEND'
    P_G22_8 OBJ 28.966363230891034
    P_G22_8 PMIN_G22_8 1.0
    P_G22_8 PMAX_G22_8 1.0
    P_G22_8 RUP_G22_8 1.0
    P_G22_8 RDN_G22_8 -1.0
    P_G22_8 RUP_G22_9 -1.0
    P_G22_8 RDN_G22_9 1.0
    P_G22_8 DEM_8 1.0
    M19623 'MARKER' 'INTORG'
    U_G22_9 OBJ 378.75095124734884
    U_G22_9 PMIN_G22_9 -74.16835212152566
    U_G22_9 PMAX_G22_9 -157.23531711663608
    U_G22_9 LOGIC_G22_9 1.0
    U_G22_9 MINUP_G22_9 -1.0
    U_G22_9 MINDN_G22_9 1.0
    U_G22_9 LOGIC_G22_10 -1.0
    U_G22_9 RES_9 157.23531711663608
    V_G22_9 OBJ 2282.7579322679394
    V_G22_9 LOGIC_G22_9 -1.0
    V_G22_9 MINUP_G22_9 1.0
    V_G22_9 MINUP_G22_10 1.0
    V_G22_9 MINUP_G22_11 1.0
    W_G22_9 LOGIC_G22_9 1.0
    W_G22_9 MINDN_G22_9 1.0
    W_G22_9 MINDN_G22_10 1.0
    M19640 'MARKER' 'INTEND'
    P_G22_9 OBJ 28.966363230891034
    P_G22_9 PMIN_G22_9 1.0
    P_G22_9 PMAX_G22_9 1.0
    P_G22_9 RUP_G22_9 1.0
    P_G22_9 RDN_G22_9 -1.0
    P_G22_9 RUP_G22_10 -1.0
    P_G22_9 RDN_G22_10 1.0
    P_G22_9 DEM_9 1.0
    M19649 'MARKER' 'INTORG'
    U_G22_10 OBJ 378.75095124734884
    U_G22_10 PMIN_G22_10 -74.16835212152566
    U_G22_10 PMAX_G22_10 -157.23531711663608
    U_G22_10 LOGIC_G22_10 1.0
    U_G22_10 MINUP_G22_10 -1.0
    U_G22_10 MINDN_G22_10 1.0
    U_G22_10 LOGIC_G22_11 -1.0
    U_G22_10 RES_10 157.23531711663608
    V_G22_10 OBJ 2282.7579322679394
    V_G22_10 LOGIC_G22_10 -1.0
    V_G22_10 MINUP_G22_10 1.0
    V_G22_10 MINUP_G22_11 1.0
    V_G22_10 MINUP_G22_12 1.0
    W_G22_10 LOGIC_G22_10 1.0
    W_G22_10 MINDN_G22_10 1.0
    W_G22_10 MINDN_G22_11 1.0
    M19666 'MARKER' 'INTEND'
    P_G22_10 OBJ 28.966363230891034
    P_G22_10 PMIN_G22_10 1.0
    P_G22_10 PMAX_G22_10 1.0
    P_G22_10 RUP_G22_10 1.0
    P_G22_10 RDN_G22_10 -1.0
    P_G22_10 RUP_G22_11 -1.0
    P_G22_10 RDN_G22_11 1.0
    P_G22_10 DEM_10 1.0
    M19675 'MARKER' 'INTORG'
    U_G22_11 OBJ 378.75095124734884
    U_G22_11 PMIN_G22_11 -74.16835212152566
    U_G22_11 PMAX_G22_11 -157.23531711663608
    U_G22_11 LOGIC_G22_11 1.0
    U_G22_11 MINUP_G22_11 -1.0
    U_G22_11 MINDN_G22_11 1.0
    U_G22_11 LOGIC_G22_12 -1.0
    U_G22_11 RES_11 157.23531711663608
    V_G22_11 OBJ 2282.7579322679394
    V_G22_11 LOGIC_G22_11 -1.0
    V_G22_11 MINUP_G22_11 1.0
    V_G22_11 MINUP_G22_12 1.0
    V_G22_11 MINUP_G22_13 1.0
    W_G22_11 LOGIC_G22_11 1.0
    W_G22_11 MINDN_G22_11 1.0
    W_G22_11 MINDN_G22_12 1.0
    M19692 'MARKER' 'INTEND'
    P_G22_11 OBJ 28.966363230891034
    P_G22_11 PMIN_G22_11 1.0
    P_G22_11 PMAX_G22_11 1.0
    P_G22_11 RUP_G22_11 1.0
    P_G22_11 RDN_G22_11 -1.0
    P_G22_11 RUP_G22_12 -1.0
    P_G22_11 RDN_G22_12 1.0
    P_G22_11 DEM_11 1.0
    M19701 'MARKER' 'INTORG'
    U_G22_12 OBJ 378.75095124734884
    U_G22_12 PMIN_G22_12 -74.16835212152566
    U_G22_12 PMAX_G22_12 -157.23531711663608
    U_G22_12 LOGIC_G22_12 1.0
    U_G22_12 MINUP_G22_12 -1.0
    U_G22_12 MINDN_G22_12 1.0
    U_G22_12 LOGIC_G22_13 -1.0
    U_G22_12 RES_12 157.23531711663608
    V_G22_12 OBJ 2282.7579322679394
    V_G22_12 LOGIC_G22_12 -1.0
    V_G22_12 MINUP_G22_12 1.0
    V_G22_12 MINUP_G22_13 1.0
    V_G22_12 MINUP_G22_14 1.0
    W_G22_12 LOGIC_G22_12 1.0
    W_G22_12 MINDN_G22_12 1.0
    W_G22_12 MINDN_G22_13 1.0
    M19718 'MARKER' 'INTEND'
    P_G22_12 OBJ 28.966363230891034
    P_G22_12 PMIN_G22_12 1.0
    P_G22_12 PMAX_G22_12 1.0
    P_G22_12 RUP_G22_12 1.0
    P_G22_12 RDN_G22_12 -1.0
    P_G22_12 RUP_G22_13 -1.0
    P_G22_12 RDN_G22_13 1.0
    P_G22_12 DEM_12 1.0
    M19727 'MARKER' 'INTORG'
    U_G22_13 OBJ 378.75095124734884
    U_G22_13 PMIN_G22_13 -74.16835212152566
    U_G22_13 PMAX_G22_13 -157.23531711663608
    U_G22_13 LOGIC_G22_13 1.0
    U_G22_13 MINUP_G22_13 -1.0
    U_G22_13 MINDN_G22_13 1.0
    U_G22_13 LOGIC_G22_14 -1.0
    U_G22_13 RES_13 157.23531711663608
    V_G22_13 OBJ 2282.7579322679394
    V_G22_13 LOGIC_G22_13 -1.0
    V_G22_13 MINUP_G22_13 1.0
    V_G22_13 MINUP_G22_14 1.0
    V_G22_13 MINUP_G22_15 1.0
    W_G22_13 LOGIC_G22_13 1.0
    W_G22_13 MINDN_G22_13 1.0
    W_G22_13 MINDN_G22_14 1.0
    M19744 'MARKER' 'INTEND'
    P_G22_13 OBJ 28.966363230891034
    P_G22_13 PMIN_G22_13 1.0
    P_G22_13 PMAX_G22_13 1.0
    P_G22_13 RUP_G22_13 1.0
    P_G22_13 RDN_G22_13 -1.0
    P_G22_13 RUP_G22_14 -1.0
    P_G22_13 RDN_G22_14 1.0
    P_G22_13 DEM_13 1.0
    M19753 'MARKER' 'INTORG'
    U_G22_14 OBJ 378.75095124734884
    U_G22_14 PMIN_G22_14 -74.16835212152566
    U_G22_14 PMAX_G22_14 -157.23531711663608
    U_G22_14 LOGIC_G22_14 1.0
    U_G22_14 MINUP_G22_14 -1.0
    U_G22_14 MINDN_G22_14 1.0
    U_G22_14 LOGIC_G22_15 -1.0
    U_G22_14 RES_14 157.23531711663608
    V_G22_14 OBJ 2282.7579322679394
    V_G22_14 LOGIC_G22_14 -1.0
    V_G22_14 MINUP_G22_14 1.0
    V_G22_14 MINUP_G22_15 1.0
    V_G22_14 MINUP_G22_16 1.0
    W_G22_14 LOGIC_G22_14 1.0
    W_G22_14 MINDN_G22_14 1.0
    W_G22_14 MINDN_G22_15 1.0
    M19770 'MARKER' 'INTEND'
    P_G22_14 OBJ 28.966363230891034
    P_G22_14 PMIN_G22_14 1.0
    P_G22_14 PMAX_G22_14 1.0
    P_G22_14 RUP_G22_14 1.0
    P_G22_14 RDN_G22_14 -1.0
    P_G22_14 RUP_G22_15 -1.0
    P_G22_14 RDN_G22_15 1.0
    P_G22_14 DEM_14 1.0
    M19779 'MARKER' 'INTORG'
    U_G22_15 OBJ 378.75095124734884
    U_G22_15 PMIN_G22_15 -74.16835212152566
    U_G22_15 PMAX_G22_15 -157.23531711663608
    U_G22_15 LOGIC_G22_15 1.0
    U_G22_15 MINUP_G22_15 -1.0
    U_G22_15 MINDN_G22_15 1.0
    U_G22_15 LOGIC_G22_16 -1.0
    U_G22_15 RES_15 157.23531711663608
    V_G22_15 OBJ 2282.7579322679394
    V_G22_15 LOGIC_G22_15 -1.0
    V_G22_15 MINUP_G22_15 1.0
    V_G22_15 MINUP_G22_16 1.0
    V_G22_15 MINUP_G22_17 1.0
    W_G22_15 LOGIC_G22_15 1.0
    W_G22_15 MINDN_G22_15 1.0
    W_G22_15 MINDN_G22_16 1.0
    M19796 'MARKER' 'INTEND'
    P_G22_15 OBJ 28.966363230891034
    P_G22_15 PMIN_G22_15 1.0
    P_G22_15 PMAX_G22_15 1.0
    P_G22_15 RUP_G22_15 1.0
    P_G22_15 RDN_G22_15 -1.0
    P_G22_15 RUP_G22_16 -1.0
    P_G22_15 RDN_G22_16 1.0
    P_G22_15 DEM_15 1.0
    M19805 'MARKER' 'INTORG'
    U_G22_16 OBJ 378.75095124734884
    U_G22_16 PMIN_G22_16 -74.16835212152566
    U_G22_16 PMAX_G22_16 -157.23531711663608
    U_G22_16 LOGIC_G22_16 1.0
    U_G22_16 MINUP_G22_16 -1.0
    U_G22_16 MINDN_G22_16 1.0
    U_G22_16 LOGIC_G22_17 -1.0
    U_G22_16 RES_16 157.23531711663608
    V_G22_16 OBJ 2282.7579322679394
    V_G22_16 LOGIC_G22_16 -1.0
    V_G22_16 MINUP_G22_16 1.0
    V_G22_16 MINUP_G22_17 1.0
    V_G22_16 MINUP_G22_18 1.0
    W_G22_16 LOGIC_G22_16 1.0
    W_G22_16 MINDN_G22_16 1.0
    W_G22_16 MINDN_G22_17 1.0
    M19822 'MARKER' 'INTEND'
    P_G22_16 OBJ 28.966363230891034
    P_G22_16 PMIN_G22_16 1.0
    P_G22_16 PMAX_G22_16 1.0
    P_G22_16 RUP_G22_16 1.0
    P_G22_16 RDN_G22_16 -1.0
    P_G22_16 RUP_G22_17 -1.0
    P_G22_16 RDN_G22_17 1.0
    P_G22_16 DEM_16 1.0
    M19831 'MARKER' 'INTORG'
    U_G22_17 OBJ 378.75095124734884
    U_G22_17 PMIN_G22_17 -74.16835212152566
    U_G22_17 PMAX_G22_17 -157.23531711663608
    U_G22_17 LOGIC_G22_17 1.0
    U_G22_17 MINUP_G22_17 -1.0
    U_G22_17 MINDN_G22_17 1.0
    U_G22_17 LOGIC_G22_18 -1.0
    U_G22_17 RES_17 157.23531711663608
    V_G22_17 OBJ 2282.7579322679394
    V_G22_17 LOGIC_G22_17 -1.0
    V_G22_17 MINUP_G22_17 1.0
    V_G22_17 MINUP_G22_18 1.0
    V_G22_17 MINUP_G22_19 1.0
    W_G22_17 LOGIC_G22_17 1.0
    W_G22_17 MINDN_G22_17 1.0
    W_G22_17 MINDN_G22_18 1.0
    M19848 'MARKER' 'INTEND'
    P_G22_17 OBJ 28.966363230891034
    P_G22_17 PMIN_G22_17 1.0
    P_G22_17 PMAX_G22_17 1.0
    P_G22_17 RUP_G22_17 1.0
    P_G22_17 RDN_G22_17 -1.0
    P_G22_17 RUP_G22_18 -1.0
    P_G22_17 RDN_G22_18 1.0
    P_G22_17 DEM_17 1.0
    M19857 'MARKER' 'INTORG'
    U_G22_18 OBJ 378.75095124734884
    U_G22_18 PMIN_G22_18 -74.16835212152566
    U_G22_18 PMAX_G22_18 -157.23531711663608
    U_G22_18 LOGIC_G22_18 1.0
    U_G22_18 MINUP_G22_18 -1.0
    U_G22_18 MINDN_G22_18 1.0
    U_G22_18 LOGIC_G22_19 -1.0
    U_G22_18 RES_18 157.23531711663608
    V_G22_18 OBJ 2282.7579322679394
    V_G22_18 LOGIC_G22_18 -1.0
    V_G22_18 MINUP_G22_18 1.0
    V_G22_18 MINUP_G22_19 1.0
    V_G22_18 MINUP_G22_20 1.0
    W_G22_18 LOGIC_G22_18 1.0
    W_G22_18 MINDN_G22_18 1.0
    W_G22_18 MINDN_G22_19 1.0
    M19874 'MARKER' 'INTEND'
    P_G22_18 OBJ 28.966363230891034
    P_G22_18 PMIN_G22_18 1.0
    P_G22_18 PMAX_G22_18 1.0
    P_G22_18 RUP_G22_18 1.0
    P_G22_18 RDN_G22_18 -1.0
    P_G22_18 RUP_G22_19 -1.0
    P_G22_18 RDN_G22_19 1.0
    P_G22_18 DEM_18 1.0
    M19883 'MARKER' 'INTORG'
    U_G22_19 OBJ 378.75095124734884
    U_G22_19 PMIN_G22_19 -74.16835212152566
    U_G22_19 PMAX_G22_19 -157.23531711663608
    U_G22_19 LOGIC_G22_19 1.0
    U_G22_19 MINUP_G22_19 -1.0
    U_G22_19 MINDN_G22_19 1.0
    U_G22_19 LOGIC_G22_20 -1.0
    U_G22_19 RES_19 157.23531711663608
    V_G22_19 OBJ 2282.7579322679394
    V_G22_19 LOGIC_G22_19 -1.0
    V_G22_19 MINUP_G22_19 1.0
    V_G22_19 MINUP_G22_20 1.0
    V_G22_19 MINUP_G22_21 1.0
    W_G22_19 LOGIC_G22_19 1.0
    W_G22_19 MINDN_G22_19 1.0
    W_G22_19 MINDN_G22_20 1.0
    M19900 'MARKER' 'INTEND'
    P_G22_19 OBJ 28.966363230891034
    P_G22_19 PMIN_G22_19 1.0
    P_G22_19 PMAX_G22_19 1.0
    P_G22_19 RUP_G22_19 1.0
    P_G22_19 RDN_G22_19 -1.0
    P_G22_19 RUP_G22_20 -1.0
    P_G22_19 RDN_G22_20 1.0
    P_G22_19 DEM_19 1.0
    M19909 'MARKER' 'INTORG'
    U_G22_20 OBJ 378.75095124734884
    U_G22_20 PMIN_G22_20 -74.16835212152566
    U_G22_20 PMAX_G22_20 -157.23531711663608
    U_G22_20 LOGIC_G22_20 1.0
    U_G22_20 MINUP_G22_20 -1.0
    U_G22_20 MINDN_G22_20 1.0
    U_G22_20 LOGIC_G22_21 -1.0
    U_G22_20 RES_20 157.23531711663608
    V_G22_20 OBJ 2282.7579322679394
    V_G22_20 LOGIC_G22_20 -1.0
    V_G22_20 MINUP_G22_20 1.0
    V_G22_20 MINUP_G22_21 1.0
    V_G22_20 MINUP_G22_22 1.0
    W_G22_20 LOGIC_G22_20 1.0
    W_G22_20 MINDN_G22_20 1.0
    W_G22_20 MINDN_G22_21 1.0
    M19926 'MARKER' 'INTEND'
    P_G22_20 OBJ 28.966363230891034
    P_G22_20 PMIN_G22_20 1.0
    P_G22_20 PMAX_G22_20 1.0
    P_G22_20 RUP_G22_20 1.0
    P_G22_20 RDN_G22_20 -1.0
    P_G22_20 RUP_G22_21 -1.0
    P_G22_20 RDN_G22_21 1.0
    P_G22_20 DEM_20 1.0
    M19935 'MARKER' 'INTORG'
    U_G22_21 OBJ 378.75095124734884
    U_G22_21 PMIN_G22_21 -74.16835212152566
    U_G22_21 PMAX_G22_21 -157.23531711663608
    U_G22_21 LOGIC_G22_21 1.0
    U_G22_21 MINUP_G22_21 -1.0
    U_G22_21 MINDN_G22_21 1.0
    U_G22_21 LOGIC_G22_22 -1.0
    U_G22_21 RES_21 157.23531711663608
    V_G22_21 OBJ 2282.7579322679394
    V_G22_21 LOGIC_G22_21 -1.0
    V_G22_21 MINUP_G22_21 1.0
    V_G22_21 MINUP_G22_22 1.0
    V_G22_21 MINUP_G22_23 1.0
    W_G22_21 LOGIC_G22_21 1.0
    W_G22_21 MINDN_G22_21 1.0
    W_G22_21 MINDN_G22_22 1.0
    M19952 'MARKER' 'INTEND'
    P_G22_21 OBJ 28.966363230891034
    P_G22_21 PMIN_G22_21 1.0
    P_G22_21 PMAX_G22_21 1.0
    P_G22_21 RUP_G22_21 1.0
    P_G22_21 RDN_G22_21 -1.0
    P_G22_21 RUP_G22_22 -1.0
    P_G22_21 RDN_G22_22 1.0
    P_G22_21 DEM_21 1.0
    M19961 'MARKER' 'INTORG'
    U_G22_22 OBJ 378.75095124734884
    U_G22_22 PMIN_G22_22 -74.16835212152566
    U_G22_22 PMAX_G22_22 -157.23531711663608
    U_G22_22 LOGIC_G22_22 1.0
    U_G22_22 MINUP_G22_22 -1.0
    U_G22_22 MINDN_G22_22 1.0
    U_G22_22 LOGIC_G22_23 -1.0
    U_G22_22 RES_22 157.23531711663608
    V_G22_22 OBJ 2282.7579322679394
    V_G22_22 LOGIC_G22_22 -1.0
    V_G22_22 MINUP_G22_22 1.0
    V_G22_22 MINUP_G22_23 1.0
    W_G22_22 LOGIC_G22_22 1.0
    W_G22_22 MINDN_G22_22 1.0
    W_G22_22 MINDN_G22_23 1.0
    M19977 'MARKER' 'INTEND'
    P_G22_22 OBJ 28.966363230891034
    P_G22_22 PMIN_G22_22 1.0
    P_G22_22 PMAX_G22_22 1.0
    P_G22_22 RUP_G22_22 1.0
    P_G22_22 RDN_G22_22 -1.0
    P_G22_22 RUP_G22_23 -1.0
    P_G22_22 RDN_G22_23 1.0
    P_G22_22 DEM_22 1.0
    M19986 'MARKER' 'INTORG'
    U_G22_23 OBJ 378.75095124734884
    U_G22_23 PMIN_G22_23 -74.16835212152566
    U_G22_23 PMAX_G22_23 -157.23531711663608
    U_G22_23 LOGIC_G22_23 1.0
    U_G22_23 MINUP_G22_23 -1.0
    U_G22_23 MINDN_G22_23 1.0
    U_G22_23 RES_23 157.23531711663608
    V_G22_23 OBJ 2282.7579322679394
    V_G22_23 LOGIC_G22_23 -1.0
    V_G22_23 MINUP_G22_23 1.0
    W_G22_23 LOGIC_G22_23 1.0
    W_G22_23 MINDN_G22_23 1.0
    M19999 'MARKER' 'INTEND'
    P_G22_23 OBJ 28.966363230891034
    P_G22_23 PMIN_G22_23 1.0
    P_G22_23 PMAX_G22_23 1.0
    P_G22_23 RUP_G22_23 1.0
    P_G22_23 RDN_G22_23 -1.0
    P_G22_23 DEM_23 1.0
    M20006 'MARKER' 'INTORG'
    U_G23_0 OBJ 336.79493871447903
    U_G23_0 PMIN_G23_0 -25.19922962935711
    U_G23_0 PMAX_G23_0 -52.9680918622841
    U_G23_0 LOGIC_G23_0 1.0
    U_G23_0 MINUP_G23_0 -1.0
    U_G23_0 MINDN_G23_0 1.0
    U_G23_0 LOGIC_G23_1 -1.0
    U_G23_0 RES_0 52.9680918622841
    V_G23_0 OBJ 2894.1631505062905
    V_G23_0 LOGIC_G23_0 -1.0
    V_G23_0 MINUP_G23_0 1.0
    V_G23_0 MINUP_G23_1 1.0
    W_G23_0 LOGIC_G23_0 1.0
    W_G23_0 MINDN_G23_0 1.0
    W_G23_0 MINDN_G23_1 1.0
    W_G23_0 MINDN_G23_2 1.0
    W_G23_0 MINDN_G23_3 1.0
    W_G23_0 MINDN_G23_4 1.0
    M20025 'MARKER' 'INTEND'
    P_G23_0 OBJ 16.706243876936128
    P_G23_0 PMIN_G23_0 1.0
    P_G23_0 PMAX_G23_0 1.0
    P_G23_0 RUP_G23_1 -1.0
    P_G23_0 RDN_G23_1 1.0
    P_G23_0 DEM_0 1.0
    M20032 'MARKER' 'INTORG'
    U_G23_1 OBJ 336.79493871447903
    U_G23_1 PMIN_G23_1 -25.19922962935711
    U_G23_1 PMAX_G23_1 -52.9680918622841
    U_G23_1 LOGIC_G23_1 1.0
    U_G23_1 MINUP_G23_1 -1.0
    U_G23_1 MINDN_G23_1 1.0
    U_G23_1 LOGIC_G23_2 -1.0
    U_G23_1 RES_1 52.9680918622841
    V_G23_1 OBJ 2894.1631505062905
    V_G23_1 LOGIC_G23_1 -1.0
    V_G23_1 MINUP_G23_1 1.0
    V_G23_1 MINUP_G23_2 1.0
    W_G23_1 LOGIC_G23_1 1.0
    W_G23_1 MINDN_G23_1 1.0
    W_G23_1 MINDN_G23_2 1.0
    W_G23_1 MINDN_G23_3 1.0
    W_G23_1 MINDN_G23_4 1.0
    W_G23_1 MINDN_G23_5 1.0
    M20051 'MARKER' 'INTEND'
    P_G23_1 OBJ 16.706243876936128
    P_G23_1 PMIN_G23_1 1.0
    P_G23_1 PMAX_G23_1 1.0
    P_G23_1 RUP_G23_1 1.0
    P_G23_1 RDN_G23_1 -1.0
    P_G23_1 RUP_G23_2 -1.0
    P_G23_1 RDN_G23_2 1.0
    P_G23_1 DEM_1 1.0
    M20060 'MARKER' 'INTORG'
    U_G23_2 OBJ 336.79493871447903
    U_G23_2 PMIN_G23_2 -25.19922962935711
    U_G23_2 PMAX_G23_2 -52.9680918622841
    U_G23_2 LOGIC_G23_2 1.0
    U_G23_2 MINUP_G23_2 -1.0
    U_G23_2 MINDN_G23_2 1.0
    U_G23_2 LOGIC_G23_3 -1.0
    U_G23_2 RES_2 52.9680918622841
    V_G23_2 OBJ 2894.1631505062905
    V_G23_2 LOGIC_G23_2 -1.0
    V_G23_2 MINUP_G23_2 1.0
    V_G23_2 MINUP_G23_3 1.0
    W_G23_2 LOGIC_G23_2 1.0
    W_G23_2 MINDN_G23_2 1.0
    W_G23_2 MINDN_G23_3 1.0
    W_G23_2 MINDN_G23_4 1.0
    W_G23_2 MINDN_G23_5 1.0
    W_G23_2 MINDN_G23_6 1.0
    M20079 'MARKER' 'INTEND'
    P_G23_2 OBJ 16.706243876936128
    P_G23_2 PMIN_G23_2 1.0
    P_G23_2 PMAX_G23_2 1.0
    P_G23_2 RUP_G23_2 1.0
    P_G23_2 RDN_G23_2 -1.0
    P_G23_2 RUP_G23_3 -1.0
    P_G23_2 RDN_G23_3 1.0
    P_G23_2 DEM_2 1.0
    M20088 'MARKER' 'INTORG'
    U_G23_3 OBJ 336.79493871447903
    U_G23_3 PMIN_G23_3 -25.19922962935711
    U_G23_3 PMAX_G23_3 -52.9680918622841
    U_G23_3 LOGIC_G23_3 1.0
    U_G23_3 MINUP_G23_3 -1.0
    U_G23_3 MINDN_G23_3 1.0
    U_G23_3 LOGIC_G23_4 -1.0
    U_G23_3 RES_3 52.9680918622841
    V_G23_3 OBJ 2894.1631505062905
    V_G23_3 LOGIC_G23_3 -1.0
    V_G23_3 MINUP_G23_3 1.0
    V_G23_3 MINUP_G23_4 1.0
    W_G23_3 LOGIC_G23_3 1.0
    W_G23_3 MINDN_G23_3 1.0
    W_G23_3 MINDN_G23_4 1.0
    W_G23_3 MINDN_G23_5 1.0
    W_G23_3 MINDN_G23_6 1.0
    W_G23_3 MINDN_G23_7 1.0
    M20107 'MARKER' 'INTEND'
    P_G23_3 OBJ 16.706243876936128
    P_G23_3 PMIN_G23_3 1.0
    P_G23_3 PMAX_G23_3 1.0
    P_G23_3 RUP_G23_3 1.0
    P_G23_3 RDN_G23_3 -1.0
    P_G23_3 RUP_G23_4 -1.0
    P_G23_3 RDN_G23_4 1.0
    P_G23_3 DEM_3 1.0
    M20116 'MARKER' 'INTORG'
    U_G23_4 OBJ 336.79493871447903
    U_G23_4 PMIN_G23_4 -25.19922962935711
    U_G23_4 PMAX_G23_4 -52.9680918622841
    U_G23_4 LOGIC_G23_4 1.0
    U_G23_4 MINUP_G23_4 -1.0
    U_G23_4 MINDN_G23_4 1.0
    U_G23_4 LOGIC_G23_5 -1.0
    U_G23_4 RES_4 52.9680918622841
    V_G23_4 OBJ 2894.1631505062905
    V_G23_4 LOGIC_G23_4 -1.0
    V_G23_4 MINUP_G23_4 1.0
    V_G23_4 MINUP_G23_5 1.0
    W_G23_4 LOGIC_G23_4 1.0
    W_G23_4 MINDN_G23_4 1.0
    W_G23_4 MINDN_G23_5 1.0
    W_G23_4 MINDN_G23_6 1.0
    W_G23_4 MINDN_G23_7 1.0
    W_G23_4 MINDN_G23_8 1.0
    M20135 'MARKER' 'INTEND'
    P_G23_4 OBJ 16.706243876936128
    P_G23_4 PMIN_G23_4 1.0
    P_G23_4 PMAX_G23_4 1.0
    P_G23_4 RUP_G23_4 1.0
    P_G23_4 RDN_G23_4 -1.0
    P_G23_4 RUP_G23_5 -1.0
    P_G23_4 RDN_G23_5 1.0
    P_G23_4 DEM_4 1.0
    M20144 'MARKER' 'INTORG'
    U_G23_5 OBJ 336.79493871447903
    U_G23_5 PMIN_G23_5 -25.19922962935711
    U_G23_5 PMAX_G23_5 -52.9680918622841
    U_G23_5 LOGIC_G23_5 1.0
    U_G23_5 MINUP_G23_5 -1.0
    U_G23_5 MINDN_G23_5 1.0
    U_G23_5 LOGIC_G23_6 -1.0
    U_G23_5 RES_5 52.9680918622841
    V_G23_5 OBJ 2894.1631505062905
    V_G23_5 LOGIC_G23_5 -1.0
    V_G23_5 MINUP_G23_5 1.0
    V_G23_5 MINUP_G23_6 1.0
    W_G23_5 LOGIC_G23_5 1.0
    W_G23_5 MINDN_G23_5 1.0
    W_G23_5 MINDN_G23_6 1.0
    W_G23_5 MINDN_G23_7 1.0
    W_G23_5 MINDN_G23_8 1.0
    W_G23_5 MINDN_G23_9 1.0
    M20163 'MARKER' 'INTEND'
    P_G23_5 OBJ 16.706243876936128
    P_G23_5 PMIN_G23_5 1.0
    P_G23_5 PMAX_G23_5 1.0
    P_G23_5 RUP_G23_5 1.0
    P_G23_5 RDN_G23_5 -1.0
    P_G23_5 RUP_G23_6 -1.0
    P_G23_5 RDN_G23_6 1.0
    P_G23_5 DEM_5 1.0
    M20172 'MARKER' 'INTORG'
    U_G23_6 OBJ 336.79493871447903
    U_G23_6 PMIN_G23_6 -25.19922962935711
    U_G23_6 PMAX_G23_6 -52.9680918622841
    U_G23_6 LOGIC_G23_6 1.0
    U_G23_6 MINUP_G23_6 -1.0
    U_G23_6 MINDN_G23_6 1.0
    U_G23_6 LOGIC_G23_7 -1.0
    U_G23_6 RES_6 52.9680918622841
    V_G23_6 OBJ 2894.1631505062905
    V_G23_6 LOGIC_G23_6 -1.0
    V_G23_6 MINUP_G23_6 1.0
    V_G23_6 MINUP_G23_7 1.0
    W_G23_6 LOGIC_G23_6 1.0
    W_G23_6 MINDN_G23_6 1.0
    W_G23_6 MINDN_G23_7 1.0
    W_G23_6 MINDN_G23_8 1.0
    W_G23_6 MINDN_G23_9 1.0
    W_G23_6 MINDN_G23_10 1.0
    M20191 'MARKER' 'INTEND'
    P_G23_6 OBJ 16.706243876936128
    P_G23_6 PMIN_G23_6 1.0
    P_G23_6 PMAX_G23_6 1.0
    P_G23_6 RUP_G23_6 1.0
    P_G23_6 RDN_G23_6 -1.0
    P_G23_6 RUP_G23_7 -1.0
    P_G23_6 RDN_G23_7 1.0
    P_G23_6 DEM_6 1.0
    M20200 'MARKER' 'INTORG'
    U_G23_7 OBJ 336.79493871447903
    U_G23_7 PMIN_G23_7 -25.19922962935711
    U_G23_7 PMAX_G23_7 -52.9680918622841
    U_G23_7 LOGIC_G23_7 1.0
    U_G23_7 MINUP_G23_7 -1.0
    U_G23_7 MINDN_G23_7 1.0
    U_G23_7 LOGIC_G23_8 -1.0
    U_G23_7 RES_7 52.9680918622841
    V_G23_7 OBJ 2894.1631505062905
    V_G23_7 LOGIC_G23_7 -1.0
    V_G23_7 MINUP_G23_7 1.0
    V_G23_7 MINUP_G23_8 1.0
    W_G23_7 LOGIC_G23_7 1.0
    W_G23_7 MINDN_G23_7 1.0
    W_G23_7 MINDN_G23_8 1.0
    W_G23_7 MINDN_G23_9 1.0
    W_G23_7 MINDN_G23_10 1.0
    W_G23_7 MINDN_G23_11 1.0
    M20219 'MARKER' 'INTEND'
    P_G23_7 OBJ 16.706243876936128
    P_G23_7 PMIN_G23_7 1.0
    P_G23_7 PMAX_G23_7 1.0
    P_G23_7 RUP_G23_7 1.0
    P_G23_7 RDN_G23_7 -1.0
    P_G23_7 RUP_G23_8 -1.0
    P_G23_7 RDN_G23_8 1.0
    P_G23_7 DEM_7 1.0
    M20228 'MARKER' 'INTORG'
    U_G23_8 OBJ 336.79493871447903
    U_G23_8 PMIN_G23_8 -25.19922962935711
    U_G23_8 PMAX_G23_8 -52.9680918622841
    U_G23_8 LOGIC_G23_8 1.0
    U_G23_8 MINUP_G23_8 -1.0
    U_G23_8 MINDN_G23_8 1.0
    U_G23_8 LOGIC_G23_9 -1.0
    U_G23_8 RES_8 52.9680918622841
    V_G23_8 OBJ 2894.1631505062905
    V_G23_8 LOGIC_G23_8 -1.0
    V_G23_8 MINUP_G23_8 1.0
    V_G23_8 MINUP_G23_9 1.0
    W_G23_8 LOGIC_G23_8 1.0
    W_G23_8 MINDN_G23_8 1.0
    W_G23_8 MINDN_G23_9 1.0
    W_G23_8 MINDN_G23_10 1.0
    W_G23_8 MINDN_G23_11 1.0
    W_G23_8 MINDN_G23_12 1.0
    M20247 'MARKER' 'INTEND'
    P_G23_8 OBJ 16.706243876936128
    P_G23_8 PMIN_G23_8 1.0
    P_G23_8 PMAX_G23_8 1.0
    P_G23_8 RUP_G23_8 1.0
    P_G23_8 RDN_G23_8 -1.0
    P_G23_8 RUP_G23_9 -1.0
    P_G23_8 RDN_G23_9 1.0
    P_G23_8 DEM_8 1.0
    M20256 'MARKER' 'INTORG'
    U_G23_9 OBJ 336.79493871447903
    U_G23_9 PMIN_G23_9 -25.19922962935711
    U_G23_9 PMAX_G23_9 -52.9680918622841
    U_G23_9 LOGIC_G23_9 1.0
    U_G23_9 MINUP_G23_9 -1.0
    U_G23_9 MINDN_G23_9 1.0
    U_G23_9 LOGIC_G23_10 -1.0
    U_G23_9 RES_9 52.9680918622841
    V_G23_9 OBJ 2894.1631505062905
    V_G23_9 LOGIC_G23_9 -1.0
    V_G23_9 MINUP_G23_9 1.0
    V_G23_9 MINUP_G23_10 1.0
    W_G23_9 LOGIC_G23_9 1.0
    W_G23_9 MINDN_G23_9 1.0
    W_G23_9 MINDN_G23_10 1.0
    W_G23_9 MINDN_G23_11 1.0
    W_G23_9 MINDN_G23_12 1.0
    W_G23_9 MINDN_G23_13 1.0
    M20275 'MARKER' 'INTEND'
    P_G23_9 OBJ 16.706243876936128
    P_G23_9 PMIN_G23_9 1.0
    P_G23_9 PMAX_G23_9 1.0
    P_G23_9 RUP_G23_9 1.0
    P_G23_9 RDN_G23_9 -1.0
    P_G23_9 RUP_G23_10 -1.0
    P_G23_9 RDN_G23_10 1.0
    P_G23_9 DEM_9 1.0
    M20284 'MARKER' 'INTORG'
    U_G23_10 OBJ 336.79493871447903
    U_G23_10 PMIN_G23_10 -25.19922962935711
    U_G23_10 PMAX_G23_10 -52.9680918622841
    U_G23_10 LOGIC_G23_10 1.0
    U_G23_10 MINUP_G23_10 -1.0
    U_G23_10 MINDN_G23_10 1.0
    U_G23_10 LOGIC_G23_11 -1.0
    U_G23_10 RES_10 52.9680918622841
    V_G23_10 OBJ 2894.1631505062905
    V_G23_10 LOGIC_G23_10 -1.0
    V_G23_10 MINUP_G23_10 1.0
    V_G23_10 MINUP_G23_11 1.0
    W_G23_10 LOGIC_G23_10 1.0
    W_G23_10 MINDN_G23_10 1.0
    W_G23_10 MINDN_G23_11 1.0
    W_G23_10 MINDN_G23_12 1.0
    W_G23_10 MINDN_G23_13 1.0
    W_G23_10 MINDN_G23_14 1.0
    M20303 'MARKER' 'INTEND'
    P_G23_10 OBJ 16.706243876936128
    P_G23_10 PMIN_G23_10 1.0
    P_G23_10 PMAX_G23_10 1.0
    P_G23_10 RUP_G23_10 1.0
    P_G23_10 RDN_G23_10 -1.0
    P_G23_10 RUP_G23_11 -1.0
    P_G23_10 RDN_G23_11 1.0
    P_G23_10 DEM_10 1.0
    M20312 'MARKER' 'INTORG'
    U_G23_11 OBJ 336.79493871447903
    U_G23_11 PMIN_G23_11 -25.19922962935711
    U_G23_11 PMAX_G23_11 -52.9680918622841
    U_G23_11 LOGIC_G23_11 1.0
    U_G23_11 MINUP_G23_11 -1.0
    U_G23_11 MINDN_G23_11 1.0
    U_G23_11 LOGIC_G23_12 -1.0
    U_G23_11 RES_11 52.9680918622841
    V_G23_11 OBJ 2894.1631505062905
    V_G23_11 LOGIC_G23_11 -1.0
    V_G23_11 MINUP_G23_11 1.0
    V_G23_11 MINUP_G23_12 1.0
    W_G23_11 LOGIC_G23_11 1.0
    W_G23_11 MINDN_G23_11 1.0
    W_G23_11 MINDN_G23_12 1.0
    W_G23_11 MINDN_G23_13 1.0
    W_G23_11 MINDN_G23_14 1.0
    W_G23_11 MINDN_G23_15 1.0
    M20331 'MARKER' 'INTEND'
    P_G23_11 OBJ 16.706243876936128
    P_G23_11 PMIN_G23_11 1.0
    P_G23_11 PMAX_G23_11 1.0
    P_G23_11 RUP_G23_11 1.0
    P_G23_11 RDN_G23_11 -1.0
    P_G23_11 RUP_G23_12 -1.0
    P_G23_11 RDN_G23_12 1.0
    P_G23_11 DEM_11 1.0
    M20340 'MARKER' 'INTORG'
    U_G23_12 OBJ 336.79493871447903
    U_G23_12 PMIN_G23_12 -25.19922962935711
    U_G23_12 PMAX_G23_12 -52.9680918622841
    U_G23_12 LOGIC_G23_12 1.0
    U_G23_12 MINUP_G23_12 -1.0
    U_G23_12 MINDN_G23_12 1.0
    U_G23_12 LOGIC_G23_13 -1.0
    U_G23_12 RES_12 52.9680918622841
    V_G23_12 OBJ 2894.1631505062905
    V_G23_12 LOGIC_G23_12 -1.0
    V_G23_12 MINUP_G23_12 1.0
    V_G23_12 MINUP_G23_13 1.0
    W_G23_12 LOGIC_G23_12 1.0
    W_G23_12 MINDN_G23_12 1.0
    W_G23_12 MINDN_G23_13 1.0
    W_G23_12 MINDN_G23_14 1.0
    W_G23_12 MINDN_G23_15 1.0
    W_G23_12 MINDN_G23_16 1.0
    M20359 'MARKER' 'INTEND'
    P_G23_12 OBJ 16.706243876936128
    P_G23_12 PMIN_G23_12 1.0
    P_G23_12 PMAX_G23_12 1.0
    P_G23_12 RUP_G23_12 1.0
    P_G23_12 RDN_G23_12 -1.0
    P_G23_12 RUP_G23_13 -1.0
    P_G23_12 RDN_G23_13 1.0
    P_G23_12 DEM_12 1.0
    M20368 'MARKER' 'INTORG'
    U_G23_13 OBJ 336.79493871447903
    U_G23_13 PMIN_G23_13 -25.19922962935711
    U_G23_13 PMAX_G23_13 -52.9680918622841
    U_G23_13 LOGIC_G23_13 1.0
    U_G23_13 MINUP_G23_13 -1.0
    U_G23_13 MINDN_G23_13 1.0
    U_G23_13 LOGIC_G23_14 -1.0
    U_G23_13 RES_13 52.9680918622841
    V_G23_13 OBJ 2894.1631505062905
    V_G23_13 LOGIC_G23_13 -1.0
    V_G23_13 MINUP_G23_13 1.0
    V_G23_13 MINUP_G23_14 1.0
    W_G23_13 LOGIC_G23_13 1.0
    W_G23_13 MINDN_G23_13 1.0
    W_G23_13 MINDN_G23_14 1.0
    W_G23_13 MINDN_G23_15 1.0
    W_G23_13 MINDN_G23_16 1.0
    W_G23_13 MINDN_G23_17 1.0
    M20387 'MARKER' 'INTEND'
    P_G23_13 OBJ 16.706243876936128
    P_G23_13 PMIN_G23_13 1.0
    P_G23_13 PMAX_G23_13 1.0
    P_G23_13 RUP_G23_13 1.0
    P_G23_13 RDN_G23_13 -1.0
    P_G23_13 RUP_G23_14 -1.0
    P_G23_13 RDN_G23_14 1.0
    P_G23_13 DEM_13 1.0
    M20396 'MARKER' 'INTORG'
    U_G23_14 OBJ 336.79493871447903
    U_G23_14 PMIN_G23_14 -25.19922962935711
    U_G23_14 PMAX_G23_14 -52.9680918622841
    U_G23_14 LOGIC_G23_14 1.0
    U_G23_14 MINUP_G23_14 -1.0
    U_G23_14 MINDN_G23_14 1.0
    U_G23_14 LOGIC_G23_15 -1.0
    U_G23_14 RES_14 52.9680918622841
    V_G23_14 OBJ 2894.1631505062905
    V_G23_14 LOGIC_G23_14 -1.0
    V_G23_14 MINUP_G23_14 1.0
    V_G23_14 MINUP_G23_15 1.0
    W_G23_14 LOGIC_G23_14 1.0
    W_G23_14 MINDN_G23_14 1.0
    W_G23_14 MINDN_G23_15 1.0
    W_G23_14 MINDN_G23_16 1.0
    W_G23_14 MINDN_G23_17 1.0
    W_G23_14 MINDN_G23_18 1.0
    M20415 'MARKER' 'INTEND'
    P_G23_14 OBJ 16.706243876936128
    P_G23_14 PMIN_G23_14 1.0
    P_G23_14 PMAX_G23_14 1.0
    P_G23_14 RUP_G23_14 1.0
    P_G23_14 RDN_G23_14 -1.0
    P_G23_14 RUP_G23_15 -1.0
    P_G23_14 RDN_G23_15 1.0
    P_G23_14 DEM_14 1.0
    M20424 'MARKER' 'INTORG'
    U_G23_15 OBJ 336.79493871447903
    U_G23_15 PMIN_G23_15 -25.19922962935711
    U_G23_15 PMAX_G23_15 -52.9680918622841
    U_G23_15 LOGIC_G23_15 1.0
    U_G23_15 MINUP_G23_15 -1.0
    U_G23_15 MINDN_G23_15 1.0
    U_G23_15 LOGIC_G23_16 -1.0
    U_G23_15 RES_15 52.9680918622841
    V_G23_15 OBJ 2894.1631505062905
    V_G23_15 LOGIC_G23_15 -1.0
    V_G23_15 MINUP_G23_15 1.0
    V_G23_15 MINUP_G23_16 1.0
    W_G23_15 LOGIC_G23_15 1.0
    W_G23_15 MINDN_G23_15 1.0
    W_G23_15 MINDN_G23_16 1.0
    W_G23_15 MINDN_G23_17 1.0
    W_G23_15 MINDN_G23_18 1.0
    W_G23_15 MINDN_G23_19 1.0
    M20443 'MARKER' 'INTEND'
    P_G23_15 OBJ 16.706243876936128
    P_G23_15 PMIN_G23_15 1.0
    P_G23_15 PMAX_G23_15 1.0
    P_G23_15 RUP_G23_15 1.0
    P_G23_15 RDN_G23_15 -1.0
    P_G23_15 RUP_G23_16 -1.0
    P_G23_15 RDN_G23_16 1.0
    P_G23_15 DEM_15 1.0
    M20452 'MARKER' 'INTORG'
    U_G23_16 OBJ 336.79493871447903
    U_G23_16 PMIN_G23_16 -25.19922962935711
    U_G23_16 PMAX_G23_16 -52.9680918622841
    U_G23_16 LOGIC_G23_16 1.0
    U_G23_16 MINUP_G23_16 -1.0
    U_G23_16 MINDN_G23_16 1.0
    U_G23_16 LOGIC_G23_17 -1.0
    U_G23_16 RES_16 52.9680918622841
    V_G23_16 OBJ 2894.1631505062905
    V_G23_16 LOGIC_G23_16 -1.0
    V_G23_16 MINUP_G23_16 1.0
    V_G23_16 MINUP_G23_17 1.0
    W_G23_16 LOGIC_G23_16 1.0
    W_G23_16 MINDN_G23_16 1.0
    W_G23_16 MINDN_G23_17 1.0
    W_G23_16 MINDN_G23_18 1.0
    W_G23_16 MINDN_G23_19 1.0
    W_G23_16 MINDN_G23_20 1.0
    M20471 'MARKER' 'INTEND'
    P_G23_16 OBJ 16.706243876936128
    P_G23_16 PMIN_G23_16 1.0
    P_G23_16 PMAX_G23_16 1.0
    P_G23_16 RUP_G23_16 1.0
    P_G23_16 RDN_G23_16 -1.0
    P_G23_16 RUP_G23_17 -1.0
    P_G23_16 RDN_G23_17 1.0
    P_G23_16 DEM_16 1.0
    M20480 'MARKER' 'INTORG'
    U_G23_17 OBJ 336.79493871447903
    U_G23_17 PMIN_G23_17 -25.19922962935711
    U_G23_17 PMAX_G23_17 -52.9680918622841
    U_G23_17 LOGIC_G23_17 1.0
    U_G23_17 MINUP_G23_17 -1.0
    U_G23_17 MINDN_G23_17 1.0
    U_G23_17 LOGIC_G23_18 -1.0
    U_G23_17 RES_17 52.9680918622841
    V_G23_17 OBJ 2894.1631505062905
    V_G23_17 LOGIC_G23_17 -1.0
    V_G23_17 MINUP_G23_17 1.0
    V_G23_17 MINUP_G23_18 1.0
    W_G23_17 LOGIC_G23_17 1.0
    W_G23_17 MINDN_G23_17 1.0
    W_G23_17 MINDN_G23_18 1.0
    W_G23_17 MINDN_G23_19 1.0
    W_G23_17 MINDN_G23_20 1.0
    W_G23_17 MINDN_G23_21 1.0
    M20499 'MARKER' 'INTEND'
    P_G23_17 OBJ 16.706243876936128
    P_G23_17 PMIN_G23_17 1.0
    P_G23_17 PMAX_G23_17 1.0
    P_G23_17 RUP_G23_17 1.0
    P_G23_17 RDN_G23_17 -1.0
    P_G23_17 RUP_G23_18 -1.0
    P_G23_17 RDN_G23_18 1.0
    P_G23_17 DEM_17 1.0
    M20508 'MARKER' 'INTORG'
    U_G23_18 OBJ 336.79493871447903
    U_G23_18 PMIN_G23_18 -25.19922962935711
    U_G23_18 PMAX_G23_18 -52.9680918622841
    U_G23_18 LOGIC_G23_18 1.0
    U_G23_18 MINUP_G23_18 -1.0
    U_G23_18 MINDN_G23_18 1.0
    U_G23_18 LOGIC_G23_19 -1.0
    U_G23_18 RES_18 52.9680918622841
    V_G23_18 OBJ 2894.1631505062905
    V_G23_18 LOGIC_G23_18 -1.0
    V_G23_18 MINUP_G23_18 1.0
    V_G23_18 MINUP_G23_19 1.0
    W_G23_18 LOGIC_G23_18 1.0
    W_G23_18 MINDN_G23_18 1.0
    W_G23_18 MINDN_G23_19 1.0
    W_G23_18 MINDN_G23_20 1.0
    W_G23_18 MINDN_G23_21 1.0
    W_G23_18 MINDN_G23_22 1.0
    M20527 'MARKER' 'INTEND'
    P_G23_18 OBJ 16.706243876936128
    P_G23_18 PMIN_G23_18 1.0
    P_G23_18 PMAX_G23_18 1.0
    P_G23_18 RUP_G23_18 1.0
    P_G23_18 RDN_G23_18 -1.0
    P_G23_18 RUP_G23_19 -1.0
    P_G23_18 RDN_G23_19 1.0
    P_G23_18 DEM_18 1.0
    M20536 'MARKER' 'INTORG'
    U_G23_19 OBJ 336.79493871447903
    U_G23_19 PMIN_G23_19 -25.19922962935711
    U_G23_19 PMAX_G23_19 -52.9680918622841
    U_G23_19 LOGIC_G23_19 1.0
    U_G23_19 MINUP_G23_19 -1.0
    U_G23_19 MINDN_G23_19 1.0
    U_G23_19 LOGIC_G23_20 -1.0
    U_G23_19 RES_19 52.9680918622841
    V_G23_19 OBJ 2894.1631505062905
    V_G23_19 LOGIC_G23_19 -1.0
    V_G23_19 MINUP_G23_19 1.0
    V_G23_19 MINUP_G23_20 1.0
    W_G23_19 LOGIC_G23_19 1.0
    W_G23_19 MINDN_G23_19 1.0
    W_G23_19 MINDN_G23_20 1.0
    W_G23_19 MINDN_G23_21 1.0
    W_G23_19 MINDN_G23_22 1.0
    W_G23_19 MINDN_G23_23 1.0
    M20555 'MARKER' 'INTEND'
    P_G23_19 OBJ 16.706243876936128
    P_G23_19 PMIN_G23_19 1.0
    P_G23_19 PMAX_G23_19 1.0
    P_G23_19 RUP_G23_19 1.0
    P_G23_19 RDN_G23_19 -1.0
    P_G23_19 RUP_G23_20 -1.0
    P_G23_19 RDN_G23_20 1.0
    P_G23_19 DEM_19 1.0
    M20564 'MARKER' 'INTORG'
    U_G23_20 OBJ 336.79493871447903
    U_G23_20 PMIN_G23_20 -25.19922962935711
    U_G23_20 PMAX_G23_20 -52.9680918622841
    U_G23_20 LOGIC_G23_20 1.0
    U_G23_20 MINUP_G23_20 -1.0
    U_G23_20 MINDN_G23_20 1.0
    U_G23_20 LOGIC_G23_21 -1.0
    U_G23_20 RES_20 52.9680918622841
    V_G23_20 OBJ 2894.1631505062905
    V_G23_20 LOGIC_G23_20 -1.0
    V_G23_20 MINUP_G23_20 1.0
    V_G23_20 MINUP_G23_21 1.0
    W_G23_20 LOGIC_G23_20 1.0
    W_G23_20 MINDN_G23_20 1.0
    W_G23_20 MINDN_G23_21 1.0
    W_G23_20 MINDN_G23_22 1.0
    W_G23_20 MINDN_G23_23 1.0
    M20582 'MARKER' 'INTEND'
    P_G23_20 OBJ 16.706243876936128
    P_G23_20 PMIN_G23_20 1.0
    P_G23_20 PMAX_G23_20 1.0
    P_G23_20 RUP_G23_20 1.0
    P_G23_20 RDN_G23_20 -1.0
    P_G23_20 RUP_G23_21 -1.0
    P_G23_20 RDN_G23_21 1.0
    P_G23_20 DEM_20 1.0
    M20591 'MARKER' 'INTORG'
    U_G23_21 OBJ 336.79493871447903
    U_G23_21 PMIN_G23_21 -25.19922962935711
    U_G23_21 PMAX_G23_21 -52.9680918622841
    U_G23_21 LOGIC_G23_21 1.0
    U_G23_21 MINUP_G23_21 -1.0
    U_G23_21 MINDN_G23_21 1.0
    U_G23_21 LOGIC_G23_22 -1.0
    U_G23_21 RES_21 52.9680918622841
    V_G23_21 OBJ 2894.1631505062905
    V_G23_21 LOGIC_G23_21 -1.0
    V_G23_21 MINUP_G23_21 1.0
    V_G23_21 MINUP_G23_22 1.0
    W_G23_21 LOGIC_G23_21 1.0
    W_G23_21 MINDN_G23_21 1.0
    W_G23_21 MINDN_G23_22 1.0
    W_G23_21 MINDN_G23_23 1.0
    M20608 'MARKER' 'INTEND'
    P_G23_21 OBJ 16.706243876936128
    P_G23_21 PMIN_G23_21 1.0
    P_G23_21 PMAX_G23_21 1.0
    P_G23_21 RUP_G23_21 1.0
    P_G23_21 RDN_G23_21 -1.0
    P_G23_21 RUP_G23_22 -1.0
    P_G23_21 RDN_G23_22 1.0
    P_G23_21 DEM_21 1.0
    M20617 'MARKER' 'INTORG'
    U_G23_22 OBJ 336.79493871447903
    U_G23_22 PMIN_G23_22 -25.19922962935711
    U_G23_22 PMAX_G23_22 -52.9680918622841
    U_G23_22 LOGIC_G23_22 1.0
    U_G23_22 MINUP_G23_22 -1.0
    U_G23_22 MINDN_G23_22 1.0
    U_G23_22 LOGIC_G23_23 -1.0
    U_G23_22 RES_22 52.9680918622841
    V_G23_22 OBJ 2894.1631505062905
    V_G23_22 LOGIC_G23_22 -1.0
    V_G23_22 MINUP_G23_22 1.0
    V_G23_22 MINUP_G23_23 1.0
    W_G23_22 LOGIC_G23_22 1.0
    W_G23_22 MINDN_G23_22 1.0
    W_G23_22 MINDN_G23_23 1.0
    M20633 'MARKER' 'INTEND'
    P_G23_22 OBJ 16.706243876936128
    P_G23_22 PMIN_G23_22 1.0
    P_G23_22 PMAX_G23_22 1.0
    P_G23_22 RUP_G23_22 1.0
    P_G23_22 RDN_G23_22 -1.0
    P_G23_22 RUP_G23_23 -1.0
    P_G23_22 RDN_G23_23 1.0
    P_G23_22 DEM_22 1.0
    M20642 'MARKER' 'INTORG'
    U_G23_23 OBJ 336.79493871447903
    U_G23_23 PMIN_G23_23 -25.19922962935711
    U_G23_23 PMAX_G23_23 -52.9680918622841
    U_G23_23 LOGIC_G23_23 1.0
    U_G23_23 MINUP_G23_23 -1.0
    U_G23_23 MINDN_G23_23 1.0
    U_G23_23 RES_23 52.9680918622841
    V_G23_23 OBJ 2894.1631505062905
    V_G23_23 LOGIC_G23_23 -1.0
    V_G23_23 MINUP_G23_23 1.0
    W_G23_23 LOGIC_G23_23 1.0
    W_G23_23 MINDN_G23_23 1.0
    M20655 'MARKER' 'INTEND'
    P_G23_23 OBJ 16.706243876936128
    P_G23_23 PMIN_G23_23 1.0
    P_G23_23 PMAX_G23_23 1.0
    P_G23_23 RUP_G23_23 1.0
    P_G23_23 RDN_G23_23 -1.0
    P_G23_23 DEM_23 1.0
    M20662 'MARKER' 'INTORG'
    U_G24_0 OBJ 122.01661505314664
    U_G24_0 PMIN_G24_0 -85.67512084593335
    U_G24_0 PMAX_G24_0 -228.10581112726166
    U_G24_0 LOGIC_G24_0 1.0
    U_G24_0 MINUP_G24_0 -1.0
    U_G24_0 MINDN_G24_0 1.0
    U_G24_0 LOGIC_G24_1 -1.0
    U_G24_0 RES_0 228.10581112726166
    V_G24_0 OBJ 2087.6284398912194
    V_G24_0 LOGIC_G24_0 -1.0
    V_G24_0 MINUP_G24_0 1.0
    V_G24_0 MINUP_G24_1 1.0
    W_G24_0 LOGIC_G24_0 1.0
    W_G24_0 MINDN_G24_0 1.0
    W_G24_0 MINDN_G24_1 1.0
    W_G24_0 MINDN_G24_2 1.0
    W_G24_0 MINDN_G24_3 1.0
    M20680 'MARKER' 'INTEND'
    P_G24_0 OBJ 30.611889805317976
    P_G24_0 PMIN_G24_0 1.0
    P_G24_0 PMAX_G24_0 1.0
    P_G24_0 RUP_G24_1 -1.0
    P_G24_0 RDN_G24_1 1.0
    P_G24_0 DEM_0 1.0
    M20687 'MARKER' 'INTORG'
    U_G24_1 OBJ 122.01661505314664
    U_G24_1 PMIN_G24_1 -85.67512084593335
    U_G24_1 PMAX_G24_1 -228.10581112726166
    U_G24_1 LOGIC_G24_1 1.0
    U_G24_1 MINUP_G24_1 -1.0
    U_G24_1 MINDN_G24_1 1.0
    U_G24_1 LOGIC_G24_2 -1.0
    U_G24_1 RES_1 228.10581112726166
    V_G24_1 OBJ 2087.6284398912194
    V_G24_1 LOGIC_G24_1 -1.0
    V_G24_1 MINUP_G24_1 1.0
    V_G24_1 MINUP_G24_2 1.0
    W_G24_1 LOGIC_G24_1 1.0
    W_G24_1 MINDN_G24_1 1.0
    W_G24_1 MINDN_G24_2 1.0
    W_G24_1 MINDN_G24_3 1.0
    W_G24_1 MINDN_G24_4 1.0
    M20705 'MARKER' 'INTEND'
    P_G24_1 OBJ 30.611889805317976
    P_G24_1 PMIN_G24_1 1.0
    P_G24_1 PMAX_G24_1 1.0
    P_G24_1 RUP_G24_1 1.0
    P_G24_1 RDN_G24_1 -1.0
    P_G24_1 RUP_G24_2 -1.0
    P_G24_1 RDN_G24_2 1.0
    P_G24_1 DEM_1 1.0
    M20714 'MARKER' 'INTORG'
    U_G24_2 OBJ 122.01661505314664
    U_G24_2 PMIN_G24_2 -85.67512084593335
    U_G24_2 PMAX_G24_2 -228.10581112726166
    U_G24_2 LOGIC_G24_2 1.0
    U_G24_2 MINUP_G24_2 -1.0
    U_G24_2 MINDN_G24_2 1.0
    U_G24_2 LOGIC_G24_3 -1.0
    U_G24_2 RES_2 228.10581112726166
    V_G24_2 OBJ 2087.6284398912194
    V_G24_2 LOGIC_G24_2 -1.0
    V_G24_2 MINUP_G24_2 1.0
    V_G24_2 MINUP_G24_3 1.0
    W_G24_2 LOGIC_G24_2 1.0
    W_G24_2 MINDN_G24_2 1.0
    W_G24_2 MINDN_G24_3 1.0
    W_G24_2 MINDN_G24_4 1.0
    W_G24_2 MINDN_G24_5 1.0
    M20732 'MARKER' 'INTEND'
    P_G24_2 OBJ 30.611889805317976
    P_G24_2 PMIN_G24_2 1.0
    P_G24_2 PMAX_G24_2 1.0
    P_G24_2 RUP_G24_2 1.0
    P_G24_2 RDN_G24_2 -1.0
    P_G24_2 RUP_G24_3 -1.0
    P_G24_2 RDN_G24_3 1.0
    P_G24_2 DEM_2 1.0
    M20741 'MARKER' 'INTORG'
    U_G24_3 OBJ 122.01661505314664
    U_G24_3 PMIN_G24_3 -85.67512084593335
    U_G24_3 PMAX_G24_3 -228.10581112726166
    U_G24_3 LOGIC_G24_3 1.0
    U_G24_3 MINUP_G24_3 -1.0
    U_G24_3 MINDN_G24_3 1.0
    U_G24_3 LOGIC_G24_4 -1.0
    U_G24_3 RES_3 228.10581112726166
    V_G24_3 OBJ 2087.6284398912194
    V_G24_3 LOGIC_G24_3 -1.0
    V_G24_3 MINUP_G24_3 1.0
    V_G24_3 MINUP_G24_4 1.0
    W_G24_3 LOGIC_G24_3 1.0
    W_G24_3 MINDN_G24_3 1.0
    W_G24_3 MINDN_G24_4 1.0
    W_G24_3 MINDN_G24_5 1.0
    W_G24_3 MINDN_G24_6 1.0
    M20759 'MARKER' 'INTEND'
    P_G24_3 OBJ 30.611889805317976
    P_G24_3 PMIN_G24_3 1.0
    P_G24_3 PMAX_G24_3 1.0
    P_G24_3 RUP_G24_3 1.0
    P_G24_3 RDN_G24_3 -1.0
    P_G24_3 RUP_G24_4 -1.0
    P_G24_3 RDN_G24_4 1.0
    P_G24_3 DEM_3 1.0
    M20768 'MARKER' 'INTORG'
    U_G24_4 OBJ 122.01661505314664
    U_G24_4 PMIN_G24_4 -85.67512084593335
    U_G24_4 PMAX_G24_4 -228.10581112726166
    U_G24_4 LOGIC_G24_4 1.0
    U_G24_4 MINUP_G24_4 -1.0
    U_G24_4 MINDN_G24_4 1.0
    U_G24_4 LOGIC_G24_5 -1.0
    U_G24_4 RES_4 228.10581112726166
    V_G24_4 OBJ 2087.6284398912194
    V_G24_4 LOGIC_G24_4 -1.0
    V_G24_4 MINUP_G24_4 1.0
    V_G24_4 MINUP_G24_5 1.0
    W_G24_4 LOGIC_G24_4 1.0
    W_G24_4 MINDN_G24_4 1.0
    W_G24_4 MINDN_G24_5 1.0
    W_G24_4 MINDN_G24_6 1.0
    W_G24_4 MINDN_G24_7 1.0
    M20786 'MARKER' 'INTEND'
    P_G24_4 OBJ 30.611889805317976
    P_G24_4 PMIN_G24_4 1.0
    P_G24_4 PMAX_G24_4 1.0
    P_G24_4 RUP_G24_4 1.0
    P_G24_4 RDN_G24_4 -1.0
    P_G24_4 RUP_G24_5 -1.0
    P_G24_4 RDN_G24_5 1.0
    P_G24_4 DEM_4 1.0
    M20795 'MARKER' 'INTORG'
    U_G24_5 OBJ 122.01661505314664
    U_G24_5 PMIN_G24_5 -85.67512084593335
    U_G24_5 PMAX_G24_5 -228.10581112726166
    U_G24_5 LOGIC_G24_5 1.0
    U_G24_5 MINUP_G24_5 -1.0
    U_G24_5 MINDN_G24_5 1.0
    U_G24_5 LOGIC_G24_6 -1.0
    U_G24_5 RES_5 228.10581112726166
    V_G24_5 OBJ 2087.6284398912194
    V_G24_5 LOGIC_G24_5 -1.0
    V_G24_5 MINUP_G24_5 1.0
    V_G24_5 MINUP_G24_6 1.0
    W_G24_5 LOGIC_G24_5 1.0
    W_G24_5 MINDN_G24_5 1.0
    W_G24_5 MINDN_G24_6 1.0
    W_G24_5 MINDN_G24_7 1.0
    W_G24_5 MINDN_G24_8 1.0
    M20813 'MARKER' 'INTEND'
    P_G24_5 OBJ 30.611889805317976
    P_G24_5 PMIN_G24_5 1.0
    P_G24_5 PMAX_G24_5 1.0
    P_G24_5 RUP_G24_5 1.0
    P_G24_5 RDN_G24_5 -1.0
    P_G24_5 RUP_G24_6 -1.0
    P_G24_5 RDN_G24_6 1.0
    P_G24_5 DEM_5 1.0
    M20822 'MARKER' 'INTORG'
    U_G24_6 OBJ 122.01661505314664
    U_G24_6 PMIN_G24_6 -85.67512084593335
    U_G24_6 PMAX_G24_6 -228.10581112726166
    U_G24_6 LOGIC_G24_6 1.0
    U_G24_6 MINUP_G24_6 -1.0
    U_G24_6 MINDN_G24_6 1.0
    U_G24_6 LOGIC_G24_7 -1.0
    U_G24_6 RES_6 228.10581112726166
    V_G24_6 OBJ 2087.6284398912194
    V_G24_6 LOGIC_G24_6 -1.0
    V_G24_6 MINUP_G24_6 1.0
    V_G24_6 MINUP_G24_7 1.0
    W_G24_6 LOGIC_G24_6 1.0
    W_G24_6 MINDN_G24_6 1.0
    W_G24_6 MINDN_G24_7 1.0
    W_G24_6 MINDN_G24_8 1.0
    W_G24_6 MINDN_G24_9 1.0
    M20840 'MARKER' 'INTEND'
    P_G24_6 OBJ 30.611889805317976
    P_G24_6 PMIN_G24_6 1.0
    P_G24_6 PMAX_G24_6 1.0
    P_G24_6 RUP_G24_6 1.0
    P_G24_6 RDN_G24_6 -1.0
    P_G24_6 RUP_G24_7 -1.0
    P_G24_6 RDN_G24_7 1.0
    P_G24_6 DEM_6 1.0
    M20849 'MARKER' 'INTORG'
    U_G24_7 OBJ 122.01661505314664
    U_G24_7 PMIN_G24_7 -85.67512084593335
    U_G24_7 PMAX_G24_7 -228.10581112726166
    U_G24_7 LOGIC_G24_7 1.0
    U_G24_7 MINUP_G24_7 -1.0
    U_G24_7 MINDN_G24_7 1.0
    U_G24_7 LOGIC_G24_8 -1.0
    U_G24_7 RES_7 228.10581112726166
    V_G24_7 OBJ 2087.6284398912194
    V_G24_7 LOGIC_G24_7 -1.0
    V_G24_7 MINUP_G24_7 1.0
    V_G24_7 MINUP_G24_8 1.0
    W_G24_7 LOGIC_G24_7 1.0
    W_G24_7 MINDN_G24_7 1.0
    W_G24_7 MINDN_G24_8 1.0
    W_G24_7 MINDN_G24_9 1.0
    W_G24_7 MINDN_G24_10 1.0
    M20867 'MARKER' 'INTEND'
    P_G24_7 OBJ 30.611889805317976
    P_G24_7 PMIN_G24_7 1.0
    P_G24_7 PMAX_G24_7 1.0
    P_G24_7 RUP_G24_7 1.0
    P_G24_7 RDN_G24_7 -1.0
    P_G24_7 RUP_G24_8 -1.0
    P_G24_7 RDN_G24_8 1.0
    P_G24_7 DEM_7 1.0
    M20876 'MARKER' 'INTORG'
    U_G24_8 OBJ 122.01661505314664
    U_G24_8 PMIN_G24_8 -85.67512084593335
    U_G24_8 PMAX_G24_8 -228.10581112726166
    U_G24_8 LOGIC_G24_8 1.0
    U_G24_8 MINUP_G24_8 -1.0
    U_G24_8 MINDN_G24_8 1.0
    U_G24_8 LOGIC_G24_9 -1.0
    U_G24_8 RES_8 228.10581112726166
    V_G24_8 OBJ 2087.6284398912194
    V_G24_8 LOGIC_G24_8 -1.0
    V_G24_8 MINUP_G24_8 1.0
    V_G24_8 MINUP_G24_9 1.0
    W_G24_8 LOGIC_G24_8 1.0
    W_G24_8 MINDN_G24_8 1.0
    W_G24_8 MINDN_G24_9 1.0
    W_G24_8 MINDN_G24_10 1.0
    W_G24_8 MINDN_G24_11 1.0
    M20894 'MARKER' 'INTEND'
    P_G24_8 OBJ 30.611889805317976
    P_G24_8 PMIN_G24_8 1.0
    P_G24_8 PMAX_G24_8 1.0
    P_G24_8 RUP_G24_8 1.0
    P_G24_8 RDN_G24_8 -1.0
    P_G24_8 RUP_G24_9 -1.0
    P_G24_8 RDN_G24_9 1.0
    P_G24_8 DEM_8 1.0
    M20903 'MARKER' 'INTORG'
    U_G24_9 OBJ 122.01661505314664
    U_G24_9 PMIN_G24_9 -85.67512084593335
    U_G24_9 PMAX_G24_9 -228.10581112726166
    U_G24_9 LOGIC_G24_9 1.0
    U_G24_9 MINUP_G24_9 -1.0
    U_G24_9 MINDN_G24_9 1.0
    U_G24_9 LOGIC_G24_10 -1.0
    U_G24_9 RES_9 228.10581112726166
    V_G24_9 OBJ 2087.6284398912194
    V_G24_9 LOGIC_G24_9 -1.0
    V_G24_9 MINUP_G24_9 1.0
    V_G24_9 MINUP_G24_10 1.0
    W_G24_9 LOGIC_G24_9 1.0
    W_G24_9 MINDN_G24_9 1.0
    W_G24_9 MINDN_G24_10 1.0
    W_G24_9 MINDN_G24_11 1.0
    W_G24_9 MINDN_G24_12 1.0
    M20921 'MARKER' 'INTEND'
    P_G24_9 OBJ 30.611889805317976
    P_G24_9 PMIN_G24_9 1.0
    P_G24_9 PMAX_G24_9 1.0
    P_G24_9 RUP_G24_9 1.0
    P_G24_9 RDN_G24_9 -1.0
    P_G24_9 RUP_G24_10 -1.0
    P_G24_9 RDN_G24_10 1.0
    P_G24_9 DEM_9 1.0
    M20930 'MARKER' 'INTORG'
    U_G24_10 OBJ 122.01661505314664
    U_G24_10 PMIN_G24_10 -85.67512084593335
    U_G24_10 PMAX_G24_10 -228.10581112726166
    U_G24_10 LOGIC_G24_10 1.0
    U_G24_10 MINUP_G24_10 -1.0
    U_G24_10 MINDN_G24_10 1.0
    U_G24_10 LOGIC_G24_11 -1.0
    U_G24_10 RES_10 228.10581112726166
    V_G24_10 OBJ 2087.6284398912194
    V_G24_10 LOGIC_G24_10 -1.0
    V_G24_10 MINUP_G24_10 1.0
    V_G24_10 MINUP_G24_11 1.0
    W_G24_10 LOGIC_G24_10 1.0
    W_G24_10 MINDN_G24_10 1.0
    W_G24_10 MINDN_G24_11 1.0
    W_G24_10 MINDN_G24_12 1.0
    W_G24_10 MINDN_G24_13 1.0
    M20948 'MARKER' 'INTEND'
    P_G24_10 OBJ 30.611889805317976
    P_G24_10 PMIN_G24_10 1.0
    P_G24_10 PMAX_G24_10 1.0
    P_G24_10 RUP_G24_10 1.0
    P_G24_10 RDN_G24_10 -1.0
    P_G24_10 RUP_G24_11 -1.0
    P_G24_10 RDN_G24_11 1.0
    P_G24_10 DEM_10 1.0
    M20957 'MARKER' 'INTORG'
    U_G24_11 OBJ 122.01661505314664
    U_G24_11 PMIN_G24_11 -85.67512084593335
    U_G24_11 PMAX_G24_11 -228.10581112726166
    U_G24_11 LOGIC_G24_11 1.0
    U_G24_11 MINUP_G24_11 -1.0
    U_G24_11 MINDN_G24_11 1.0
    U_G24_11 LOGIC_G24_12 -1.0
    U_G24_11 RES_11 228.10581112726166
    V_G24_11 OBJ 2087.6284398912194
    V_G24_11 LOGIC_G24_11 -1.0
    V_G24_11 MINUP_G24_11 1.0
    V_G24_11 MINUP_G24_12 1.0
    W_G24_11 LOGIC_G24_11 1.0
    W_G24_11 MINDN_G24_11 1.0
    W_G24_11 MINDN_G24_12 1.0
    W_G24_11 MINDN_G24_13 1.0
    W_G24_11 MINDN_G24_14 1.0
    M20975 'MARKER' 'INTEND'
    P_G24_11 OBJ 30.611889805317976
    P_G24_11 PMIN_G24_11 1.0
    P_G24_11 PMAX_G24_11 1.0
    P_G24_11 RUP_G24_11 1.0
    P_G24_11 RDN_G24_11 -1.0
    P_G24_11 RUP_G24_12 -1.0
    P_G24_11 RDN_G24_12 1.0
    P_G24_11 DEM_11 1.0
    M20984 'MARKER' 'INTORG'
    U_G24_12 OBJ 122.01661505314664
    U_G24_12 PMIN_G24_12 -85.67512084593335
    U_G24_12 PMAX_G24_12 -228.10581112726166
    U_G24_12 LOGIC_G24_12 1.0
    U_G24_12 MINUP_G24_12 -1.0
    U_G24_12 MINDN_G24_12 1.0
    U_G24_12 LOGIC_G24_13 -1.0
    U_G24_12 RES_12 228.10581112726166
    V_G24_12 OBJ 2087.6284398912194
    V_G24_12 LOGIC_G24_12 -1.0
    V_G24_12 MINUP_G24_12 1.0
    V_G24_12 MINUP_G24_13 1.0
    W_G24_12 LOGIC_G24_12 1.0
    W_G24_12 MINDN_G24_12 1.0
    W_G24_12 MINDN_G24_13 1.0
    W_G24_12 MINDN_G24_14 1.0
    W_G24_12 MINDN_G24_15 1.0
    M21002 'MARKER' 'INTEND'
    P_G24_12 OBJ 30.611889805317976
    P_G24_12 PMIN_G24_12 1.0
    P_G24_12 PMAX_G24_12 1.0
    P_G24_12 RUP_G24_12 1.0
    P_G24_12 RDN_G24_12 -1.0
    P_G24_12 RUP_G24_13 -1.0
    P_G24_12 RDN_G24_13 1.0
    P_G24_12 DEM_12 1.0
    M21011 'MARKER' 'INTORG'
    U_G24_13 OBJ 122.01661505314664
    U_G24_13 PMIN_G24_13 -85.67512084593335
    U_G24_13 PMAX_G24_13 -228.10581112726166
    U_G24_13 LOGIC_G24_13 1.0
    U_G24_13 MINUP_G24_13 -1.0
    U_G24_13 MINDN_G24_13 1.0
    U_G24_13 LOGIC_G24_14 -1.0
    U_G24_13 RES_13 228.10581112726166
    V_G24_13 OBJ 2087.6284398912194
    V_G24_13 LOGIC_G24_13 -1.0
    V_G24_13 MINUP_G24_13 1.0
    V_G24_13 MINUP_G24_14 1.0
    W_G24_13 LOGIC_G24_13 1.0
    W_G24_13 MINDN_G24_13 1.0
    W_G24_13 MINDN_G24_14 1.0
    W_G24_13 MINDN_G24_15 1.0
    W_G24_13 MINDN_G24_16 1.0
    M21029 'MARKER' 'INTEND'
    P_G24_13 OBJ 30.611889805317976
    P_G24_13 PMIN_G24_13 1.0
    P_G24_13 PMAX_G24_13 1.0
    P_G24_13 RUP_G24_13 1.0
    P_G24_13 RDN_G24_13 -1.0
    P_G24_13 RUP_G24_14 -1.0
    P_G24_13 RDN_G24_14 1.0
    P_G24_13 DEM_13 1.0
    M21038 'MARKER' 'INTORG'
    U_G24_14 OBJ 122.01661505314664
    U_G24_14 PMIN_G24_14 -85.67512084593335
    U_G24_14 PMAX_G24_14 -228.10581112726166
    U_G24_14 LOGIC_G24_14 1.0
    U_G24_14 MINUP_G24_14 -1.0
    U_G24_14 MINDN_G24_14 1.0
    U_G24_14 LOGIC_G24_15 -1.0
    U_G24_14 RES_14 228.10581112726166
    V_G24_14 OBJ 2087.6284398912194
    V_G24_14 LOGIC_G24_14 -1.0
    V_G24_14 MINUP_G24_14 1.0
    V_G24_14 MINUP_G24_15 1.0
    W_G24_14 LOGIC_G24_14 1.0
    W_G24_14 MINDN_G24_14 1.0
    W_G24_14 MINDN_G24_15 1.0
    W_G24_14 MINDN_G24_16 1.0
    W_G24_14 MINDN_G24_17 1.0
    M21056 'MARKER' 'INTEND'
    P_G24_14 OBJ 30.611889805317976
    P_G24_14 PMIN_G24_14 1.0
    P_G24_14 PMAX_G24_14 1.0
    P_G24_14 RUP_G24_14 1.0
    P_G24_14 RDN_G24_14 -1.0
    P_G24_14 RUP_G24_15 -1.0
    P_G24_14 RDN_G24_15 1.0
    P_G24_14 DEM_14 1.0
    M21065 'MARKER' 'INTORG'
    U_G24_15 OBJ 122.01661505314664
    U_G24_15 PMIN_G24_15 -85.67512084593335
    U_G24_15 PMAX_G24_15 -228.10581112726166
    U_G24_15 LOGIC_G24_15 1.0
    U_G24_15 MINUP_G24_15 -1.0
    U_G24_15 MINDN_G24_15 1.0
    U_G24_15 LOGIC_G24_16 -1.0
    U_G24_15 RES_15 228.10581112726166
    V_G24_15 OBJ 2087.6284398912194
    V_G24_15 LOGIC_G24_15 -1.0
    V_G24_15 MINUP_G24_15 1.0
    V_G24_15 MINUP_G24_16 1.0
    W_G24_15 LOGIC_G24_15 1.0
    W_G24_15 MINDN_G24_15 1.0
    W_G24_15 MINDN_G24_16 1.0
    W_G24_15 MINDN_G24_17 1.0
    W_G24_15 MINDN_G24_18 1.0
    M21083 'MARKER' 'INTEND'
    P_G24_15 OBJ 30.611889805317976
    P_G24_15 PMIN_G24_15 1.0
    P_G24_15 PMAX_G24_15 1.0
    P_G24_15 RUP_G24_15 1.0
    P_G24_15 RDN_G24_15 -1.0
    P_G24_15 RUP_G24_16 -1.0
    P_G24_15 RDN_G24_16 1.0
    P_G24_15 DEM_15 1.0
    M21092 'MARKER' 'INTORG'
    U_G24_16 OBJ 122.01661505314664
    U_G24_16 PMIN_G24_16 -85.67512084593335
    U_G24_16 PMAX_G24_16 -228.10581112726166
    U_G24_16 LOGIC_G24_16 1.0
    U_G24_16 MINUP_G24_16 -1.0
    U_G24_16 MINDN_G24_16 1.0
    U_G24_16 LOGIC_G24_17 -1.0
    U_G24_16 RES_16 228.10581112726166
    V_G24_16 OBJ 2087.6284398912194
    V_G24_16 LOGIC_G24_16 -1.0
    V_G24_16 MINUP_G24_16 1.0
    V_G24_16 MINUP_G24_17 1.0
    W_G24_16 LOGIC_G24_16 1.0
    W_G24_16 MINDN_G24_16 1.0
    W_G24_16 MINDN_G24_17 1.0
    W_G24_16 MINDN_G24_18 1.0
    W_G24_16 MINDN_G24_19 1.0
    M21110 'MARKER' 'INTEND'
    P_G24_16 OBJ 30.611889805317976
    P_G24_16 PMIN_G24_16 1.0
    P_G24_16 PMAX_G24_16 1.0
    P_G24_16 RUP_G24_16 1.0
    P_G24_16 RDN_G24_16 -1.0
    P_G24_16 RUP_G24_17 -1.0
    P_G24_16 RDN_G24_17 1.0
    P_G24_16 DEM_16 1.0
    M21119 'MARKER' 'INTORG'
    U_G24_17 OBJ 122.01661505314664
    U_G24_17 PMIN_G24_17 -85.67512084593335
    U_G24_17 PMAX_G24_17 -228.10581112726166
    U_G24_17 LOGIC_G24_17 1.0
    U_G24_17 MINUP_G24_17 -1.0
    U_G24_17 MINDN_G24_17 1.0
    U_G24_17 LOGIC_G24_18 -1.0
    U_G24_17 RES_17 228.10581112726166
    V_G24_17 OBJ 2087.6284398912194
    V_G24_17 LOGIC_G24_17 -1.0
    V_G24_17 MINUP_G24_17 1.0
    V_G24_17 MINUP_G24_18 1.0
    W_G24_17 LOGIC_G24_17 1.0
    W_G24_17 MINDN_G24_17 1.0
    W_G24_17 MINDN_G24_18 1.0
    W_G24_17 MINDN_G24_19 1.0
    W_G24_17 MINDN_G24_20 1.0
    M21137 'MARKER' 'INTEND'
    P_G24_17 OBJ 30.611889805317976
    P_G24_17 PMIN_G24_17 1.0
    P_G24_17 PMAX_G24_17 1.0
    P_G24_17 RUP_G24_17 1.0
    P_G24_17 RDN_G24_17 -1.0
    P_G24_17 RUP_G24_18 -1.0
    P_G24_17 RDN_G24_18 1.0
    P_G24_17 DEM_17 1.0
    M21146 'MARKER' 'INTORG'
    U_G24_18 OBJ 122.01661505314664
    U_G24_18 PMIN_G24_18 -85.67512084593335
    U_G24_18 PMAX_G24_18 -228.10581112726166
    U_G24_18 LOGIC_G24_18 1.0
    U_G24_18 MINUP_G24_18 -1.0
    U_G24_18 MINDN_G24_18 1.0
    U_G24_18 LOGIC_G24_19 -1.0
    U_G24_18 RES_18 228.10581112726166
    V_G24_18 OBJ 2087.6284398912194
    V_G24_18 LOGIC_G24_18 -1.0
    V_G24_18 MINUP_G24_18 1.0
    V_G24_18 MINUP_G24_19 1.0
    W_G24_18 LOGIC_G24_18 1.0
    W_G24_18 MINDN_G24_18 1.0
    W_G24_18 MINDN_G24_19 1.0
    W_G24_18 MINDN_G24_20 1.0
    W_G24_18 MINDN_G24_21 1.0
    M21164 'MARKER' 'INTEND'
    P_G24_18 OBJ 30.611889805317976
    P_G24_18 PMIN_G24_18 1.0
    P_G24_18 PMAX_G24_18 1.0
    P_G24_18 RUP_G24_18 1.0
    P_G24_18 RDN_G24_18 -1.0
    P_G24_18 RUP_G24_19 -1.0
    P_G24_18 RDN_G24_19 1.0
    P_G24_18 DEM_18 1.0
    M21173 'MARKER' 'INTORG'
    U_G24_19 OBJ 122.01661505314664
    U_G24_19 PMIN_G24_19 -85.67512084593335
    U_G24_19 PMAX_G24_19 -228.10581112726166
    U_G24_19 LOGIC_G24_19 1.0
    U_G24_19 MINUP_G24_19 -1.0
    U_G24_19 MINDN_G24_19 1.0
    U_G24_19 LOGIC_G24_20 -1.0
    U_G24_19 RES_19 228.10581112726166
    V_G24_19 OBJ 2087.6284398912194
    V_G24_19 LOGIC_G24_19 -1.0
    V_G24_19 MINUP_G24_19 1.0
    V_G24_19 MINUP_G24_20 1.0
    W_G24_19 LOGIC_G24_19 1.0
    W_G24_19 MINDN_G24_19 1.0
    W_G24_19 MINDN_G24_20 1.0
    W_G24_19 MINDN_G24_21 1.0
    W_G24_19 MINDN_G24_22 1.0
    M21191 'MARKER' 'INTEND'
    P_G24_19 OBJ 30.611889805317976
    P_G24_19 PMIN_G24_19 1.0
    P_G24_19 PMAX_G24_19 1.0
    P_G24_19 RUP_G24_19 1.0
    P_G24_19 RDN_G24_19 -1.0
    P_G24_19 RUP_G24_20 -1.0
    P_G24_19 RDN_G24_20 1.0
    P_G24_19 DEM_19 1.0
    M21200 'MARKER' 'INTORG'
    U_G24_20 OBJ 122.01661505314664
    U_G24_20 PMIN_G24_20 -85.67512084593335
    U_G24_20 PMAX_G24_20 -228.10581112726166
    U_G24_20 LOGIC_G24_20 1.0
    U_G24_20 MINUP_G24_20 -1.0
    U_G24_20 MINDN_G24_20 1.0
    U_G24_20 LOGIC_G24_21 -1.0
    U_G24_20 RES_20 228.10581112726166
    V_G24_20 OBJ 2087.6284398912194
    V_G24_20 LOGIC_G24_20 -1.0
    V_G24_20 MINUP_G24_20 1.0
    V_G24_20 MINUP_G24_21 1.0
    W_G24_20 LOGIC_G24_20 1.0
    W_G24_20 MINDN_G24_20 1.0
    W_G24_20 MINDN_G24_21 1.0
    W_G24_20 MINDN_G24_22 1.0
    W_G24_20 MINDN_G24_23 1.0
    M21218 'MARKER' 'INTEND'
    P_G24_20 OBJ 30.611889805317976
    P_G24_20 PMIN_G24_20 1.0
    P_G24_20 PMAX_G24_20 1.0
    P_G24_20 RUP_G24_20 1.0
    P_G24_20 RDN_G24_20 -1.0
    P_G24_20 RUP_G24_21 -1.0
    P_G24_20 RDN_G24_21 1.0
    P_G24_20 DEM_20 1.0
    M21227 'MARKER' 'INTORG'
    U_G24_21 OBJ 122.01661505314664
    U_G24_21 PMIN_G24_21 -85.67512084593335
    U_G24_21 PMAX_G24_21 -228.10581112726166
    U_G24_21 LOGIC_G24_21 1.0
    U_G24_21 MINUP_G24_21 -1.0
    U_G24_21 MINDN_G24_21 1.0
    U_G24_21 LOGIC_G24_22 -1.0
    U_G24_21 RES_21 228.10581112726166
    V_G24_21 OBJ 2087.6284398912194
    V_G24_21 LOGIC_G24_21 -1.0
    V_G24_21 MINUP_G24_21 1.0
    V_G24_21 MINUP_G24_22 1.0
    W_G24_21 LOGIC_G24_21 1.0
    W_G24_21 MINDN_G24_21 1.0
    W_G24_21 MINDN_G24_22 1.0
    W_G24_21 MINDN_G24_23 1.0
    M21244 'MARKER' 'INTEND'
    P_G24_21 OBJ 30.611889805317976
    P_G24_21 PMIN_G24_21 1.0
    P_G24_21 PMAX_G24_21 1.0
    P_G24_21 RUP_G24_21 1.0
    P_G24_21 RDN_G24_21 -1.0
    P_G24_21 RUP_G24_22 -1.0
    P_G24_21 RDN_G24_22 1.0
    P_G24_21 DEM_21 1.0
    M21253 'MARKER' 'INTORG'
    U_G24_22 OBJ 122.01661505314664
    U_G24_22 PMIN_G24_22 -85.67512084593335
    U_G24_22 PMAX_G24_22 -228.10581112726166
    U_G24_22 LOGIC_G24_22 1.0
    U_G24_22 MINUP_G24_22 -1.0
    U_G24_22 MINDN_G24_22 1.0
    U_G24_22 LOGIC_G24_23 -1.0
    U_G24_22 RES_22 228.10581112726166
    V_G24_22 OBJ 2087.6284398912194
    V_G24_22 LOGIC_G24_22 -1.0
    V_G24_22 MINUP_G24_22 1.0
    V_G24_22 MINUP_G24_23 1.0
    W_G24_22 LOGIC_G24_22 1.0
    W_G24_22 MINDN_G24_22 1.0
    W_G24_22 MINDN_G24_23 1.0
    M21269 'MARKER' 'INTEND'
    P_G24_22 OBJ 30.611889805317976
    P_G24_22 PMIN_G24_22 1.0
    P_G24_22 PMAX_G24_22 1.0
    P_G24_22 RUP_G24_22 1.0
    P_G24_22 RDN_G24_22 -1.0
    P_G24_22 RUP_G24_23 -1.0
    P_G24_22 RDN_G24_23 1.0
    P_G24_22 DEM_22 1.0
    M21278 'MARKER' 'INTORG'
    U_G24_23 OBJ 122.01661505314664
    U_G24_23 PMIN_G24_23 -85.67512084593335
    U_G24_23 PMAX_G24_23 -228.10581112726166
    U_G24_23 LOGIC_G24_23 1.0
    U_G24_23 MINUP_G24_23 -1.0
    U_G24_23 MINDN_G24_23 1.0
    U_G24_23 RES_23 228.10581112726166
    V_G24_23 OBJ 2087.6284398912194
    V_G24_23 LOGIC_G24_23 -1.0
    V_G24_23 MINUP_G24_23 1.0
    W_G24_23 LOGIC_G24_23 1.0
    W_G24_23 MINDN_G24_23 1.0
    M21291 'MARKER' 'INTEND'
    P_G24_23 OBJ 30.611889805317976
    P_G24_23 PMIN_G24_23 1.0
    P_G24_23 PMAX_G24_23 1.0
    P_G24_23 RUP_G24_23 1.0
    P_G24_23 RDN_G24_23 -1.0
    P_G24_23 DEM_23 1.0
    M21298 'MARKER' 'INTORG'
    U_G25_0 OBJ 224.92997278288055
    U_G25_0 PMIN_G25_0 -37.49206549466298
    U_G25_0 PMAX_G25_0 -86.54847799453036
    U_G25_0 LOGIC_G25_0 1.0
    U_G25_0 MINUP_G25_0 -1.0
    U_G25_0 MINDN_G25_0 1.0
    U_G25_0 LOGIC_G25_1 -1.0
    U_G25_0 RES_0 86.54847799453036
    V_G25_0 OBJ 1110.9678336527895
    V_G25_0 LOGIC_G25_0 -1.0
    V_G25_0 MINUP_G25_0 1.0
    V_G25_0 MINUP_G25_1 1.0
    V_G25_0 MINUP_G25_2 1.0
    W_G25_0 LOGIC_G25_0 1.0
    W_G25_0 MINDN_G25_0 1.0
    M21314 'MARKER' 'INTEND'
    P_G25_0 OBJ 28.32327028874182
    P_G25_0 PMIN_G25_0 1.0
    P_G25_0 PMAX_G25_0 1.0
    P_G25_0 RUP_G25_1 -1.0
    P_G25_0 RDN_G25_1 1.0
    P_G25_0 DEM_0 1.0
    M21321 'MARKER' 'INTORG'
    U_G25_1 OBJ 224.92997278288055
    U_G25_1 PMIN_G25_1 -37.49206549466298
    U_G25_1 PMAX_G25_1 -86.54847799453036
    U_G25_1 LOGIC_G25_1 1.0
    U_G25_1 MINUP_G25_1 -1.0
    U_G25_1 MINDN_G25_1 1.0
    U_G25_1 LOGIC_G25_2 -1.0
    U_G25_1 RES_1 86.54847799453036
    V_G25_1 OBJ 1110.9678336527895
    V_G25_1 LOGIC_G25_1 -1.0
    V_G25_1 MINUP_G25_1 1.0
    V_G25_1 MINUP_G25_2 1.0
    V_G25_1 MINUP_G25_3 1.0
    W_G25_1 LOGIC_G25_1 1.0
    W_G25_1 MINDN_G25_1 1.0
    M21337 'MARKER' 'INTEND'
    P_G25_1 OBJ 28.32327028874182
    P_G25_1 PMIN_G25_1 1.0
    P_G25_1 PMAX_G25_1 1.0
    P_G25_1 RUP_G25_1 1.0
    P_G25_1 RDN_G25_1 -1.0
    P_G25_1 RUP_G25_2 -1.0
    P_G25_1 RDN_G25_2 1.0
    P_G25_1 DEM_1 1.0
    M21346 'MARKER' 'INTORG'
    U_G25_2 OBJ 224.92997278288055
    U_G25_2 PMIN_G25_2 -37.49206549466298
    U_G25_2 PMAX_G25_2 -86.54847799453036
    U_G25_2 LOGIC_G25_2 1.0
    U_G25_2 MINUP_G25_2 -1.0
    U_G25_2 MINDN_G25_2 1.0
    U_G25_2 LOGIC_G25_3 -1.0
    U_G25_2 RES_2 86.54847799453036
    V_G25_2 OBJ 1110.9678336527895
    V_G25_2 LOGIC_G25_2 -1.0
    V_G25_2 MINUP_G25_2 1.0
    V_G25_2 MINUP_G25_3 1.0
    V_G25_2 MINUP_G25_4 1.0
    W_G25_2 LOGIC_G25_2 1.0
    W_G25_2 MINDN_G25_2 1.0
    M21362 'MARKER' 'INTEND'
    P_G25_2 OBJ 28.32327028874182
    P_G25_2 PMIN_G25_2 1.0
    P_G25_2 PMAX_G25_2 1.0
    P_G25_2 RUP_G25_2 1.0
    P_G25_2 RDN_G25_2 -1.0
    P_G25_2 RUP_G25_3 -1.0
    P_G25_2 RDN_G25_3 1.0
    P_G25_2 DEM_2 1.0
    M21371 'MARKER' 'INTORG'
    U_G25_3 OBJ 224.92997278288055
    U_G25_3 PMIN_G25_3 -37.49206549466298
    U_G25_3 PMAX_G25_3 -86.54847799453036
    U_G25_3 LOGIC_G25_3 1.0
    U_G25_3 MINUP_G25_3 -1.0
    U_G25_3 MINDN_G25_3 1.0
    U_G25_3 LOGIC_G25_4 -1.0
    U_G25_3 RES_3 86.54847799453036
    V_G25_3 OBJ 1110.9678336527895
    V_G25_3 LOGIC_G25_3 -1.0
    V_G25_3 MINUP_G25_3 1.0
    V_G25_3 MINUP_G25_4 1.0
    V_G25_3 MINUP_G25_5 1.0
    W_G25_3 LOGIC_G25_3 1.0
    W_G25_3 MINDN_G25_3 1.0
    M21387 'MARKER' 'INTEND'
    P_G25_3 OBJ 28.32327028874182
    P_G25_3 PMIN_G25_3 1.0
    P_G25_3 PMAX_G25_3 1.0
    P_G25_3 RUP_G25_3 1.0
    P_G25_3 RDN_G25_3 -1.0
    P_G25_3 RUP_G25_4 -1.0
    P_G25_3 RDN_G25_4 1.0
    P_G25_3 DEM_3 1.0
    M21396 'MARKER' 'INTORG'
    U_G25_4 OBJ 224.92997278288055
    U_G25_4 PMIN_G25_4 -37.49206549466298
    U_G25_4 PMAX_G25_4 -86.54847799453036
    U_G25_4 LOGIC_G25_4 1.0
    U_G25_4 MINUP_G25_4 -1.0
    U_G25_4 MINDN_G25_4 1.0
    U_G25_4 LOGIC_G25_5 -1.0
    U_G25_4 RES_4 86.54847799453036
    V_G25_4 OBJ 1110.9678336527895
    V_G25_4 LOGIC_G25_4 -1.0
    V_G25_4 MINUP_G25_4 1.0
    V_G25_4 MINUP_G25_5 1.0
    V_G25_4 MINUP_G25_6 1.0
    W_G25_4 LOGIC_G25_4 1.0
    W_G25_4 MINDN_G25_4 1.0
    M21412 'MARKER' 'INTEND'
    P_G25_4 OBJ 28.32327028874182
    P_G25_4 PMIN_G25_4 1.0
    P_G25_4 PMAX_G25_4 1.0
    P_G25_4 RUP_G25_4 1.0
    P_G25_4 RDN_G25_4 -1.0
    P_G25_4 RUP_G25_5 -1.0
    P_G25_4 RDN_G25_5 1.0
    P_G25_4 DEM_4 1.0
    M21421 'MARKER' 'INTORG'
    U_G25_5 OBJ 224.92997278288055
    U_G25_5 PMIN_G25_5 -37.49206549466298
    U_G25_5 PMAX_G25_5 -86.54847799453036
    U_G25_5 LOGIC_G25_5 1.0
    U_G25_5 MINUP_G25_5 -1.0
    U_G25_5 MINDN_G25_5 1.0
    U_G25_5 LOGIC_G25_6 -1.0
    U_G25_5 RES_5 86.54847799453036
    V_G25_5 OBJ 1110.9678336527895
    V_G25_5 LOGIC_G25_5 -1.0
    V_G25_5 MINUP_G25_5 1.0
    V_G25_5 MINUP_G25_6 1.0
    V_G25_5 MINUP_G25_7 1.0
    W_G25_5 LOGIC_G25_5 1.0
    W_G25_5 MINDN_G25_5 1.0
    M21437 'MARKER' 'INTEND'
    P_G25_5 OBJ 28.32327028874182
    P_G25_5 PMIN_G25_5 1.0
    P_G25_5 PMAX_G25_5 1.0
    P_G25_5 RUP_G25_5 1.0
    P_G25_5 RDN_G25_5 -1.0
    P_G25_5 RUP_G25_6 -1.0
    P_G25_5 RDN_G25_6 1.0
    P_G25_5 DEM_5 1.0
    M21446 'MARKER' 'INTORG'
    U_G25_6 OBJ 224.92997278288055
    U_G25_6 PMIN_G25_6 -37.49206549466298
    U_G25_6 PMAX_G25_6 -86.54847799453036
    U_G25_6 LOGIC_G25_6 1.0
    U_G25_6 MINUP_G25_6 -1.0
    U_G25_6 MINDN_G25_6 1.0
    U_G25_6 LOGIC_G25_7 -1.0
    U_G25_6 RES_6 86.54847799453036
    V_G25_6 OBJ 1110.9678336527895
    V_G25_6 LOGIC_G25_6 -1.0
    V_G25_6 MINUP_G25_6 1.0
    V_G25_6 MINUP_G25_7 1.0
    V_G25_6 MINUP_G25_8 1.0
    W_G25_6 LOGIC_G25_6 1.0
    W_G25_6 MINDN_G25_6 1.0
    M21462 'MARKER' 'INTEND'
    P_G25_6 OBJ 28.32327028874182
    P_G25_6 PMIN_G25_6 1.0
    P_G25_6 PMAX_G25_6 1.0
    P_G25_6 RUP_G25_6 1.0
    P_G25_6 RDN_G25_6 -1.0
    P_G25_6 RUP_G25_7 -1.0
    P_G25_6 RDN_G25_7 1.0
    P_G25_6 DEM_6 1.0
    M21471 'MARKER' 'INTORG'
    U_G25_7 OBJ 224.92997278288055
    U_G25_7 PMIN_G25_7 -37.49206549466298
    U_G25_7 PMAX_G25_7 -86.54847799453036
    U_G25_7 LOGIC_G25_7 1.0
    U_G25_7 MINUP_G25_7 -1.0
    U_G25_7 MINDN_G25_7 1.0
    U_G25_7 LOGIC_G25_8 -1.0
    U_G25_7 RES_7 86.54847799453036
    V_G25_7 OBJ 1110.9678336527895
    V_G25_7 LOGIC_G25_7 -1.0
    V_G25_7 MINUP_G25_7 1.0
    V_G25_7 MINUP_G25_8 1.0
    V_G25_7 MINUP_G25_9 1.0
    W_G25_7 LOGIC_G25_7 1.0
    W_G25_7 MINDN_G25_7 1.0
    M21487 'MARKER' 'INTEND'
    P_G25_7 OBJ 28.32327028874182
    P_G25_7 PMIN_G25_7 1.0
    P_G25_7 PMAX_G25_7 1.0
    P_G25_7 RUP_G25_7 1.0
    P_G25_7 RDN_G25_7 -1.0
    P_G25_7 RUP_G25_8 -1.0
    P_G25_7 RDN_G25_8 1.0
    P_G25_7 DEM_7 1.0
    M21496 'MARKER' 'INTORG'
    U_G25_8 OBJ 224.92997278288055
    U_G25_8 PMIN_G25_8 -37.49206549466298
    U_G25_8 PMAX_G25_8 -86.54847799453036
    U_G25_8 LOGIC_G25_8 1.0
    U_G25_8 MINUP_G25_8 -1.0
    U_G25_8 MINDN_G25_8 1.0
    U_G25_8 LOGIC_G25_9 -1.0
    U_G25_8 RES_8 86.54847799453036
    V_G25_8 OBJ 1110.9678336527895
    V_G25_8 LOGIC_G25_8 -1.0
    V_G25_8 MINUP_G25_8 1.0
    V_G25_8 MINUP_G25_9 1.0
    V_G25_8 MINUP_G25_10 1.0
    W_G25_8 LOGIC_G25_8 1.0
    W_G25_8 MINDN_G25_8 1.0
    M21512 'MARKER' 'INTEND'
    P_G25_8 OBJ 28.32327028874182
    P_G25_8 PMIN_G25_8 1.0
    P_G25_8 PMAX_G25_8 1.0
    P_G25_8 RUP_G25_8 1.0
    P_G25_8 RDN_G25_8 -1.0
    P_G25_8 RUP_G25_9 -1.0
    P_G25_8 RDN_G25_9 1.0
    P_G25_8 DEM_8 1.0
    M21521 'MARKER' 'INTORG'
    U_G25_9 OBJ 224.92997278288055
    U_G25_9 PMIN_G25_9 -37.49206549466298
    U_G25_9 PMAX_G25_9 -86.54847799453036
    U_G25_9 LOGIC_G25_9 1.0
    U_G25_9 MINUP_G25_9 -1.0
    U_G25_9 MINDN_G25_9 1.0
    U_G25_9 LOGIC_G25_10 -1.0
    U_G25_9 RES_9 86.54847799453036
    V_G25_9 OBJ 1110.9678336527895
    V_G25_9 LOGIC_G25_9 -1.0
    V_G25_9 MINUP_G25_9 1.0
    V_G25_9 MINUP_G25_10 1.0
    V_G25_9 MINUP_G25_11 1.0
    W_G25_9 LOGIC_G25_9 1.0
    W_G25_9 MINDN_G25_9 1.0
    M21537 'MARKER' 'INTEND'
    P_G25_9 OBJ 28.32327028874182
    P_G25_9 PMIN_G25_9 1.0
    P_G25_9 PMAX_G25_9 1.0
    P_G25_9 RUP_G25_9 1.0
    P_G25_9 RDN_G25_9 -1.0
    P_G25_9 RUP_G25_10 -1.0
    P_G25_9 RDN_G25_10 1.0
    P_G25_9 DEM_9 1.0
    M21546 'MARKER' 'INTORG'
    U_G25_10 OBJ 224.92997278288055
    U_G25_10 PMIN_G25_10 -37.49206549466298
    U_G25_10 PMAX_G25_10 -86.54847799453036
    U_G25_10 LOGIC_G25_10 1.0
    U_G25_10 MINUP_G25_10 -1.0
    U_G25_10 MINDN_G25_10 1.0
    U_G25_10 LOGIC_G25_11 -1.0
    U_G25_10 RES_10 86.54847799453036
    V_G25_10 OBJ 1110.9678336527895
    V_G25_10 LOGIC_G25_10 -1.0
    V_G25_10 MINUP_G25_10 1.0
    V_G25_10 MINUP_G25_11 1.0
    V_G25_10 MINUP_G25_12 1.0
    W_G25_10 LOGIC_G25_10 1.0
    W_G25_10 MINDN_G25_10 1.0
    M21562 'MARKER' 'INTEND'
    P_G25_10 OBJ 28.32327028874182
    P_G25_10 PMIN_G25_10 1.0
    P_G25_10 PMAX_G25_10 1.0
    P_G25_10 RUP_G25_10 1.0
    P_G25_10 RDN_G25_10 -1.0
    P_G25_10 RUP_G25_11 -1.0
    P_G25_10 RDN_G25_11 1.0
    P_G25_10 DEM_10 1.0
    M21571 'MARKER' 'INTORG'
    U_G25_11 OBJ 224.92997278288055
    U_G25_11 PMIN_G25_11 -37.49206549466298
    U_G25_11 PMAX_G25_11 -86.54847799453036
    U_G25_11 LOGIC_G25_11 1.0
    U_G25_11 MINUP_G25_11 -1.0
    U_G25_11 MINDN_G25_11 1.0
    U_G25_11 LOGIC_G25_12 -1.0
    U_G25_11 RES_11 86.54847799453036
    V_G25_11 OBJ 1110.9678336527895
    V_G25_11 LOGIC_G25_11 -1.0
    V_G25_11 MINUP_G25_11 1.0
    V_G25_11 MINUP_G25_12 1.0
    V_G25_11 MINUP_G25_13 1.0
    W_G25_11 LOGIC_G25_11 1.0
    W_G25_11 MINDN_G25_11 1.0
    M21587 'MARKER' 'INTEND'
    P_G25_11 OBJ 28.32327028874182
    P_G25_11 PMIN_G25_11 1.0
    P_G25_11 PMAX_G25_11 1.0
    P_G25_11 RUP_G25_11 1.0
    P_G25_11 RDN_G25_11 -1.0
    P_G25_11 RUP_G25_12 -1.0
    P_G25_11 RDN_G25_12 1.0
    P_G25_11 DEM_11 1.0
    M21596 'MARKER' 'INTORG'
    U_G25_12 OBJ 224.92997278288055
    U_G25_12 PMIN_G25_12 -37.49206549466298
    U_G25_12 PMAX_G25_12 -86.54847799453036
    U_G25_12 LOGIC_G25_12 1.0
    U_G25_12 MINUP_G25_12 -1.0
    U_G25_12 MINDN_G25_12 1.0
    U_G25_12 LOGIC_G25_13 -1.0
    U_G25_12 RES_12 86.54847799453036
    V_G25_12 OBJ 1110.9678336527895
    V_G25_12 LOGIC_G25_12 -1.0
    V_G25_12 MINUP_G25_12 1.0
    V_G25_12 MINUP_G25_13 1.0
    V_G25_12 MINUP_G25_14 1.0
    W_G25_12 LOGIC_G25_12 1.0
    W_G25_12 MINDN_G25_12 1.0
    M21612 'MARKER' 'INTEND'
    P_G25_12 OBJ 28.32327028874182
    P_G25_12 PMIN_G25_12 1.0
    P_G25_12 PMAX_G25_12 1.0
    P_G25_12 RUP_G25_12 1.0
    P_G25_12 RDN_G25_12 -1.0
    P_G25_12 RUP_G25_13 -1.0
    P_G25_12 RDN_G25_13 1.0
    P_G25_12 DEM_12 1.0
    M21621 'MARKER' 'INTORG'
    U_G25_13 OBJ 224.92997278288055
    U_G25_13 PMIN_G25_13 -37.49206549466298
    U_G25_13 PMAX_G25_13 -86.54847799453036
    U_G25_13 LOGIC_G25_13 1.0
    U_G25_13 MINUP_G25_13 -1.0
    U_G25_13 MINDN_G25_13 1.0
    U_G25_13 LOGIC_G25_14 -1.0
    U_G25_13 RES_13 86.54847799453036
    V_G25_13 OBJ 1110.9678336527895
    V_G25_13 LOGIC_G25_13 -1.0
    V_G25_13 MINUP_G25_13 1.0
    V_G25_13 MINUP_G25_14 1.0
    V_G25_13 MINUP_G25_15 1.0
    W_G25_13 LOGIC_G25_13 1.0
    W_G25_13 MINDN_G25_13 1.0
    M21637 'MARKER' 'INTEND'
    P_G25_13 OBJ 28.32327028874182
    P_G25_13 PMIN_G25_13 1.0
    P_G25_13 PMAX_G25_13 1.0
    P_G25_13 RUP_G25_13 1.0
    P_G25_13 RDN_G25_13 -1.0
    P_G25_13 RUP_G25_14 -1.0
    P_G25_13 RDN_G25_14 1.0
    P_G25_13 DEM_13 1.0
    M21646 'MARKER' 'INTORG'
    U_G25_14 OBJ 224.92997278288055
    U_G25_14 PMIN_G25_14 -37.49206549466298
    U_G25_14 PMAX_G25_14 -86.54847799453036
    U_G25_14 LOGIC_G25_14 1.0
    U_G25_14 MINUP_G25_14 -1.0
    U_G25_14 MINDN_G25_14 1.0
    U_G25_14 LOGIC_G25_15 -1.0
    U_G25_14 RES_14 86.54847799453036
    V_G25_14 OBJ 1110.9678336527895
    V_G25_14 LOGIC_G25_14 -1.0
    V_G25_14 MINUP_G25_14 1.0
    V_G25_14 MINUP_G25_15 1.0
    V_G25_14 MINUP_G25_16 1.0
    W_G25_14 LOGIC_G25_14 1.0
    W_G25_14 MINDN_G25_14 1.0
    M21662 'MARKER' 'INTEND'
    P_G25_14 OBJ 28.32327028874182
    P_G25_14 PMIN_G25_14 1.0
    P_G25_14 PMAX_G25_14 1.0
    P_G25_14 RUP_G25_14 1.0
    P_G25_14 RDN_G25_14 -1.0
    P_G25_14 RUP_G25_15 -1.0
    P_G25_14 RDN_G25_15 1.0
    P_G25_14 DEM_14 1.0
    M21671 'MARKER' 'INTORG'
    U_G25_15 OBJ 224.92997278288055
    U_G25_15 PMIN_G25_15 -37.49206549466298
    U_G25_15 PMAX_G25_15 -86.54847799453036
    U_G25_15 LOGIC_G25_15 1.0
    U_G25_15 MINUP_G25_15 -1.0
    U_G25_15 MINDN_G25_15 1.0
    U_G25_15 LOGIC_G25_16 -1.0
    U_G25_15 RES_15 86.54847799453036
    V_G25_15 OBJ 1110.9678336527895
    V_G25_15 LOGIC_G25_15 -1.0
    V_G25_15 MINUP_G25_15 1.0
    V_G25_15 MINUP_G25_16 1.0
    V_G25_15 MINUP_G25_17 1.0
    W_G25_15 LOGIC_G25_15 1.0
    W_G25_15 MINDN_G25_15 1.0
    M21687 'MARKER' 'INTEND'
    P_G25_15 OBJ 28.32327028874182
    P_G25_15 PMIN_G25_15 1.0
    P_G25_15 PMAX_G25_15 1.0
    P_G25_15 RUP_G25_15 1.0
    P_G25_15 RDN_G25_15 -1.0
    P_G25_15 RUP_G25_16 -1.0
    P_G25_15 RDN_G25_16 1.0
    P_G25_15 DEM_15 1.0
    M21696 'MARKER' 'INTORG'
    U_G25_16 OBJ 224.92997278288055
    U_G25_16 PMIN_G25_16 -37.49206549466298
    U_G25_16 PMAX_G25_16 -86.54847799453036
    U_G25_16 LOGIC_G25_16 1.0
    U_G25_16 MINUP_G25_16 -1.0
    U_G25_16 MINDN_G25_16 1.0
    U_G25_16 LOGIC_G25_17 -1.0
    U_G25_16 RES_16 86.54847799453036
    V_G25_16 OBJ 1110.9678336527895
    V_G25_16 LOGIC_G25_16 -1.0
    V_G25_16 MINUP_G25_16 1.0
    V_G25_16 MINUP_G25_17 1.0
    V_G25_16 MINUP_G25_18 1.0
    W_G25_16 LOGIC_G25_16 1.0
    W_G25_16 MINDN_G25_16 1.0
    M21712 'MARKER' 'INTEND'
    P_G25_16 OBJ 28.32327028874182
    P_G25_16 PMIN_G25_16 1.0
    P_G25_16 PMAX_G25_16 1.0
    P_G25_16 RUP_G25_16 1.0
    P_G25_16 RDN_G25_16 -1.0
    P_G25_16 RUP_G25_17 -1.0
    P_G25_16 RDN_G25_17 1.0
    P_G25_16 DEM_16 1.0
    M21721 'MARKER' 'INTORG'
    U_G25_17 OBJ 224.92997278288055
    U_G25_17 PMIN_G25_17 -37.49206549466298
    U_G25_17 PMAX_G25_17 -86.54847799453036
    U_G25_17 LOGIC_G25_17 1.0
    U_G25_17 MINUP_G25_17 -1.0
    U_G25_17 MINDN_G25_17 1.0
    U_G25_17 LOGIC_G25_18 -1.0
    U_G25_17 RES_17 86.54847799453036
    V_G25_17 OBJ 1110.9678336527895
    V_G25_17 LOGIC_G25_17 -1.0
    V_G25_17 MINUP_G25_17 1.0
    V_G25_17 MINUP_G25_18 1.0
    V_G25_17 MINUP_G25_19 1.0
    W_G25_17 LOGIC_G25_17 1.0
    W_G25_17 MINDN_G25_17 1.0
    M21737 'MARKER' 'INTEND'
    P_G25_17 OBJ 28.32327028874182
    P_G25_17 PMIN_G25_17 1.0
    P_G25_17 PMAX_G25_17 1.0
    P_G25_17 RUP_G25_17 1.0
    P_G25_17 RDN_G25_17 -1.0
    P_G25_17 RUP_G25_18 -1.0
    P_G25_17 RDN_G25_18 1.0
    P_G25_17 DEM_17 1.0
    M21746 'MARKER' 'INTORG'
    U_G25_18 OBJ 224.92997278288055
    U_G25_18 PMIN_G25_18 -37.49206549466298
    U_G25_18 PMAX_G25_18 -86.54847799453036
    U_G25_18 LOGIC_G25_18 1.0
    U_G25_18 MINUP_G25_18 -1.0
    U_G25_18 MINDN_G25_18 1.0
    U_G25_18 LOGIC_G25_19 -1.0
    U_G25_18 RES_18 86.54847799453036
    V_G25_18 OBJ 1110.9678336527895
    V_G25_18 LOGIC_G25_18 -1.0
    V_G25_18 MINUP_G25_18 1.0
    V_G25_18 MINUP_G25_19 1.0
    V_G25_18 MINUP_G25_20 1.0
    W_G25_18 LOGIC_G25_18 1.0
    W_G25_18 MINDN_G25_18 1.0
    M21762 'MARKER' 'INTEND'
    P_G25_18 OBJ 28.32327028874182
    P_G25_18 PMIN_G25_18 1.0
    P_G25_18 PMAX_G25_18 1.0
    P_G25_18 RUP_G25_18 1.0
    P_G25_18 RDN_G25_18 -1.0
    P_G25_18 RUP_G25_19 -1.0
    P_G25_18 RDN_G25_19 1.0
    P_G25_18 DEM_18 1.0
    M21771 'MARKER' 'INTORG'
    U_G25_19 OBJ 224.92997278288055
    U_G25_19 PMIN_G25_19 -37.49206549466298
    U_G25_19 PMAX_G25_19 -86.54847799453036
    U_G25_19 LOGIC_G25_19 1.0
    U_G25_19 MINUP_G25_19 -1.0
    U_G25_19 MINDN_G25_19 1.0
    U_G25_19 LOGIC_G25_20 -1.0
    U_G25_19 RES_19 86.54847799453036
    V_G25_19 OBJ 1110.9678336527895
    V_G25_19 LOGIC_G25_19 -1.0
    V_G25_19 MINUP_G25_19 1.0
    V_G25_19 MINUP_G25_20 1.0
    V_G25_19 MINUP_G25_21 1.0
    W_G25_19 LOGIC_G25_19 1.0
    W_G25_19 MINDN_G25_19 1.0
    M21787 'MARKER' 'INTEND'
    P_G25_19 OBJ 28.32327028874182
    P_G25_19 PMIN_G25_19 1.0
    P_G25_19 PMAX_G25_19 1.0
    P_G25_19 RUP_G25_19 1.0
    P_G25_19 RDN_G25_19 -1.0
    P_G25_19 RUP_G25_20 -1.0
    P_G25_19 RDN_G25_20 1.0
    P_G25_19 DEM_19 1.0
    M21796 'MARKER' 'INTORG'
    U_G25_20 OBJ 224.92997278288055
    U_G25_20 PMIN_G25_20 -37.49206549466298
    U_G25_20 PMAX_G25_20 -86.54847799453036
    U_G25_20 LOGIC_G25_20 1.0
    U_G25_20 MINUP_G25_20 -1.0
    U_G25_20 MINDN_G25_20 1.0
    U_G25_20 LOGIC_G25_21 -1.0
    U_G25_20 RES_20 86.54847799453036
    V_G25_20 OBJ 1110.9678336527895
    V_G25_20 LOGIC_G25_20 -1.0
    V_G25_20 MINUP_G25_20 1.0
    V_G25_20 MINUP_G25_21 1.0
    V_G25_20 MINUP_G25_22 1.0
    W_G25_20 LOGIC_G25_20 1.0
    W_G25_20 MINDN_G25_20 1.0
    M21812 'MARKER' 'INTEND'
    P_G25_20 OBJ 28.32327028874182
    P_G25_20 PMIN_G25_20 1.0
    P_G25_20 PMAX_G25_20 1.0
    P_G25_20 RUP_G25_20 1.0
    P_G25_20 RDN_G25_20 -1.0
    P_G25_20 RUP_G25_21 -1.0
    P_G25_20 RDN_G25_21 1.0
    P_G25_20 DEM_20 1.0
    M21821 'MARKER' 'INTORG'
    U_G25_21 OBJ 224.92997278288055
    U_G25_21 PMIN_G25_21 -37.49206549466298
    U_G25_21 PMAX_G25_21 -86.54847799453036
    U_G25_21 LOGIC_G25_21 1.0
    U_G25_21 MINUP_G25_21 -1.0
    U_G25_21 MINDN_G25_21 1.0
    U_G25_21 LOGIC_G25_22 -1.0
    U_G25_21 RES_21 86.54847799453036
    V_G25_21 OBJ 1110.9678336527895
    V_G25_21 LOGIC_G25_21 -1.0
    V_G25_21 MINUP_G25_21 1.0
    V_G25_21 MINUP_G25_22 1.0
    V_G25_21 MINUP_G25_23 1.0
    W_G25_21 LOGIC_G25_21 1.0
    W_G25_21 MINDN_G25_21 1.0
    M21837 'MARKER' 'INTEND'
    P_G25_21 OBJ 28.32327028874182
    P_G25_21 PMIN_G25_21 1.0
    P_G25_21 PMAX_G25_21 1.0
    P_G25_21 RUP_G25_21 1.0
    P_G25_21 RDN_G25_21 -1.0
    P_G25_21 RUP_G25_22 -1.0
    P_G25_21 RDN_G25_22 1.0
    P_G25_21 DEM_21 1.0
    M21846 'MARKER' 'INTORG'
    U_G25_22 OBJ 224.92997278288055
    U_G25_22 PMIN_G25_22 -37.49206549466298
    U_G25_22 PMAX_G25_22 -86.54847799453036
    U_G25_22 LOGIC_G25_22 1.0
    U_G25_22 MINUP_G25_22 -1.0
    U_G25_22 MINDN_G25_22 1.0
    U_G25_22 LOGIC_G25_23 -1.0
    U_G25_22 RES_22 86.54847799453036
    V_G25_22 OBJ 1110.9678336527895
    V_G25_22 LOGIC_G25_22 -1.0
    V_G25_22 MINUP_G25_22 1.0
    V_G25_22 MINUP_G25_23 1.0
    W_G25_22 LOGIC_G25_22 1.0
    W_G25_22 MINDN_G25_22 1.0
    M21861 'MARKER' 'INTEND'
    P_G25_22 OBJ 28.32327028874182
    P_G25_22 PMIN_G25_22 1.0
    P_G25_22 PMAX_G25_22 1.0
    P_G25_22 RUP_G25_22 1.0
    P_G25_22 RDN_G25_22 -1.0
    P_G25_22 RUP_G25_23 -1.0
    P_G25_22 RDN_G25_23 1.0
    P_G25_22 DEM_22 1.0
    M21870 'MARKER' 'INTORG'
    U_G25_23 OBJ 224.92997278288055
    U_G25_23 PMIN_G25_23 -37.49206549466298
    U_G25_23 PMAX_G25_23 -86.54847799453036
    U_G25_23 LOGIC_G25_23 1.0
    U_G25_23 MINUP_G25_23 -1.0
    U_G25_23 MINDN_G25_23 1.0
    U_G25_23 RES_23 86.54847799453036
    V_G25_23 OBJ 1110.9678336527895
    V_G25_23 LOGIC_G25_23 -1.0
    V_G25_23 MINUP_G25_23 1.0
    W_G25_23 LOGIC_G25_23 1.0
    W_G25_23 MINDN_G25_23 1.0
    M21883 'MARKER' 'INTEND'
    P_G25_23 OBJ 28.32327028874182
    P_G25_23 PMIN_G25_23 1.0
    P_G25_23 PMAX_G25_23 1.0
    P_G25_23 RUP_G25_23 1.0
    P_G25_23 RDN_G25_23 -1.0
    P_G25_23 DEM_23 1.0
    M21890 'MARKER' 'INTORG'
    U_G26_0 OBJ 247.16918747086174
    U_G26_0 PMIN_G26_0 -49.47896886987211
    U_G26_0 PMAX_G26_0 -104.93785307033771
    U_G26_0 LOGIC_G26_0 1.0
    U_G26_0 MINUP_G26_0 -1.0
    U_G26_0 MINDN_G26_0 1.0
    U_G26_0 LOGIC_G26_1 -1.0
    U_G26_0 RES_0 104.93785307033771
    V_G26_0 OBJ 578.4007947852297
    V_G26_0 LOGIC_G26_0 -1.0
    V_G26_0 MINUP_G26_0 1.0
    V_G26_0 MINUP_G26_1 1.0
    V_G26_0 MINUP_G26_2 1.0
    W_G26_0 LOGIC_G26_0 1.0
    W_G26_0 MINDN_G26_0 1.0
    M21906 'MARKER' 'INTEND'
    P_G26_0 OBJ 51.50125778777329
    P_G26_0 PMIN_G26_0 1.0
    P_G26_0 PMAX_G26_0 1.0
    P_G26_0 RUP_G26_1 -1.0
    P_G26_0 RDN_G26_1 1.0
    P_G26_0 DEM_0 1.0
    M21913 'MARKER' 'INTORG'
    U_G26_1 OBJ 247.16918747086174
    U_G26_1 PMIN_G26_1 -49.47896886987211
    U_G26_1 PMAX_G26_1 -104.93785307033771
    U_G26_1 LOGIC_G26_1 1.0
    U_G26_1 MINUP_G26_1 -1.0
    U_G26_1 MINDN_G26_1 1.0
    U_G26_1 LOGIC_G26_2 -1.0
    U_G26_1 RES_1 104.93785307033771
    V_G26_1 OBJ 578.4007947852297
    V_G26_1 LOGIC_G26_1 -1.0
    V_G26_1 MINUP_G26_1 1.0
    V_G26_1 MINUP_G26_2 1.0
    V_G26_1 MINUP_G26_3 1.0
    W_G26_1 LOGIC_G26_1 1.0
    W_G26_1 MINDN_G26_1 1.0
    M21929 'MARKER' 'INTEND'
    P_G26_1 OBJ 51.50125778777329
    P_G26_1 PMIN_G26_1 1.0
    P_G26_1 PMAX_G26_1 1.0
    P_G26_1 RUP_G26_1 1.0
    P_G26_1 RDN_G26_1 -1.0
    P_G26_1 RUP_G26_2 -1.0
    P_G26_1 RDN_G26_2 1.0
    P_G26_1 DEM_1 1.0
    M21938 'MARKER' 'INTORG'
    U_G26_2 OBJ 247.16918747086174
    U_G26_2 PMIN_G26_2 -49.47896886987211
    U_G26_2 PMAX_G26_2 -104.93785307033771
    U_G26_2 LOGIC_G26_2 1.0
    U_G26_2 MINUP_G26_2 -1.0
    U_G26_2 MINDN_G26_2 1.0
    U_G26_2 LOGIC_G26_3 -1.0
    U_G26_2 RES_2 104.93785307033771
    V_G26_2 OBJ 578.4007947852297
    V_G26_2 LOGIC_G26_2 -1.0
    V_G26_2 MINUP_G26_2 1.0
    V_G26_2 MINUP_G26_3 1.0
    V_G26_2 MINUP_G26_4 1.0
    W_G26_2 LOGIC_G26_2 1.0
    W_G26_2 MINDN_G26_2 1.0
    M21954 'MARKER' 'INTEND'
    P_G26_2 OBJ 51.50125778777329
    P_G26_2 PMIN_G26_2 1.0
    P_G26_2 PMAX_G26_2 1.0
    P_G26_2 RUP_G26_2 1.0
    P_G26_2 RDN_G26_2 -1.0
    P_G26_2 RUP_G26_3 -1.0
    P_G26_2 RDN_G26_3 1.0
    P_G26_2 DEM_2 1.0
    M21963 'MARKER' 'INTORG'
    U_G26_3 OBJ 247.16918747086174
    U_G26_3 PMIN_G26_3 -49.47896886987211
    U_G26_3 PMAX_G26_3 -104.93785307033771
    U_G26_3 LOGIC_G26_3 1.0
    U_G26_3 MINUP_G26_3 -1.0
    U_G26_3 MINDN_G26_3 1.0
    U_G26_3 LOGIC_G26_4 -1.0
    U_G26_3 RES_3 104.93785307033771
    V_G26_3 OBJ 578.4007947852297
    V_G26_3 LOGIC_G26_3 -1.0
    V_G26_3 MINUP_G26_3 1.0
    V_G26_3 MINUP_G26_4 1.0
    V_G26_3 MINUP_G26_5 1.0
    W_G26_3 LOGIC_G26_3 1.0
    W_G26_3 MINDN_G26_3 1.0
    M21979 'MARKER' 'INTEND'
    P_G26_3 OBJ 51.50125778777329
    P_G26_3 PMIN_G26_3 1.0
    P_G26_3 PMAX_G26_3 1.0
    P_G26_3 RUP_G26_3 1.0
    P_G26_3 RDN_G26_3 -1.0
    P_G26_3 RUP_G26_4 -1.0
    P_G26_3 RDN_G26_4 1.0
    P_G26_3 DEM_3 1.0
    M21988 'MARKER' 'INTORG'
    U_G26_4 OBJ 247.16918747086174
    U_G26_4 PMIN_G26_4 -49.47896886987211
    U_G26_4 PMAX_G26_4 -104.93785307033771
    U_G26_4 LOGIC_G26_4 1.0
    U_G26_4 MINUP_G26_4 -1.0
    U_G26_4 MINDN_G26_4 1.0
    U_G26_4 LOGIC_G26_5 -1.0
    U_G26_4 RES_4 104.93785307033771
    V_G26_4 OBJ 578.4007947852297
    V_G26_4 LOGIC_G26_4 -1.0
    V_G26_4 MINUP_G26_4 1.0
    V_G26_4 MINUP_G26_5 1.0
    V_G26_4 MINUP_G26_6 1.0
    W_G26_4 LOGIC_G26_4 1.0
    W_G26_4 MINDN_G26_4 1.0
    M22004 'MARKER' 'INTEND'
    P_G26_4 OBJ 51.50125778777329
    P_G26_4 PMIN_G26_4 1.0
    P_G26_4 PMAX_G26_4 1.0
    P_G26_4 RUP_G26_4 1.0
    P_G26_4 RDN_G26_4 -1.0
    P_G26_4 RUP_G26_5 -1.0
    P_G26_4 RDN_G26_5 1.0
    P_G26_4 DEM_4 1.0
    M22013 'MARKER' 'INTORG'
    U_G26_5 OBJ 247.16918747086174
    U_G26_5 PMIN_G26_5 -49.47896886987211
    U_G26_5 PMAX_G26_5 -104.93785307033771
    U_G26_5 LOGIC_G26_5 1.0
    U_G26_5 MINUP_G26_5 -1.0
    U_G26_5 MINDN_G26_5 1.0
    U_G26_5 LOGIC_G26_6 -1.0
    U_G26_5 RES_5 104.93785307033771
    V_G26_5 OBJ 578.4007947852297
    V_G26_5 LOGIC_G26_5 -1.0
    V_G26_5 MINUP_G26_5 1.0
    V_G26_5 MINUP_G26_6 1.0
    V_G26_5 MINUP_G26_7 1.0
    W_G26_5 LOGIC_G26_5 1.0
    W_G26_5 MINDN_G26_5 1.0
    M22029 'MARKER' 'INTEND'
    P_G26_5 OBJ 51.50125778777329
    P_G26_5 PMIN_G26_5 1.0
    P_G26_5 PMAX_G26_5 1.0
    P_G26_5 RUP_G26_5 1.0
    P_G26_5 RDN_G26_5 -1.0
    P_G26_5 RUP_G26_6 -1.0
    P_G26_5 RDN_G26_6 1.0
    P_G26_5 DEM_5 1.0
    M22038 'MARKER' 'INTORG'
    U_G26_6 OBJ 247.16918747086174
    U_G26_6 PMIN_G26_6 -49.47896886987211
    U_G26_6 PMAX_G26_6 -104.93785307033771
    U_G26_6 LOGIC_G26_6 1.0
    U_G26_6 MINUP_G26_6 -1.0
    U_G26_6 MINDN_G26_6 1.0
    U_G26_6 LOGIC_G26_7 -1.0
    U_G26_6 RES_6 104.93785307033771
    V_G26_6 OBJ 578.4007947852297
    V_G26_6 LOGIC_G26_6 -1.0
    V_G26_6 MINUP_G26_6 1.0
    V_G26_6 MINUP_G26_7 1.0
    V_G26_6 MINUP_G26_8 1.0
    W_G26_6 LOGIC_G26_6 1.0
    W_G26_6 MINDN_G26_6 1.0
    M22054 'MARKER' 'INTEND'
    P_G26_6 OBJ 51.50125778777329
    P_G26_6 PMIN_G26_6 1.0
    P_G26_6 PMAX_G26_6 1.0
    P_G26_6 RUP_G26_6 1.0
    P_G26_6 RDN_G26_6 -1.0
    P_G26_6 RUP_G26_7 -1.0
    P_G26_6 RDN_G26_7 1.0
    P_G26_6 DEM_6 1.0
    M22063 'MARKER' 'INTORG'
    U_G26_7 OBJ 247.16918747086174
    U_G26_7 PMIN_G26_7 -49.47896886987211
    U_G26_7 PMAX_G26_7 -104.93785307033771
    U_G26_7 LOGIC_G26_7 1.0
    U_G26_7 MINUP_G26_7 -1.0
    U_G26_7 MINDN_G26_7 1.0
    U_G26_7 LOGIC_G26_8 -1.0
    U_G26_7 RES_7 104.93785307033771
    V_G26_7 OBJ 578.4007947852297
    V_G26_7 LOGIC_G26_7 -1.0
    V_G26_7 MINUP_G26_7 1.0
    V_G26_7 MINUP_G26_8 1.0
    V_G26_7 MINUP_G26_9 1.0
    W_G26_7 LOGIC_G26_7 1.0
    W_G26_7 MINDN_G26_7 1.0
    M22079 'MARKER' 'INTEND'
    P_G26_7 OBJ 51.50125778777329
    P_G26_7 PMIN_G26_7 1.0
    P_G26_7 PMAX_G26_7 1.0
    P_G26_7 RUP_G26_7 1.0
    P_G26_7 RDN_G26_7 -1.0
    P_G26_7 RUP_G26_8 -1.0
    P_G26_7 RDN_G26_8 1.0
    P_G26_7 DEM_7 1.0
    M22088 'MARKER' 'INTORG'
    U_G26_8 OBJ 247.16918747086174
    U_G26_8 PMIN_G26_8 -49.47896886987211
    U_G26_8 PMAX_G26_8 -104.93785307033771
    U_G26_8 LOGIC_G26_8 1.0
    U_G26_8 MINUP_G26_8 -1.0
    U_G26_8 MINDN_G26_8 1.0
    U_G26_8 LOGIC_G26_9 -1.0
    U_G26_8 RES_8 104.93785307033771
    V_G26_8 OBJ 578.4007947852297
    V_G26_8 LOGIC_G26_8 -1.0
    V_G26_8 MINUP_G26_8 1.0
    V_G26_8 MINUP_G26_9 1.0
    V_G26_8 MINUP_G26_10 1.0
    W_G26_8 LOGIC_G26_8 1.0
    W_G26_8 MINDN_G26_8 1.0
    M22104 'MARKER' 'INTEND'
    P_G26_8 OBJ 51.50125778777329
    P_G26_8 PMIN_G26_8 1.0
    P_G26_8 PMAX_G26_8 1.0
    P_G26_8 RUP_G26_8 1.0
    P_G26_8 RDN_G26_8 -1.0
    P_G26_8 RUP_G26_9 -1.0
    P_G26_8 RDN_G26_9 1.0
    P_G26_8 DEM_8 1.0
    M22113 'MARKER' 'INTORG'
    U_G26_9 OBJ 247.16918747086174
    U_G26_9 PMIN_G26_9 -49.47896886987211
    U_G26_9 PMAX_G26_9 -104.93785307033771
    U_G26_9 LOGIC_G26_9 1.0
    U_G26_9 MINUP_G26_9 -1.0
    U_G26_9 MINDN_G26_9 1.0
    U_G26_9 LOGIC_G26_10 -1.0
    U_G26_9 RES_9 104.93785307033771
    V_G26_9 OBJ 578.4007947852297
    V_G26_9 LOGIC_G26_9 -1.0
    V_G26_9 MINUP_G26_9 1.0
    V_G26_9 MINUP_G26_10 1.0
    V_G26_9 MINUP_G26_11 1.0
    W_G26_9 LOGIC_G26_9 1.0
    W_G26_9 MINDN_G26_9 1.0
    M22129 'MARKER' 'INTEND'
    P_G26_9 OBJ 51.50125778777329
    P_G26_9 PMIN_G26_9 1.0
    P_G26_9 PMAX_G26_9 1.0
    P_G26_9 RUP_G26_9 1.0
    P_G26_9 RDN_G26_9 -1.0
    P_G26_9 RUP_G26_10 -1.0
    P_G26_9 RDN_G26_10 1.0
    P_G26_9 DEM_9 1.0
    M22138 'MARKER' 'INTORG'
    U_G26_10 OBJ 247.16918747086174
    U_G26_10 PMIN_G26_10 -49.47896886987211
    U_G26_10 PMAX_G26_10 -104.93785307033771
    U_G26_10 LOGIC_G26_10 1.0
    U_G26_10 MINUP_G26_10 -1.0
    U_G26_10 MINDN_G26_10 1.0
    U_G26_10 LOGIC_G26_11 -1.0
    U_G26_10 RES_10 104.93785307033771
    V_G26_10 OBJ 578.4007947852297
    V_G26_10 LOGIC_G26_10 -1.0
    V_G26_10 MINUP_G26_10 1.0
    V_G26_10 MINUP_G26_11 1.0
    V_G26_10 MINUP_G26_12 1.0
    W_G26_10 LOGIC_G26_10 1.0
    W_G26_10 MINDN_G26_10 1.0
    M22154 'MARKER' 'INTEND'
    P_G26_10 OBJ 51.50125778777329
    P_G26_10 PMIN_G26_10 1.0
    P_G26_10 PMAX_G26_10 1.0
    P_G26_10 RUP_G26_10 1.0
    P_G26_10 RDN_G26_10 -1.0
    P_G26_10 RUP_G26_11 -1.0
    P_G26_10 RDN_G26_11 1.0
    P_G26_10 DEM_10 1.0
    M22163 'MARKER' 'INTORG'
    U_G26_11 OBJ 247.16918747086174
    U_G26_11 PMIN_G26_11 -49.47896886987211
    U_G26_11 PMAX_G26_11 -104.93785307033771
    U_G26_11 LOGIC_G26_11 1.0
    U_G26_11 MINUP_G26_11 -1.0
    U_G26_11 MINDN_G26_11 1.0
    U_G26_11 LOGIC_G26_12 -1.0
    U_G26_11 RES_11 104.93785307033771
    V_G26_11 OBJ 578.4007947852297
    V_G26_11 LOGIC_G26_11 -1.0
    V_G26_11 MINUP_G26_11 1.0
    V_G26_11 MINUP_G26_12 1.0
    V_G26_11 MINUP_G26_13 1.0
    W_G26_11 LOGIC_G26_11 1.0
    W_G26_11 MINDN_G26_11 1.0
    M22179 'MARKER' 'INTEND'
    P_G26_11 OBJ 51.50125778777329
    P_G26_11 PMIN_G26_11 1.0
    P_G26_11 PMAX_G26_11 1.0
    P_G26_11 RUP_G26_11 1.0
    P_G26_11 RDN_G26_11 -1.0
    P_G26_11 RUP_G26_12 -1.0
    P_G26_11 RDN_G26_12 1.0
    P_G26_11 DEM_11 1.0
    M22188 'MARKER' 'INTORG'
    U_G26_12 OBJ 247.16918747086174
    U_G26_12 PMIN_G26_12 -49.47896886987211
    U_G26_12 PMAX_G26_12 -104.93785307033771
    U_G26_12 LOGIC_G26_12 1.0
    U_G26_12 MINUP_G26_12 -1.0
    U_G26_12 MINDN_G26_12 1.0
    U_G26_12 LOGIC_G26_13 -1.0
    U_G26_12 RES_12 104.93785307033771
    V_G26_12 OBJ 578.4007947852297
    V_G26_12 LOGIC_G26_12 -1.0
    V_G26_12 MINUP_G26_12 1.0
    V_G26_12 MINUP_G26_13 1.0
    V_G26_12 MINUP_G26_14 1.0
    W_G26_12 LOGIC_G26_12 1.0
    W_G26_12 MINDN_G26_12 1.0
    M22204 'MARKER' 'INTEND'
    P_G26_12 OBJ 51.50125778777329
    P_G26_12 PMIN_G26_12 1.0
    P_G26_12 PMAX_G26_12 1.0
    P_G26_12 RUP_G26_12 1.0
    P_G26_12 RDN_G26_12 -1.0
    P_G26_12 RUP_G26_13 -1.0
    P_G26_12 RDN_G26_13 1.0
    P_G26_12 DEM_12 1.0
    M22213 'MARKER' 'INTORG'
    U_G26_13 OBJ 247.16918747086174
    U_G26_13 PMIN_G26_13 -49.47896886987211
    U_G26_13 PMAX_G26_13 -104.93785307033771
    U_G26_13 LOGIC_G26_13 1.0
    U_G26_13 MINUP_G26_13 -1.0
    U_G26_13 MINDN_G26_13 1.0
    U_G26_13 LOGIC_G26_14 -1.0
    U_G26_13 RES_13 104.93785307033771
    V_G26_13 OBJ 578.4007947852297
    V_G26_13 LOGIC_G26_13 -1.0
    V_G26_13 MINUP_G26_13 1.0
    V_G26_13 MINUP_G26_14 1.0
    V_G26_13 MINUP_G26_15 1.0
    W_G26_13 LOGIC_G26_13 1.0
    W_G26_13 MINDN_G26_13 1.0
    M22229 'MARKER' 'INTEND'
    P_G26_13 OBJ 51.50125778777329
    P_G26_13 PMIN_G26_13 1.0
    P_G26_13 PMAX_G26_13 1.0
    P_G26_13 RUP_G26_13 1.0
    P_G26_13 RDN_G26_13 -1.0
    P_G26_13 RUP_G26_14 -1.0
    P_G26_13 RDN_G26_14 1.0
    P_G26_13 DEM_13 1.0
    M22238 'MARKER' 'INTORG'
    U_G26_14 OBJ 247.16918747086174
    U_G26_14 PMIN_G26_14 -49.47896886987211
    U_G26_14 PMAX_G26_14 -104.93785307033771
    U_G26_14 LOGIC_G26_14 1.0
    U_G26_14 MINUP_G26_14 -1.0
    U_G26_14 MINDN_G26_14 1.0
    U_G26_14 LOGIC_G26_15 -1.0
    U_G26_14 RES_14 104.93785307033771
    V_G26_14 OBJ 578.4007947852297
    V_G26_14 LOGIC_G26_14 -1.0
    V_G26_14 MINUP_G26_14 1.0
    V_G26_14 MINUP_G26_15 1.0
    V_G26_14 MINUP_G26_16 1.0
    W_G26_14 LOGIC_G26_14 1.0
    W_G26_14 MINDN_G26_14 1.0
    M22254 'MARKER' 'INTEND'
    P_G26_14 OBJ 51.50125778777329
    P_G26_14 PMIN_G26_14 1.0
    P_G26_14 PMAX_G26_14 1.0
    P_G26_14 RUP_G26_14 1.0
    P_G26_14 RDN_G26_14 -1.0
    P_G26_14 RUP_G26_15 -1.0
    P_G26_14 RDN_G26_15 1.0
    P_G26_14 DEM_14 1.0
    M22263 'MARKER' 'INTORG'
    U_G26_15 OBJ 247.16918747086174
    U_G26_15 PMIN_G26_15 -49.47896886987211
    U_G26_15 PMAX_G26_15 -104.93785307033771
    U_G26_15 LOGIC_G26_15 1.0
    U_G26_15 MINUP_G26_15 -1.0
    U_G26_15 MINDN_G26_15 1.0
    U_G26_15 LOGIC_G26_16 -1.0
    U_G26_15 RES_15 104.93785307033771
    V_G26_15 OBJ 578.4007947852297
    V_G26_15 LOGIC_G26_15 -1.0
    V_G26_15 MINUP_G26_15 1.0
    V_G26_15 MINUP_G26_16 1.0
    V_G26_15 MINUP_G26_17 1.0
    W_G26_15 LOGIC_G26_15 1.0
    W_G26_15 MINDN_G26_15 1.0
    M22279 'MARKER' 'INTEND'
    P_G26_15 OBJ 51.50125778777329
    P_G26_15 PMIN_G26_15 1.0
    P_G26_15 PMAX_G26_15 1.0
    P_G26_15 RUP_G26_15 1.0
    P_G26_15 RDN_G26_15 -1.0
    P_G26_15 RUP_G26_16 -1.0
    P_G26_15 RDN_G26_16 1.0
    P_G26_15 DEM_15 1.0
    M22288 'MARKER' 'INTORG'
    U_G26_16 OBJ 247.16918747086174
    U_G26_16 PMIN_G26_16 -49.47896886987211
    U_G26_16 PMAX_G26_16 -104.93785307033771
    U_G26_16 LOGIC_G26_16 1.0
    U_G26_16 MINUP_G26_16 -1.0
    U_G26_16 MINDN_G26_16 1.0
    U_G26_16 LOGIC_G26_17 -1.0
    U_G26_16 RES_16 104.93785307033771
    V_G26_16 OBJ 578.4007947852297
    V_G26_16 LOGIC_G26_16 -1.0
    V_G26_16 MINUP_G26_16 1.0
    V_G26_16 MINUP_G26_17 1.0
    V_G26_16 MINUP_G26_18 1.0
    W_G26_16 LOGIC_G26_16 1.0
    W_G26_16 MINDN_G26_16 1.0
    M22304 'MARKER' 'INTEND'
    P_G26_16 OBJ 51.50125778777329
    P_G26_16 PMIN_G26_16 1.0
    P_G26_16 PMAX_G26_16 1.0
    P_G26_16 RUP_G26_16 1.0
    P_G26_16 RDN_G26_16 -1.0
    P_G26_16 RUP_G26_17 -1.0
    P_G26_16 RDN_G26_17 1.0
    P_G26_16 DEM_16 1.0
    M22313 'MARKER' 'INTORG'
    U_G26_17 OBJ 247.16918747086174
    U_G26_17 PMIN_G26_17 -49.47896886987211
    U_G26_17 PMAX_G26_17 -104.93785307033771
    U_G26_17 LOGIC_G26_17 1.0
    U_G26_17 MINUP_G26_17 -1.0
    U_G26_17 MINDN_G26_17 1.0
    U_G26_17 LOGIC_G26_18 -1.0
    U_G26_17 RES_17 104.93785307033771
    V_G26_17 OBJ 578.4007947852297
    V_G26_17 LOGIC_G26_17 -1.0
    V_G26_17 MINUP_G26_17 1.0
    V_G26_17 MINUP_G26_18 1.0
    V_G26_17 MINUP_G26_19 1.0
    W_G26_17 LOGIC_G26_17 1.0
    W_G26_17 MINDN_G26_17 1.0
    M22329 'MARKER' 'INTEND'
    P_G26_17 OBJ 51.50125778777329
    P_G26_17 PMIN_G26_17 1.0
    P_G26_17 PMAX_G26_17 1.0
    P_G26_17 RUP_G26_17 1.0
    P_G26_17 RDN_G26_17 -1.0
    P_G26_17 RUP_G26_18 -1.0
    P_G26_17 RDN_G26_18 1.0
    P_G26_17 DEM_17 1.0
    M22338 'MARKER' 'INTORG'
    U_G26_18 OBJ 247.16918747086174
    U_G26_18 PMIN_G26_18 -49.47896886987211
    U_G26_18 PMAX_G26_18 -104.93785307033771
    U_G26_18 LOGIC_G26_18 1.0
    U_G26_18 MINUP_G26_18 -1.0
    U_G26_18 MINDN_G26_18 1.0
    U_G26_18 LOGIC_G26_19 -1.0
    U_G26_18 RES_18 104.93785307033771
    V_G26_18 OBJ 578.4007947852297
    V_G26_18 LOGIC_G26_18 -1.0
    V_G26_18 MINUP_G26_18 1.0
    V_G26_18 MINUP_G26_19 1.0
    V_G26_18 MINUP_G26_20 1.0
    W_G26_18 LOGIC_G26_18 1.0
    W_G26_18 MINDN_G26_18 1.0
    M22354 'MARKER' 'INTEND'
    P_G26_18 OBJ 51.50125778777329
    P_G26_18 PMIN_G26_18 1.0
    P_G26_18 PMAX_G26_18 1.0
    P_G26_18 RUP_G26_18 1.0
    P_G26_18 RDN_G26_18 -1.0
    P_G26_18 RUP_G26_19 -1.0
    P_G26_18 RDN_G26_19 1.0
    P_G26_18 DEM_18 1.0
    M22363 'MARKER' 'INTORG'
    U_G26_19 OBJ 247.16918747086174
    U_G26_19 PMIN_G26_19 -49.47896886987211
    U_G26_19 PMAX_G26_19 -104.93785307033771
    U_G26_19 LOGIC_G26_19 1.0
    U_G26_19 MINUP_G26_19 -1.0
    U_G26_19 MINDN_G26_19 1.0
    U_G26_19 LOGIC_G26_20 -1.0
    U_G26_19 RES_19 104.93785307033771
    V_G26_19 OBJ 578.4007947852297
    V_G26_19 LOGIC_G26_19 -1.0
    V_G26_19 MINUP_G26_19 1.0
    V_G26_19 MINUP_G26_20 1.0
    V_G26_19 MINUP_G26_21 1.0
    W_G26_19 LOGIC_G26_19 1.0
    W_G26_19 MINDN_G26_19 1.0
    M22379 'MARKER' 'INTEND'
    P_G26_19 OBJ 51.50125778777329
    P_G26_19 PMIN_G26_19 1.0
    P_G26_19 PMAX_G26_19 1.0
    P_G26_19 RUP_G26_19 1.0
    P_G26_19 RDN_G26_19 -1.0
    P_G26_19 RUP_G26_20 -1.0
    P_G26_19 RDN_G26_20 1.0
    P_G26_19 DEM_19 1.0
    M22388 'MARKER' 'INTORG'
    U_G26_20 OBJ 247.16918747086174
    U_G26_20 PMIN_G26_20 -49.47896886987211
    U_G26_20 PMAX_G26_20 -104.93785307033771
    U_G26_20 LOGIC_G26_20 1.0
    U_G26_20 MINUP_G26_20 -1.0
    U_G26_20 MINDN_G26_20 1.0
    U_G26_20 LOGIC_G26_21 -1.0
    U_G26_20 RES_20 104.93785307033771
    V_G26_20 OBJ 578.4007947852297
    V_G26_20 LOGIC_G26_20 -1.0
    V_G26_20 MINUP_G26_20 1.0
    V_G26_20 MINUP_G26_21 1.0
    V_G26_20 MINUP_G26_22 1.0
    W_G26_20 LOGIC_G26_20 1.0
    W_G26_20 MINDN_G26_20 1.0
    M22404 'MARKER' 'INTEND'
    P_G26_20 OBJ 51.50125778777329
    P_G26_20 PMIN_G26_20 1.0
    P_G26_20 PMAX_G26_20 1.0
    P_G26_20 RUP_G26_20 1.0
    P_G26_20 RDN_G26_20 -1.0
    P_G26_20 RUP_G26_21 -1.0
    P_G26_20 RDN_G26_21 1.0
    P_G26_20 DEM_20 1.0
    M22413 'MARKER' 'INTORG'
    U_G26_21 OBJ 247.16918747086174
    U_G26_21 PMIN_G26_21 -49.47896886987211
    U_G26_21 PMAX_G26_21 -104.93785307033771
    U_G26_21 LOGIC_G26_21 1.0
    U_G26_21 MINUP_G26_21 -1.0
    U_G26_21 MINDN_G26_21 1.0
    U_G26_21 LOGIC_G26_22 -1.0
    U_G26_21 RES_21 104.93785307033771
    V_G26_21 OBJ 578.4007947852297
    V_G26_21 LOGIC_G26_21 -1.0
    V_G26_21 MINUP_G26_21 1.0
    V_G26_21 MINUP_G26_22 1.0
    V_G26_21 MINUP_G26_23 1.0
    W_G26_21 LOGIC_G26_21 1.0
    W_G26_21 MINDN_G26_21 1.0
    M22429 'MARKER' 'INTEND'
    P_G26_21 OBJ 51.50125778777329
    P_G26_21 PMIN_G26_21 1.0
    P_G26_21 PMAX_G26_21 1.0
    P_G26_21 RUP_G26_21 1.0
    P_G26_21 RDN_G26_21 -1.0
    P_G26_21 RUP_G26_22 -1.0
    P_G26_21 RDN_G26_22 1.0
    P_G26_21 DEM_21 1.0
    M22438 'MARKER' 'INTORG'
    U_G26_22 OBJ 247.16918747086174
    U_G26_22 PMIN_G26_22 -49.47896886987211
    U_G26_22 PMAX_G26_22 -104.93785307033771
    U_G26_22 LOGIC_G26_22 1.0
    U_G26_22 MINUP_G26_22 -1.0
    U_G26_22 MINDN_G26_22 1.0
    U_G26_22 LOGIC_G26_23 -1.0
    U_G26_22 RES_22 104.93785307033771
    V_G26_22 OBJ 578.4007947852297
    V_G26_22 LOGIC_G26_22 -1.0
    V_G26_22 MINUP_G26_22 1.0
    V_G26_22 MINUP_G26_23 1.0
    W_G26_22 LOGIC_G26_22 1.0
    W_G26_22 MINDN_G26_22 1.0
    M22453 'MARKER' 'INTEND'
    P_G26_22 OBJ 51.50125778777329
    P_G26_22 PMIN_G26_22 1.0
    P_G26_22 PMAX_G26_22 1.0
    P_G26_22 RUP_G26_22 1.0
    P_G26_22 RDN_G26_22 -1.0
    P_G26_22 RUP_G26_23 -1.0
    P_G26_22 RDN_G26_23 1.0
    P_G26_22 DEM_22 1.0
    M22462 'MARKER' 'INTORG'
    U_G26_23 OBJ 247.16918747086174
    U_G26_23 PMIN_G26_23 -49.47896886987211
    U_G26_23 PMAX_G26_23 -104.93785307033771
    U_G26_23 LOGIC_G26_23 1.0
    U_G26_23 MINUP_G26_23 -1.0
    U_G26_23 MINDN_G26_23 1.0
    U_G26_23 RES_23 104.93785307033771
    V_G26_23 OBJ 578.4007947852297
    V_G26_23 LOGIC_G26_23 -1.0
    V_G26_23 MINUP_G26_23 1.0
    W_G26_23 LOGIC_G26_23 1.0
    W_G26_23 MINDN_G26_23 1.0
    M22475 'MARKER' 'INTEND'
    P_G26_23 OBJ 51.50125778777329
    P_G26_23 PMIN_G26_23 1.0
    P_G26_23 PMAX_G26_23 1.0
    P_G26_23 RUP_G26_23 1.0
    P_G26_23 RDN_G26_23 -1.0
    P_G26_23 DEM_23 1.0
    M22482 'MARKER' 'INTORG'
    U_G27_0 OBJ 358.83762086326226
    U_G27_0 PMIN_G27_0 -166.94309808036124
    U_G27_0 PMAX_G27_0 -343.1953745538875
    U_G27_0 LOGIC_G27_0 1.0
    U_G27_0 MINUP_G27_0 -1.0
    U_G27_0 MINDN_G27_0 1.0
    U_G27_0 LOGIC_G27_1 -1.0
    U_G27_0 RES_0 343.1953745538875
    V_G27_0 OBJ 2123.908510030241
    V_G27_0 LOGIC_G27_0 -1.0
    V_G27_0 MINUP_G27_0 1.0
    V_G27_0 MINUP_G27_1 1.0
    V_G27_0 MINUP_G27_2 1.0
    V_G27_0 MINUP_G27_3 1.0
    V_G27_0 MINUP_G27_4 1.0
    W_G27_0 LOGIC_G27_0 1.0
    W_G27_0 MINDN_G27_0 1.0
    W_G27_0 MINDN_G27_1 1.0
    M22501 'MARKER' 'INTEND'
    P_G27_0 OBJ 30.47324166558689
    P_G27_0 PMIN_G27_0 1.0
    P_G27_0 PMAX_G27_0 1.0
    P_G27_0 RUP_G27_1 -1.0
    P_G27_0 RDN_G27_1 1.0
    P_G27_0 DEM_0 1.0
    M22508 'MARKER' 'INTORG'
    U_G27_1 OBJ 358.83762086326226
    U_G27_1 PMIN_G27_1 -166.94309808036124
    U_G27_1 PMAX_G27_1 -343.1953745538875
    U_G27_1 LOGIC_G27_1 1.0
    U_G27_1 MINUP_G27_1 -1.0
    U_G27_1 MINDN_G27_1 1.0
    U_G27_1 LOGIC_G27_2 -1.0
    U_G27_1 RES_1 343.1953745538875
    V_G27_1 OBJ 2123.908510030241
    V_G27_1 LOGIC_G27_1 -1.0
    V_G27_1 MINUP_G27_1 1.0
    V_G27_1 MINUP_G27_2 1.0
    V_G27_1 MINUP_G27_3 1.0
    V_G27_1 MINUP_G27_4 1.0
    V_G27_1 MINUP_G27_5 1.0
    W_G27_1 LOGIC_G27_1 1.0
    W_G27_1 MINDN_G27_1 1.0
    W_G27_1 MINDN_G27_2 1.0
    M22527 'MARKER' 'INTEND'
    P_G27_1 OBJ 30.47324166558689
    P_G27_1 PMIN_G27_1 1.0
    P_G27_1 PMAX_G27_1 1.0
    P_G27_1 RUP_G27_1 1.0
    P_G27_1 RDN_G27_1 -1.0
    P_G27_1 RUP_G27_2 -1.0
    P_G27_1 RDN_G27_2 1.0
    P_G27_1 DEM_1 1.0
    M22536 'MARKER' 'INTORG'
    U_G27_2 OBJ 358.83762086326226
    U_G27_2 PMIN_G27_2 -166.94309808036124
    U_G27_2 PMAX_G27_2 -343.1953745538875
    U_G27_2 LOGIC_G27_2 1.0
    U_G27_2 MINUP_G27_2 -1.0
    U_G27_2 MINDN_G27_2 1.0
    U_G27_2 LOGIC_G27_3 -1.0
    U_G27_2 RES_2 343.1953745538875
    V_G27_2 OBJ 2123.908510030241
    V_G27_2 LOGIC_G27_2 -1.0
    V_G27_2 MINUP_G27_2 1.0
    V_G27_2 MINUP_G27_3 1.0
    V_G27_2 MINUP_G27_4 1.0
    V_G27_2 MINUP_G27_5 1.0
    V_G27_2 MINUP_G27_6 1.0
    W_G27_2 LOGIC_G27_2 1.0
    W_G27_2 MINDN_G27_2 1.0
    W_G27_2 MINDN_G27_3 1.0
    M22555 'MARKER' 'INTEND'
    P_G27_2 OBJ 30.47324166558689
    P_G27_2 PMIN_G27_2 1.0
    P_G27_2 PMAX_G27_2 1.0
    P_G27_2 RUP_G27_2 1.0
    P_G27_2 RDN_G27_2 -1.0
    P_G27_2 RUP_G27_3 -1.0
    P_G27_2 RDN_G27_3 1.0
    P_G27_2 DEM_2 1.0
    M22564 'MARKER' 'INTORG'
    U_G27_3 OBJ 358.83762086326226
    U_G27_3 PMIN_G27_3 -166.94309808036124
    U_G27_3 PMAX_G27_3 -343.1953745538875
    U_G27_3 LOGIC_G27_3 1.0
    U_G27_3 MINUP_G27_3 -1.0
    U_G27_3 MINDN_G27_3 1.0
    U_G27_3 LOGIC_G27_4 -1.0
    U_G27_3 RES_3 343.1953745538875
    V_G27_3 OBJ 2123.908510030241
    V_G27_3 LOGIC_G27_3 -1.0
    V_G27_3 MINUP_G27_3 1.0
    V_G27_3 MINUP_G27_4 1.0
    V_G27_3 MINUP_G27_5 1.0
    V_G27_3 MINUP_G27_6 1.0
    V_G27_3 MINUP_G27_7 1.0
    W_G27_3 LOGIC_G27_3 1.0
    W_G27_3 MINDN_G27_3 1.0
    W_G27_3 MINDN_G27_4 1.0
    M22583 'MARKER' 'INTEND'
    P_G27_3 OBJ 30.47324166558689
    P_G27_3 PMIN_G27_3 1.0
    P_G27_3 PMAX_G27_3 1.0
    P_G27_3 RUP_G27_3 1.0
    P_G27_3 RDN_G27_3 -1.0
    P_G27_3 RUP_G27_4 -1.0
    P_G27_3 RDN_G27_4 1.0
    P_G27_3 DEM_3 1.0
    M22592 'MARKER' 'INTORG'
    U_G27_4 OBJ 358.83762086326226
    U_G27_4 PMIN_G27_4 -166.94309808036124
    U_G27_4 PMAX_G27_4 -343.1953745538875
    U_G27_4 LOGIC_G27_4 1.0
    U_G27_4 MINUP_G27_4 -1.0
    U_G27_4 MINDN_G27_4 1.0
    U_G27_4 LOGIC_G27_5 -1.0
    U_G27_4 RES_4 343.1953745538875
    V_G27_4 OBJ 2123.908510030241
    V_G27_4 LOGIC_G27_4 -1.0
    V_G27_4 MINUP_G27_4 1.0
    V_G27_4 MINUP_G27_5 1.0
    V_G27_4 MINUP_G27_6 1.0
    V_G27_4 MINUP_G27_7 1.0
    V_G27_4 MINUP_G27_8 1.0
    W_G27_4 LOGIC_G27_4 1.0
    W_G27_4 MINDN_G27_4 1.0
    W_G27_4 MINDN_G27_5 1.0
    M22611 'MARKER' 'INTEND'
    P_G27_4 OBJ 30.47324166558689
    P_G27_4 PMIN_G27_4 1.0
    P_G27_4 PMAX_G27_4 1.0
    P_G27_4 RUP_G27_4 1.0
    P_G27_4 RDN_G27_4 -1.0
    P_G27_4 RUP_G27_5 -1.0
    P_G27_4 RDN_G27_5 1.0
    P_G27_4 DEM_4 1.0
    M22620 'MARKER' 'INTORG'
    U_G27_5 OBJ 358.83762086326226
    U_G27_5 PMIN_G27_5 -166.94309808036124
    U_G27_5 PMAX_G27_5 -343.1953745538875
    U_G27_5 LOGIC_G27_5 1.0
    U_G27_5 MINUP_G27_5 -1.0
    U_G27_5 MINDN_G27_5 1.0
    U_G27_5 LOGIC_G27_6 -1.0
    U_G27_5 RES_5 343.1953745538875
    V_G27_5 OBJ 2123.908510030241
    V_G27_5 LOGIC_G27_5 -1.0
    V_G27_5 MINUP_G27_5 1.0
    V_G27_5 MINUP_G27_6 1.0
    V_G27_5 MINUP_G27_7 1.0
    V_G27_5 MINUP_G27_8 1.0
    V_G27_5 MINUP_G27_9 1.0
    W_G27_5 LOGIC_G27_5 1.0
    W_G27_5 MINDN_G27_5 1.0
    W_G27_5 MINDN_G27_6 1.0
    M22639 'MARKER' 'INTEND'
    P_G27_5 OBJ 30.47324166558689
    P_G27_5 PMIN_G27_5 1.0
    P_G27_5 PMAX_G27_5 1.0
    P_G27_5 RUP_G27_5 1.0
    P_G27_5 RDN_G27_5 -1.0
    P_G27_5 RUP_G27_6 -1.0
    P_G27_5 RDN_G27_6 1.0
    P_G27_5 DEM_5 1.0
    M22648 'MARKER' 'INTORG'
    U_G27_6 OBJ 358.83762086326226
    U_G27_6 PMIN_G27_6 -166.94309808036124
    U_G27_6 PMAX_G27_6 -343.1953745538875
    U_G27_6 LOGIC_G27_6 1.0
    U_G27_6 MINUP_G27_6 -1.0
    U_G27_6 MINDN_G27_6 1.0
    U_G27_6 LOGIC_G27_7 -1.0
    U_G27_6 RES_6 343.1953745538875
    V_G27_6 OBJ 2123.908510030241
    V_G27_6 LOGIC_G27_6 -1.0
    V_G27_6 MINUP_G27_6 1.0
    V_G27_6 MINUP_G27_7 1.0
    V_G27_6 MINUP_G27_8 1.0
    V_G27_6 MINUP_G27_9 1.0
    V_G27_6 MINUP_G27_10 1.0
    W_G27_6 LOGIC_G27_6 1.0
    W_G27_6 MINDN_G27_6 1.0
    W_G27_6 MINDN_G27_7 1.0
    M22667 'MARKER' 'INTEND'
    P_G27_6 OBJ 30.47324166558689
    P_G27_6 PMIN_G27_6 1.0
    P_G27_6 PMAX_G27_6 1.0
    P_G27_6 RUP_G27_6 1.0
    P_G27_6 RDN_G27_6 -1.0
    P_G27_6 RUP_G27_7 -1.0
    P_G27_6 RDN_G27_7 1.0
    P_G27_6 DEM_6 1.0
    M22676 'MARKER' 'INTORG'
    U_G27_7 OBJ 358.83762086326226
    U_G27_7 PMIN_G27_7 -166.94309808036124
    U_G27_7 PMAX_G27_7 -343.1953745538875
    U_G27_7 LOGIC_G27_7 1.0
    U_G27_7 MINUP_G27_7 -1.0
    U_G27_7 MINDN_G27_7 1.0
    U_G27_7 LOGIC_G27_8 -1.0
    U_G27_7 RES_7 343.1953745538875
    V_G27_7 OBJ 2123.908510030241
    V_G27_7 LOGIC_G27_7 -1.0
    V_G27_7 MINUP_G27_7 1.0
    V_G27_7 MINUP_G27_8 1.0
    V_G27_7 MINUP_G27_9 1.0
    V_G27_7 MINUP_G27_10 1.0
    V_G27_7 MINUP_G27_11 1.0
    W_G27_7 LOGIC_G27_7 1.0
    W_G27_7 MINDN_G27_7 1.0
    W_G27_7 MINDN_G27_8 1.0
    M22695 'MARKER' 'INTEND'
    P_G27_7 OBJ 30.47324166558689
    P_G27_7 PMIN_G27_7 1.0
    P_G27_7 PMAX_G27_7 1.0
    P_G27_7 RUP_G27_7 1.0
    P_G27_7 RDN_G27_7 -1.0
    P_G27_7 RUP_G27_8 -1.0
    P_G27_7 RDN_G27_8 1.0
    P_G27_7 DEM_7 1.0
    M22704 'MARKER' 'INTORG'
    U_G27_8 OBJ 358.83762086326226
    U_G27_8 PMIN_G27_8 -166.94309808036124
    U_G27_8 PMAX_G27_8 -343.1953745538875
    U_G27_8 LOGIC_G27_8 1.0
    U_G27_8 MINUP_G27_8 -1.0
    U_G27_8 MINDN_G27_8 1.0
    U_G27_8 LOGIC_G27_9 -1.0
    U_G27_8 RES_8 343.1953745538875
    V_G27_8 OBJ 2123.908510030241
    V_G27_8 LOGIC_G27_8 -1.0
    V_G27_8 MINUP_G27_8 1.0
    V_G27_8 MINUP_G27_9 1.0
    V_G27_8 MINUP_G27_10 1.0
    V_G27_8 MINUP_G27_11 1.0
    V_G27_8 MINUP_G27_12 1.0
    W_G27_8 LOGIC_G27_8 1.0
    W_G27_8 MINDN_G27_8 1.0
    W_G27_8 MINDN_G27_9 1.0
    M22723 'MARKER' 'INTEND'
    P_G27_8 OBJ 30.47324166558689
    P_G27_8 PMIN_G27_8 1.0
    P_G27_8 PMAX_G27_8 1.0
    P_G27_8 RUP_G27_8 1.0
    P_G27_8 RDN_G27_8 -1.0
    P_G27_8 RUP_G27_9 -1.0
    P_G27_8 RDN_G27_9 1.0
    P_G27_8 DEM_8 1.0
    M22732 'MARKER' 'INTORG'
    U_G27_9 OBJ 358.83762086326226
    U_G27_9 PMIN_G27_9 -166.94309808036124
    U_G27_9 PMAX_G27_9 -343.1953745538875
    U_G27_9 LOGIC_G27_9 1.0
    U_G27_9 MINUP_G27_9 -1.0
    U_G27_9 MINDN_G27_9 1.0
    U_G27_9 LOGIC_G27_10 -1.0
    U_G27_9 RES_9 343.1953745538875
    V_G27_9 OBJ 2123.908510030241
    V_G27_9 LOGIC_G27_9 -1.0
    V_G27_9 MINUP_G27_9 1.0
    V_G27_9 MINUP_G27_10 1.0
    V_G27_9 MINUP_G27_11 1.0
    V_G27_9 MINUP_G27_12 1.0
    V_G27_9 MINUP_G27_13 1.0
    W_G27_9 LOGIC_G27_9 1.0
    W_G27_9 MINDN_G27_9 1.0
    W_G27_9 MINDN_G27_10 1.0
    M22751 'MARKER' 'INTEND'
    P_G27_9 OBJ 30.47324166558689
    P_G27_9 PMIN_G27_9 1.0
    P_G27_9 PMAX_G27_9 1.0
    P_G27_9 RUP_G27_9 1.0
    P_G27_9 RDN_G27_9 -1.0
    P_G27_9 RUP_G27_10 -1.0
    P_G27_9 RDN_G27_10 1.0
    P_G27_9 DEM_9 1.0
    M22760 'MARKER' 'INTORG'
    U_G27_10 OBJ 358.83762086326226
    U_G27_10 PMIN_G27_10 -166.94309808036124
    U_G27_10 PMAX_G27_10 -343.1953745538875
    U_G27_10 LOGIC_G27_10 1.0
    U_G27_10 MINUP_G27_10 -1.0
    U_G27_10 MINDN_G27_10 1.0
    U_G27_10 LOGIC_G27_11 -1.0
    U_G27_10 RES_10 343.1953745538875
    V_G27_10 OBJ 2123.908510030241
    V_G27_10 LOGIC_G27_10 -1.0
    V_G27_10 MINUP_G27_10 1.0
    V_G27_10 MINUP_G27_11 1.0
    V_G27_10 MINUP_G27_12 1.0
    V_G27_10 MINUP_G27_13 1.0
    V_G27_10 MINUP_G27_14 1.0
    W_G27_10 LOGIC_G27_10 1.0
    W_G27_10 MINDN_G27_10 1.0
    W_G27_10 MINDN_G27_11 1.0
    M22779 'MARKER' 'INTEND'
    P_G27_10 OBJ 30.47324166558689
    P_G27_10 PMIN_G27_10 1.0
    P_G27_10 PMAX_G27_10 1.0
    P_G27_10 RUP_G27_10 1.0
    P_G27_10 RDN_G27_10 -1.0
    P_G27_10 RUP_G27_11 -1.0
    P_G27_10 RDN_G27_11 1.0
    P_G27_10 DEM_10 1.0
    M22788 'MARKER' 'INTORG'
    U_G27_11 OBJ 358.83762086326226
    U_G27_11 PMIN_G27_11 -166.94309808036124
    U_G27_11 PMAX_G27_11 -343.1953745538875
    U_G27_11 LOGIC_G27_11 1.0
    U_G27_11 MINUP_G27_11 -1.0
    U_G27_11 MINDN_G27_11 1.0
    U_G27_11 LOGIC_G27_12 -1.0
    U_G27_11 RES_11 343.1953745538875
    V_G27_11 OBJ 2123.908510030241
    V_G27_11 LOGIC_G27_11 -1.0
    V_G27_11 MINUP_G27_11 1.0
    V_G27_11 MINUP_G27_12 1.0
    V_G27_11 MINUP_G27_13 1.0
    V_G27_11 MINUP_G27_14 1.0
    V_G27_11 MINUP_G27_15 1.0
    W_G27_11 LOGIC_G27_11 1.0
    W_G27_11 MINDN_G27_11 1.0
    W_G27_11 MINDN_G27_12 1.0
    M22807 'MARKER' 'INTEND'
    P_G27_11 OBJ 30.47324166558689
    P_G27_11 PMIN_G27_11 1.0
    P_G27_11 PMAX_G27_11 1.0
    P_G27_11 RUP_G27_11 1.0
    P_G27_11 RDN_G27_11 -1.0
    P_G27_11 RUP_G27_12 -1.0
    P_G27_11 RDN_G27_12 1.0
    P_G27_11 DEM_11 1.0
    M22816 'MARKER' 'INTORG'
    U_G27_12 OBJ 358.83762086326226
    U_G27_12 PMIN_G27_12 -166.94309808036124
    U_G27_12 PMAX_G27_12 -343.1953745538875
    U_G27_12 LOGIC_G27_12 1.0
    U_G27_12 MINUP_G27_12 -1.0
    U_G27_12 MINDN_G27_12 1.0
    U_G27_12 LOGIC_G27_13 -1.0
    U_G27_12 RES_12 343.1953745538875
    V_G27_12 OBJ 2123.908510030241
    V_G27_12 LOGIC_G27_12 -1.0
    V_G27_12 MINUP_G27_12 1.0
    V_G27_12 MINUP_G27_13 1.0
    V_G27_12 MINUP_G27_14 1.0
    V_G27_12 MINUP_G27_15 1.0
    V_G27_12 MINUP_G27_16 1.0
    W_G27_12 LOGIC_G27_12 1.0
    W_G27_12 MINDN_G27_12 1.0
    W_G27_12 MINDN_G27_13 1.0
    M22835 'MARKER' 'INTEND'
    P_G27_12 OBJ 30.47324166558689
    P_G27_12 PMIN_G27_12 1.0
    P_G27_12 PMAX_G27_12 1.0
    P_G27_12 RUP_G27_12 1.0
    P_G27_12 RDN_G27_12 -1.0
    P_G27_12 RUP_G27_13 -1.0
    P_G27_12 RDN_G27_13 1.0
    P_G27_12 DEM_12 1.0
    M22844 'MARKER' 'INTORG'
    U_G27_13 OBJ 358.83762086326226
    U_G27_13 PMIN_G27_13 -166.94309808036124
    U_G27_13 PMAX_G27_13 -343.1953745538875
    U_G27_13 LOGIC_G27_13 1.0
    U_G27_13 MINUP_G27_13 -1.0
    U_G27_13 MINDN_G27_13 1.0
    U_G27_13 LOGIC_G27_14 -1.0
    U_G27_13 RES_13 343.1953745538875
    V_G27_13 OBJ 2123.908510030241
    V_G27_13 LOGIC_G27_13 -1.0
    V_G27_13 MINUP_G27_13 1.0
    V_G27_13 MINUP_G27_14 1.0
    V_G27_13 MINUP_G27_15 1.0
    V_G27_13 MINUP_G27_16 1.0
    V_G27_13 MINUP_G27_17 1.0
    W_G27_13 LOGIC_G27_13 1.0
    W_G27_13 MINDN_G27_13 1.0
    W_G27_13 MINDN_G27_14 1.0
    M22863 'MARKER' 'INTEND'
    P_G27_13 OBJ 30.47324166558689
    P_G27_13 PMIN_G27_13 1.0
    P_G27_13 PMAX_G27_13 1.0
    P_G27_13 RUP_G27_13 1.0
    P_G27_13 RDN_G27_13 -1.0
    P_G27_13 RUP_G27_14 -1.0
    P_G27_13 RDN_G27_14 1.0
    P_G27_13 DEM_13 1.0
    M22872 'MARKER' 'INTORG'
    U_G27_14 OBJ 358.83762086326226
    U_G27_14 PMIN_G27_14 -166.94309808036124
    U_G27_14 PMAX_G27_14 -343.1953745538875
    U_G27_14 LOGIC_G27_14 1.0
    U_G27_14 MINUP_G27_14 -1.0
    U_G27_14 MINDN_G27_14 1.0
    U_G27_14 LOGIC_G27_15 -1.0
    U_G27_14 RES_14 343.1953745538875
    V_G27_14 OBJ 2123.908510030241
    V_G27_14 LOGIC_G27_14 -1.0
    V_G27_14 MINUP_G27_14 1.0
    V_G27_14 MINUP_G27_15 1.0
    V_G27_14 MINUP_G27_16 1.0
    V_G27_14 MINUP_G27_17 1.0
    V_G27_14 MINUP_G27_18 1.0
    W_G27_14 LOGIC_G27_14 1.0
    W_G27_14 MINDN_G27_14 1.0
    W_G27_14 MINDN_G27_15 1.0
    M22891 'MARKER' 'INTEND'
    P_G27_14 OBJ 30.47324166558689
    P_G27_14 PMIN_G27_14 1.0
    P_G27_14 PMAX_G27_14 1.0
    P_G27_14 RUP_G27_14 1.0
    P_G27_14 RDN_G27_14 -1.0
    P_G27_14 RUP_G27_15 -1.0
    P_G27_14 RDN_G27_15 1.0
    P_G27_14 DEM_14 1.0
    M22900 'MARKER' 'INTORG'
    U_G27_15 OBJ 358.83762086326226
    U_G27_15 PMIN_G27_15 -166.94309808036124
    U_G27_15 PMAX_G27_15 -343.1953745538875
    U_G27_15 LOGIC_G27_15 1.0
    U_G27_15 MINUP_G27_15 -1.0
    U_G27_15 MINDN_G27_15 1.0
    U_G27_15 LOGIC_G27_16 -1.0
    U_G27_15 RES_15 343.1953745538875
    V_G27_15 OBJ 2123.908510030241
    V_G27_15 LOGIC_G27_15 -1.0
    V_G27_15 MINUP_G27_15 1.0
    V_G27_15 MINUP_G27_16 1.0
    V_G27_15 MINUP_G27_17 1.0
    V_G27_15 MINUP_G27_18 1.0
    V_G27_15 MINUP_G27_19 1.0
    W_G27_15 LOGIC_G27_15 1.0
    W_G27_15 MINDN_G27_15 1.0
    W_G27_15 MINDN_G27_16 1.0
    M22919 'MARKER' 'INTEND'
    P_G27_15 OBJ 30.47324166558689
    P_G27_15 PMIN_G27_15 1.0
    P_G27_15 PMAX_G27_15 1.0
    P_G27_15 RUP_G27_15 1.0
    P_G27_15 RDN_G27_15 -1.0
    P_G27_15 RUP_G27_16 -1.0
    P_G27_15 RDN_G27_16 1.0
    P_G27_15 DEM_15 1.0
    M22928 'MARKER' 'INTORG'
    U_G27_16 OBJ 358.83762086326226
    U_G27_16 PMIN_G27_16 -166.94309808036124
    U_G27_16 PMAX_G27_16 -343.1953745538875
    U_G27_16 LOGIC_G27_16 1.0
    U_G27_16 MINUP_G27_16 -1.0
    U_G27_16 MINDN_G27_16 1.0
    U_G27_16 LOGIC_G27_17 -1.0
    U_G27_16 RES_16 343.1953745538875
    V_G27_16 OBJ 2123.908510030241
    V_G27_16 LOGIC_G27_16 -1.0
    V_G27_16 MINUP_G27_16 1.0
    V_G27_16 MINUP_G27_17 1.0
    V_G27_16 MINUP_G27_18 1.0
    V_G27_16 MINUP_G27_19 1.0
    V_G27_16 MINUP_G27_20 1.0
    W_G27_16 LOGIC_G27_16 1.0
    W_G27_16 MINDN_G27_16 1.0
    W_G27_16 MINDN_G27_17 1.0
    M22947 'MARKER' 'INTEND'
    P_G27_16 OBJ 30.47324166558689
    P_G27_16 PMIN_G27_16 1.0
    P_G27_16 PMAX_G27_16 1.0
    P_G27_16 RUP_G27_16 1.0
    P_G27_16 RDN_G27_16 -1.0
    P_G27_16 RUP_G27_17 -1.0
    P_G27_16 RDN_G27_17 1.0
    P_G27_16 DEM_16 1.0
    M22956 'MARKER' 'INTORG'
    U_G27_17 OBJ 358.83762086326226
    U_G27_17 PMIN_G27_17 -166.94309808036124
    U_G27_17 PMAX_G27_17 -343.1953745538875
    U_G27_17 LOGIC_G27_17 1.0
    U_G27_17 MINUP_G27_17 -1.0
    U_G27_17 MINDN_G27_17 1.0
    U_G27_17 LOGIC_G27_18 -1.0
    U_G27_17 RES_17 343.1953745538875
    V_G27_17 OBJ 2123.908510030241
    V_G27_17 LOGIC_G27_17 -1.0
    V_G27_17 MINUP_G27_17 1.0
    V_G27_17 MINUP_G27_18 1.0
    V_G27_17 MINUP_G27_19 1.0
    V_G27_17 MINUP_G27_20 1.0
    V_G27_17 MINUP_G27_21 1.0
    W_G27_17 LOGIC_G27_17 1.0
    W_G27_17 MINDN_G27_17 1.0
    W_G27_17 MINDN_G27_18 1.0
    M22975 'MARKER' 'INTEND'
    P_G27_17 OBJ 30.47324166558689
    P_G27_17 PMIN_G27_17 1.0
    P_G27_17 PMAX_G27_17 1.0
    P_G27_17 RUP_G27_17 1.0
    P_G27_17 RDN_G27_17 -1.0
    P_G27_17 RUP_G27_18 -1.0
    P_G27_17 RDN_G27_18 1.0
    P_G27_17 DEM_17 1.0
    M22984 'MARKER' 'INTORG'
    U_G27_18 OBJ 358.83762086326226
    U_G27_18 PMIN_G27_18 -166.94309808036124
    U_G27_18 PMAX_G27_18 -343.1953745538875
    U_G27_18 LOGIC_G27_18 1.0
    U_G27_18 MINUP_G27_18 -1.0
    U_G27_18 MINDN_G27_18 1.0
    U_G27_18 LOGIC_G27_19 -1.0
    U_G27_18 RES_18 343.1953745538875
    V_G27_18 OBJ 2123.908510030241
    V_G27_18 LOGIC_G27_18 -1.0
    V_G27_18 MINUP_G27_18 1.0
    V_G27_18 MINUP_G27_19 1.0
    V_G27_18 MINUP_G27_20 1.0
    V_G27_18 MINUP_G27_21 1.0
    V_G27_18 MINUP_G27_22 1.0
    W_G27_18 LOGIC_G27_18 1.0
    W_G27_18 MINDN_G27_18 1.0
    W_G27_18 MINDN_G27_19 1.0
    M23003 'MARKER' 'INTEND'
    P_G27_18 OBJ 30.47324166558689
    P_G27_18 PMIN_G27_18 1.0
    P_G27_18 PMAX_G27_18 1.0
    P_G27_18 RUP_G27_18 1.0
    P_G27_18 RDN_G27_18 -1.0
    P_G27_18 RUP_G27_19 -1.0
    P_G27_18 RDN_G27_19 1.0
    P_G27_18 DEM_18 1.0
    M23012 'MARKER' 'INTORG'
    U_G27_19 OBJ 358.83762086326226
    U_G27_19 PMIN_G27_19 -166.94309808036124
    U_G27_19 PMAX_G27_19 -343.1953745538875
    U_G27_19 LOGIC_G27_19 1.0
    U_G27_19 MINUP_G27_19 -1.0
    U_G27_19 MINDN_G27_19 1.0
    U_G27_19 LOGIC_G27_20 -1.0
    U_G27_19 RES_19 343.1953745538875
    V_G27_19 OBJ 2123.908510030241
    V_G27_19 LOGIC_G27_19 -1.0
    V_G27_19 MINUP_G27_19 1.0
    V_G27_19 MINUP_G27_20 1.0
    V_G27_19 MINUP_G27_21 1.0
    V_G27_19 MINUP_G27_22 1.0
    V_G27_19 MINUP_G27_23 1.0
    W_G27_19 LOGIC_G27_19 1.0
    W_G27_19 MINDN_G27_19 1.0
    W_G27_19 MINDN_G27_20 1.0
    M23031 'MARKER' 'INTEND'
    P_G27_19 OBJ 30.47324166558689
    P_G27_19 PMIN_G27_19 1.0
    P_G27_19 PMAX_G27_19 1.0
    P_G27_19 RUP_G27_19 1.0
    P_G27_19 RDN_G27_19 -1.0
    P_G27_19 RUP_G27_20 -1.0
    P_G27_19 RDN_G27_20 1.0
    P_G27_19 DEM_19 1.0
    M23040 'MARKER' 'INTORG'
    U_G27_20 OBJ 358.83762086326226
    U_G27_20 PMIN_G27_20 -166.94309808036124
    U_G27_20 PMAX_G27_20 -343.1953745538875
    U_G27_20 LOGIC_G27_20 1.0
    U_G27_20 MINUP_G27_20 -1.0
    U_G27_20 MINDN_G27_20 1.0
    U_G27_20 LOGIC_G27_21 -1.0
    U_G27_20 RES_20 343.1953745538875
    V_G27_20 OBJ 2123.908510030241
    V_G27_20 LOGIC_G27_20 -1.0
    V_G27_20 MINUP_G27_20 1.0
    V_G27_20 MINUP_G27_21 1.0
    V_G27_20 MINUP_G27_22 1.0
    V_G27_20 MINUP_G27_23 1.0
    W_G27_20 LOGIC_G27_20 1.0
    W_G27_20 MINDN_G27_20 1.0
    W_G27_20 MINDN_G27_21 1.0
    M23058 'MARKER' 'INTEND'
    P_G27_20 OBJ 30.47324166558689
    P_G27_20 PMIN_G27_20 1.0
    P_G27_20 PMAX_G27_20 1.0
    P_G27_20 RUP_G27_20 1.0
    P_G27_20 RDN_G27_20 -1.0
    P_G27_20 RUP_G27_21 -1.0
    P_G27_20 RDN_G27_21 1.0
    P_G27_20 DEM_20 1.0
    M23067 'MARKER' 'INTORG'
    U_G27_21 OBJ 358.83762086326226
    U_G27_21 PMIN_G27_21 -166.94309808036124
    U_G27_21 PMAX_G27_21 -343.1953745538875
    U_G27_21 LOGIC_G27_21 1.0
    U_G27_21 MINUP_G27_21 -1.0
    U_G27_21 MINDN_G27_21 1.0
    U_G27_21 LOGIC_G27_22 -1.0
    U_G27_21 RES_21 343.1953745538875
    V_G27_21 OBJ 2123.908510030241
    V_G27_21 LOGIC_G27_21 -1.0
    V_G27_21 MINUP_G27_21 1.0
    V_G27_21 MINUP_G27_22 1.0
    V_G27_21 MINUP_G27_23 1.0
    W_G27_21 LOGIC_G27_21 1.0
    W_G27_21 MINDN_G27_21 1.0
    W_G27_21 MINDN_G27_22 1.0
    M23084 'MARKER' 'INTEND'
    P_G27_21 OBJ 30.47324166558689
    P_G27_21 PMIN_G27_21 1.0
    P_G27_21 PMAX_G27_21 1.0
    P_G27_21 RUP_G27_21 1.0
    P_G27_21 RDN_G27_21 -1.0
    P_G27_21 RUP_G27_22 -1.0
    P_G27_21 RDN_G27_22 1.0
    P_G27_21 DEM_21 1.0
    M23093 'MARKER' 'INTORG'
    U_G27_22 OBJ 358.83762086326226
    U_G27_22 PMIN_G27_22 -166.94309808036124
    U_G27_22 PMAX_G27_22 -343.1953745538875
    U_G27_22 LOGIC_G27_22 1.0
    U_G27_22 MINUP_G27_22 -1.0
    U_G27_22 MINDN_G27_22 1.0
    U_G27_22 LOGIC_G27_23 -1.0
    U_G27_22 RES_22 343.1953745538875
    V_G27_22 OBJ 2123.908510030241
    V_G27_22 LOGIC_G27_22 -1.0
    V_G27_22 MINUP_G27_22 1.0
    V_G27_22 MINUP_G27_23 1.0
    W_G27_22 LOGIC_G27_22 1.0
    W_G27_22 MINDN_G27_22 1.0
    W_G27_22 MINDN_G27_23 1.0
    M23109 'MARKER' 'INTEND'
    P_G27_22 OBJ 30.47324166558689
    P_G27_22 PMIN_G27_22 1.0
    P_G27_22 PMAX_G27_22 1.0
    P_G27_22 RUP_G27_22 1.0
    P_G27_22 RDN_G27_22 -1.0
    P_G27_22 RUP_G27_23 -1.0
    P_G27_22 RDN_G27_23 1.0
    P_G27_22 DEM_22 1.0
    M23118 'MARKER' 'INTORG'
    U_G27_23 OBJ 358.83762086326226
    U_G27_23 PMIN_G27_23 -166.94309808036124
    U_G27_23 PMAX_G27_23 -343.1953745538875
    U_G27_23 LOGIC_G27_23 1.0
    U_G27_23 MINUP_G27_23 -1.0
    U_G27_23 MINDN_G27_23 1.0
    U_G27_23 RES_23 343.1953745538875
    V_G27_23 OBJ 2123.908510030241
    V_G27_23 LOGIC_G27_23 -1.0
    V_G27_23 MINUP_G27_23 1.0
    W_G27_23 LOGIC_G27_23 1.0
    W_G27_23 MINDN_G27_23 1.0
    M23131 'MARKER' 'INTEND'
    P_G27_23 OBJ 30.47324166558689
    P_G27_23 PMIN_G27_23 1.0
    P_G27_23 PMAX_G27_23 1.0
    P_G27_23 RUP_G27_23 1.0
    P_G27_23 RDN_G27_23 -1.0
    P_G27_23 DEM_23 1.0
    M23138 'MARKER' 'INTORG'
    U_G28_0 OBJ 108.2933926496336
    U_G28_0 PMIN_G28_0 -22.447630212202398
    U_G28_0 PMAX_G28_0 -72.8629693680466
    U_G28_0 LOGIC_G28_0 1.0
    U_G28_0 MINUP_G28_0 -1.0
    U_G28_0 MINDN_G28_0 1.0
    U_G28_0 LOGIC_G28_1 -1.0
    U_G28_0 RES_0 72.8629693680466
    V_G28_0 OBJ 1706.9844707571783
    V_G28_0 LOGIC_G28_0 -1.0
    V_G28_0 MINUP_G28_0 1.0
    V_G28_0 MINUP_G28_1 1.0
    V_G28_0 MINUP_G28_2 1.0
    W_G28_0 LOGIC_G28_0 1.0
    W_G28_0 MINDN_G28_0 1.0
    W_G28_0 MINDN_G28_1 1.0
    W_G28_0 MINDN_G28_2 1.0
    W_G28_0 MINDN_G28_3 1.0
    W_G28_0 MINDN_G28_4 1.0
    M23158 'MARKER' 'INTEND'
    P_G28_0 OBJ 20.985765551300616
    P_G28_0 PMIN_G28_0 1.0
    P_G28_0 PMAX_G28_0 1.0
    P_G28_0 RUP_G28_1 -1.0
    P_G28_0 RDN_G28_1 1.0
    P_G28_0 DEM_0 1.0
    M23165 'MARKER' 'INTORG'
    U_G28_1 OBJ 108.2933926496336
    U_G28_1 PMIN_G28_1 -22.447630212202398
    U_G28_1 PMAX_G28_1 -72.8629693680466
    U_G28_1 LOGIC_G28_1 1.0
    U_G28_1 MINUP_G28_1 -1.0
    U_G28_1 MINDN_G28_1 1.0
    U_G28_1 LOGIC_G28_2 -1.0
    U_G28_1 RES_1 72.8629693680466
    V_G28_1 OBJ 1706.9844707571783
    V_G28_1 LOGIC_G28_1 -1.0
    V_G28_1 MINUP_G28_1 1.0
    V_G28_1 MINUP_G28_2 1.0
    V_G28_1 MINUP_G28_3 1.0
    W_G28_1 LOGIC_G28_1 1.0
    W_G28_1 MINDN_G28_1 1.0
    W_G28_1 MINDN_G28_2 1.0
    W_G28_1 MINDN_G28_3 1.0
    W_G28_1 MINDN_G28_4 1.0
    W_G28_1 MINDN_G28_5 1.0
    M23185 'MARKER' 'INTEND'
    P_G28_1 OBJ 20.985765551300616
    P_G28_1 PMIN_G28_1 1.0
    P_G28_1 PMAX_G28_1 1.0
    P_G28_1 RUP_G28_1 1.0
    P_G28_1 RDN_G28_1 -1.0
    P_G28_1 RUP_G28_2 -1.0
    P_G28_1 RDN_G28_2 1.0
    P_G28_1 DEM_1 1.0
    M23194 'MARKER' 'INTORG'
    U_G28_2 OBJ 108.2933926496336
    U_G28_2 PMIN_G28_2 -22.447630212202398
    U_G28_2 PMAX_G28_2 -72.8629693680466
    U_G28_2 LOGIC_G28_2 1.0
    U_G28_2 MINUP_G28_2 -1.0
    U_G28_2 MINDN_G28_2 1.0
    U_G28_2 LOGIC_G28_3 -1.0
    U_G28_2 RES_2 72.8629693680466
    V_G28_2 OBJ 1706.9844707571783
    V_G28_2 LOGIC_G28_2 -1.0
    V_G28_2 MINUP_G28_2 1.0
    V_G28_2 MINUP_G28_3 1.0
    V_G28_2 MINUP_G28_4 1.0
    W_G28_2 LOGIC_G28_2 1.0
    W_G28_2 MINDN_G28_2 1.0
    W_G28_2 MINDN_G28_3 1.0
    W_G28_2 MINDN_G28_4 1.0
    W_G28_2 MINDN_G28_5 1.0
    W_G28_2 MINDN_G28_6 1.0
    M23214 'MARKER' 'INTEND'
    P_G28_2 OBJ 20.985765551300616
    P_G28_2 PMIN_G28_2 1.0
    P_G28_2 PMAX_G28_2 1.0
    P_G28_2 RUP_G28_2 1.0
    P_G28_2 RDN_G28_2 -1.0
    P_G28_2 RUP_G28_3 -1.0
    P_G28_2 RDN_G28_3 1.0
    P_G28_2 DEM_2 1.0
    M23223 'MARKER' 'INTORG'
    U_G28_3 OBJ 108.2933926496336
    U_G28_3 PMIN_G28_3 -22.447630212202398
    U_G28_3 PMAX_G28_3 -72.8629693680466
    U_G28_3 LOGIC_G28_3 1.0
    U_G28_3 MINUP_G28_3 -1.0
    U_G28_3 MINDN_G28_3 1.0
    U_G28_3 LOGIC_G28_4 -1.0
    U_G28_3 RES_3 72.8629693680466
    V_G28_3 OBJ 1706.9844707571783
    V_G28_3 LOGIC_G28_3 -1.0
    V_G28_3 MINUP_G28_3 1.0
    V_G28_3 MINUP_G28_4 1.0
    V_G28_3 MINUP_G28_5 1.0
    W_G28_3 LOGIC_G28_3 1.0
    W_G28_3 MINDN_G28_3 1.0
    W_G28_3 MINDN_G28_4 1.0
    W_G28_3 MINDN_G28_5 1.0
    W_G28_3 MINDN_G28_6 1.0
    W_G28_3 MINDN_G28_7 1.0
    M23243 'MARKER' 'INTEND'
    P_G28_3 OBJ 20.985765551300616
    P_G28_3 PMIN_G28_3 1.0
    P_G28_3 PMAX_G28_3 1.0
    P_G28_3 RUP_G28_3 1.0
    P_G28_3 RDN_G28_3 -1.0
    P_G28_3 RUP_G28_4 -1.0
    P_G28_3 RDN_G28_4 1.0
    P_G28_3 DEM_3 1.0
    M23252 'MARKER' 'INTORG'
    U_G28_4 OBJ 108.2933926496336
    U_G28_4 PMIN_G28_4 -22.447630212202398
    U_G28_4 PMAX_G28_4 -72.8629693680466
    U_G28_4 LOGIC_G28_4 1.0
    U_G28_4 MINUP_G28_4 -1.0
    U_G28_4 MINDN_G28_4 1.0
    U_G28_4 LOGIC_G28_5 -1.0
    U_G28_4 RES_4 72.8629693680466
    V_G28_4 OBJ 1706.9844707571783
    V_G28_4 LOGIC_G28_4 -1.0
    V_G28_4 MINUP_G28_4 1.0
    V_G28_4 MINUP_G28_5 1.0
    V_G28_4 MINUP_G28_6 1.0
    W_G28_4 LOGIC_G28_4 1.0
    W_G28_4 MINDN_G28_4 1.0
    W_G28_4 MINDN_G28_5 1.0
    W_G28_4 MINDN_G28_6 1.0
    W_G28_4 MINDN_G28_7 1.0
    W_G28_4 MINDN_G28_8 1.0
    M23272 'MARKER' 'INTEND'
    P_G28_4 OBJ 20.985765551300616
    P_G28_4 PMIN_G28_4 1.0
    P_G28_4 PMAX_G28_4 1.0
    P_G28_4 RUP_G28_4 1.0
    P_G28_4 RDN_G28_4 -1.0
    P_G28_4 RUP_G28_5 -1.0
    P_G28_4 RDN_G28_5 1.0
    P_G28_4 DEM_4 1.0
    M23281 'MARKER' 'INTORG'
    U_G28_5 OBJ 108.2933926496336
    U_G28_5 PMIN_G28_5 -22.447630212202398
    U_G28_5 PMAX_G28_5 -72.8629693680466
    U_G28_5 LOGIC_G28_5 1.0
    U_G28_5 MINUP_G28_5 -1.0
    U_G28_5 MINDN_G28_5 1.0
    U_G28_5 LOGIC_G28_6 -1.0
    U_G28_5 RES_5 72.8629693680466
    V_G28_5 OBJ 1706.9844707571783
    V_G28_5 LOGIC_G28_5 -1.0
    V_G28_5 MINUP_G28_5 1.0
    V_G28_5 MINUP_G28_6 1.0
    V_G28_5 MINUP_G28_7 1.0
    W_G28_5 LOGIC_G28_5 1.0
    W_G28_5 MINDN_G28_5 1.0
    W_G28_5 MINDN_G28_6 1.0
    W_G28_5 MINDN_G28_7 1.0
    W_G28_5 MINDN_G28_8 1.0
    W_G28_5 MINDN_G28_9 1.0
    M23301 'MARKER' 'INTEND'
    P_G28_5 OBJ 20.985765551300616
    P_G28_5 PMIN_G28_5 1.0
    P_G28_5 PMAX_G28_5 1.0
    P_G28_5 RUP_G28_5 1.0
    P_G28_5 RDN_G28_5 -1.0
    P_G28_5 RUP_G28_6 -1.0
    P_G28_5 RDN_G28_6 1.0
    P_G28_5 DEM_5 1.0
    M23310 'MARKER' 'INTORG'
    U_G28_6 OBJ 108.2933926496336
    U_G28_6 PMIN_G28_6 -22.447630212202398
    U_G28_6 PMAX_G28_6 -72.8629693680466
    U_G28_6 LOGIC_G28_6 1.0
    U_G28_6 MINUP_G28_6 -1.0
    U_G28_6 MINDN_G28_6 1.0
    U_G28_6 LOGIC_G28_7 -1.0
    U_G28_6 RES_6 72.8629693680466
    V_G28_6 OBJ 1706.9844707571783
    V_G28_6 LOGIC_G28_6 -1.0
    V_G28_6 MINUP_G28_6 1.0
    V_G28_6 MINUP_G28_7 1.0
    V_G28_6 MINUP_G28_8 1.0
    W_G28_6 LOGIC_G28_6 1.0
    W_G28_6 MINDN_G28_6 1.0
    W_G28_6 MINDN_G28_7 1.0
    W_G28_6 MINDN_G28_8 1.0
    W_G28_6 MINDN_G28_9 1.0
    W_G28_6 MINDN_G28_10 1.0
    M23330 'MARKER' 'INTEND'
    P_G28_6 OBJ 20.985765551300616
    P_G28_6 PMIN_G28_6 1.0
    P_G28_6 PMAX_G28_6 1.0
    P_G28_6 RUP_G28_6 1.0
    P_G28_6 RDN_G28_6 -1.0
    P_G28_6 RUP_G28_7 -1.0
    P_G28_6 RDN_G28_7 1.0
    P_G28_6 DEM_6 1.0
    M23339 'MARKER' 'INTORG'
    U_G28_7 OBJ 108.2933926496336
    U_G28_7 PMIN_G28_7 -22.447630212202398
    U_G28_7 PMAX_G28_7 -72.8629693680466
    U_G28_7 LOGIC_G28_7 1.0
    U_G28_7 MINUP_G28_7 -1.0
    U_G28_7 MINDN_G28_7 1.0
    U_G28_7 LOGIC_G28_8 -1.0
    U_G28_7 RES_7 72.8629693680466
    V_G28_7 OBJ 1706.9844707571783
    V_G28_7 LOGIC_G28_7 -1.0
    V_G28_7 MINUP_G28_7 1.0
    V_G28_7 MINUP_G28_8 1.0
    V_G28_7 MINUP_G28_9 1.0
    W_G28_7 LOGIC_G28_7 1.0
    W_G28_7 MINDN_G28_7 1.0
    W_G28_7 MINDN_G28_8 1.0
    W_G28_7 MINDN_G28_9 1.0
    W_G28_7 MINDN_G28_10 1.0
    W_G28_7 MINDN_G28_11 1.0
    M23359 'MARKER' 'INTEND'
    P_G28_7 OBJ 20.985765551300616
    P_G28_7 PMIN_G28_7 1.0
    P_G28_7 PMAX_G28_7 1.0
    P_G28_7 RUP_G28_7 1.0
    P_G28_7 RDN_G28_7 -1.0
    P_G28_7 RUP_G28_8 -1.0
    P_G28_7 RDN_G28_8 1.0
    P_G28_7 DEM_7 1.0
    M23368 'MARKER' 'INTORG'
    U_G28_8 OBJ 108.2933926496336
    U_G28_8 PMIN_G28_8 -22.447630212202398
    U_G28_8 PMAX_G28_8 -72.8629693680466
    U_G28_8 LOGIC_G28_8 1.0
    U_G28_8 MINUP_G28_8 -1.0
    U_G28_8 MINDN_G28_8 1.0
    U_G28_8 LOGIC_G28_9 -1.0
    U_G28_8 RES_8 72.8629693680466
    V_G28_8 OBJ 1706.9844707571783
    V_G28_8 LOGIC_G28_8 -1.0
    V_G28_8 MINUP_G28_8 1.0
    V_G28_8 MINUP_G28_9 1.0
    V_G28_8 MINUP_G28_10 1.0
    W_G28_8 LOGIC_G28_8 1.0
    W_G28_8 MINDN_G28_8 1.0
    W_G28_8 MINDN_G28_9 1.0
    W_G28_8 MINDN_G28_10 1.0
    W_G28_8 MINDN_G28_11 1.0
    W_G28_8 MINDN_G28_12 1.0
    M23388 'MARKER' 'INTEND'
    P_G28_8 OBJ 20.985765551300616
    P_G28_8 PMIN_G28_8 1.0
    P_G28_8 PMAX_G28_8 1.0
    P_G28_8 RUP_G28_8 1.0
    P_G28_8 RDN_G28_8 -1.0
    P_G28_8 RUP_G28_9 -1.0
    P_G28_8 RDN_G28_9 1.0
    P_G28_8 DEM_8 1.0
    M23397 'MARKER' 'INTORG'
    U_G28_9 OBJ 108.2933926496336
    U_G28_9 PMIN_G28_9 -22.447630212202398
    U_G28_9 PMAX_G28_9 -72.8629693680466
    U_G28_9 LOGIC_G28_9 1.0
    U_G28_9 MINUP_G28_9 -1.0
    U_G28_9 MINDN_G28_9 1.0
    U_G28_9 LOGIC_G28_10 -1.0
    U_G28_9 RES_9 72.8629693680466
    V_G28_9 OBJ 1706.9844707571783
    V_G28_9 LOGIC_G28_9 -1.0
    V_G28_9 MINUP_G28_9 1.0
    V_G28_9 MINUP_G28_10 1.0
    V_G28_9 MINUP_G28_11 1.0
    W_G28_9 LOGIC_G28_9 1.0
    W_G28_9 MINDN_G28_9 1.0
    W_G28_9 MINDN_G28_10 1.0
    W_G28_9 MINDN_G28_11 1.0
    W_G28_9 MINDN_G28_12 1.0
    W_G28_9 MINDN_G28_13 1.0
    M23417 'MARKER' 'INTEND'
    P_G28_9 OBJ 20.985765551300616
    P_G28_9 PMIN_G28_9 1.0
    P_G28_9 PMAX_G28_9 1.0
    P_G28_9 RUP_G28_9 1.0
    P_G28_9 RDN_G28_9 -1.0
    P_G28_9 RUP_G28_10 -1.0
    P_G28_9 RDN_G28_10 1.0
    P_G28_9 DEM_9 1.0
    M23426 'MARKER' 'INTORG'
    U_G28_10 OBJ 108.2933926496336
    U_G28_10 PMIN_G28_10 -22.447630212202398
    U_G28_10 PMAX_G28_10 -72.8629693680466
    U_G28_10 LOGIC_G28_10 1.0
    U_G28_10 MINUP_G28_10 -1.0
    U_G28_10 MINDN_G28_10 1.0
    U_G28_10 LOGIC_G28_11 -1.0
    U_G28_10 RES_10 72.8629693680466
    V_G28_10 OBJ 1706.9844707571783
    V_G28_10 LOGIC_G28_10 -1.0
    V_G28_10 MINUP_G28_10 1.0
    V_G28_10 MINUP_G28_11 1.0
    V_G28_10 MINUP_G28_12 1.0
    W_G28_10 LOGIC_G28_10 1.0
    W_G28_10 MINDN_G28_10 1.0
    W_G28_10 MINDN_G28_11 1.0
    W_G28_10 MINDN_G28_12 1.0
    W_G28_10 MINDN_G28_13 1.0
    W_G28_10 MINDN_G28_14 1.0
    M23446 'MARKER' 'INTEND'
    P_G28_10 OBJ 20.985765551300616
    P_G28_10 PMIN_G28_10 1.0
    P_G28_10 PMAX_G28_10 1.0
    P_G28_10 RUP_G28_10 1.0
    P_G28_10 RDN_G28_10 -1.0
    P_G28_10 RUP_G28_11 -1.0
    P_G28_10 RDN_G28_11 1.0
    P_G28_10 DEM_10 1.0
    M23455 'MARKER' 'INTORG'
    U_G28_11 OBJ 108.2933926496336
    U_G28_11 PMIN_G28_11 -22.447630212202398
    U_G28_11 PMAX_G28_11 -72.8629693680466
    U_G28_11 LOGIC_G28_11 1.0
    U_G28_11 MINUP_G28_11 -1.0
    U_G28_11 MINDN_G28_11 1.0
    U_G28_11 LOGIC_G28_12 -1.0
    U_G28_11 RES_11 72.8629693680466
    V_G28_11 OBJ 1706.9844707571783
    V_G28_11 LOGIC_G28_11 -1.0
    V_G28_11 MINUP_G28_11 1.0
    V_G28_11 MINUP_G28_12 1.0
    V_G28_11 MINUP_G28_13 1.0
    W_G28_11 LOGIC_G28_11 1.0
    W_G28_11 MINDN_G28_11 1.0
    W_G28_11 MINDN_G28_12 1.0
    W_G28_11 MINDN_G28_13 1.0
    W_G28_11 MINDN_G28_14 1.0
    W_G28_11 MINDN_G28_15 1.0
    M23475 'MARKER' 'INTEND'
    P_G28_11 OBJ 20.985765551300616
    P_G28_11 PMIN_G28_11 1.0
    P_G28_11 PMAX_G28_11 1.0
    P_G28_11 RUP_G28_11 1.0
    P_G28_11 RDN_G28_11 -1.0
    P_G28_11 RUP_G28_12 -1.0
    P_G28_11 RDN_G28_12 1.0
    P_G28_11 DEM_11 1.0
    M23484 'MARKER' 'INTORG'
    U_G28_12 OBJ 108.2933926496336
    U_G28_12 PMIN_G28_12 -22.447630212202398
    U_G28_12 PMAX_G28_12 -72.8629693680466
    U_G28_12 LOGIC_G28_12 1.0
    U_G28_12 MINUP_G28_12 -1.0
    U_G28_12 MINDN_G28_12 1.0
    U_G28_12 LOGIC_G28_13 -1.0
    U_G28_12 RES_12 72.8629693680466
    V_G28_12 OBJ 1706.9844707571783
    V_G28_12 LOGIC_G28_12 -1.0
    V_G28_12 MINUP_G28_12 1.0
    V_G28_12 MINUP_G28_13 1.0
    V_G28_12 MINUP_G28_14 1.0
    W_G28_12 LOGIC_G28_12 1.0
    W_G28_12 MINDN_G28_12 1.0
    W_G28_12 MINDN_G28_13 1.0
    W_G28_12 MINDN_G28_14 1.0
    W_G28_12 MINDN_G28_15 1.0
    W_G28_12 MINDN_G28_16 1.0
    M23504 'MARKER' 'INTEND'
    P_G28_12 OBJ 20.985765551300616
    P_G28_12 PMIN_G28_12 1.0
    P_G28_12 PMAX_G28_12 1.0
    P_G28_12 RUP_G28_12 1.0
    P_G28_12 RDN_G28_12 -1.0
    P_G28_12 RUP_G28_13 -1.0
    P_G28_12 RDN_G28_13 1.0
    P_G28_12 DEM_12 1.0
    M23513 'MARKER' 'INTORG'
    U_G28_13 OBJ 108.2933926496336
    U_G28_13 PMIN_G28_13 -22.447630212202398
    U_G28_13 PMAX_G28_13 -72.8629693680466
    U_G28_13 LOGIC_G28_13 1.0
    U_G28_13 MINUP_G28_13 -1.0
    U_G28_13 MINDN_G28_13 1.0
    U_G28_13 LOGIC_G28_14 -1.0
    U_G28_13 RES_13 72.8629693680466
    V_G28_13 OBJ 1706.9844707571783
    V_G28_13 LOGIC_G28_13 -1.0
    V_G28_13 MINUP_G28_13 1.0
    V_G28_13 MINUP_G28_14 1.0
    V_G28_13 MINUP_G28_15 1.0
    W_G28_13 LOGIC_G28_13 1.0
    W_G28_13 MINDN_G28_13 1.0
    W_G28_13 MINDN_G28_14 1.0
    W_G28_13 MINDN_G28_15 1.0
    W_G28_13 MINDN_G28_16 1.0
    W_G28_13 MINDN_G28_17 1.0
    M23533 'MARKER' 'INTEND'
    P_G28_13 OBJ 20.985765551300616
    P_G28_13 PMIN_G28_13 1.0
    P_G28_13 PMAX_G28_13 1.0
    P_G28_13 RUP_G28_13 1.0
    P_G28_13 RDN_G28_13 -1.0
    P_G28_13 RUP_G28_14 -1.0
    P_G28_13 RDN_G28_14 1.0
    P_G28_13 DEM_13 1.0
    M23542 'MARKER' 'INTORG'
    U_G28_14 OBJ 108.2933926496336
    U_G28_14 PMIN_G28_14 -22.447630212202398
    U_G28_14 PMAX_G28_14 -72.8629693680466
    U_G28_14 LOGIC_G28_14 1.0
    U_G28_14 MINUP_G28_14 -1.0
    U_G28_14 MINDN_G28_14 1.0
    U_G28_14 LOGIC_G28_15 -1.0
    U_G28_14 RES_14 72.8629693680466
    V_G28_14 OBJ 1706.9844707571783
    V_G28_14 LOGIC_G28_14 -1.0
    V_G28_14 MINUP_G28_14 1.0
    V_G28_14 MINUP_G28_15 1.0
    V_G28_14 MINUP_G28_16 1.0
    W_G28_14 LOGIC_G28_14 1.0
    W_G28_14 MINDN_G28_14 1.0
    W_G28_14 MINDN_G28_15 1.0
    W_G28_14 MINDN_G28_16 1.0
    W_G28_14 MINDN_G28_17 1.0
    W_G28_14 MINDN_G28_18 1.0
    M23562 'MARKER' 'INTEND'
    P_G28_14 OBJ 20.985765551300616
    P_G28_14 PMIN_G28_14 1.0
    P_G28_14 PMAX_G28_14 1.0
    P_G28_14 RUP_G28_14 1.0
    P_G28_14 RDN_G28_14 -1.0
    P_G28_14 RUP_G28_15 -1.0
    P_G28_14 RDN_G28_15 1.0
    P_G28_14 DEM_14 1.0
    M23571 'MARKER' 'INTORG'
    U_G28_15 OBJ 108.2933926496336
    U_G28_15 PMIN_G28_15 -22.447630212202398
    U_G28_15 PMAX_G28_15 -72.8629693680466
    U_G28_15 LOGIC_G28_15 1.0
    U_G28_15 MINUP_G28_15 -1.0
    U_G28_15 MINDN_G28_15 1.0
    U_G28_15 LOGIC_G28_16 -1.0
    U_G28_15 RES_15 72.8629693680466
    V_G28_15 OBJ 1706.9844707571783
    V_G28_15 LOGIC_G28_15 -1.0
    V_G28_15 MINUP_G28_15 1.0
    V_G28_15 MINUP_G28_16 1.0
    V_G28_15 MINUP_G28_17 1.0
    W_G28_15 LOGIC_G28_15 1.0
    W_G28_15 MINDN_G28_15 1.0
    W_G28_15 MINDN_G28_16 1.0
    W_G28_15 MINDN_G28_17 1.0
    W_G28_15 MINDN_G28_18 1.0
    W_G28_15 MINDN_G28_19 1.0
    M23591 'MARKER' 'INTEND'
    P_G28_15 OBJ 20.985765551300616
    P_G28_15 PMIN_G28_15 1.0
    P_G28_15 PMAX_G28_15 1.0
    P_G28_15 RUP_G28_15 1.0
    P_G28_15 RDN_G28_15 -1.0
    P_G28_15 RUP_G28_16 -1.0
    P_G28_15 RDN_G28_16 1.0
    P_G28_15 DEM_15 1.0
    M23600 'MARKER' 'INTORG'
    U_G28_16 OBJ 108.2933926496336
    U_G28_16 PMIN_G28_16 -22.447630212202398
    U_G28_16 PMAX_G28_16 -72.8629693680466
    U_G28_16 LOGIC_G28_16 1.0
    U_G28_16 MINUP_G28_16 -1.0
    U_G28_16 MINDN_G28_16 1.0
    U_G28_16 LOGIC_G28_17 -1.0
    U_G28_16 RES_16 72.8629693680466
    V_G28_16 OBJ 1706.9844707571783
    V_G28_16 LOGIC_G28_16 -1.0
    V_G28_16 MINUP_G28_16 1.0
    V_G28_16 MINUP_G28_17 1.0
    V_G28_16 MINUP_G28_18 1.0
    W_G28_16 LOGIC_G28_16 1.0
    W_G28_16 MINDN_G28_16 1.0
    W_G28_16 MINDN_G28_17 1.0
    W_G28_16 MINDN_G28_18 1.0
    W_G28_16 MINDN_G28_19 1.0
    W_G28_16 MINDN_G28_20 1.0
    M23620 'MARKER' 'INTEND'
    P_G28_16 OBJ 20.985765551300616
    P_G28_16 PMIN_G28_16 1.0
    P_G28_16 PMAX_G28_16 1.0
    P_G28_16 RUP_G28_16 1.0
    P_G28_16 RDN_G28_16 -1.0
    P_G28_16 RUP_G28_17 -1.0
    P_G28_16 RDN_G28_17 1.0
    P_G28_16 DEM_16 1.0
    M23629 'MARKER' 'INTORG'
    U_G28_17 OBJ 108.2933926496336
    U_G28_17 PMIN_G28_17 -22.447630212202398
    U_G28_17 PMAX_G28_17 -72.8629693680466
    U_G28_17 LOGIC_G28_17 1.0
    U_G28_17 MINUP_G28_17 -1.0
    U_G28_17 MINDN_G28_17 1.0
    U_G28_17 LOGIC_G28_18 -1.0
    U_G28_17 RES_17 72.8629693680466
    V_G28_17 OBJ 1706.9844707571783
    V_G28_17 LOGIC_G28_17 -1.0
    V_G28_17 MINUP_G28_17 1.0
    V_G28_17 MINUP_G28_18 1.0
    V_G28_17 MINUP_G28_19 1.0
    W_G28_17 LOGIC_G28_17 1.0
    W_G28_17 MINDN_G28_17 1.0
    W_G28_17 MINDN_G28_18 1.0
    W_G28_17 MINDN_G28_19 1.0
    W_G28_17 MINDN_G28_20 1.0
    W_G28_17 MINDN_G28_21 1.0
    M23649 'MARKER' 'INTEND'
    P_G28_17 OBJ 20.985765551300616
    P_G28_17 PMIN_G28_17 1.0
    P_G28_17 PMAX_G28_17 1.0
    P_G28_17 RUP_G28_17 1.0
    P_G28_17 RDN_G28_17 -1.0
    P_G28_17 RUP_G28_18 -1.0
    P_G28_17 RDN_G28_18 1.0
    P_G28_17 DEM_17 1.0
    M23658 'MARKER' 'INTORG'
    U_G28_18 OBJ 108.2933926496336
    U_G28_18 PMIN_G28_18 -22.447630212202398
    U_G28_18 PMAX_G28_18 -72.8629693680466
    U_G28_18 LOGIC_G28_18 1.0
    U_G28_18 MINUP_G28_18 -1.0
    U_G28_18 MINDN_G28_18 1.0
    U_G28_18 LOGIC_G28_19 -1.0
    U_G28_18 RES_18 72.8629693680466
    V_G28_18 OBJ 1706.9844707571783
    V_G28_18 LOGIC_G28_18 -1.0
    V_G28_18 MINUP_G28_18 1.0
    V_G28_18 MINUP_G28_19 1.0
    V_G28_18 MINUP_G28_20 1.0
    W_G28_18 LOGIC_G28_18 1.0
    W_G28_18 MINDN_G28_18 1.0
    W_G28_18 MINDN_G28_19 1.0
    W_G28_18 MINDN_G28_20 1.0
    W_G28_18 MINDN_G28_21 1.0
    W_G28_18 MINDN_G28_22 1.0
    M23678 'MARKER' 'INTEND'
    P_G28_18 OBJ 20.985765551300616
    P_G28_18 PMIN_G28_18 1.0
    P_G28_18 PMAX_G28_18 1.0
    P_G28_18 RUP_G28_18 1.0
    P_G28_18 RDN_G28_18 -1.0
    P_G28_18 RUP_G28_19 -1.0
    P_G28_18 RDN_G28_19 1.0
    P_G28_18 DEM_18 1.0
    M23687 'MARKER' 'INTORG'
    U_G28_19 OBJ 108.2933926496336
    U_G28_19 PMIN_G28_19 -22.447630212202398
    U_G28_19 PMAX_G28_19 -72.8629693680466
    U_G28_19 LOGIC_G28_19 1.0
    U_G28_19 MINUP_G28_19 -1.0
    U_G28_19 MINDN_G28_19 1.0
    U_G28_19 LOGIC_G28_20 -1.0
    U_G28_19 RES_19 72.8629693680466
    V_G28_19 OBJ 1706.9844707571783
    V_G28_19 LOGIC_G28_19 -1.0
    V_G28_19 MINUP_G28_19 1.0
    V_G28_19 MINUP_G28_20 1.0
    V_G28_19 MINUP_G28_21 1.0
    W_G28_19 LOGIC_G28_19 1.0
    W_G28_19 MINDN_G28_19 1.0
    W_G28_19 MINDN_G28_20 1.0
    W_G28_19 MINDN_G28_21 1.0
    W_G28_19 MINDN_G28_22 1.0
    W_G28_19 MINDN_G28_23 1.0
    M23707 'MARKER' 'INTEND'
    P_G28_19 OBJ 20.985765551300616
    P_G28_19 PMIN_G28_19 1.0
    P_G28_19 PMAX_G28_19 1.0
    P_G28_19 RUP_G28_19 1.0
    P_G28_19 RDN_G28_19 -1.0
    P_G28_19 RUP_G28_20 -1.0
    P_G28_19 RDN_G28_20 1.0
    P_G28_19 DEM_19 1.0
    M23716 'MARKER' 'INTORG'
    U_G28_20 OBJ 108.2933926496336
    U_G28_20 PMIN_G28_20 -22.447630212202398
    U_G28_20 PMAX_G28_20 -72.8629693680466
    U_G28_20 LOGIC_G28_20 1.0
    U_G28_20 MINUP_G28_20 -1.0
    U_G28_20 MINDN_G28_20 1.0
    U_G28_20 LOGIC_G28_21 -1.0
    U_G28_20 RES_20 72.8629693680466
    V_G28_20 OBJ 1706.9844707571783
    V_G28_20 LOGIC_G28_20 -1.0
    V_G28_20 MINUP_G28_20 1.0
    V_G28_20 MINUP_G28_21 1.0
    V_G28_20 MINUP_G28_22 1.0
    W_G28_20 LOGIC_G28_20 1.0
    W_G28_20 MINDN_G28_20 1.0
    W_G28_20 MINDN_G28_21 1.0
    W_G28_20 MINDN_G28_22 1.0
    W_G28_20 MINDN_G28_23 1.0
    M23735 'MARKER' 'INTEND'
    P_G28_20 OBJ 20.985765551300616
    P_G28_20 PMIN_G28_20 1.0
    P_G28_20 PMAX_G28_20 1.0
    P_G28_20 RUP_G28_20 1.0
    P_G28_20 RDN_G28_20 -1.0
    P_G28_20 RUP_G28_21 -1.0
    P_G28_20 RDN_G28_21 1.0
    P_G28_20 DEM_20 1.0
    M23744 'MARKER' 'INTORG'
    U_G28_21 OBJ 108.2933926496336
    U_G28_21 PMIN_G28_21 -22.447630212202398
    U_G28_21 PMAX_G28_21 -72.8629693680466
    U_G28_21 LOGIC_G28_21 1.0
    U_G28_21 MINUP_G28_21 -1.0
    U_G28_21 MINDN_G28_21 1.0
    U_G28_21 LOGIC_G28_22 -1.0
    U_G28_21 RES_21 72.8629693680466
    V_G28_21 OBJ 1706.9844707571783
    V_G28_21 LOGIC_G28_21 -1.0
    V_G28_21 MINUP_G28_21 1.0
    V_G28_21 MINUP_G28_22 1.0
    V_G28_21 MINUP_G28_23 1.0
    W_G28_21 LOGIC_G28_21 1.0
    W_G28_21 MINDN_G28_21 1.0
    W_G28_21 MINDN_G28_22 1.0
    W_G28_21 MINDN_G28_23 1.0
    M23762 'MARKER' 'INTEND'
    P_G28_21 OBJ 20.985765551300616
    P_G28_21 PMIN_G28_21 1.0
    P_G28_21 PMAX_G28_21 1.0
    P_G28_21 RUP_G28_21 1.0
    P_G28_21 RDN_G28_21 -1.0
    P_G28_21 RUP_G28_22 -1.0
    P_G28_21 RDN_G28_22 1.0
    P_G28_21 DEM_21 1.0
    M23771 'MARKER' 'INTORG'
    U_G28_22 OBJ 108.2933926496336
    U_G28_22 PMIN_G28_22 -22.447630212202398
    U_G28_22 PMAX_G28_22 -72.8629693680466
    U_G28_22 LOGIC_G28_22 1.0
    U_G28_22 MINUP_G28_22 -1.0
    U_G28_22 MINDN_G28_22 1.0
    U_G28_22 LOGIC_G28_23 -1.0
    U_G28_22 RES_22 72.8629693680466
    V_G28_22 OBJ 1706.9844707571783
    V_G28_22 LOGIC_G28_22 -1.0
    V_G28_22 MINUP_G28_22 1.0
    V_G28_22 MINUP_G28_23 1.0
    W_G28_22 LOGIC_G28_22 1.0
    W_G28_22 MINDN_G28_22 1.0
    W_G28_22 MINDN_G28_23 1.0
    M23787 'MARKER' 'INTEND'
    P_G28_22 OBJ 20.985765551300616
    P_G28_22 PMIN_G28_22 1.0
    P_G28_22 PMAX_G28_22 1.0
    P_G28_22 RUP_G28_22 1.0
    P_G28_22 RDN_G28_22 -1.0
    P_G28_22 RUP_G28_23 -1.0
    P_G28_22 RDN_G28_23 1.0
    P_G28_22 DEM_22 1.0
    M23796 'MARKER' 'INTORG'
    U_G28_23 OBJ 108.2933926496336
    U_G28_23 PMIN_G28_23 -22.447630212202398
    U_G28_23 PMAX_G28_23 -72.8629693680466
    U_G28_23 LOGIC_G28_23 1.0
    U_G28_23 MINUP_G28_23 -1.0
    U_G28_23 MINDN_G28_23 1.0
    U_G28_23 RES_23 72.8629693680466
    V_G28_23 OBJ 1706.9844707571783
    V_G28_23 LOGIC_G28_23 -1.0
    V_G28_23 MINUP_G28_23 1.0
    W_G28_23 LOGIC_G28_23 1.0
    W_G28_23 MINDN_G28_23 1.0
    M23809 'MARKER' 'INTEND'
    P_G28_23 OBJ 20.985765551300616
    P_G28_23 PMIN_G28_23 1.0
    P_G28_23 PMAX_G28_23 1.0
    P_G28_23 RUP_G28_23 1.0
    P_G28_23 RDN_G28_23 -1.0
    P_G28_23 DEM_23 1.0
    M23816 'MARKER' 'INTORG'
    U_G29_0 OBJ 89.86951933745556
    U_G29_0 PMIN_G29_0 -79.71162538914506
    U_G29_0 PMAX_G29_0 -227.06096913215717
    U_G29_0 LOGIC_G29_0 1.0
    U_G29_0 MINUP_G29_0 -1.0
    U_G29_0 MINDN_G29_0 1.0
    U_G29_0 LOGIC_G29_1 -1.0
    U_G29_0 RES_0 227.06096913215717
    V_G29_0 OBJ 858.530631875809
    V_G29_0 LOGIC_G29_0 -1.0
    V_G29_0 MINUP_G29_0 1.0
    V_G29_0 MINUP_G29_1 1.0
    V_G29_0 MINUP_G29_2 1.0
    V_G29_0 MINUP_G29_3 1.0
    W_G29_0 LOGIC_G29_0 1.0
    W_G29_0 MINDN_G29_0 1.0
    W_G29_0 MINDN_G29_1 1.0
    M23834 'MARKER' 'INTEND'
    P_G29_0 OBJ 30.248321148103738
    P_G29_0 PMIN_G29_0 1.0
    P_G29_0 PMAX_G29_0 1.0
    P_G29_0 RUP_G29_1 -1.0
    P_G29_0 RDN_G29_1 1.0
    P_G29_0 DEM_0 1.0
    M23841 'MARKER' 'INTORG'
    U_G29_1 OBJ 89.86951933745556
    U_G29_1 PMIN_G29_1 -79.71162538914506
    U_G29_1 PMAX_G29_1 -227.06096913215717
    U_G29_1 LOGIC_G29_1 1.0
    U_G29_1 MINUP_G29_1 -1.0
    U_G29_1 MINDN_G29_1 1.0
    U_G29_1 LOGIC_G29_2 -1.0
    U_G29_1 RES_1 227.06096913215717
    V_G29_1 OBJ 858.530631875809
    V_G29_1 LOGIC_G29_1 -1.0
    V_G29_1 MINUP_G29_1 1.0
    V_G29_1 MINUP_G29_2 1.0
    V_G29_1 MINUP_G29_3 1.0
    V_G29_1 MINUP_G29_4 1.0
    W_G29_1 LOGIC_G29_1 1.0
    W_G29_1 MINDN_G29_1 1.0
    W_G29_1 MINDN_G29_2 1.0
    M23859 'MARKER' 'INTEND'
    P_G29_1 OBJ 30.248321148103738
    P_G29_1 PMIN_G29_1 1.0
    P_G29_1 PMAX_G29_1 1.0
    P_G29_1 RUP_G29_1 1.0
    P_G29_1 RDN_G29_1 -1.0
    P_G29_1 RUP_G29_2 -1.0
    P_G29_1 RDN_G29_2 1.0
    P_G29_1 DEM_1 1.0
    M23868 'MARKER' 'INTORG'
    U_G29_2 OBJ 89.86951933745556
    U_G29_2 PMIN_G29_2 -79.71162538914506
    U_G29_2 PMAX_G29_2 -227.06096913215717
    U_G29_2 LOGIC_G29_2 1.0
    U_G29_2 MINUP_G29_2 -1.0
    U_G29_2 MINDN_G29_2 1.0
    U_G29_2 LOGIC_G29_3 -1.0
    U_G29_2 RES_2 227.06096913215717
    V_G29_2 OBJ 858.530631875809
    V_G29_2 LOGIC_G29_2 -1.0
    V_G29_2 MINUP_G29_2 1.0
    V_G29_2 MINUP_G29_3 1.0
    V_G29_2 MINUP_G29_4 1.0
    V_G29_2 MINUP_G29_5 1.0
    W_G29_2 LOGIC_G29_2 1.0
    W_G29_2 MINDN_G29_2 1.0
    W_G29_2 MINDN_G29_3 1.0
    M23886 'MARKER' 'INTEND'
    P_G29_2 OBJ 30.248321148103738
    P_G29_2 PMIN_G29_2 1.0
    P_G29_2 PMAX_G29_2 1.0
    P_G29_2 RUP_G29_2 1.0
    P_G29_2 RDN_G29_2 -1.0
    P_G29_2 RUP_G29_3 -1.0
    P_G29_2 RDN_G29_3 1.0
    P_G29_2 DEM_2 1.0
    M23895 'MARKER' 'INTORG'
    U_G29_3 OBJ 89.86951933745556
    U_G29_3 PMIN_G29_3 -79.71162538914506
    U_G29_3 PMAX_G29_3 -227.06096913215717
    U_G29_3 LOGIC_G29_3 1.0
    U_G29_3 MINUP_G29_3 -1.0
    U_G29_3 MINDN_G29_3 1.0
    U_G29_3 LOGIC_G29_4 -1.0
    U_G29_3 RES_3 227.06096913215717
    V_G29_3 OBJ 858.530631875809
    V_G29_3 LOGIC_G29_3 -1.0
    V_G29_3 MINUP_G29_3 1.0
    V_G29_3 MINUP_G29_4 1.0
    V_G29_3 MINUP_G29_5 1.0
    V_G29_3 MINUP_G29_6 1.0
    W_G29_3 LOGIC_G29_3 1.0
    W_G29_3 MINDN_G29_3 1.0
    W_G29_3 MINDN_G29_4 1.0
    M23913 'MARKER' 'INTEND'
    P_G29_3 OBJ 30.248321148103738
    P_G29_3 PMIN_G29_3 1.0
    P_G29_3 PMAX_G29_3 1.0
    P_G29_3 RUP_G29_3 1.0
    P_G29_3 RDN_G29_3 -1.0
    P_G29_3 RUP_G29_4 -1.0
    P_G29_3 RDN_G29_4 1.0
    P_G29_3 DEM_3 1.0
    M23922 'MARKER' 'INTORG'
    U_G29_4 OBJ 89.86951933745556
    U_G29_4 PMIN_G29_4 -79.71162538914506
    U_G29_4 PMAX_G29_4 -227.06096913215717
    U_G29_4 LOGIC_G29_4 1.0
    U_G29_4 MINUP_G29_4 -1.0
    U_G29_4 MINDN_G29_4 1.0
    U_G29_4 LOGIC_G29_5 -1.0
    U_G29_4 RES_4 227.06096913215717
    V_G29_4 OBJ 858.530631875809
    V_G29_4 LOGIC_G29_4 -1.0
    V_G29_4 MINUP_G29_4 1.0
    V_G29_4 MINUP_G29_5 1.0
    V_G29_4 MINUP_G29_6 1.0
    V_G29_4 MINUP_G29_7 1.0
    W_G29_4 LOGIC_G29_4 1.0
    W_G29_4 MINDN_G29_4 1.0
    W_G29_4 MINDN_G29_5 1.0
    M23940 'MARKER' 'INTEND'
    P_G29_4 OBJ 30.248321148103738
    P_G29_4 PMIN_G29_4 1.0
    P_G29_4 PMAX_G29_4 1.0
    P_G29_4 RUP_G29_4 1.0
    P_G29_4 RDN_G29_4 -1.0
    P_G29_4 RUP_G29_5 -1.0
    P_G29_4 RDN_G29_5 1.0
    P_G29_4 DEM_4 1.0
    M23949 'MARKER' 'INTORG'
    U_G29_5 OBJ 89.86951933745556
    U_G29_5 PMIN_G29_5 -79.71162538914506
    U_G29_5 PMAX_G29_5 -227.06096913215717
    U_G29_5 LOGIC_G29_5 1.0
    U_G29_5 MINUP_G29_5 -1.0
    U_G29_5 MINDN_G29_5 1.0
    U_G29_5 LOGIC_G29_6 -1.0
    U_G29_5 RES_5 227.06096913215717
    V_G29_5 OBJ 858.530631875809
    V_G29_5 LOGIC_G29_5 -1.0
    V_G29_5 MINUP_G29_5 1.0
    V_G29_5 MINUP_G29_6 1.0
    V_G29_5 MINUP_G29_7 1.0
    V_G29_5 MINUP_G29_8 1.0
    W_G29_5 LOGIC_G29_5 1.0
    W_G29_5 MINDN_G29_5 1.0
    W_G29_5 MINDN_G29_6 1.0
    M23967 'MARKER' 'INTEND'
    P_G29_5 OBJ 30.248321148103738
    P_G29_5 PMIN_G29_5 1.0
    P_G29_5 PMAX_G29_5 1.0
    P_G29_5 RUP_G29_5 1.0
    P_G29_5 RDN_G29_5 -1.0
    P_G29_5 RUP_G29_6 -1.0
    P_G29_5 RDN_G29_6 1.0
    P_G29_5 DEM_5 1.0
    M23976 'MARKER' 'INTORG'
    U_G29_6 OBJ 89.86951933745556
    U_G29_6 PMIN_G29_6 -79.71162538914506
    U_G29_6 PMAX_G29_6 -227.06096913215717
    U_G29_6 LOGIC_G29_6 1.0
    U_G29_6 MINUP_G29_6 -1.0
    U_G29_6 MINDN_G29_6 1.0
    U_G29_6 LOGIC_G29_7 -1.0
    U_G29_6 RES_6 227.06096913215717
    V_G29_6 OBJ 858.530631875809
    V_G29_6 LOGIC_G29_6 -1.0
    V_G29_6 MINUP_G29_6 1.0
    V_G29_6 MINUP_G29_7 1.0
    V_G29_6 MINUP_G29_8 1.0
    V_G29_6 MINUP_G29_9 1.0
    W_G29_6 LOGIC_G29_6 1.0
    W_G29_6 MINDN_G29_6 1.0
    W_G29_6 MINDN_G29_7 1.0
    M23994 'MARKER' 'INTEND'
    P_G29_6 OBJ 30.248321148103738
    P_G29_6 PMIN_G29_6 1.0
    P_G29_6 PMAX_G29_6 1.0
    P_G29_6 RUP_G29_6 1.0
    P_G29_6 RDN_G29_6 -1.0
    P_G29_6 RUP_G29_7 -1.0
    P_G29_6 RDN_G29_7 1.0
    P_G29_6 DEM_6 1.0
    M24003 'MARKER' 'INTORG'
    U_G29_7 OBJ 89.86951933745556
    U_G29_7 PMIN_G29_7 -79.71162538914506
    U_G29_7 PMAX_G29_7 -227.06096913215717
    U_G29_7 LOGIC_G29_7 1.0
    U_G29_7 MINUP_G29_7 -1.0
    U_G29_7 MINDN_G29_7 1.0
    U_G29_7 LOGIC_G29_8 -1.0
    U_G29_7 RES_7 227.06096913215717
    V_G29_7 OBJ 858.530631875809
    V_G29_7 LOGIC_G29_7 -1.0
    V_G29_7 MINUP_G29_7 1.0
    V_G29_7 MINUP_G29_8 1.0
    V_G29_7 MINUP_G29_9 1.0
    V_G29_7 MINUP_G29_10 1.0
    W_G29_7 LOGIC_G29_7 1.0
    W_G29_7 MINDN_G29_7 1.0
    W_G29_7 MINDN_G29_8 1.0
    M24021 'MARKER' 'INTEND'
    P_G29_7 OBJ 30.248321148103738
    P_G29_7 PMIN_G29_7 1.0
    P_G29_7 PMAX_G29_7 1.0
    P_G29_7 RUP_G29_7 1.0
    P_G29_7 RDN_G29_7 -1.0
    P_G29_7 RUP_G29_8 -1.0
    P_G29_7 RDN_G29_8 1.0
    P_G29_7 DEM_7 1.0
    M24030 'MARKER' 'INTORG'
    U_G29_8 OBJ 89.86951933745556
    U_G29_8 PMIN_G29_8 -79.71162538914506
    U_G29_8 PMAX_G29_8 -227.06096913215717
    U_G29_8 LOGIC_G29_8 1.0
    U_G29_8 MINUP_G29_8 -1.0
    U_G29_8 MINDN_G29_8 1.0
    U_G29_8 LOGIC_G29_9 -1.0
    U_G29_8 RES_8 227.06096913215717
    V_G29_8 OBJ 858.530631875809
    V_G29_8 LOGIC_G29_8 -1.0
    V_G29_8 MINUP_G29_8 1.0
    V_G29_8 MINUP_G29_9 1.0
    V_G29_8 MINUP_G29_10 1.0
    V_G29_8 MINUP_G29_11 1.0
    W_G29_8 LOGIC_G29_8 1.0
    W_G29_8 MINDN_G29_8 1.0
    W_G29_8 MINDN_G29_9 1.0
    M24048 'MARKER' 'INTEND'
    P_G29_8 OBJ 30.248321148103738
    P_G29_8 PMIN_G29_8 1.0
    P_G29_8 PMAX_G29_8 1.0
    P_G29_8 RUP_G29_8 1.0
    P_G29_8 RDN_G29_8 -1.0
    P_G29_8 RUP_G29_9 -1.0
    P_G29_8 RDN_G29_9 1.0
    P_G29_8 DEM_8 1.0
    M24057 'MARKER' 'INTORG'
    U_G29_9 OBJ 89.86951933745556
    U_G29_9 PMIN_G29_9 -79.71162538914506
    U_G29_9 PMAX_G29_9 -227.06096913215717
    U_G29_9 LOGIC_G29_9 1.0
    U_G29_9 MINUP_G29_9 -1.0
    U_G29_9 MINDN_G29_9 1.0
    U_G29_9 LOGIC_G29_10 -1.0
    U_G29_9 RES_9 227.06096913215717
    V_G29_9 OBJ 858.530631875809
    V_G29_9 LOGIC_G29_9 -1.0
    V_G29_9 MINUP_G29_9 1.0
    V_G29_9 MINUP_G29_10 1.0
    V_G29_9 MINUP_G29_11 1.0
    V_G29_9 MINUP_G29_12 1.0
    W_G29_9 LOGIC_G29_9 1.0
    W_G29_9 MINDN_G29_9 1.0
    W_G29_9 MINDN_G29_10 1.0
    M24075 'MARKER' 'INTEND'
    P_G29_9 OBJ 30.248321148103738
    P_G29_9 PMIN_G29_9 1.0
    P_G29_9 PMAX_G29_9 1.0
    P_G29_9 RUP_G29_9 1.0
    P_G29_9 RDN_G29_9 -1.0
    P_G29_9 RUP_G29_10 -1.0
    P_G29_9 RDN_G29_10 1.0
    P_G29_9 DEM_9 1.0
    M24084 'MARKER' 'INTORG'
    U_G29_10 OBJ 89.86951933745556
    U_G29_10 PMIN_G29_10 -79.71162538914506
    U_G29_10 PMAX_G29_10 -227.06096913215717
    U_G29_10 LOGIC_G29_10 1.0
    U_G29_10 MINUP_G29_10 -1.0
    U_G29_10 MINDN_G29_10 1.0
    U_G29_10 LOGIC_G29_11 -1.0
    U_G29_10 RES_10 227.06096913215717
    V_G29_10 OBJ 858.530631875809
    V_G29_10 LOGIC_G29_10 -1.0
    V_G29_10 MINUP_G29_10 1.0
    V_G29_10 MINUP_G29_11 1.0
    V_G29_10 MINUP_G29_12 1.0
    V_G29_10 MINUP_G29_13 1.0
    W_G29_10 LOGIC_G29_10 1.0
    W_G29_10 MINDN_G29_10 1.0
    W_G29_10 MINDN_G29_11 1.0
    M24102 'MARKER' 'INTEND'
    P_G29_10 OBJ 30.248321148103738
    P_G29_10 PMIN_G29_10 1.0
    P_G29_10 PMAX_G29_10 1.0
    P_G29_10 RUP_G29_10 1.0
    P_G29_10 RDN_G29_10 -1.0
    P_G29_10 RUP_G29_11 -1.0
    P_G29_10 RDN_G29_11 1.0
    P_G29_10 DEM_10 1.0
    M24111 'MARKER' 'INTORG'
    U_G29_11 OBJ 89.86951933745556
    U_G29_11 PMIN_G29_11 -79.71162538914506
    U_G29_11 PMAX_G29_11 -227.06096913215717
    U_G29_11 LOGIC_G29_11 1.0
    U_G29_11 MINUP_G29_11 -1.0
    U_G29_11 MINDN_G29_11 1.0
    U_G29_11 LOGIC_G29_12 -1.0
    U_G29_11 RES_11 227.06096913215717
    V_G29_11 OBJ 858.530631875809
    V_G29_11 LOGIC_G29_11 -1.0
    V_G29_11 MINUP_G29_11 1.0
    V_G29_11 MINUP_G29_12 1.0
    V_G29_11 MINUP_G29_13 1.0
    V_G29_11 MINUP_G29_14 1.0
    W_G29_11 LOGIC_G29_11 1.0
    W_G29_11 MINDN_G29_11 1.0
    W_G29_11 MINDN_G29_12 1.0
    M24129 'MARKER' 'INTEND'
    P_G29_11 OBJ 30.248321148103738
    P_G29_11 PMIN_G29_11 1.0
    P_G29_11 PMAX_G29_11 1.0
    P_G29_11 RUP_G29_11 1.0
    P_G29_11 RDN_G29_11 -1.0
    P_G29_11 RUP_G29_12 -1.0
    P_G29_11 RDN_G29_12 1.0
    P_G29_11 DEM_11 1.0
    M24138 'MARKER' 'INTORG'
    U_G29_12 OBJ 89.86951933745556
    U_G29_12 PMIN_G29_12 -79.71162538914506
    U_G29_12 PMAX_G29_12 -227.06096913215717
    U_G29_12 LOGIC_G29_12 1.0
    U_G29_12 MINUP_G29_12 -1.0
    U_G29_12 MINDN_G29_12 1.0
    U_G29_12 LOGIC_G29_13 -1.0
    U_G29_12 RES_12 227.06096913215717
    V_G29_12 OBJ 858.530631875809
    V_G29_12 LOGIC_G29_12 -1.0
    V_G29_12 MINUP_G29_12 1.0
    V_G29_12 MINUP_G29_13 1.0
    V_G29_12 MINUP_G29_14 1.0
    V_G29_12 MINUP_G29_15 1.0
    W_G29_12 LOGIC_G29_12 1.0
    W_G29_12 MINDN_G29_12 1.0
    W_G29_12 MINDN_G29_13 1.0
    M24156 'MARKER' 'INTEND'
    P_G29_12 OBJ 30.248321148103738
    P_G29_12 PMIN_G29_12 1.0
    P_G29_12 PMAX_G29_12 1.0
    P_G29_12 RUP_G29_12 1.0
    P_G29_12 RDN_G29_12 -1.0
    P_G29_12 RUP_G29_13 -1.0
    P_G29_12 RDN_G29_13 1.0
    P_G29_12 DEM_12 1.0
    M24165 'MARKER' 'INTORG'
    U_G29_13 OBJ 89.86951933745556
    U_G29_13 PMIN_G29_13 -79.71162538914506
    U_G29_13 PMAX_G29_13 -227.06096913215717
    U_G29_13 LOGIC_G29_13 1.0
    U_G29_13 MINUP_G29_13 -1.0
    U_G29_13 MINDN_G29_13 1.0
    U_G29_13 LOGIC_G29_14 -1.0
    U_G29_13 RES_13 227.06096913215717
    V_G29_13 OBJ 858.530631875809
    V_G29_13 LOGIC_G29_13 -1.0
    V_G29_13 MINUP_G29_13 1.0
    V_G29_13 MINUP_G29_14 1.0
    V_G29_13 MINUP_G29_15 1.0
    V_G29_13 MINUP_G29_16 1.0
    W_G29_13 LOGIC_G29_13 1.0
    W_G29_13 MINDN_G29_13 1.0
    W_G29_13 MINDN_G29_14 1.0
    M24183 'MARKER' 'INTEND'
    P_G29_13 OBJ 30.248321148103738
    P_G29_13 PMIN_G29_13 1.0
    P_G29_13 PMAX_G29_13 1.0
    P_G29_13 RUP_G29_13 1.0
    P_G29_13 RDN_G29_13 -1.0
    P_G29_13 RUP_G29_14 -1.0
    P_G29_13 RDN_G29_14 1.0
    P_G29_13 DEM_13 1.0
    M24192 'MARKER' 'INTORG'
    U_G29_14 OBJ 89.86951933745556
    U_G29_14 PMIN_G29_14 -79.71162538914506
    U_G29_14 PMAX_G29_14 -227.06096913215717
    U_G29_14 LOGIC_G29_14 1.0
    U_G29_14 MINUP_G29_14 -1.0
    U_G29_14 MINDN_G29_14 1.0
    U_G29_14 LOGIC_G29_15 -1.0
    U_G29_14 RES_14 227.06096913215717
    V_G29_14 OBJ 858.530631875809
    V_G29_14 LOGIC_G29_14 -1.0
    V_G29_14 MINUP_G29_14 1.0
    V_G29_14 MINUP_G29_15 1.0
    V_G29_14 MINUP_G29_16 1.0
    V_G29_14 MINUP_G29_17 1.0
    W_G29_14 LOGIC_G29_14 1.0
    W_G29_14 MINDN_G29_14 1.0
    W_G29_14 MINDN_G29_15 1.0
    M24210 'MARKER' 'INTEND'
    P_G29_14 OBJ 30.248321148103738
    P_G29_14 PMIN_G29_14 1.0
    P_G29_14 PMAX_G29_14 1.0
    P_G29_14 RUP_G29_14 1.0
    P_G29_14 RDN_G29_14 -1.0
    P_G29_14 RUP_G29_15 -1.0
    P_G29_14 RDN_G29_15 1.0
    P_G29_14 DEM_14 1.0
    M24219 'MARKER' 'INTORG'
    U_G29_15 OBJ 89.86951933745556
    U_G29_15 PMIN_G29_15 -79.71162538914506
    U_G29_15 PMAX_G29_15 -227.06096913215717
    U_G29_15 LOGIC_G29_15 1.0
    U_G29_15 MINUP_G29_15 -1.0
    U_G29_15 MINDN_G29_15 1.0
    U_G29_15 LOGIC_G29_16 -1.0
    U_G29_15 RES_15 227.06096913215717
    V_G29_15 OBJ 858.530631875809
    V_G29_15 LOGIC_G29_15 -1.0
    V_G29_15 MINUP_G29_15 1.0
    V_G29_15 MINUP_G29_16 1.0
    V_G29_15 MINUP_G29_17 1.0
    V_G29_15 MINUP_G29_18 1.0
    W_G29_15 LOGIC_G29_15 1.0
    W_G29_15 MINDN_G29_15 1.0
    W_G29_15 MINDN_G29_16 1.0
    M24237 'MARKER' 'INTEND'
    P_G29_15 OBJ 30.248321148103738
    P_G29_15 PMIN_G29_15 1.0
    P_G29_15 PMAX_G29_15 1.0
    P_G29_15 RUP_G29_15 1.0
    P_G29_15 RDN_G29_15 -1.0
    P_G29_15 RUP_G29_16 -1.0
    P_G29_15 RDN_G29_16 1.0
    P_G29_15 DEM_15 1.0
    M24246 'MARKER' 'INTORG'
    U_G29_16 OBJ 89.86951933745556
    U_G29_16 PMIN_G29_16 -79.71162538914506
    U_G29_16 PMAX_G29_16 -227.06096913215717
    U_G29_16 LOGIC_G29_16 1.0
    U_G29_16 MINUP_G29_16 -1.0
    U_G29_16 MINDN_G29_16 1.0
    U_G29_16 LOGIC_G29_17 -1.0
    U_G29_16 RES_16 227.06096913215717
    V_G29_16 OBJ 858.530631875809
    V_G29_16 LOGIC_G29_16 -1.0
    V_G29_16 MINUP_G29_16 1.0
    V_G29_16 MINUP_G29_17 1.0
    V_G29_16 MINUP_G29_18 1.0
    V_G29_16 MINUP_G29_19 1.0
    W_G29_16 LOGIC_G29_16 1.0
    W_G29_16 MINDN_G29_16 1.0
    W_G29_16 MINDN_G29_17 1.0
    M24264 'MARKER' 'INTEND'
    P_G29_16 OBJ 30.248321148103738
    P_G29_16 PMIN_G29_16 1.0
    P_G29_16 PMAX_G29_16 1.0
    P_G29_16 RUP_G29_16 1.0
    P_G29_16 RDN_G29_16 -1.0
    P_G29_16 RUP_G29_17 -1.0
    P_G29_16 RDN_G29_17 1.0
    P_G29_16 DEM_16 1.0
    M24273 'MARKER' 'INTORG'
    U_G29_17 OBJ 89.86951933745556
    U_G29_17 PMIN_G29_17 -79.71162538914506
    U_G29_17 PMAX_G29_17 -227.06096913215717
    U_G29_17 LOGIC_G29_17 1.0
    U_G29_17 MINUP_G29_17 -1.0
    U_G29_17 MINDN_G29_17 1.0
    U_G29_17 LOGIC_G29_18 -1.0
    U_G29_17 RES_17 227.06096913215717
    V_G29_17 OBJ 858.530631875809
    V_G29_17 LOGIC_G29_17 -1.0
    V_G29_17 MINUP_G29_17 1.0
    V_G29_17 MINUP_G29_18 1.0
    V_G29_17 MINUP_G29_19 1.0
    V_G29_17 MINUP_G29_20 1.0
    W_G29_17 LOGIC_G29_17 1.0
    W_G29_17 MINDN_G29_17 1.0
    W_G29_17 MINDN_G29_18 1.0
    M24291 'MARKER' 'INTEND'
    P_G29_17 OBJ 30.248321148103738
    P_G29_17 PMIN_G29_17 1.0
    P_G29_17 PMAX_G29_17 1.0
    P_G29_17 RUP_G29_17 1.0
    P_G29_17 RDN_G29_17 -1.0
    P_G29_17 RUP_G29_18 -1.0
    P_G29_17 RDN_G29_18 1.0
    P_G29_17 DEM_17 1.0
    M24300 'MARKER' 'INTORG'
    U_G29_18 OBJ 89.86951933745556
    U_G29_18 PMIN_G29_18 -79.71162538914506
    U_G29_18 PMAX_G29_18 -227.06096913215717
    U_G29_18 LOGIC_G29_18 1.0
    U_G29_18 MINUP_G29_18 -1.0
    U_G29_18 MINDN_G29_18 1.0
    U_G29_18 LOGIC_G29_19 -1.0
    U_G29_18 RES_18 227.06096913215717
    V_G29_18 OBJ 858.530631875809
    V_G29_18 LOGIC_G29_18 -1.0
    V_G29_18 MINUP_G29_18 1.0
    V_G29_18 MINUP_G29_19 1.0
    V_G29_18 MINUP_G29_20 1.0
    V_G29_18 MINUP_G29_21 1.0
    W_G29_18 LOGIC_G29_18 1.0
    W_G29_18 MINDN_G29_18 1.0
    W_G29_18 MINDN_G29_19 1.0
    M24318 'MARKER' 'INTEND'
    P_G29_18 OBJ 30.248321148103738
    P_G29_18 PMIN_G29_18 1.0
    P_G29_18 PMAX_G29_18 1.0
    P_G29_18 RUP_G29_18 1.0
    P_G29_18 RDN_G29_18 -1.0
    P_G29_18 RUP_G29_19 -1.0
    P_G29_18 RDN_G29_19 1.0
    P_G29_18 DEM_18 1.0
    M24327 'MARKER' 'INTORG'
    U_G29_19 OBJ 89.86951933745556
    U_G29_19 PMIN_G29_19 -79.71162538914506
    U_G29_19 PMAX_G29_19 -227.06096913215717
    U_G29_19 LOGIC_G29_19 1.0
    U_G29_19 MINUP_G29_19 -1.0
    U_G29_19 MINDN_G29_19 1.0
    U_G29_19 LOGIC_G29_20 -1.0
    U_G29_19 RES_19 227.06096913215717
    V_G29_19 OBJ 858.530631875809
    V_G29_19 LOGIC_G29_19 -1.0
    V_G29_19 MINUP_G29_19 1.0
    V_G29_19 MINUP_G29_20 1.0
    V_G29_19 MINUP_G29_21 1.0
    V_G29_19 MINUP_G29_22 1.0
    W_G29_19 LOGIC_G29_19 1.0
    W_G29_19 MINDN_G29_19 1.0
    W_G29_19 MINDN_G29_20 1.0
    M24345 'MARKER' 'INTEND'
    P_G29_19 OBJ 30.248321148103738
    P_G29_19 PMIN_G29_19 1.0
    P_G29_19 PMAX_G29_19 1.0
    P_G29_19 RUP_G29_19 1.0
    P_G29_19 RDN_G29_19 -1.0
    P_G29_19 RUP_G29_20 -1.0
    P_G29_19 RDN_G29_20 1.0
    P_G29_19 DEM_19 1.0
    M24354 'MARKER' 'INTORG'
    U_G29_20 OBJ 89.86951933745556
    U_G29_20 PMIN_G29_20 -79.71162538914506
    U_G29_20 PMAX_G29_20 -227.06096913215717
    U_G29_20 LOGIC_G29_20 1.0
    U_G29_20 MINUP_G29_20 -1.0
    U_G29_20 MINDN_G29_20 1.0
    U_G29_20 LOGIC_G29_21 -1.0
    U_G29_20 RES_20 227.06096913215717
    V_G29_20 OBJ 858.530631875809
    V_G29_20 LOGIC_G29_20 -1.0
    V_G29_20 MINUP_G29_20 1.0
    V_G29_20 MINUP_G29_21 1.0
    V_G29_20 MINUP_G29_22 1.0
    V_G29_20 MINUP_G29_23 1.0
    W_G29_20 LOGIC_G29_20 1.0
    W_G29_20 MINDN_G29_20 1.0
    W_G29_20 MINDN_G29_21 1.0
    M24372 'MARKER' 'INTEND'
    P_G29_20 OBJ 30.248321148103738
    P_G29_20 PMIN_G29_20 1.0
    P_G29_20 PMAX_G29_20 1.0
    P_G29_20 RUP_G29_20 1.0
    P_G29_20 RDN_G29_20 -1.0
    P_G29_20 RUP_G29_21 -1.0
    P_G29_20 RDN_G29_21 1.0
    P_G29_20 DEM_20 1.0
    M24381 'MARKER' 'INTORG'
    U_G29_21 OBJ 89.86951933745556
    U_G29_21 PMIN_G29_21 -79.71162538914506
    U_G29_21 PMAX_G29_21 -227.06096913215717
    U_G29_21 LOGIC_G29_21 1.0
    U_G29_21 MINUP_G29_21 -1.0
    U_G29_21 MINDN_G29_21 1.0
    U_G29_21 LOGIC_G29_22 -1.0
    U_G29_21 RES_21 227.06096913215717
    V_G29_21 OBJ 858.530631875809
    V_G29_21 LOGIC_G29_21 -1.0
    V_G29_21 MINUP_G29_21 1.0
    V_G29_21 MINUP_G29_22 1.0
    V_G29_21 MINUP_G29_23 1.0
    W_G29_21 LOGIC_G29_21 1.0
    W_G29_21 MINDN_G29_21 1.0
    W_G29_21 MINDN_G29_22 1.0
    M24398 'MARKER' 'INTEND'
    P_G29_21 OBJ 30.248321148103738
    P_G29_21 PMIN_G29_21 1.0
    P_G29_21 PMAX_G29_21 1.0
    P_G29_21 RUP_G29_21 1.0
    P_G29_21 RDN_G29_21 -1.0
    P_G29_21 RUP_G29_22 -1.0
    P_G29_21 RDN_G29_22 1.0
    P_G29_21 DEM_21 1.0
    M24407 'MARKER' 'INTORG'
    U_G29_22 OBJ 89.86951933745556
    U_G29_22 PMIN_G29_22 -79.71162538914506
    U_G29_22 PMAX_G29_22 -227.06096913215717
    U_G29_22 LOGIC_G29_22 1.0
    U_G29_22 MINUP_G29_22 -1.0
    U_G29_22 MINDN_G29_22 1.0
    U_G29_22 LOGIC_G29_23 -1.0
    U_G29_22 RES_22 227.06096913215717
    V_G29_22 OBJ 858.530631875809
    V_G29_22 LOGIC_G29_22 -1.0
    V_G29_22 MINUP_G29_22 1.0
    V_G29_22 MINUP_G29_23 1.0
    W_G29_22 LOGIC_G29_22 1.0
    W_G29_22 MINDN_G29_22 1.0
    W_G29_22 MINDN_G29_23 1.0
    M24423 'MARKER' 'INTEND'
    P_G29_22 OBJ 30.248321148103738
    P_G29_22 PMIN_G29_22 1.0
    P_G29_22 PMAX_G29_22 1.0
    P_G29_22 RUP_G29_22 1.0
    P_G29_22 RDN_G29_22 -1.0
    P_G29_22 RUP_G29_23 -1.0
    P_G29_22 RDN_G29_23 1.0
    P_G29_22 DEM_22 1.0
    M24432 'MARKER' 'INTORG'
    U_G29_23 OBJ 89.86951933745556
    U_G29_23 PMIN_G29_23 -79.71162538914506
    U_G29_23 PMAX_G29_23 -227.06096913215717
    U_G29_23 LOGIC_G29_23 1.0
    U_G29_23 MINUP_G29_23 -1.0
    U_G29_23 MINDN_G29_23 1.0
    U_G29_23 RES_23 227.06096913215717
    V_G29_23 OBJ 858.530631875809
    V_G29_23 LOGIC_G29_23 -1.0
    V_G29_23 MINUP_G29_23 1.0
    W_G29_23 LOGIC_G29_23 1.0
    W_G29_23 MINDN_G29_23 1.0
    M24445 'MARKER' 'INTEND'
    P_G29_23 OBJ 30.248321148103738
    P_G29_23 PMIN_G29_23 1.0
    P_G29_23 PMAX_G29_23 1.0
    P_G29_23 RUP_G29_23 1.0
    P_G29_23 RDN_G29_23 -1.0
    P_G29_23 DEM_23 1.0
RHS
    RHS MINDN_G00_0 1.0
    RHS RUP_G00_1 96.46785804985234
    RHS RDN_G00_1 96.46785804985234
    RHS MINDN_G00_1 1.0
    RHS RUP_G00_2 96.46785804985234
    RHS RDN_G00_2 96.46785804985234
    RHS MINDN_G00_2 1.0
    RHS RUP_G00_3 96.46785804985234
    RHS RDN_G00_3 96.46785804985234
    RHS MINDN_G00_3 1.0
    RHS RUP_G00_4 96.46785804985234
    RHS RDN_G00_4 96.46785804985234
    RHS MINDN_G00_4 1.0
    RHS RUP_G00_5 96.46785804985234
    RHS RDN_G00_5 96.46785804985234
    RHS MINDN_G00_5 1.0
    RHS RUP_G00_6 96.46785804985234
    RHS RDN_G00_6 96.46785804985234
    RHS MINDN_G00_6 1.0
    RHS RUP_G00_7 96.46785804985234
    RHS RDN_G00_7 96.46785804985234
    RHS MINDN_G00_7 1.0
    RHS RUP_G00_8 96.46785804985234
    RHS RDN_G00_8 96.46785804985234
    RHS MINDN_G00_8 1.0
    RHS RUP_G00_9 96.46785804985234
    RHS RDN_G00_9 96.46785804985234
    RHS MINDN_G00_9 1.0
    RHS RUP_G00_10 96.46785804985234
    RHS RDN_G00_10 96.46785804985234
    RHS MINDN_G00_10 1.0
    RHS RUP_G00_11 96.46785804985234
    RHS RDN_G00_11 96.46785804985234
    RHS MINDN_G00_11 1.0
    RHS RUP_G00_12 96.46785804985234
    RHS RDN_G00_12 96.46785804985234
    RHS MINDN_G00_12 1.0
    RHS RUP_G00_13 96.46785804985234
    RHS RDN_G00_13 96.46785804985234
    RHS MINDN_G00_13 1.0
    RHS RUP_G00_14 96.46785804985234
    RHS RDN_G00_14 96.46785804985234
    RHS MINDN_G00_14 1.0
    RHS RUP_G00_15 96.46785804985234
    RHS RDN_G00_15 96.46785804985234
    RHS MINDN_G00_15 1.0
    RHS RUP_G00_16 96.46785804985234
    RHS RDN_G00_16 96.46785804985234
    RHS MINDN_G00_16 1.0
    RHS RUP_G00_17 96.46785804985234
    RHS RDN_G00_17 96.46785804985234
    RHS MINDN_G00_17 1.0
    RHS RUP_G00_18 96.46785804985234
    RHS RDN_G00_18 96.46785804985234
    RHS MINDN_G00_18 1.0
    RHS RUP_G00_19 96.46785804985234
    RHS RDN_G00_19 96.46785804985234
    RHS MINDN_G00_19 1.0
    RHS RUP_G00_20 96.46785804985234
    RHS RDN_G00_20 96.46785804985234
    RHS MINDN_G00_20 1.0
    RHS RUP_G00_21 96.46785804985234
    RHS RDN_G00_21 96.46785804985234
    RHS MINDN_G00_21 1.0
    RHS RUP_G00_22 96.46785804985234
    RHS RDN_G00_22 96.46785804985234
    RHS MINDN_G00_22 1.0
    RHS RUP_G00_23 96.46785804985234
    RHS RDN_G00_23 96.46785804985234
    RHS MINDN_G00_23 1.0
    RHS MINDN_G01_0 1.0
    RHS RUP_G01_1 50.26747991887895
    RHS RDN_G01_1 50.26747991887895
    RHS MINDN_G01_1 1.0
    RHS RUP_G01_2 50.26747991887895
    RHS RDN_G01_2 50.26747991887895
    RHS MINDN_G01_2 1.0
    RHS RUP_G01_3 50.26747991887895
    RHS RDN_G01_3 50.26747991887895
    RHS MINDN_G01_3 1.0
    RHS RUP_G01_4 50.26747991887895
    RHS RDN_G01_4 50.26747991887895
    RHS MINDN_G01_4 1.0
    RHS RUP_G01_5 50.26747991887895
    RHS RDN_G01_5 50.26747991887895
    RHS MINDN_G01_5 1.0
    RHS RUP_G01_6 50.26747991887895
    RHS RDN_G01_6 50.26747991887895
    RHS MINDN_G01_6 1.0
    RHS RUP_G01_7 50.26747991887895
    RHS RDN_G01_7 50.26747991887895
    RHS MINDN_G01_7 1.0
    RHS RUP_G01_8 50.26747991887895
    RHS RDN_G01_8 50.26747991887895
    RHS MINDN_G01_8 1.0
    RHS RUP_G01_9 50.26747991887895
    RHS RDN_G01_9 50.26747991887895
    RHS MINDN_G01_9 1.0
    RHS RUP_G01_10 50.26747991887895
    RHS RDN_G01_10 50.26747991887895
    RHS MINDN_G01_10 1.0
    RHS RUP_G01_11 50.26747991887895
    RHS RDN_G01_11 50.26747991887895
    RHS MINDN_G01_11 1.0
    RHS RUP_G01_12 50.26747991887895
    RHS RDN_G01_12 50.26747991887895
    RHS MINDN_G01_12 1.0
    RHS RUP_G01_13 50.26747991887895
    RHS RDN_G01_13 50.26747991887895
    RHS MINDN_G01_13 1.0
    RHS RUP_G01_14 50.26747991887895
    RHS RDN_G01_14 50.26747991887895
    RHS MINDN_G01_14 1.0
    RHS RUP_G01_15 50.26747991887895
    RHS RDN_G01_15 50.26747991887895
    RHS MINDN_G01_15 1.0
    RHS RUP_G01_16 50.26747991887895
    RHS RDN_G01_16 50.26747991887895
    RHS MINDN_G01_16 1.0
    RHS RUP_G01_17 50.26747991887895
    RHS RDN_G01_17 50.26747991887895
    RHS MINDN_G01_17 1.0
    RHS RUP_G01_18 50.26747991887895
    RHS RDN_G01_18 50.26747991887895
    RHS MINDN_G01_18 1.0
    RHS RUP_G01_19 50.26747991887895
    RHS RDN_G01_19 50.26747991887895
    RHS MINDN_G01_19 1.0
    RHS RUP_G01_20 50.26747991887895
    RHS RDN_G01_20 50.26747991887895
    RHS MINDN_G01_20 1.0
    RHS RUP_G01_21 50.26747991887895
    RHS RDN_G01_21 50.26747991887895
    RHS MINDN_G01_21 1.0
    RHS RUP_G01_22 50.26747991887895
    RHS RDN_G01_22 50.26747991887895
    RHS MINDN_G01_22 1.0
    RHS RUP_G01_23 50.26747991887895
    RHS RDN_G01_23 50.26747991887895
    RHS MINDN_G01_23 1.0
    RHS MINDN_G02_0 1.0
    RHS RUP_G02_1 199.2144888552017
    RHS RDN_G02_1 199.2144888552017
    RHS MINDN_G02_1 1.0
    RHS RUP_G02_2 199.2144888552017
    RHS RDN_G02_2 199.2144888552017
    RHS MINDN_G02_2 1.0
    RHS RUP_G02_3 199.2144888552017
    RHS RDN_G02_3 199.2144888552017
    RHS MINDN_G02_3 1.0
    RHS RUP_G02_4 199.2144888552017
    RHS RDN_G02_4 199.2144888552017
    RHS MINDN_G02_4 1.0
    RHS RUP_G02_5 199.2144888552017
    RHS RDN_G02_5 199.2144888552017
    RHS MINDN_G02_5 1.0
    RHS RUP_G02_6 199.2144888552017
    RHS RDN_G02_6 199.2144888552017
    RHS MINDN_G02_6 1.0
    RHS RUP_G02_7 199.2144888552017
    RHS RDN_G02_7 199.2144888552017
    RHS MINDN_G02_7 1.0
    RHS RUP_G02_8 199.2144888552017
    RHS RDN_G02_8 199.2144888552017
    RHS MINDN_G02_8 1.0
    RHS RUP_G02_9 199.2144888552017
    RHS RDN_G02_9 199.2144888552017
    RHS MINDN_G02_9 1.0
    RHS RUP_G02_10 199.2144888552017
    RHS RDN_G02_10 199.2144888552017
    RHS MINDN_G02_10 1.0
    RHS RUP_G02_11 199.2144888552017
    RHS RDN_G02_11 199.2144888552017
    RHS MINDN_G02_11 1.0
    RHS RUP_G02_12 199.2144888552017
    RHS RDN_G02_12 199.2144888552017
    RHS MINDN_G02_12 1.0
    RHS RUP_G02_13 199.2144888552017
    RHS RDN_G02_13 199.2144888552017
    RHS MINDN_G02_13 1.0
    RHS RUP_G02_14 199.2144888552017
    RHS RDN_G02_14 199.2144888552017
    RHS MINDN_G02_14 1.0
    RHS RUP_G02_15 199.2144888552017
    RHS RDN_G02_15 199.2144888552017
    RHS MINDN_G02_15 1.0
    RHS RUP_G02_16 199.2144888552017
    RHS RDN_G02_16 199.2144888552017
    RHS MINDN_G02_16 1.0
    RHS RUP_G02_17 199.2144888552017
    RHS RDN_G02_17 199.2144888552017
    RHS MINDN_G02_17 1.0
    RHS RUP_G02_18 199.2144888552017
    RHS RDN_G02_18 199.2144888552017
    RHS MINDN_G02_18 1.0
    RHS RUP_G02_19 199.2144888552017
    RHS RDN_G02_19 199.2144888552017
    RHS MINDN_G02_19 1.0
    RHS RUP_G02_20 199.2144888552017
    RHS RDN_G02_20 199.2144888552017
    RHS MINDN_G02_20 1.0
    RHS RUP_G02_21 199.2144888552017
    RHS RDN_G02_21 199.2144888552017
    RHS MINDN_G02_21 1.0
    RHS RUP_G02_22 199.2144888552017
    RHS RDN_G02_22 199.2144888552017
    RHS MINDN_G02_22 1.0
    RHS RUP_G02_23 199.2144888552017
    RHS RDN_G02_23 199.2144888552017
    RHS MINDN_G02_23 1.0
    RHS MINDN_G03_0 1.0
    RHS RUP_G03_1 298.07146304994694
    RHS RDN_G03_1 298.07146304994694
    RHS MINDN_G03_1 1.0
    RHS RUP_G03_2 298.07146304994694
    RHS RDN_G03_2 298.07146304994694
    RHS MINDN_G03_2 1.0
    RHS RUP_G03_3 298.07146304994694
    RHS RDN_G03_3 298.07146304994694
    RHS MINDN_G03_3 1.0
    RHS RUP_G03_4 298.07146304994694
    RHS RDN_G03_4 298.07146304994694
    RHS MINDN_G03_4 1.0
    RHS RUP_G03_5 298.07146304994694
    RHS RDN_G03_5 298.07146304994694
    RHS MINDN_G03_5 1.0
    RHS RUP_G03_6 298.07146304994694
    RHS RDN_G03_6 298.07146304994694
    RHS MINDN_G03_6 1.0
    RHS RUP_G03_7 298.07146304994694
    RHS RDN_G03_7 298.07146304994694
    RHS MINDN_G03_7 1.0
    RHS RUP_G03_8 298.07146304994694
    RHS RDN_G03_8 298.07146304994694
    RHS MINDN_G03_8 1.0
    RHS RUP_G03_9 298.07146304994694
    RHS RDN_G03_9 298.07146304994694
    RHS MINDN_G03_9 1.0
    RHS RUP_G03_10 298.07146304994694
    RHS RDN_G03_10 298.07146304994694
    RHS MINDN_G03_10 1.0
    RHS RUP_G03_11 298.07146304994694
    RHS RDN_G03_11 298.07146304994694
    RHS MINDN_G03_11 1.0
    RHS RUP_G03_12 298.07146304994694
    RHS RDN_G03_12 298.07146304994694
    RHS MINDN_G03_12 1.0
    RHS RUP_G03_13 298.07146304994694
    RHS RDN_G03_13 298.07146304994694
    RHS MINDN_G03_13 1.0
    RHS RUP_G03_14 298.07146304994694
    RHS RDN_G03_14 298.07146304994694
    RHS MINDN_G03_14 1.0
    RHS RUP_G03_15 298.07146304994694
    RHS RDN_G03_15 298.07146304994694
    RHS MINDN_G03_15 1.0
    RHS RUP_G03_16 298.07146304994694
    RHS RDN_G03_16 298.07146304994694
    RHS MINDN_G03_16 1.0
    RHS RUP_G03_17 298.07146304994694
    RHS RDN_G03_17 298.07146304994694
    RHS MINDN_G03_17 1.0
    RHS RUP_G03_18 298.07146304994694
    RHS RDN_G03_18 298.07146304994694
    RHS MINDN_G03_18 1.0
    RHS RUP_G03_19 298.07146304994694
    RHS RDN_G03_19 298.07146304994694
    RHS MINDN_G03_19 1.0
    RHS RUP_G03_20 298.07146304994694
    RHS RDN_G03_20 298.07146304994694
    RHS MINDN_G03_20 1.0
    RHS RUP_G03_21 298.07146304994694
    RHS RDN_G03_21 298.07146304994694
    RHS MINDN_G03_21 1.0
    RHS RUP_G03_22 298.07146304994694
    RHS RDN_G03_22 298.07146304994694
    RHS MINDN_G03_22 1.0
    RHS RUP_G03_23 298.07146304994694
    RHS RDN_G03_23 298.07146304994694
    RHS MINDN_G03_23 1.0
    RHS MINDN_G04_0 1.0
    RHS RUP_G04_1 275.7387561045736
    RHS RDN_G04_1 275.7387561045736
    RHS MINDN_G04_1 1.0
    RHS RUP_G04_2 275.7387561045736
    RHS RDN_G04_2 275.7387561045736
    RHS MINDN_G04_2 1.0
    RHS RUP_G04_3 275.7387561045736
    RHS RDN_G04_3 275.7387561045736
    RHS MINDN_G04_3 1.0
    RHS RUP_G04_4 275.7387561045736
    RHS RDN_G04_4 275.7387561045736
    RHS MINDN_G04_4 1.0
    RHS RUP_G04_5 275.7387561045736
    RHS RDN_G04_5 275.7387561045736
    RHS MINDN_G04_5 1.0
    RHS RUP_G04_6 275.7387561045736
    RHS RDN_G04_6 275.7387561045736
    RHS MINDN_G04_6 1.0
    RHS RUP_G04_7 275.7387561045736
    RHS RDN_G04_7 275.7387561045736
    RHS MINDN_G04_7 1.0
    RHS RUP_G04_8 275.7387561045736
    RHS RDN_G04_8 275.7387561045736
    RHS MINDN_G04_8 1.0
    RHS RUP_G04_9 275.7387561045736
    RHS RDN_G04_9 275.7387561045736
    RHS MINDN_G04_9 1.0
    RHS RUP_G04_10 275.7387561045736
    RHS RDN_G04_10 275.7387561045736
    RHS MINDN_G04_10 1.0
    RHS RUP_G04_11 275.7387561045736
    RHS RDN_G04_11 275.7387561045736
    RHS MINDN_G04_11 1.0
    RHS RUP_G04_12 275.7387561045736
    RHS RDN_G04_12 275.7387561045736
    RHS MINDN_G04_12 1.0
    RHS RUP_G04_13 275.7387561045736
    RHS RDN_G04_13 275.7387561045736
    RHS MINDN_G04_13 1.0
    RHS RUP_G04_14 275.7387561045736
    RHS RDN_G04_14 275.7387561045736
    RHS MINDN_G04_14 1.0
    RHS RUP_G04_15 275.7387561045736
    RHS RDN_G04_15 275.7387561045736
    RHS MINDN_G04_15 1.0
    RHS RUP_G04_16 275.7387561045736
    RHS RDN_G04_16 275.7387561045736
    RHS MINDN_G04_16 1.0
    RHS RUP_G04_17 275.7387561045736
    RHS RDN_G04_17 275.7387561045736
    RHS MINDN_G04_17 1.0
    RHS RUP_G04_18 275.7387561045736
    RHS RDN_G04_18 275.7387561045736
    RHS MINDN_G04_18 1.0
    RHS RUP_G04_19 275.7387561045736
    RHS RDN_G04_19 275.7387561045736
    RHS MINDN_G04_19 1.0
    RHS RUP_G04_20 275.7387561045736
    RHS RDN_G04_20 275.7387561045736
    RHS MINDN_G04_20 1.0
    RHS RUP_G04_21 275.7387561045736
    RHS RDN_G04_21 275.7387561045736
    RHS MINDN_G04_21 1.0
    RHS RUP_G04_22 275.7387561045736
    RHS RDN_G04_22 275.7387561045736
    RHS MINDN_G04_22 1.0
    RHS RUP_G04_23 275.7387561045736
    RHS RDN_G04_23 275.7387561045736
    RHS MINDN_G04_23 1.0
    RHS MINDN_G05_0 1.0
    RHS RUP_G05_1 369.62484111149274
    RHS RDN_G05_1 369.62484111149274
    RHS MINDN_G05_1 1.0
    RHS RUP_G05_2 369.62484111149274
    RHS RDN_G05_2 369.62484111149274
    RHS MINDN_G05_2 1.0
    RHS RUP_G05_3 369.62484111149274
    RHS RDN_G05_3 369.62484111149274
    RHS MINDN_G05_3 1.0
    RHS RUP_G05_4 369.62484111149274
    RHS RDN_G05_4 369.62484111149274
    RHS MINDN_G05_4 1.0
    RHS RUP_G05_5 369.62484111149274
    RHS RDN_G05_5 369.62484111149274
    RHS MINDN_G05_5 1.0
    RHS RUP_G05_6 369.62484111149274
    RHS RDN_G05_6 369.62484111149274
    RHS MINDN_G05_6 1.0
    RHS RUP_G05_7 369.62484111149274
    RHS RDN_G05_7 369.62484111149274
    RHS MINDN_G05_7 1.0
    RHS RUP_G05_8 369.62484111149274
    RHS RDN_G05_8 369.62484111149274
    RHS MINDN_G05_8 1.0
    RHS RUP_G05_9 369.62484111149274
    RHS RDN_G05_9 369.62484111149274
    RHS MINDN_G05_9 1.0
    RHS RUP_G05_10 369.62484111149274
    RHS RDN_G05_10 369.62484111149274
    RHS MINDN_G05_10 1.0
    RHS RUP_G05_11 369.62484111149274
    RHS RDN_G05_11 369.62484111149274
    RHS MINDN_G05_11 1.0
    RHS RUP_G05_12 369.62484111149274
    RHS RDN_G05_12 369.62484111149274
    RHS MINDN_G05_12 1.0
    RHS RUP_G05_13 369.62484111149274
    RHS RDN_G05_13 369.62484111149274
    RHS MINDN_G05_13 1.0
    RHS RUP_G05_14 369.62484111149274
    RHS RDN_G05_14 369.62484111149274
    RHS MINDN_G05_14 1.0
    RHS RUP_G05_15 369.62484111149274
    RHS RDN_G05_15 369.62484111149274
    RHS MINDN_G05_15 1.0
    RHS RUP_G05_16 369.62484111149274
    RHS RDN_G05_16 369.62484111149274
    RHS MINDN_G05_16 1.0
    RHS RUP_G05_17 369.62484111149274
    RHS RDN_G05_17 369.62484111149274
    RHS MINDN_G05_17 1.0
    RHS RUP_G05_18 369.62484111149274
    RHS RDN_G05_18 369.62484111149274
    RHS MINDN_G05_18 1.0
    RHS RUP_G05_19 369.62484111149274
    RHS RDN_G05_19 369.62484111149274
    RHS MINDN_G05_19 1.0
    RHS RUP_G05_20 369.62484111149274
    RHS RDN_G05_20 369.62484111149274
    RHS MINDN_G05_20 1.0
    RHS RUP_G05_21 369.62484111149274
    RHS RDN_G05_21 369.62484111149274
    RHS MINDN_G05_21 1.0
    RHS RUP_G05_22 369.62484111149274
    RHS RDN_G05_22 369.62484111149274
    RHS MINDN_G05_22 1.0
    RHS RUP_G05_23 369.62484111149274
    RHS RDN_G05_23 369.62484111149274
    RHS MINDN_G05_23 1.0
    RHS MINDN_G06_0 1.0
    RHS RUP_G06_1 234.92326845575212
    RHS RDN_G06_1 234.92326845575212
    RHS MINDN_G06_1 1.0
    RHS RUP_G06_2 234.92326845575212
    RHS RDN_G06_2 234.92326845575212
    RHS MINDN_G06_2 1.0
    RHS RUP_G06_3 234.92326845575212
    RHS RDN_G06_3 234.92326845575212
    RHS MINDN_G06_3 1.0
    RHS RUP_G06_4 234.92326845575212
    RHS RDN_G06_4 234.92326845575212
    RHS MINDN_G06_4 1.0
    RHS RUP_G06_5 234.92326845575212
    RHS RDN_G06_5 234.92326845575212
    RHS MINDN_G06_5 1.0
    RHS RUP_G06_6 234.92326845575212
    RHS RDN_G06_6 234.92326845575212
    RHS MINDN_G06_6 1.0
    RHS RUP_G06_7 234.92326845575212
    RHS RDN_G06_7 234.92326845575212
    RHS MINDN_G06_7 1.0
    RHS RUP_G06_8 234.92326845575212
    RHS RDN_G06_8 234.92326845575212
    RHS MINDN_G06_8 1.0
    RHS RUP_G06_9 234.92326845575212
    RHS RDN_G06_9 234.92326845575212
    RHS MINDN_G06_9 1.0
    RHS RUP_G06_10 234.92326845575212
    RHS RDN_G06_10 234.92326845575212
    RHS MINDN_G06_10 1.0
    RHS RUP_G06_11 234.92326845575212
    RHS RDN_G06_11 234.92326845575212
    RHS MINDN_G06_11 1.0
    RHS RUP_G06_12 234.92326845575212
    RHS RDN_G06_12 234.92326845575212
    RHS MINDN_G06_12 1.0
    RHS RUP_G06_13 234.92326845575212
    RHS RDN_G06_13 234.92326845575212
    RHS MINDN_G06_13 1.0
    RHS RUP_G06_14 234.92326845575212
    RHS RDN_G06_14 234.92326845575212
    RHS MINDN_G06_14 1.0
    RHS RUP_G06_15 234.92326845575212
    RHS RDN_G06_15 234.92326845575212
    RHS MINDN_G06_15 1.0
    RHS RUP_G06_16 234.92326845575212
    RHS RDN_G06_16 234.92326845575212
    RHS MINDN_G06_16 1.0
    RHS RUP_G06_17 234.92326845575212
    RHS RDN_G06_17 234.92326845575212
    RHS MINDN_G06_17 1.0
    RHS RUP_G06_18 234.92326845575212
    RHS RDN_G06_18 234.92326845575212
    RHS MINDN_G06_18 1.0
    RHS RUP_G06_19 234.92326845575212
    RHS RDN_G06_19 234.92326845575212
    RHS MINDN_G06_19 1.0
    RHS RUP_G06_20 234.92326845575212
    RHS RDN_G06_20 234.92326845575212
    RHS MINDN_G06_20 1.0
    RHS RUP_G06_21 234.92326845575212
    RHS RDN_G06_21 234.92326845575212
    RHS MINDN_G06_21 1.0
    RHS RUP_G06_22 234.92326845575212
    RHS RDN_G06_22 234.92326845575212
    RHS MINDN_G06_22 1.0
    RHS RUP_G06_23 234.92326845575212
    RHS RDN_G06_23 234.92326845575212
    RHS MINDN_G06_23 1.0
    RHS MINDN_G07_0 1.0
    RHS RUP_G07_1 177.61722923268306
    RHS RDN_G07_1 177.61722923268306
    RHS MINDN_G07_1 1.0
    RHS RUP_G07_2 177.61722923268306
    RHS RDN_G07_2 177.61722923268306
    RHS MINDN_G07_2 1.0
    RHS RUP_G07_3 177.61722923268306
    RHS RDN_G07_3 177.61722923268306
    RHS MINDN_G07_3 1.0
    RHS RUP_G07_4 177.61722923268306
    RHS RDN_G07_4 177.61722923268306
    RHS MINDN_G07_4 1.0
    RHS RUP_G07_5 177.61722923268306
    RHS RDN_G07_5 177.61722923268306
    RHS MINDN_G07_5 1.0
    RHS RUP_G07_6 177.61722923268306
    RHS RDN_G07_6 177.61722923268306
    RHS MINDN_G07_6 1.0
    RHS RUP_G07_7 177.61722923268306
    RHS RDN_G07_7 177.61722923268306
    RHS MINDN_G07_7 1.0
    RHS RUP_G07_8 177.61722923268306
    RHS RDN_G07_8 177.61722923268306
    RHS MINDN_G07_8 1.0
    RHS RUP_G07_9 177.61722923268306
    RHS RDN_G07_9 177.61722923268306
    RHS MINDN_G07_9 1.0
    RHS RUP_G07_10 177.61722923268306
    RHS RDN_G07_10 177.61722923268306
    RHS MINDN_G07_10 1.0
    RHS RUP_G07_11 177.61722923268306
    RHS RDN_G07_11 177.61722923268306
    RHS MINDN_G07_11 1.0
    RHS RUP_G07_12 177.61722923268306
    RHS RDN_G07_12 177.61722923268306
    RHS MINDN_G07_12 1.0
    RHS RUP_G07_13 177.61722923268306
    RHS RDN_G07_13 177.61722923268306
    RHS MINDN_G07_13 1.0
    RHS RUP_G07_14 177.61722923268306
    RHS RDN_G07_14 177.61722923268306
    RHS MINDN_G07_14 1.0
    RHS RUP_G07_15 177.61722923268306
    RHS RDN_G07_15 177.61722923268306
    RHS MINDN_G07_15 1.0
    RHS RUP_G07_16 177.61722923268306
    RHS RDN_G07_16 177.61722923268306
    RHS MINDN_G07_16 1.0
    RHS RUP_G07_17 177.61722923268306
    RHS RDN_G07_17 177.61722923268306
    RHS MINDN_G07_17 1.0
    RHS RUP_G07_18 177.61722923268306
    RHS RDN_G07_18 177.61722923268306
    RHS MINDN_G07_18 1.0
    RHS RUP_G07_19 177.61722923268306
    RHS RDN_G07_19 177.61722923268306
    RHS MINDN_G07_19 1.0
    RHS RUP_G07_20 177.61722923268306
    RHS RDN_G07_20 177.61722923268306
    RHS MINDN_G07_20 1.0
    RHS RUP_G07_21 177.61722923268306
    RHS RDN_G07_21 177.61722923268306
    RHS MINDN_G07_21 1.0
    RHS RUP_G07_22 177.61722923268306
    RHS RDN_G07_22 177.61722923268306
    RHS MINDN_G07_22 1.0
    RHS RUP_G07_23 177.61722923268306
    RHS RDN_G07_23 177.61722923268306
    RHS MINDN_G07_23 1.0
    RHS MINDN_G08_0 1.0
    RHS RUP_G08_1 73.68307152268233
    RHS RDN_G08_1 73.68307152268233
    RHS MINDN_G08_1 1.0
    RHS RUP_G08_2 73.68307152268233
    RHS RDN_G08_2 73.68307152268233
    RHS MINDN_G08_2 1.0
    RHS RUP_G08_3 73.68307152268233
    RHS RDN_G08_3 73.68307152268233
    RHS MINDN_G08_3 1.0
    RHS RUP_G08_4 73.68307152268233
    RHS RDN_G08_4 73.68307152268233
    RHS MINDN_G08_4 1.0
    RHS RUP_G08_5 73.68307152268233
    RHS RDN_G08_5 73.68307152268233
    RHS MINDN_G08_5 1.0
    RHS RUP_G08_6 73.68307152268233
    RHS RDN_G08_6 73.68307152268233
    RHS MINDN_G08_6 1.0
    RHS RUP_G08_7 73.68307152268233
    RHS RDN_G08_7 73.68307152268233
    RHS MINDN_G08_7 1.0
    RHS RUP_G08_8 73.68307152268233
    RHS RDN_G08_8 73.68307152268233
    RHS MINDN_G08_8 1.0
    RHS RUP_G08_9 73.68307152268233
    RHS RDN_G08_9 73.68307152268233
    RHS MINDN_G08_9 1.0
    RHS RUP_G08_10 73.68307152268233
    RHS RDN_G08_10 73.68307152268233
    RHS MINDN_G08_10 1.0
    RHS RUP_G08_11 73.68307152268233
    RHS RDN_G08_11 73.68307152268233
    RHS MINDN_G08_11 1.0
    RHS RUP_G08_12 73.68307152268233
    RHS RDN_G08_12 73.68307152268233
    RHS MINDN_G08_12 1.0
    RHS RUP_G08_13 73.68307152268233
    RHS RDN_G08_13 73.68307152268233
    RHS MINDN_G08_13 1.0
    RHS RUP_G08_14 73.68307152268233
    RHS RDN_G08_14 73.68307152268233
    RHS MINDN_G08_14 1.0
    RHS RUP_G08_15 73.68307152268233
    RHS RDN_G08_15 73.68307152268233
    RHS MINDN_G08_15 1.0
    RHS RUP_G08_16 73.68307152268233
    RHS RDN_G08_16 73.68307152268233
    RHS MINDN_G08_16 1.0
    RHS RUP_G08_17 73.68307152268233
    RHS RDN_G08_17 73.68307152268233
    RHS MINDN_G08_17 1.0
    RHS RUP_G08_18 73.68307152268233
    RHS RDN_G08_18 73.68307152268233
    RHS MINDN_G08_18 1.0
    RHS RUP_G08_19 73.68307152268233
    RHS RDN_G08_19 73.68307152268233
    RHS MINDN_G08_19 1.0
    RHS RUP_G08_20 73.68307152268233
    RHS RDN_G08_20 73.68307152268233
    RHS MINDN_G08_20 1.0
    RHS RUP_G08_21 73.68307152268233
    RHS RDN_G08_21 73.68307152268233
    RHS MINDN_G08_21 1.0
    RHS RUP_G08_22 73.68307152268233
    RHS RDN_G08_22 73.68307152268233
    RHS MINDN_G08_22 1.0
    RHS RUP_G08_23 73.68307152268233
    RHS RDN_G08_23 73.68307152268233
    RHS MINDN_G08_23 1.0
    RHS MINDN_G09_0 1.0
    RHS RUP_G09_1 53.8624588331011
    RHS RDN_G09_1 53.8624588331011
    RHS MINDN_G09_1 1.0
    RHS RUP_G09_2 53.8624588331011
    RHS RDN_G09_2 53.8624588331011
    RHS MINDN_G09_2 1.0
    RHS RUP_G09_3 53.8624588331011
    RHS RDN_G09_3 53.8624588331011
    RHS MINDN_G09_3 1.0
    RHS RUP_G09_4 53.8624588331011
    RHS RDN_G09_4 53.8624588331011
    RHS MINDN_G09_4 1.0
    RHS RUP_G09_5 53.8624588331011
    RHS RDN_G09_5 53.8624588331011
    RHS MINDN_G09_5 1.0
    RHS RUP_G09_6 53.8624588331011
    RHS RDN_G09_6 53.8624588331011
    RHS MINDN_G09_6 1.0
    RHS RUP_G09_7 53.8624588331011
    RHS RDN_G09_7 53.8624588331011
    RHS MINDN_G09_7 1.0
    RHS RUP_G09_8 53.8624588331011
    RHS RDN_G09_8 53.8624588331011
    RHS MINDN_G09_8 1.0
    RHS RUP_G09_9 53.8624588331011
    RHS RDN_G09_9 53.8624588331011
    RHS MINDN_G09_9 1.0
    RHS RUP_G09_10 53.8624588331011
    RHS RDN_G09_10 53.8624588331011
    RHS MINDN_G09_10 1.0
    RHS RUP_G09_11 53.8624588331011
    RHS RDN_G09_11 53.8624588331011
    RHS MINDN_G09_11 1.0
    RHS RUP_G09_12 53.8624588331011
    RHS RDN_G09_12 53.8624588331011
    RHS MINDN_G09_12 1.0
    RHS RUP_G09_13 53.8624588331011
    RHS RDN_G09_13 53.8624588331011
    RHS MINDN_G09_13 1.0
    RHS RUP_G09_14 53.8624588331011
    RHS RDN_G09_14 53.8624588331011
    RHS MINDN_G09_14 1.0
    RHS RUP_G09_15 53.8624588331011
    RHS RDN_G09_15 53.8624588331011
    RHS MINDN_G09_15 1.0
    RHS RUP_G09_16 53.8624588331011
    RHS RDN_G09_16 53.8624588331011
    RHS MINDN_G09_16 1.0
    RHS RUP_G09_17 53.8624588331011
    RHS RDN_G09_17 53.8624588331011
    RHS MINDN_G09_17 1.0
    RHS RUP_G09_18 53.8624588331011
    RHS RDN_G09_18 53.8624588331011
    RHS MINDN_G09_18 1.0
    RHS RUP_G09_19 53.8624588331011
    RHS RDN_G09_19 53.8624588331011
    RHS MINDN_G09_19 1.0
    RHS RUP_G09_20 53.8624588331011
    RHS RDN_G09_20 53.8624588331011
    RHS MINDN_G09_20 1.0
    RHS RUP_G09_21 53.8624588331011
    RHS RDN_G09_21 53.8624588331011
    RHS MINDN_G09_21 1.0
    RHS RUP_G09_22 53.8624588331011
    RHS RDN_G09_22 53.8624588331011
    RHS MINDN_G09_22 1.0
    RHS RUP_G09_23 53.8624588331011
    RHS RDN_G09_23 53.8624588331011
    RHS MINDN_G09_23 1.0
    RHS MINDN_G10_0 1.0
    RHS RUP_G10_1 398.05406186586936
    RHS RDN_G10_1 398.05406186586936
    RHS MINDN_G10_1 1.0
    RHS RUP_G10_2 398.05406186586936
    RHS RDN_G10_2 398.05406186586936
    RHS MINDN_G10_2 1.0
    RHS RUP_G10_3 398.05406186586936
    RHS RDN_G10_3 398.05406186586936
    RHS MINDN_G10_3 1.0
    RHS RUP_G10_4 398.05406186586936
    RHS RDN_G10_4 398.05406186586936
    RHS MINDN_G10_4 1.0
    RHS RUP_G10_5 398.05406186586936
    RHS RDN_G10_5 398.05406186586936
    RHS MINDN_G10_5 1.0
    RHS RUP_G10_6 398.05406186586936
    RHS RDN_G10_6 398.05406186586936
    RHS MINDN_G10_6 1.0
    RHS RUP_G10_7 398.05406186586936
    RHS RDN_G10_7 398.05406186586936
    RHS MINDN_G10_7 1.0
    RHS RUP_G10_8 398.05406186586936
    RHS RDN_G10_8 398.05406186586936
    RHS MINDN_G10_8 1.0
    RHS RUP_G10_9 398.05406186586936
    RHS RDN_G10_9 398.05406186586936
    RHS MINDN_G10_9 1.0
    RHS RUP_G10_10 398.05406186586936
    RHS RDN_G10_10 398.05406186586936
    RHS MINDN_G10_10 1.0
    RHS RUP_G10_11 398.05406186586936
    RHS RDN_G10_11 398.05406186586936
    RHS MINDN_G10_11 1.0
    RHS RUP_G10_12 398.05406186586936
    RHS RDN_G10_12 398.05406186586936
    RHS MINDN_G10_12 1.0
    RHS RUP_G10_13 398.05406186586936
    RHS RDN_G10_13 398.05406186586936
    RHS MINDN_G10_13 1.0
    RHS RUP_G10_14 398.05406186586936
    RHS RDN_G10_14 398.05406186586936
    RHS MINDN_G10_14 1.0
    RHS RUP_G10_15 398.05406186586936
    RHS RDN_G10_15 398.05406186586936
    RHS MINDN_G10_15 1.0
    RHS RUP_G10_16 398.05406186586936
    RHS RDN_G10_16 398.05406186586936
    RHS MINDN_G10_16 1.0
    RHS RUP_G10_17 398.05406186586936
    RHS RDN_G10_17 398.05406186586936
    RHS MINDN_G10_17 1.0
    RHS RUP_G10_18 398.05406186586936
    RHS RDN_G10_18 398.05406186586936
    RHS MINDN_G10_18 1.0
    RHS RUP_G10_19 398.05406186586936
    RHS RDN_G10_19 398.05406186586936
    RHS MINDN_G10_19 1.0
    RHS RUP_G10_20 398.05406186586936
    RHS RDN_G10_20 398.05406186586936
    RHS MINDN_G10_20 1.0
    RHS RUP_G10_21 398.05406186586936
    RHS RDN_G10_21 398.05406186586936
    RHS MINDN_G10_21 1.0
    RHS RUP_G10_22 398.05406186586936
    RHS RDN_G10_22 398.05406186586936
    RHS MINDN_G10_22 1.0
    RHS RUP_G10_23 398.05406186586936
    RHS RDN_G10_23 398.05406186586936
    RHS MINDN_G10_23 1.0
    RHS MINDN_G11_0 1.0
    RHS RUP_G11_1 220.32144422026016
    RHS RDN_G11_1 220.32144422026016
    RHS MINDN_G11_1 1.0
    RHS RUP_G11_2 220.32144422026016
    RHS RDN_G11_2 220.32144422026016
    RHS MINDN_G11_2 1.0
    RHS RUP_G11_3 220.32144422026016
    RHS RDN_G11_3 220.32144422026016
    RHS MINDN_G11_3 1.0
    RHS RUP_G11_4 220.32144422026016
    RHS RDN_G11_4 220.32144422026016
    RHS MINDN_G11_4 1.0
    RHS RUP_G11_5 220.32144422026016
    RHS RDN_G11_5 220.32144422026016
    RHS MINDN_G11_5 1.0
    RHS RUP_G11_6 220.32144422026016
    RHS RDN_G11_6 220.32144422026016
    RHS MINDN_G11_6 1.0
    RHS RUP_G11_7 220.32144422026016
    RHS RDN_G11_7 220.32144422026016
    RHS MINDN_G11_7 1.0
    RHS RUP_G11_8 220.32144422026016
    RHS RDN_G11_8 220.32144422026016
    RHS MINDN_G11_8 1.0
    RHS RUP_G11_9 220.32144422026016
    RHS RDN_G11_9 220.32144422026016
    RHS MINDN_G11_9 1.0
    RHS RUP_G11_10 220.32144422026016
    RHS RDN_G11_10 220.32144422026016
    RHS MINDN_G11_10 1.0
    RHS RUP_G11_11 220.32144422026016
    RHS RDN_G11_11 220.32144422026016
    RHS MINDN_G11_11 1.0
    RHS RUP_G11_12 220.32144422026016
    RHS RDN_G11_12 220.32144422026016
    RHS MINDN_G11_12 1.0
    RHS RUP_G11_13 220.32144422026016
    RHS RDN_G11_13 220.32144422026016
    RHS MINDN_G11_13 1.0
    RHS RUP_G11_14 220.32144422026016
    RHS RDN_G11_14 220.32144422026016
    RHS MINDN_G11_14 1.0
    RHS RUP_G11_15 220.32144422026016
    RHS RDN_G11_15 220.32144422026016
    RHS MINDN_G11_15 1.0
    RHS RUP_G11_16 220.32144422026016
    RHS RDN_G11_16 220.32144422026016
    RHS MINDN_G11_16 1.0
    RHS RUP_G11_17 220.32144422026016
    RHS RDN_G11_17 220.32144422026016
    RHS MINDN_G11_17 1.0
    RHS RUP_G11_18 220.32144422026016
    RHS RDN_G11_18 220.32144422026016
    RHS MINDN_G11_18 1.0
    RHS RUP_G11_19 220.32144422026016
    RHS RDN_G11_19 220.32144422026016
    RHS MINDN_G11_19 1.0
    RHS RUP_G11_20 220.32144422026016
    RHS RDN_G11_20 220.32144422026016
    RHS MINDN_G11_20 1.0
    RHS RUP_G11_21 220.32144422026016
    RHS RDN_G11_21 220.32144422026016
    RHS MINDN_G11_21 1.0
    RHS RUP_G11_22 220.32144422026016
    RHS RDN_G11_22 220.32144422026016
    RHS MINDN_G11_22 1.0
    RHS RUP_G11_23 220.32144422026016
    RHS RDN_G11_23 220.32144422026016
    RHS MINDN_G11_23 1.0
    RHS MINDN_G12_0 1.0
    RHS RUP_G12_1 230.9055892149455
    RHS RDN_G12_1 230.9055892149455
    RHS MINDN_G12_1 1.0
    RHS RUP_G12_2 230.9055892149455
    RHS RDN_G12_2 230.9055892149455
    RHS MINDN_G12_2 1.0
    RHS RUP_G12_3 230.9055892149455
    RHS RDN_G12_3 230.9055892149455
    RHS MINDN_G12_3 1.0
    RHS RUP_G12_4 230.9055892149455
    RHS RDN_G12_4 230.9055892149455
    RHS MINDN_G12_4 1.0
    RHS RUP_G12_5 230.9055892149455
    RHS RDN_G12_5 230.9055892149455
    RHS MINDN_G12_5 1.0
    RHS RUP_G12_6 230.9055892149455
    RHS RDN_G12_6 230.9055892149455
    RHS MINDN_G12_6 1.0
    RHS RUP_G12_7 230.9055892149455
    RHS RDN_G12_7 230.9055892149455
    RHS MINDN_G12_7 1.0
    RHS RUP_G12_8 230.9055892149455
    RHS RDN_G12_8 230.9055892149455
    RHS MINDN_G12_8 1.0
    RHS RUP_G12_9 230.9055892149455
    RHS RDN_G12_9 230.9055892149455
    RHS MINDN_G12_9 1.0
    RHS RUP_G12_10 230.9055892149455
    RHS RDN_G12_10 230.9055892149455
    RHS MINDN_G12_10 1.0
    RHS RUP_G12_11 230.9055892149455
    RHS RDN_G12_11 230.9055892149455
    RHS MINDN_G12_11 1.0
    RHS RUP_G12_12 230.9055892149455
    RHS RDN_G12_12 230.9055892149455
    RHS MINDN_G12_12 1.0
    RHS RUP_G12_13 230.9055892149455
    RHS RDN_G12_13 230.9055892149455
    RHS MINDN_G12_13 1.0
    RHS RUP_G12_14 230.9055892149455
    RHS RDN_G12_14 230.9055892149455
    RHS MINDN_G12_14 1.0
    RHS RUP_G12_15 230.9055892149455
    RHS RDN_G12_15 230.9055892149455
    RHS MINDN_G12_15 1.0
    RHS RUP_G12_16 230.9055892149455
    RHS RDN_G12_16 230.9055892149455
    RHS MINDN_G12_16 1.0
    RHS RUP_G12_17 230.9055892149455
    RHS RDN_G12_17 230.9055892149455
    RHS MINDN_G12_17 1.0
    RHS RUP_G12_18 230.9055892149455
    RHS RDN_G12_18 230.9055892149455
    RHS MINDN_G12_18 1.0
    RHS RUP_G12_19 230.9055892149455
    RHS RDN_G12_19 230.9055892149455
    RHS MINDN_G12_19 1.0
    RHS RUP_G12_20 230.9055892149455
    RHS RDN_G12_20 230.9055892149455
    RHS MINDN_G12_20 1.0
    RHS RUP_G12_21 230.9055892149455
    RHS RDN_G12_21 230.9055892149455
    RHS MINDN_G12_21 1.0
    RHS RUP_G12_22 230.9055892149455
    RHS RDN_G12_22 230.9055892149455
    RHS MINDN_G12_22 1.0
    RHS RUP_G12_23 230.9055892149455
    RHS RDN_G12_23 230.9055892149455
    RHS MINDN_G12_23 1.0
    RHS MINDN_G13_0 1.0
    RHS RUP_G13_1 225.04072695749295
    RHS RDN_G13_1 225.04072695749295
    RHS MINDN_G13_1 1.0
    RHS RUP_G13_2 225.04072695749295
    RHS RDN_G13_2 225.04072695749295
    RHS MINDN_G13_2 1.0
    RHS RUP_G13_3 225.04072695749295
    RHS RDN_G13_3 225.04072695749295
    RHS MINDN_G13_3 1.0
    RHS RUP_G13_4 225.04072695749295
    RHS RDN_G13_4 225.04072695749295
    RHS MINDN_G13_4 1.0
    RHS RUP_G13_5 225.04072695749295
    RHS RDN_G13_5 225.04072695749295
    RHS MINDN_G13_5 1.0
    RHS RUP_G13_6 225.04072695749295
    RHS RDN_G13_6 225.04072695749295
    RHS MINDN_G13_6 1.0
    RHS RUP_G13_7 225.04072695749295
    RHS RDN_G13_7 225.04072695749295
    RHS MINDN_G13_7 1.0
    RHS RUP_G13_8 225.04072695749295
    RHS RDN_G13_8 225.04072695749295
    RHS MINDN_G13_8 1.0
    RHS RUP_G13_9 225.04072695749295
    RHS RDN_G13_9 225.04072695749295
    RHS MINDN_G13_9 1.0
    RHS RUP_G13_10 225.04072695749295
    RHS RDN_G13_10 225.04072695749295
    RHS MINDN_G13_10 1.0
    RHS RUP_G13_11 225.04072695749295
    RHS RDN_G13_11 225.04072695749295
    RHS MINDN_G13_11 1.0
    RHS RUP_G13_12 225.04072695749295
    RHS RDN_G13_12 225.04072695749295
    RHS MINDN_G13_12 1.0
    RHS RUP_G13_13 225.04072695749295
    RHS RDN_G13_13 225.04072695749295
    RHS MINDN_G13_13 1.0
    RHS RUP_G13_14 225.04072695749295
    RHS RDN_G13_14 225.04072695749295
    RHS MINDN_G13_14 1.0
    RHS RUP_G13_15 225.04072695749295
    RHS RDN_G13_15 225.04072695749295
    RHS MINDN_G13_15 1.0
    RHS RUP_G13_16 225.04072695749295
    RHS RDN_G13_16 225.04072695749295
    RHS MINDN_G13_16 1.0
    RHS RUP_G13_17 225.04072695749295
    RHS RDN_G13_17 225.04072695749295
    RHS MINDN_G13_17 1.0
    RHS RUP_G13_18 225.04072695749295
    RHS RDN_G13_18 225.04072695749295
    RHS MINDN_G13_18 1.0
    RHS RUP_G13_19 225.04072695749295
    RHS RDN_G13_19 225.04072695749295
    RHS MINDN_G13_19 1.0
    RHS RUP_G13_20 225.04072695749295
    RHS RDN_G13_20 225.04072695749295
    RHS MINDN_G13_20 1.0
    RHS RUP_G13_21 225.04072695749295
    RHS RDN_G13_21 225.04072695749295
    RHS MINDN_G13_21 1.0
    RHS RUP_G13_22 225.04072695749295
    RHS RDN_G13_22 225.04072695749295
    RHS MINDN_G13_22 1.0
    RHS RUP_G13_23 225.04072695749295
    RHS RDN_G13_23 225.04072695749295
    RHS MINDN_G13_23 1.0
    RHS MINDN_G14_0 1.0
    RHS RUP_G14_1 209.7049075738543
    RHS RDN_G14_1 209.7049075738543
    RHS MINDN_G14_1 1.0
    RHS RUP_G14_2 209.7049075738543
    RHS RDN_G14_2 209.7049075738543
    RHS MINDN_G14_2 1.0
    RHS RUP_G14_3 209.7049075738543
    RHS RDN_G14_3 209.7049075738543
    RHS MINDN_G14_3 1.0
    RHS RUP_G14_4 209.7049075738543
    RHS RDN_G14_4 209.7049075738543
    RHS MINDN_G14_4 1.0
    RHS RUP_G14_5 209.7049075738543
    RHS RDN_G14_5 209.7049075738543
    RHS MINDN_G14_5 1.0
    RHS RUP_G14_6 209.7049075738543
    RHS RDN_G14_6 209.7049075738543
    RHS MINDN_G14_6 1.0
    RHS RUP_G14_7 209.7049075738543
    RHS RDN_G14_7 209.7049075738543
    RHS MINDN_G14_7 1.0
    RHS RUP_G14_8 209.7049075738543
    RHS RDN_G14_8 209.7049075738543
    RHS MINDN_G14_8 1.0
    RHS RUP_G14_9 209.7049075738543
    RHS RDN_G14_9 209.7049075738543
    RHS MINDN_G14_9 1.0
    RHS RUP_G14_10 209.7049075738543
    RHS RDN_G14_10 209.7049075738543
    RHS MINDN_G14_10 1.0
    RHS RUP_G14_11 209.7049075738543
    RHS RDN_G14_11 209.7049075738543
    RHS MINDN_G14_11 1.0
    RHS RUP_G14_12 209.7049075738543
    RHS RDN_G14_12 209.7049075738543
    RHS MINDN_G14_12 1.0
    RHS RUP_G14_13 209.7049075738543
    RHS RDN_G14_13 209.7049075738543
    RHS MINDN_G14_13 1.0
    RHS RUP_G14_14 209.7049075738543
    RHS RDN_G14_14 209.7049075738543
    RHS MINDN_G14_14 1.0
    RHS RUP_G14_15 209.7049075738543
    RHS RDN_G14_15 209.7049075738543
    RHS MINDN_G14_15 1.0
    RHS RUP_G14_16 209.7049075738543
    RHS RDN_G14_16 209.7049075738543
    RHS MINDN_G14_16 1.0
    RHS RUP_G14_17 209.7049075738543
    RHS RDN_G14_17 209.7049075738543
    RHS MINDN_G14_17 1.0
    RHS RUP_G14_18 209.7049075738543
    RHS RDN_G14_18 209.7049075738543
    RHS MINDN_G14_18 1.0
    RHS RUP_G14_19 209.7049075738543
    RHS RDN_G14_19 209.7049075738543
    RHS MINDN_G14_19 1.0
    RHS RUP_G14_20 209.7049075738543
    RHS RDN_G14_20 209.7049075738543
    RHS MINDN_G14_20 1.0
    RHS RUP_G14_21 209.7049075738543
    RHS RDN_G14_21 209.7049075738543
    RHS MINDN_G14_21 1.0
    RHS RUP_G14_22 209.7049075738543
    RHS RDN_G14_22 209.7049075738543
    RHS MINDN_G14_22 1.0
    RHS RUP_G14_23 209.7049075738543
    RHS RDN_G14_23 209.7049075738543
    RHS MINDN_G14_23 1.0
    RHS MINDN_G15_0 1.0
    RHS RUP_G15_1 71.53348279512544
    RHS RDN_G15_1 71.53348279512544
    RHS MINDN_G15_1 1.0
    RHS RUP_G15_2 71.53348279512544
    RHS RDN_G15_2 71.53348279512544
    RHS MINDN_G15_2 1.0
    RHS RUP_G15_3 71.53348279512544
    RHS RDN_G15_3 71.53348279512544
    RHS MINDN_G15_3 1.0
    RHS RUP_G15_4 71.53348279512544
    RHS RDN_G15_4 71.53348279512544
    RHS MINDN_G15_4 1.0
    RHS RUP_G15_5 71.53348279512544
    RHS RDN_G15_5 71.53348279512544
    RHS MINDN_G15_5 1.0
    RHS RUP_G15_6 71.53348279512544
    RHS RDN_G15_6 71.53348279512544
    RHS MINDN_G15_6 1.0
    RHS RUP_G15_7 71.53348279512544
    RHS RDN_G15_7 71.53348279512544
    RHS MINDN_G15_7 1.0
    RHS RUP_G15_8 71.53348279512544
    RHS RDN_G15_8 71.53348279512544
    RHS MINDN_G15_8 1.0
    RHS RUP_G15_9 71.53348279512544
    RHS RDN_G15_9 71.53348279512544
    RHS MINDN_G15_9 1.0
    RHS RUP_G15_10 71.53348279512544
    RHS RDN_G15_10 71.53348279512544
    RHS MINDN_G15_10 1.0
    RHS RUP_G15_11 71.53348279512544
    RHS RDN_G15_11 71.53348279512544
    RHS MINDN_G15_11 1.0
    RHS RUP_G15_12 71.53348279512544
    RHS RDN_G15_12 71.53348279512544
    RHS MINDN_G15_12 1.0
    RHS RUP_G15_13 71.53348279512544
    RHS RDN_G15_13 71.53348279512544
    RHS MINDN_G15_13 1.0
    RHS RUP_G15_14 71.53348279512544
    RHS RDN_G15_14 71.53348279512544
    RHS MINDN_G15_14 1.0
    RHS RUP_G15_15 71.53348279512544
    RHS RDN_G15_15 71.53348279512544
    RHS MINDN_G15_15 1.0
    RHS RUP_G15_16 71.53348279512544
    RHS RDN_G15_16 71.53348279512544
    RHS MINDN_G15_16 1.0
    RHS RUP_G15_17 71.53348279512544
    RHS RDN_G15_17 71.53348279512544
    RHS MINDN_G15_17 1.0
    RHS RUP_G15_18 71.53348279512544
    RHS RDN_G15_18 71.53348279512544
    RHS MINDN_G15_18 1.0
    RHS RUP_G15_19 71.53348279512544
    RHS RDN_G15_19 71.53348279512544
    RHS MINDN_G15_19 1.0
    RHS RUP_G15_20 71.53348279512544
    RHS RDN_G15_20 71.53348279512544
    RHS MINDN_G15_20 1.0
    RHS RUP_G15_21 71.53348279512544
    RHS RDN_G15_21 71.53348279512544
    RHS MINDN_G15_21 1.0
    RHS RUP_G15_22 71.53348279512544
    RHS RDN_G15_22 71.53348279512544
    RHS MINDN_G15_22 1.0
    RHS RUP_G15_23 71.53348279512544
    RHS RDN_G15_23 71.53348279512544
    RHS MINDN_G15_23 1.0
    RHS MINDN_G16_0 1.0
    RHS RUP_G16_1 127.75927445280047
    RHS RDN_G16_1 127.75927445280047
    RHS MINDN_G16_1 1.0
    RHS RUP_G16_2 127.75927445280047
    RHS RDN_G16_2 127.75927445280047
    RHS MINDN_G16_2 1.0
    RHS RUP_G16_3 127.75927445280047
    RHS RDN_G16_3 127.75927445280047
    RHS MINDN_G16_3 1.0
    RHS RUP_G16_4 127.75927445280047
    RHS RDN_G16_4 127.75927445280047
    RHS MINDN_G16_4 1.0
    RHS RUP_G16_5 127.75927445280047
    RHS RDN_G16_5 127.75927445280047
    RHS MINDN_G16_5 1.0
    RHS RUP_G16_6 127.75927445280047
    RHS RDN_G16_6 127.75927445280047
    RHS MINDN_G16_6 1.0
    RHS RUP_G16_7 127.75927445280047
    RHS RDN_G16_7 127.75927445280047
    RHS MINDN_G16_7 1.0
    RHS RUP_G16_8 127.75927445280047
    RHS RDN_G16_8 127.75927445280047
    RHS MINDN_G16_8 1.0
    RHS RUP_G16_9 127.75927445280047
    RHS RDN_G16_9 127.75927445280047
    RHS MINDN_G16_9 1.0
    RHS RUP_G16_10 127.75927445280047
    RHS RDN_G16_10 127.75927445280047
    RHS MINDN_G16_10 1.0
    RHS RUP_G16_11 127.75927445280047
    RHS RDN_G16_11 127.75927445280047
    RHS MINDN_G16_11 1.0
    RHS RUP_G16_12 127.75927445280047
    RHS RDN_G16_12 127.75927445280047
    RHS MINDN_G16_12 1.0
    RHS RUP_G16_13 127.75927445280047
    RHS RDN_G16_13 127.75927445280047
    RHS MINDN_G16_13 1.0
    RHS RUP_G16_14 127.75927445280047
    RHS RDN_G16_14 127.75927445280047
    RHS MINDN_G16_14 1.0
    RHS RUP_G16_15 127.75927445280047
    RHS RDN_G16_15 127.75927445280047
    RHS MINDN_G16_15 1.0
    RHS RUP_G16_16 127.75927445280047
    RHS RDN_G16_16 127.75927445280047
    RHS MINDN_G16_16 1.0
    RHS RUP_G16_17 127.75927445280047
    RHS RDN_G16_17 127.75927445280047
    RHS MINDN_G16_17 1.0
    RHS RUP_G16_18 127.75927445280047
    RHS RDN_G16_18 127.75927445280047
    RHS MINDN_G16_18 1.0
    RHS RUP_G16_19 127.75927445280047
    RHS RDN_G16_19 127.75927445280047
    RHS MINDN_G16_19 1.0
    RHS RUP_G16_20 127.75927445280047
    RHS RDN_G16_20 127.75927445280047
    RHS MINDN_G16_20 1.0
    RHS RUP_G16_21 127.75927445280047
    RHS RDN_G16_21 127.75927445280047
    RHS MINDN_G16_21 1.0
    RHS RUP_G16_22 127.75927445280047
    RHS RDN_G16_22 127.75927445280047
    RHS MINDN_G16_22 1.0
    RHS RUP_G16_23 127.75927445280047
    RHS RDN_G16_23 127.75927445280047
    RHS MINDN_G16_23 1.0
    RHS MINDN_G17_0 1.0
    RHS RUP_G17_1 225.62244497115728
    RHS RDN_G17_1 225.62244497115728
    RHS MINDN_G17_1 1.0
    RHS RUP_G17_2 225.62244497115728
    RHS RDN_G17_2 225.62244497115728
    RHS MINDN_G17_2 1.0
    RHS RUP_G17_3 225.62244497115728
    RHS RDN_G17_3 225.62244497115728
    RHS MINDN_G17_3 1.0
    RHS RUP_G17_4 225.62244497115728
    RHS RDN_G17_4 225.62244497115728
    RHS MINDN_G17_4 1.0
    RHS RUP_G17_5 225.62244497115728
    RHS RDN_G17_5 225.62244497115728
    RHS MINDN_G17_5 1.0
    RHS RUP_G17_6 225.62244497115728
    RHS RDN_G17_6 225.62244497115728
    RHS MINDN_G17_6 1.0
    RHS RUP_G17_7 225.62244497115728
    RHS RDN_G17_7 225.62244497115728
    RHS MINDN_G17_7 1.0
    RHS RUP_G17_8 225.62244497115728
    RHS RDN_G17_8 225.62244497115728
    RHS MINDN_G17_8 1.0
    RHS RUP_G17_9 225.62244497115728
    RHS RDN_G17_9 225.62244497115728
    RHS MINDN_G17_9 1.0
    RHS RUP_G17_10 225.62244497115728
    RHS RDN_G17_10 225.62244497115728
    RHS MINDN_G17_10 1.0
    RHS RUP_G17_11 225.62244497115728
    RHS RDN_G17_11 225.62244497115728
    RHS MINDN_G17_11 1.0
    RHS RUP_G17_12 225.62244497115728
    RHS RDN_G17_12 225.62244497115728
    RHS MINDN_G17_12 1.0
    RHS RUP_G17_13 225.62244497115728
    RHS RDN_G17_13 225.62244497115728
    RHS MINDN_G17_13 1.0
    RHS RUP_G17_14 225.62244497115728
    RHS RDN_G17_14 225.62244497115728
    RHS MINDN_G17_14 1.0
    RHS RUP_G17_15 225.62244497115728
    RHS RDN_G17_15 225.62244497115728
    RHS MINDN_G17_15 1.0
    RHS RUP_G17_16 225.62244497115728
    RHS RDN_G17_16 225.62244497115728
    RHS MINDN_G17_16 1.0
    RHS RUP_G17_17 225.62244497115728
    RHS RDN_G17_17 225.62244497115728
    RHS MINDN_G17_17 1.0
    RHS RUP_G17_18 225.62244497115728
    RHS RDN_G17_18 225.62244497115728
    RHS MINDN_G17_18 1.0
    RHS RUP_G17_19 225.62244497115728
    RHS RDN_G17_19 225.62244497115728
    RHS MINDN_G17_19 1.0
    RHS RUP_G17_20 225.62244497115728
    RHS RDN_G17_20 225.62244497115728
    RHS MINDN_G17_20 1.0
    RHS RUP_G17_21 225.62244497115728
    RHS RDN_G17_21 225.62244497115728
    RHS MINDN_G17_21 1.0
    RHS RUP_G17_22 225.62244497115728
    RHS RDN_G17_22 225.62244497115728
    RHS MINDN_G17_22 1.0
    RHS RUP_G17_23 225.62244497115728
    RHS RDN_G17_23 225.62244497115728
    RHS MINDN_G17_23 1.0
    RHS MINDN_G18_0 1.0
    RHS RUP_G18_1 372.8661113903794
    RHS RDN_G18_1 372.8661113903794
    RHS MINDN_G18_1 1.0
    RHS RUP_G18_2 372.8661113903794
    RHS RDN_G18_2 372.8661113903794
    RHS MINDN_G18_2 1.0
    RHS RUP_G18_3 372.8661113903794
    RHS RDN_G18_3 372.8661113903794
    RHS MINDN_G18_3 1.0
    RHS RUP_G18_4 372.8661113903794
    RHS RDN_G18_4 372.8661113903794
    RHS MINDN_G18_4 1.0
    RHS RUP_G18_5 372.8661113903794
    RHS RDN_G18_5 372.8661113903794
    RHS MINDN_G18_5 1.0
    RHS RUP_G18_6 372.8661113903794
    RHS RDN_G18_6 372.8661113903794
    RHS MINDN_G18_6 1.0
    RHS RUP_G18_7 372.8661113903794
    RHS RDN_G18_7 372.8661113903794
    RHS MINDN_G18_7 1.0
    RHS RUP_G18_8 372.8661113903794
    RHS RDN_G18_8 372.8661113903794
    RHS MINDN_G18_8 1.0
    RHS RUP_G18_9 372.8661113903794
    RHS RDN_G18_9 372.8661113903794
    RHS MINDN_G18_9 1.0
    RHS RUP_G18_10 372.8661113903794
    RHS RDN_G18_10 372.8661113903794
    RHS MINDN_G18_10 1.0
    RHS RUP_G18_11 372.8661113903794
    RHS RDN_G18_11 372.8661113903794
    RHS MINDN_G18_11 1.0
    RHS RUP_G18_12 372.8661113903794
    RHS RDN_G18_12 372.8661113903794
    RHS MINDN_G18_12 1.0
    RHS RUP_G18_13 372.8661113903794
    RHS RDN_G18_13 372.8661113903794
    RHS MINDN_G18_13 1.0
    RHS RUP_G18_14 372.8661113903794
    RHS RDN_G18_14 372.8661113903794
    RHS MINDN_G18_14 1.0
    RHS RUP_G18_15 372.8661113903794
    RHS RDN_G18_15 372.8661113903794
    RHS MINDN_G18_15 1.0
    RHS RUP_G18_16 372.8661113903794
    RHS RDN_G18_16 372.8661113903794
    RHS MINDN_G18_16 1.0
    RHS RUP_G18_17 372.8661113903794
    RHS RDN_G18_17 372.8661113903794
    RHS MINDN_G18_17 1.0
    RHS RUP_G18_18 372.8661113903794
    RHS RDN_G18_18 372.8661113903794
    RHS MINDN_G18_18 1.0
    RHS RUP_G18_19 372.8661113903794
    RHS RDN_G18_19 372.8661113903794
    RHS MINDN_G18_19 1.0
    RHS RUP_G18_20 372.8661113903794
    RHS RDN_G18_20 372.8661113903794
    RHS MINDN_G18_20 1.0
    RHS RUP_G18_21 372.8661113903794
    RHS RDN_G18_21 372.8661113903794
    RHS MINDN_G18_21 1.0
    RHS RUP_G18_22 372.8661113903794
    RHS RDN_G18_22 372.8661113903794
    RHS MINDN_G18_22 1.0
    RHS RUP_G18_23 372.8661113903794
    RHS RDN_G18_23 372.8661113903794
    RHS MINDN_G18_23 1.0
    RHS MINDN_G19_0 1.0
    RHS RUP_G19_1 120.19661679882996
    RHS RDN_G19_1 120.19661679882996
    RHS MINDN_G19_1 1.0
    RHS RUP_G19_2 120.19661679882996
    RHS RDN_G19_2 120.19661679882996
    RHS MINDN_G19_2 1.0
    RHS RUP_G19_3 120.19661679882996
    RHS RDN_G19_3 120.19661679882996
    RHS MINDN_G19_3 1.0
    RHS RUP_G19_4 120.19661679882996
    RHS RDN_G19_4 120.19661679882996
    RHS MINDN_G19_4 1.0
    RHS RUP_G19_5 120.19661679882996
    RHS RDN_G19_5 120.19661679882996
    RHS MINDN_G19_5 1.0
    RHS RUP_G19_6 120.19661679882996
    RHS RDN_G19_6 120.19661679882996
    RHS MINDN_G19_6 1.0
    RHS RUP_G19_7 120.19661679882996
    RHS RDN_G19_7 120.19661679882996
    RHS MINDN_G19_7 1.0
    RHS RUP_G19_8 120.19661679882996
    RHS RDN_G19_8 120.19661679882996
    RHS MINDN_G19_8 1.0
    RHS RUP_G19_9 120.19661679882996
    RHS RDN_G19_9 120.19661679882996
    RHS MINDN_G19_9 1.0
    RHS RUP_G19_10 120.19661679882996
    RHS RDN_G19_10 120.19661679882996
    RHS MINDN_G19_10 1.0
    RHS RUP_G19_11 120.19661679882996
    RHS RDN_G19_11 120.19661679882996
    RHS MINDN_G19_11 1.0
    RHS RUP_G19_12 120.19661679882996
    RHS RDN_G19_12 120.19661679882996
    RHS MINDN_G19_12 1.0
    RHS RUP_G19_13 120.19661679882996
    RHS RDN_G19_13 120.19661679882996
    RHS MINDN_G19_13 1.0
    RHS RUP_G19_14 120.19661679882996
    RHS RDN_G19_14 120.19661679882996
    RHS MINDN_G19_14 1.0
    RHS RUP_G19_15 120.19661679882996
    RHS RDN_G19_15 120.19661679882996
    RHS MINDN_G19_15 1.0
    RHS RUP_G19_16 120.19661679882996
    RHS RDN_G19_16 120.19661679882996
    RHS MINDN_G19_16 1.0
    RHS RUP_G19_17 120.19661679882996
    RHS RDN_G19_17 120.19661679882996
    RHS MINDN_G19_17 1.0
    RHS RUP_G19_18 120.19661679882996
    RHS RDN_G19_18 120.19661679882996
    RHS MINDN_G19_18 1.0
    RHS RUP_G19_19 120.19661679882996
    RHS RDN_G19_19 120.19661679882996
    RHS MINDN_G19_19 1.0
    RHS RUP_G19_20 120.19661679882996
    RHS RDN_G19_20 120.19661679882996
    RHS MINDN_G19_20 1.0
    RHS RUP_G19_21 120.19661679882996
    RHS RDN_G19_21 120.19661679882996
    RHS MINDN_G19_21 1.0
    RHS RUP_G19_22 120.19661679882996
    RHS RDN_G19_22 120.19661679882996
    RHS MINDN_G19_22 1.0
    RHS RUP_G19_23 120.19661679882996
    RHS RDN_G19_23 120.19661679882996
    RHS MINDN_G19_23 1.0
    RHS MINDN_G20_0 1.0
    RHS RUP_G20_1 360.8560467440623
    RHS RDN_G20_1 360.8560467440623
    RHS MINDN_G20_1 1.0
    RHS RUP_G20_2 360.8560467440623
    RHS RDN_G20_2 360.8560467440623
    RHS MINDN_G20_2 1.0
    RHS RUP_G20_3 360.8560467440623
    RHS RDN_G20_3 360.8560467440623
    RHS MINDN_G20_3 1.0
    RHS RUP_G20_4 360.8560467440623
    RHS RDN_G20_4 360.8560467440623
    RHS MINDN_G20_4 1.0
    RHS RUP_G20_5 360.8560467440623
    RHS RDN_G20_5 360.8560467440623
    RHS MINDN_G20_5 1.0
    RHS RUP_G20_6 360.8560467440623
    RHS RDN_G20_6 360.8560467440623
    RHS MINDN_G20_6 1.0
    RHS RUP_G20_7 360.8560467440623
    RHS RDN_G20_7 360.8560467440623
    RHS MINDN_G20_7 1.0
    RHS RUP_G20_8 360.8560467440623
    RHS RDN_G20_8 360.8560467440623
    RHS MINDN_G20_8 1.0
    RHS RUP_G20_9 360.8560467440623
    RHS RDN_G20_9 360.8560467440623
    RHS MINDN_G20_9 1.0
    RHS RUP_G20_10 360.8560467440623
    RHS RDN_G20_10 360.8560467440623
    RHS MINDN_G20_10 1.0
    RHS RUP_G20_11 360.8560467440623
    RHS RDN_G20_11 360.8560467440623
    RHS MINDN_G20_11 1.0
    RHS RUP_G20_12 360.8560467440623
    RHS RDN_G20_12 360.8560467440623
    RHS MINDN_G20_12 1.0
    RHS RUP_G20_13 360.8560467440623
    RHS RDN_G20_13 360.8560467440623
    RHS MINDN_G20_13 1.0
    RHS RUP_G20_14 360.8560467440623
    RHS RDN_G20_14 360.8560467440623
    RHS MINDN_G20_14 1.0
    RHS RUP_G20_15 360.8560467440623
    RHS RDN_G20_15 360.8560467440623
    RHS MINDN_G20_15 1.0
    RHS RUP_G20_16 360.8560467440623
    RHS RDN_G20_16 360.8560467440623
    RHS MINDN_G20_16 1.0
    RHS RUP_G20_17 360.8560467440623
    RHS RDN_G20_17 360.8560467440623
    RHS MINDN_G20_17 1.0
    RHS RUP_G20_18 360.8560467440623
    RHS RDN_G20_18 360.8560467440623
    RHS MINDN_G20_18 1.0
    RHS RUP_G20_19 360.8560467440623
    RHS RDN_G20_19 360.8560467440623
    RHS MINDN_G20_19 1.0
    RHS RUP_G20_20 360.8560467440623
    RHS RDN_G20_20 360.8560467440623
    RHS MINDN_G20_20 1.0
    RHS RUP_G20_21 360.8560467440623
    RHS RDN_G20_21 360.8560467440623
    RHS MINDN_G20_21 1.0
    RHS RUP_G20_22 360.8560467440623
    RHS RDN_G20_22 360.8560467440623
    RHS MINDN_G20_22 1.0
    RHS RUP_G20_23 360.8560467440623
    RHS RDN_G20_23 360.8560467440623
    RHS MINDN_G20_23 1.0
    RHS MINDN_G21_0 1.0
    RHS RUP_G21_1 235.70416591508115
    RHS RDN_G21_1 235.70416591508115
    RHS MINDN_G21_1 1.0
    RHS RUP_G21_2 235.70416591508115
    RHS RDN_G21_2 235.70416591508115
    RHS MINDN_G21_2 1.0
    RHS RUP_G21_3 235.70416591508115
    RHS RDN_G21_3 235.70416591508115
    RHS MINDN_G21_3 1.0
    RHS RUP_G21_4 235.70416591508115
    RHS RDN_G21_4 235.70416591508115
    RHS MINDN_G21_4 1.0
    RHS RUP_G21_5 235.70416591508115
    RHS RDN_G21_5 235.70416591508115
    RHS MINDN_G21_5 1.0
    RHS RUP_G21_6 235.70416591508115
    RHS RDN_G21_6 235.70416591508115
    RHS MINDN_G21_6 1.0
    RHS RUP_G21_7 235.70416591508115
    RHS RDN_G21_7 235.70416591508115
    RHS MINDN_G21_7 1.0
    RHS RUP_G21_8 235.70416591508115
    RHS RDN_G21_8 235.70416591508115
    RHS MINDN_G21_8 1.0
    RHS RUP_G21_9 235.70416591508115
    RHS RDN_G21_9 235.70416591508115
    RHS MINDN_G21_9 1.0
    RHS RUP_G21_10 235.70416591508115
    RHS RDN_G21_10 235.70416591508115
    RHS MINDN_G21_10 1.0
    RHS RUP_G21_11 235.70416591508115
    RHS RDN_G21_11 235.70416591508115
    RHS MINDN_G21_11 1.0
    RHS RUP_G21_12 235.70416591508115
    RHS RDN_G21_12 235.70416591508115
    RHS MINDN_G21_12 1.0
    RHS RUP_G21_13 235.70416591508115
    RHS RDN_G21_13 235.70416591508115
    RHS MINDN_G21_13 1.0
    RHS RUP_G21_14 235.70416591508115
    RHS RDN_G21_14 235.70416591508115
    RHS MINDN_G21_14 1.0
    RHS RUP_G21_15 235.70416591508115
    RHS RDN_G21_15 235.70416591508115
    RHS MINDN_G21_15 1.0
    RHS RUP_G21_16 235.70416591508115
    RHS RDN_G21_16 235.70416591508115
    RHS MINDN_G21_16 1.0
    RHS RUP_G21_17 235.70416591508115
    RHS RDN_G21_17 235.70416591508115
    RHS MINDN_G21_17 1.0
    RHS RUP_G21_18 235.70416591508115
    RHS RDN_G21_18 235.70416591508115
    RHS MINDN_G21_18 1.0
    RHS RUP_G21_19 235.70416591508115
    RHS RDN_G21_19 235.70416591508115
    RHS MINDN_G21_19 1.0
    RHS RUP_G21_20 235.70416591508115
    RHS RDN_G21_20 235.70416591508115
    RHS MINDN_G21_20 1.0
    RHS RUP_G21_21 235.70416591508115
    RHS RDN_G21_21 235.70416591508115
    RHS MINDN_G21_21 1.0
    RHS RUP_G21_22 235.70416591508115
    RHS RDN_G21_22 235.70416591508115
    RHS MINDN_G21_22 1.0
    RHS RUP_G21_23 235.70416591508115
    RHS RDN_G21_23 235.70416591508115
    RHS MINDN_G21_23 1.0
    RHS MINDN_G22_0 1.0
    RHS RUP_G22_1 154.05743611201984
    RHS RDN_G22_1 154.05743611201984
    RHS MINDN_G22_1 1.0
    RHS RUP_G22_2 154.05743611201984
    RHS RDN_G22_2 154.05743611201984
    RHS MINDN_G22_2 1.0
    RHS RUP_G22_3 154.05743611201984
    RHS RDN_G22_3 154.05743611201984
    RHS MINDN_G22_3 1.0
    RHS RUP_G22_4 154.05743611201984
    RHS RDN_G22_4 154.05743611201984
    RHS MINDN_G22_4 1.0
    RHS RUP_G22_5 154.05743611201984
    RHS RDN_G22_5 154.05743611201984
    RHS MINDN_G22_5 1.0
    RHS RUP_G22_6 154.05743611201984
    RHS RDN_G22_6 154.05743611201984
    RHS MINDN_G22_6 1.0
    RHS RUP_G22_7 154.05743611201984
    RHS RDN_G22_7 154.05743611201984
    RHS MINDN_G22_7 1.0
    RHS RUP_G22_8 154.05743611201984
    RHS RDN_G22_8 154.05743611201984
    RHS MINDN_G22_8 1.0
    RHS RUP_G22_9 154.05743611201984
    RHS RDN_G22_9 154.05743611201984
    RHS MINDN_G22_9 1.0
    RHS RUP_G22_10 154.05743611201984
    RHS RDN_G22_10 154.05743611201984
    RHS MINDN_G22_10 1.0
    RHS RUP_G22_11 154.05743611201984
    RHS RDN_G22_11 154.05743611201984
    RHS MINDN_G22_11 1.0
    RHS RUP_G22_12 154.05743611201984
    RHS RDN_G22_12 154.05743611201984
    RHS MINDN_G22_12 1.0
    RHS RUP_G22_13 154.05743611201984
    RHS RDN_G22_13 154.05743611201984
    RHS MINDN_G22_13 1.0
    RHS RUP_G22_14 154.05743611201984
    RHS RDN_G22_14 154.05743611201984
    RHS MINDN_G22_14 1.0
    RHS RUP_G22_15 154.05743611201984
    RHS RDN_G22_15 154.05743611201984
    RHS MINDN_G22_15 1.0
    RHS RUP_G22_16 154.05743611201984
    RHS RDN_G22_16 154.05743611201984
    RHS MINDN_G22_16 1.0
    RHS RUP_G22_17 154.05743611201984
    RHS RDN_G22_17 154.05743611201984
    RHS MINDN_G22_17 1.0
    RHS RUP_G22_18 154.05743611201984
    RHS RDN_G22_18 154.05743611201984
    RHS MINDN_G22_18 1.0
    RHS RUP_G22_19 154.05743611201984
    RHS RDN_G22_19 154.05743611201984
    RHS MINDN_G22_19 1.0
    RHS RUP_G22_20 154.05743611201984
    RHS RDN_G22_20 154.05743611201984
    RHS MINDN_G22_20 1.0
    RHS RUP_G22_21 154.05743611201984
    RHS RDN_G22_21 154.05743611201984
    RHS MINDN_G22_21 1.0
    RHS RUP_G22_22 154.05743611201984
    RHS RDN_G22_22 154.05743611201984
    RHS MINDN_G22_22 1.0
    RHS RUP_G22_23 154.05743611201984
    RHS RDN_G22_23 154.05743611201984
    RHS MINDN_G22_23 1.0
    RHS MINDN_G23_0 1.0
    RHS RUP_G23_1 56.192994004053574
    RHS RDN_G23_1 56.192994004053574
    RHS MINDN_G23_1 1.0
    RHS RUP_G23_2 56.192994004053574
    RHS RDN_G23_2 56.192994004053574
    RHS MINDN_G23_2 1.0
    RHS RUP_G23_3 56.192994004053574
    RHS RDN_G23_3 56.192994004053574
    RHS MINDN_G23_3 1.0
    RHS RUP_G23_4 56.192994004053574
    RHS RDN_G23_4 56.192994004053574
    RHS MINDN_G23_4 1.0
    RHS RUP_G23_5 56.192994004053574
    RHS RDN_G23_5 56.192994004053574
    RHS MINDN_G23_5 1.0
    RHS RUP_G23_6 56.192994004053574
    RHS RDN_G23_6 56.192994004053574
    RHS MINDN_G23_6 1.0
    RHS RUP_G23_7 56.192994004053574
    RHS RDN_G23_7 56.192994004053574
    RHS MINDN_G23_7 1.0
    RHS RUP_G23_8 56.192994004053574
    RHS RDN_G23_8 56.192994004053574
    RHS MINDN_G23_8 1.0
    RHS RUP_G23_9 56.192994004053574
    RHS RDN_G23_9 56.192994004053574
    RHS MINDN_G23_9 1.0
    RHS RUP_G23_10 56.192994004053574
    RHS RDN_G23_10 56.192994004053574
    RHS MINDN_G23_10 1.0
    RHS RUP_G23_11 56.192994004053574
    RHS RDN_G23_11 56.192994004053574
    RHS MINDN_G23_11 1.0
    RHS RUP_G23_12 56.192994004053574
    RHS RDN_G23_12 56.192994004053574
    RHS MINDN_G23_12 1.0
    RHS RUP_G23_13 56.192994004053574
    RHS RDN_G23_13 56.192994004053574
    RHS MINDN_G23_13 1.0
    RHS RUP_G23_14 56.192994004053574
    RHS RDN_G23_14 56.192994004053574
    RHS MINDN_G23_14 1.0
    RHS RUP_G23_15 56.192994004053574
    RHS RDN_G23_15 56.192994004053574
    RHS MINDN_G23_15 1.0
    RHS RUP_G23_16 56.192994004053574
    RHS RDN_G23_16 56.192994004053574
    RHS MINDN_G23_16 1.0
    RHS RUP_G23_17 56.192994004053574
    RHS RDN_G23_17 56.192994004053574
    RHS MINDN_G23_17 1.0
    RHS RUP_G23_18 56.192994004053574
    RHS RDN_G23_18 56.192994004053574
    RHS MINDN_G23_18 1.0
    RHS RUP_G23_19 56.192994004053574
    RHS RDN_G23_19 56.192994004053574
    RHS MINDN_G23_19 1.0
    RHS RUP_G23_20 56.192994004053574
    RHS RDN_G23_20 56.192994004053574
    RHS MINDN_G23_20 1.0
    RHS RUP_G23_21 56.192994004053574
    RHS RDN_G23_21 56.192994004053574
    RHS MINDN_G23_21 1.0
    RHS RUP_G23_22 56.192994004053574
    RHS RDN_G23_22 56.192994004053574
    RHS MINDN_G23_22 1.0
    RHS RUP_G23_23 56.192994004053574
    RHS RDN_G23_23 56.192994004053574
    RHS MINDN_G23_23 1.0
    RHS MINDN_G24_0 1.0
    RHS RUP_G24_1 203.48608345972875
    RHS RDN_G24_1 203.48608345972875
    RHS MINDN_G24_1 1.0
    RHS RUP_G24_2 203.48608345972875
    RHS RDN_G24_2 203.48608345972875
    RHS MINDN_G24_2 1.0
    RHS RUP_G24_3 203.48608345972875
    RHS RDN_G24_3 203.48608345972875
    RHS MINDN_G24_3 1.0
    RHS RUP_G24_4 203.48608345972875
    RHS RDN_G24_4 203.48608345972875
    RHS MINDN_G24_4 1.0
    RHS RUP_G24_5 203.48608345972875
    RHS RDN_G24_5 203.48608345972875
    RHS MINDN_G24_5 1.0
    RHS RUP_G24_6 203.48608345972875
    RHS RDN_G24_6 203.48608345972875
    RHS MINDN_G24_6 1.0
    RHS RUP_G24_7 203.48608345972875
    RHS RDN_G24_7 203.48608345972875
    RHS MINDN_G24_7 1.0
    RHS RUP_G24_8 203.48608345972875
    RHS RDN_G24_8 203.48608345972875
    RHS MINDN_G24_8 1.0
    RHS RUP_G24_9 203.48608345972875
    RHS RDN_G24_9 203.48608345972875
    RHS MINDN_G24_9 1.0
    RHS RUP_G24_10 203.48608345972875
    RHS RDN_G24_10 203.48608345972875
    RHS MINDN_G24_10 1.0
    RHS RUP_G24_11 203.48608345972875
    RHS RDN_G24_11 203.48608345972875
    RHS MINDN_G24_11 1.0
    RHS RUP_G24_12 203.48608345972875
    RHS RDN_G24_12 203.48608345972875
    RHS MINDN_G24_12 1.0
    RHS RUP_G24_13 203.48608345972875
    RHS RDN_G24_13 203.48608345972875
    RHS MINDN_G24_13 1.0
    RHS RUP_G24_14 203.48608345972875
    RHS RDN_G24_14 203.48608345972875
    RHS MINDN_G24_14 1.0
    RHS RUP_G24_15 203.48608345972875
    RHS RDN_G24_15 203.48608345972875
    RHS MINDN_G24_15 1.0
    RHS RUP_G24_16 203.48608345972875
    RHS RDN_G24_16 203.48608345972875
    RHS MINDN_G24_16 1.0
    RHS RUP_G24_17 203.48608345972875
    RHS RDN_G24_17 203.48608345972875
    RHS MINDN_G24_17 1.0
    RHS RUP_G24_18 203.48608345972875
    RHS RDN_G24_18 203.48608345972875
    RHS MINDN_G24_18 1.0
    RHS RUP_G24_19 203.48608345972875
    RHS RDN_G24_19 203.48608345972875
    RHS MINDN_G24_19 1.0
    RHS RUP_G24_20 203.48608345972875
    RHS RDN_G24_20 203.48608345972875
    RHS MINDN_G24_20 1.0
    RHS RUP_G24_21 203.48608345972875
    RHS RDN_G24_21 203.48608345972875
    RHS MINDN_G24_21 1.0
    RHS RUP_G24_22 203.48608345972875
    RHS RDN_G24_22 203.48608345972875
    RHS MINDN_G24_22 1.0
    RHS RUP_G24_23 203.48608345972875
    RHS RDN_G24_23 203.48608345972875
    RHS MINDN_G24_23 1.0
    RHS MINDN_G25_0 1.0
    RHS RUP_G25_1 101.17536632042555
    RHS RDN_G25_1 101.17536632042555
    RHS MINDN_G25_1 1.0
    RHS RUP_G25_2 101.17536632042555
    RHS RDN_G25_2 101.17536632042555
    RHS MINDN_G25_2 1.0
    RHS RUP_G25_3 101.17536632042555
    RHS RDN_G25_3 101.17536632042555
    RHS MINDN_G25_3 1.0
    RHS RUP_G25_4 101.17536632042555
    RHS RDN_G25_4 101.17536632042555
    RHS MINDN_G25_4 1.0
    RHS RUP_G25_5 101.17536632042555
    RHS RDN_G25_5 101.17536632042555
    RHS MINDN_G25_5 1.0
    RHS RUP_G25_6 101.17536632042555
    RHS RDN_G25_6 101.17536632042555
    RHS MINDN_G25_6 1.0
    RHS RUP_G25_7 101.17536632042555
    RHS RDN_G25_7 101.17536632042555
    RHS MINDN_G25_7 1.0
    RHS RUP_G25_8 101.17536632042555
    RHS RDN_G25_8 101.17536632042555
    RHS MINDN_G25_8 1.0
    RHS RUP_G25_9 101.17536632042555
    RHS RDN_G25_9 101.17536632042555
    RHS MINDN_G25_9 1.0
    RHS RUP_G25_10 101.17536632042555
    RHS RDN_G25_10 101.17536632042555
    RHS MINDN_G25_10 1.0
    RHS RUP_G25_11 101.17536632042555
    RHS RDN_G25_11 101.17536632042555
    RHS MINDN_G25_11 1.0
    RHS RUP_G25_12 101.17536632042555
    RHS RDN_G25_12 101.17536632042555
    RHS MINDN_G25_12 1.0
    RHS RUP_G25_13 101.17536632042555
    RHS RDN_G25_13 101.17536632042555
    RHS MINDN_G25_13 1.0
    RHS RUP_G25_14 101.17536632042555
    RHS RDN_G25_14 101.17536632042555
    RHS MINDN_G25_14 1.0
    RHS RUP_G25_15 101.17536632042555
    RHS RDN_G25_15 101.17536632042555
    RHS MINDN_G25_15 1.0
    RHS RUP_G25_16 101.17536632042555
    RHS RDN_G25_16 101.17536632042555
    RHS MINDN_G25_16 1.0
    RHS RUP_G25_17 101.17536632042555
    RHS RDN_G25_17 101.17536632042555
    RHS MINDN_G25_17 1.0
    RHS RUP_G25_18 101.17536632042555
    RHS RDN_G25_18 101.17536632042555
    RHS MINDN_G25_18 1.0
    RHS RUP_G25_19 101.17536632042555
    RHS RDN_G25_19 101.17536632042555
    RHS MINDN_G25_19 1.0
    RHS RUP_G25_20 101.17536632042555
    RHS RDN_G25_20 101.17536632042555
    RHS MINDN_G25_20 1.0
    RHS RUP_G25_21 101.17536632042555
    RHS RDN_G25_21 101.17536632042555
    RHS MINDN_G25_21 1.0
    RHS RUP_G25_22 101.17536632042555
    RHS RDN_G25_22 101.17536632042555
    RHS MINDN_G25_22 1.0
    RHS RUP_G25_23 101.17536632042555
    RHS RDN_G25_23 101.17536632042555
    RHS MINDN_G25_23 1.0
    RHS MINDN_G26_0 1.0
    RHS RUP_G26_1 103.48210857040542
    RHS RDN_G26_1 103.48210857040542
    RHS MINDN_G26_1 1.0
    RHS RUP_G26_2 103.48210857040542
    RHS RDN_G26_2 103.48210857040542
    RHS MINDN_G26_2 1.0
    RHS RUP_G26_3 103.48210857040542
    RHS RDN_G26_3 103.48210857040542
    RHS MINDN_G26_3 1.0
    RHS RUP_G26_4 103.48210857040542
    RHS RDN_G26_4 103.48210857040542
    RHS MINDN_G26_4 1.0
    RHS RUP_G26_5 103.48210857040542
    RHS RDN_G26_5 103.48210857040542
    RHS MINDN_G26_5 1.0
    RHS RUP_G26_6 103.48210857040542
    RHS RDN_G26_6 103.48210857040542
    RHS MINDN_G26_6 1.0
    RHS RUP_G26_7 103.48210857040542
    RHS RDN_G26_7 103.48210857040542
    RHS MINDN_G26_7 1.0
    RHS RUP_G26_8 103.48210857040542
    RHS RDN_G26_8 103.48210857040542
    RHS MINDN_G26_8 1.0
    RHS RUP_G26_9 103.48210857040542
    RHS RDN_G26_9 103.48210857040542
    RHS MINDN_G26_9 1.0
    RHS RUP_G26_10 103.48210857040542
    RHS RDN_G26_10 103.48210857040542
    RHS MINDN_G26_10 1.0
    RHS RUP_G26_11 103.48210857040542
    RHS RDN_G26_11 103.48210857040542
    RHS MINDN_G26_11 1.0
    RHS RUP_G26_12 103.48210857040542
    RHS RDN_G26_12 103.48210857040542
    RHS MINDN_G26_12 1.0
    RHS RUP_G26_13 103.48210857040542
    RHS RDN_G26_13 103.48210857040542
    RHS MINDN_G26_13 1.0
    RHS RUP_G26_14 103.48210857040542
    RHS RDN_G26_14 103.48210857040542
    RHS MINDN_G26_14 1.0
    RHS RUP_G26_15 103.48210857040542
    RHS RDN_G26_15 103.48210857040542
    RHS MINDN_G26_15 1.0
    RHS RUP_G26_16 103.48210857040542
    RHS RDN_G26_16 103.48210857040542
    RHS MINDN_G26_16 1.0
    RHS RUP_G26_17 103.48210857040542
    RHS RDN_G26_17 103.48210857040542
    RHS MINDN_G26_17 1.0
    RHS RUP_G26_18 103.48210857040542
    RHS RDN_G26_18 103.48210857040542
    RHS MINDN_G26_18 1.0
    RHS RUP_G26_19 103.48210857040542
    RHS RDN_G26_19 103.48210857040542
    RHS MINDN_G26_19 1.0
    RHS RUP_G26_20 103.48210857040542
    RHS RDN_G26_20 103.48210857040542
    RHS MINDN_G26_20 1.0
    RHS RUP_G26_21 103.48210857040542
    RHS RDN_G26_21 103.48210857040542
    RHS MINDN_G26_21 1.0
    RHS RUP_G26_22 103.48210857040542
    RHS RDN_G26_22 103.48210857040542
    RHS MINDN_G26_22 1.0
    RHS RUP_G26_23 103.48210857040542
    RHS RDN_G26_23 103.48210857040542
    RHS MINDN_G26_23 1.0
    RHS MINDN_G27_0 1.0
    RHS RUP_G27_1 353.04057073546494
    RHS RDN_G27_1 353.04057073546494
    RHS MINDN_G27_1 1.0
    RHS RUP_G27_2 353.04057073546494
    RHS RDN_G27_2 353.04057073546494
    RHS MINDN_G27_2 1.0
    RHS RUP_G27_3 353.04057073546494
    RHS RDN_G27_3 353.04057073546494
    RHS MINDN_G27_3 1.0
    RHS RUP_G27_4 353.04057073546494
    RHS RDN_G27_4 353.04057073546494
    RHS MINDN_G27_4 1.0
    RHS RUP_G27_5 353.04057073546494
    RHS RDN_G27_5 353.04057073546494
    RHS MINDN_G27_5 1.0
    RHS RUP_G27_6 353.04057073546494
    RHS RDN_G27_6 353.04057073546494
    RHS MINDN_G27_6 1.0
    RHS RUP_G27_7 353.04057073546494
    RHS RDN_G27_7 353.04057073546494
    RHS MINDN_G27_7 1.0
    RHS RUP_G27_8 353.04057073546494
    RHS RDN_G27_8 353.04057073546494
    RHS MINDN_G27_8 1.0
    RHS RUP_G27_9 353.04057073546494
    RHS RDN_G27_9 353.04057073546494
    RHS MINDN_G27_9 1.0
    RHS RUP_G27_10 353.04057073546494
    RHS RDN_G27_10 353.04057073546494
    RHS MINDN_G27_10 1.0
    RHS RUP_G27_11 353.04057073546494
    RHS RDN_G27_11 353.04057073546494
    RHS MINDN_G27_11 1.0
    RHS RUP_G27_12 353.04057073546494
    RHS RDN_G27_12 353.04057073546494
    RHS MINDN_G27_12 1.0
    RHS RUP_G27_13 353.04057073546494
    RHS RDN_G27_13 353.04057073546494
    RHS MINDN_G27_13 1.0
    RHS RUP_G27_14 353.04057073546494
    RHS RDN_G27_14 353.04057073546494
    RHS MINDN_G27_14 1.0
    RHS RUP_G27_15 353.04057073546494
    RHS RDN_G27_15 353.04057073546494
    RHS MINDN_G27_15 1.0
    RHS RUP_G27_16 353.04057073546494
    RHS RDN_G27_16 353.04057073546494
    RHS MINDN_G27_16 1.0
    RHS RUP_G27_17 353.04057073546494
    RHS RDN_G27_17 353.04057073546494
    RHS MINDN_G27_17 1.0
    RHS RUP_G27_18 353.04057073546494
    RHS RDN_G27_18 353.04057073546494
    RHS MINDN_G27_18 1.0
    RHS RUP_G27_19 353.04057073546494
    RHS RDN_G27_19 353.04057073546494
    RHS MINDN_G27_19 1.0
    RHS RUP_G27_20 353.04057073546494
    RHS RDN_G27_20 353.04057073546494
    RHS MINDN_G27_20 1.0
    RHS RUP_G27_21 353.04057073546494
    RHS RDN_G27_21 353.04057073546494
    RHS MINDN_G27_21 1.0
    RHS RUP_G27_22 353.04057073546494
    RHS RDN_G27_22 353.04057073546494
    RHS MINDN_G27_22 1.0
    RHS RUP_G27_23 353.04057073546494
    RHS RDN_G27_23 353.04057073546494
    RHS MINDN_G27_23 1.0
    RHS MINDN_G28_0 1.0
    RHS RUP_G28_1 54.07052119099757
    RHS RDN_G28_1 54.07052119099757
    RHS MINDN_G28_1 1.0
    RHS RUP_G28_2 54.07052119099757
    RHS RDN_G28_2 54.07052119099757
    RHS MINDN_G28_2 1.0
    RHS RUP_G28_3 54.07052119099757
    RHS RDN_G28_3 54.07052119099757
    RHS MINDN_G28_3 1.0
    RHS RUP_G28_4 54.07052119099757
    RHS RDN_G28_4 54.07052119099757
    RHS MINDN_G28_4 1.0
    RHS RUP_G28_5 54.07052119099757
    RHS RDN_G28_5 54.07052119099757
    RHS MINDN_G28_5 1.0
    RHS RUP_G28_6 54.07052119099757
    RHS RDN_G28_6 54.07052119099757
    RHS MINDN_G28_6 1.0
    RHS RUP_G28_7 54.07052119099757
    RHS RDN_G28_7 54.07052119099757
    RHS MINDN_G28_7 1.0
    RHS RUP_G28_8 54.07052119099757
    RHS RDN_G28_8 54.07052119099757
    RHS MINDN_G28_8 1.0
    RHS RUP_G28_9 54.07052119099757
    RHS RDN_G28_9 54.07052119099757
    RHS MINDN_G28_9 1.0
    RHS RUP_G28_10 54.07052119099757
    RHS RDN_G28_10 54.07052119099757
    RHS MINDN_G28_10 1.0
    RHS RUP_G28_11 54.07052119099757
    RHS RDN_G28_11 54.07052119099757
    RHS MINDN_G28_11 1.0
    RHS RUP_G28_12 54.07052119099757
    RHS RDN_G28_12 54.07052119099757
    RHS MINDN_G28_12 1.0
    RHS RUP_G28_13 54.07052119099757
    RHS RDN_G28_13 54.07052119099757
    RHS MINDN_G28_13 1.0
    RHS RUP_G28_14 54.07052119099757
    RHS RDN_G28_14 54.07052119099757
    RHS MINDN_G28_14 1.0
    RHS RUP_G28_15 54.07052119099757
    RHS RDN_G28_15 54.07052119099757
    RHS MINDN_G28_15 1.0
    RHS RUP_G28_16 54.07052119099757
    RHS RDN_G28_16 54.07052119099757
    RHS MINDN_G28_16 1.0
    RHS RUP_G28_17 54.07052119099757
    RHS RDN_G28_17 54.07052119099757
    RHS MINDN_G28_17 1.0
    RHS RUP_G28_18 54.07052119099757
    RHS RDN_G28_18 54.07052119099757
    RHS MINDN_G28_18 1.0
    RHS RUP_G28_19 54.07052119099757
    RHS RDN_G28_19 54.07052119099757
    RHS MINDN_G28_19 1.0
    RHS RUP_G28_20 54.07052119099757
    RHS RDN_G28_20 54.07052119099757
    RHS MINDN_G28_20 1.0
    RHS RUP_G28_21 54.07052119099757
    RHS RDN_G28_21 54.07052119099757
    RHS MINDN_G28_21 1.0
    RHS RUP_G28_22 54.07052119099757
    RHS RDN_G28_22 54.07052119099757
    RHS MINDN_G28_22 1.0
    RHS RUP_G28_23 54.07052119099757
    RHS RDN_G28_23 54.07052119099757
    RHS MINDN_G28_23 1.0
    RHS MINDN_G29_0 1.0
    RHS RUP_G29_1 255.00211445422104
    RHS RDN_G29_1 255.00211445422104
    RHS MINDN_G29_1 1.0
    RHS RUP_G29_2 255.00211445422104
    RHS RDN_G29_2 255.00211445422104
    RHS MINDN_G29_2 1.0
    RHS RUP_G29_3 255.00211445422104
    RHS RDN_G29_3 255.00211445422104
    RHS MINDN_G29_3 1.0
    RHS RUP_G29_4 255.00211445422104
    RHS RDN_G29_4 255.00211445422104
    RHS MINDN_G29_4 1.0
    RHS RUP_G29_5 255.00211445422104
    RHS RDN_G29_5 255.00211445422104
    RHS MINDN_G29_5 1.0
    RHS RUP_G29_6 255.00211445422104
    RHS RDN_G29_6 255.00211445422104
    RHS MINDN_G29_6 1.0
    RHS RUP_G29_7 255.00211445422104
    RHS RDN_G29_7 255.00211445422104
    RHS MINDN_G29_7 1.0
    RHS RUP_G29_8 255.00211445422104
    RHS RDN_G29_8 255.00211445422104
    RHS MINDN_G29_8 1.0
    RHS RUP_G29_9 255.00211445422104
    RHS RDN_G29_9 255.00211445422104
    RHS MINDN_G29_9 1.0
    RHS RUP_G29_10 255.00211445422104
    RHS RDN_G29_10 255.00211445422104
    RHS MINDN_G29_10 1.0
    RHS RUP_G29_11 255.00211445422104
    RHS RDN_G29_11 255.00211445422104
    RHS MINDN_G29_11 1.0
    RHS RUP_G29_12 255.00211445422104
    RHS RDN_G29_12 255.00211445422104
    RHS MINDN_G29_12 1.0
    RHS RUP_G29_13 255.00211445422104
    RHS RDN_G29_13 255.00211445422104
    RHS MINDN_G29_13 1.0
    RHS RUP_G29_14 255.00211445422104
    RHS RDN_G29_14 255.00211445422104
    RHS MINDN_G29_14 1.0
    RHS RUP_G29_15 255.00211445422104
    RHS RDN_G29_15 255.00211445422104
    RHS MINDN_G29_15 1.0
    RHS RUP_G29_16 255.00211445422104
    RHS RDN_G29_16 255.00211445422104
    RHS MINDN_G29_16 1.0
    RHS RUP_G29_17 255.00211445422104
    RHS RDN_G29_17 255.00211445422104
    RHS MINDN_G29_17 1.0
    RHS RUP_G29_18 255.00211445422104
    RHS RDN_G29_18 255.00211445422104
    RHS MINDN_G29_18 1.0
    RHS RUP_G29_19 255.00211445422104
    RHS RDN_G29_19 255.00211445422104
    RHS MINDN_G29_19 1.0
    RHS RUP_G29_20 255.00211445422104
    RHS RDN_G29_20 255.00211445422104
    RHS MINDN_G29_20 1.0
    RHS RUP_G29_21 255.00211445422104
    RHS RDN_G29_21 255.00211445422104
    RHS MINDN_G29_21 1.0
    RHS RUP_G29_22 255.00211445422104
    RHS RDN_G29_22 255.00211445422104
    RHS MINDN_G29_22 1.0
    RHS RUP_G29_23 255.00211445422104
    RHS RDN_G29_23 255.00211445422104
    RHS MINDN_G29_23 1.0
    RHS DEM_0 1824.4824470577269
    RHS RES_0 2006.9306917634997
    RHS DEM_1 1857.9573795835067
    RHS RES_1 2043.7531175418576
    RHS DEM_2 1956.1009158291554
    RHS RES_2 2151.711007412071
    RHS DEM_3 2112.224735989394
    RHS RES_3 2323.447209588334
    RHS DEM_4 2315.689259727115
    RHS RES_4 2547.2581856998268
    RHS DEM_5 2552.628715990615
    RHS RES_5 2807.891587589677
    RHS DEM_6 2806.896072396503
    RHS RES_6 3087.5856796361536
    RHS DEM_7 3061.1634288023906
    RHS RES_7 3367.27977168263
    RHS DEM_8 3298.102885065891
    RHS RES_8 3627.9131735724804
    RHS DEM_9 3501.5674088036117
    RHS RES_9 3851.7241496839733
    RHS DEM_10 3657.6912289638503
    RHS RES_10 4023.4603518602357
    RHS DEM_11 3755.834765209499
    RHS RES_11 4131.418241730449
    RHS DEM_12 3789.3096977352793
    RHS RES_12 4168.240667508808
    RHS DEM_13 3755.834765209499
    RHS RES_13 4131.418241730449
    RHS DEM_14 3657.691228963851
    RHS RES_14 4023.460351860236
    RHS DEM_15 3501.5674088036117
    RHS RES_15 3851.7241496839733
    RHS DEM_16 3298.102885065891
    RHS RES_16 3627.9131735724804
    RHS DEM_17 3061.1634288023906
    RHS RES_17 3367.27977168263
    RHS DEM_18 2806.896072396503
    RHS RES_18 3087.5856796361536
    RHS DEM_19 2552.628715990615
    RHS RES_19 2807.891587589677
    RHS DEM_20 2315.689259727115
    RHS RES_20 2547.2581856998268
    RHS DEM_21 2112.2247359893945
    RHS RES_21 2323.4472095883343
    RHS DEM_22 1956.1009158291554
    RHS RES_22 2151.711007412071
    RHS DEM_23 1857.9573795835067
    RHS RES_23 2043.7531175418576
BOUNDS
 UP BND U_G00_0 1.0
 UP BND V_G00_0 1.0
 UP BND W_G00_0 1.0
 UP BND P_G00_0 97.02748543934042
 UP BND U_G00_1 1.0
 UP BND V_G00_1 1.0
 UP BND W_G00_1 1.0
 UP BND P_G00_1 97.02748543934042
 UP BND U_G00_2 1.0
 UP BND V_G00_2 1.0
 UP BND W_G00_2 1.0
 UP BND P_G00_2 97.02748543934042
 UP BND U_G00_3 1.0
 UP BND V_G00_3 1.0
 UP BND W_G00_3 1.0
 UP BND P_G00_3 97.02748543934042
 UP BND U_G00_4 1.0
 UP BND V_G00_4 1.0
 UP BND W_G00_4 1.0
 UP BND P_G00_4 97.02748543934042
 UP BND U_G00_5 1.0
 UP BND V_G00_5 1.0
 UP BND W_G00_5 1.0
 UP BND P_G00_5 97.02748543934042
 UP BND U_G00_6 1.0
 UP BND V_G00_6 1.0
 UP BND W_G00_6 1.0
 UP BND P_G00_6 97.02748543934042
 UP BND U_G00_7 1.0
 UP BND V_G00_7 1.0
 UP BND W_G00_7 1.0
 UP BND P_G00_7 97.02748543934042
 UP BND U_G00_8 1.0
 UP BND V_G00_8 1.0
 UP BND W_G00_8 1.0
 UP BND P_G00_8 97.02748543934042
 UP BND U_G00_9 1.0
 UP BND V_G00_9 1.0
 UP BND W_G00_9 1.0
 UP BND P_G00_9 97.02748543934042
 UP BND U_G00_10 1.0
 UP BND V_G00_10 1.0
 UP BND W_G00_10 1.0
 UP BND P_G00_10 97.02748543934042
 UP BND U_G00_11 1.0
 UP BND V_G00_11 1.0
 UP BND W_G00_11 1.0
 UP BND P_G00_11 97.02748543934042
 UP BND U_G00_12 1.0
 UP BND V_G00_12 1.0
 UP BND W_G00_12 1.0
 UP BND P_G00_12 97.02748543934042
 UP BND U_G00_13 1.0
 UP BND V_G00_13 1.0
 UP BND W_G00_13 1.0
 UP BND P_G00_13 97.02748543934042
 UP BND U_G00_14 1.0
 UP BND V_G00_14 1.0
 UP BND W_G00_14 1.0
 UP BND P_G00_14 97.02748543934042
 UP BND U_G00_15 1.0
 UP BND V_G00_15 1.0
 UP BND W_G00_15 1.0
 UP BND P_G00_15 97.02748543934042
 UP BND U_G00_16 1.0
 UP BND V_G00_16 1.0
 UP BND W_G00_16 1.0
 UP BND P_G00_16 97.02748543934042
 UP BND U_G00_17 1.0
 UP BND V_G00_17 1.0
 UP BND W_G00_17 1.0
 UP BND P_G00_17 97.02748543934042
 UP BND U_G00_18 1.0
 UP BND V_G00_18 1.0
 UP BND W_G00_18 1.0
 UP BND P_G00_18 97.02748543934042
 UP BND U_G00_19 1.0
 UP BND V_G00_19 1.0
 UP BND W_G00_19 1.0
 UP BND P_G00_19 97.02748543934042
 UP BND U_G00_20 1.0
 UP BND V_G00_20 1.0
 UP BND W_G00_20 1.0
 UP BND P_G00_20 97.02748543934042
 UP BND U_G00_21 1.0
 UP BND V_G00_21 1.0
 UP BND W_G00_21 1.0
 UP BND P_G00_21 97.02748543934042
 UP BND U_G00_22 1.0
 UP BND V_G00_22 1.0
 UP BND W_G00_22 1.0
 UP BND P_G00_22 97.02748543934042
 UP BND U_G00_23 1.0
 UP BND V_G00_23 1.0
 UP BND W_G00_23 1.0
 UP BND P_G00_23 97.02748543934042
 UP BND U_G01_0 1.0
 UP BND V_G01_0 1.0
 UP BND W_G01_0 1.0
 UP BND P_G01_0 82.8508553709822
 UP BND U_G01_1 1.0
 UP BND V_G01_1 1.0
 UP BND W_G01_1 1.0
 UP BND P_G01_1 82.8508553709822
 UP BND U_G01_2 1.0
 UP BND V_G01_2 1.0
 UP BND W_G01_2 1.0
 UP BND P_G01_2 82.8508553709822
 UP BND U_G01_3 1.0
 UP BND V_G01_3 1.0
 UP BND W_G01_3 1.0
 UP BND P_G01_3 82.8508553709822
 UP BND U_G01_4 1.0
 UP BND V_G01_4 1.0
 UP BND W_G01_4 1.0
 UP BND P_G01_4 82.8508553709822
 UP BND U_G01_5 1.0
 UP BND V_G01_5 1.0
 UP BND W_G01_5 1.0
 UP BND P_G01_5 82.8508553709822
 UP BND U_G01_6 1.0
 UP BND V_G01_6 1.0
 UP BND W_G01_6 1.0
 UP BND P_G01_6 82.8508553709822
 UP BND U_G01_7 1.0
 UP BND V_G01_7 1.0
 UP BND W_G01_7 1.0
 UP BND P_G01_7 82.8508553709822
 UP BND U_G01_8 1.0
 UP BND V_G01_8 1.0
 UP BND W_G01_8 1.0
 UP BND P_G01_8 82.8508553709822
 UP BND U_G01_9 1.0
 UP BND V_G01_9 1.0
 UP BND W_G01_9 1.0
 UP BND P_G01_9 82.8508553709822
 UP BND U_G01_10 1.0
 UP BND V_G01_10 1.0
 UP BND W_G01_10 1.0
 UP BND P_G01_10 82.8508553709822
 UP BND U_G01_11 1.0
 UP BND V_G01_11 1.0
 UP BND W_G01_11 1.0
 UP BND P_G01_11 82.8508553709822
 UP BND U_G01_12 1.0
 UP BND V_G01_12 1.0
 UP BND W_G01_12 1.0
 UP BND P_G01_12 82.8508553709822
 UP BND U_G01_13 1.0
 UP BND V_G01_13 1.0
 UP BND W_G01_13 1.0
 UP BND P_G01_13 82.8508553709822
 UP BND U_G01_14 1.0
 UP BND V_G01_14 1.0
 UP BND W_G01_14 1.0
 UP BND P_G01_14 82.8508553709822
 UP BND U_G01_15 1.0
 UP BND V_G01_15 1.0
 UP BND W_G01_15 1.0
 UP BND P_G01_15 82.8508553709822
 UP BND U_G01_16 1.0
 UP BND V_G01_16 1.0
 UP BND W_G01_16 1.0
 UP BND P_G01_16 82.8508553709822
 UP BND U_G01_17 1.0
 UP BND V_G01_17 1.0
 UP BND W_G01_17 1.0
 UP BND P_G01_17 82.8508553709822
 UP BND U_G01_18 1.0
 UP BND V_G01_18 1.0
 UP BND W_G01_18 1.0
 UP BND P_G01_18 82.8508553709822
 UP BND U_G01_19 1.0
 UP BND V_G01_19 1.0
 UP BND W_G01_19 1.0
 UP BND P_G01_19 82.8508553709822
 UP BND U_G01_20 1.0
 UP BND V_G01_20 1.0
 UP BND W_G01_20 1.0
 UP BND P_G01_20 82.8508553709822
 UP BND U_G01_21 1.0
 UP BND V_G01_21 1.0
 UP BND W_G01_21 1.0
 UP BND P_G01_21 82.8508553709822
 UP BND U_G01_22 1.0
 UP BND V_G01_22 1.0
 UP BND W_G01_22 1.0
 UP BND P_G01_22 82.8508553709822
 UP BND U_G01_23 1.0
 UP BND V_G01_23 1.0
 UP BND W_G01_23 1.0
 UP BND P_G01_23 82.8508553709822
 UP BND U_G02_0 1.0
 UP BND V_G02_0 1.0
 UP BND W_G02_0 1.0
 UP BND P_G02_0 302.53901131927387
 UP BND U_G02_1 1.0
 UP BND V_G02_1 1.0
 UP BND W_G02_1 1.0
 UP BND P_G02_1 302.53901131927387
 UP BND U_G02_2 1.0
 UP BND V_G02_2 1.0
 UP BND W_G02_2 1.0
 UP BND P_G02_2 302.53901131927387
 UP BND U_G02_3 1.0
 UP BND V_G02_3 1.0
 UP BND W_G02_3 1.0
 UP BND P_G02_3 302.53901131927387
 UP BND U_G02_4 1.0
 UP BND V_G02_4 1.0
 UP BND W_G02_4 1.0
 UP BND P_G02_4 302.53901131927387
 UP BND U_G02_5 1.0
 UP BND V_G02_5 1.0
 UP BND W_G02_5 1.0
 UP BND P_G02_5 302.53901131927387
 UP BND U_G02_6 1.0
 UP BND V_G02_6 1.0
 UP BND W_G02_6 1.0
 UP BND P_G02_6 302.53901131927387
 UP BND U_G02_7 1.0
 UP BND V_G02_7 1.0
 UP BND W_G02_7 1.0
 UP BND P_G02_7 302.53901131927387
 UP BND U_G02_8 1.0
 UP BND V_G02_8 1.0
 UP BND W_G02_8 1.0
 UP BND P_G02_8 302.53901131927387
 UP BND U_G02_9 1.0
 UP BND V_G02_9 1.0
 UP BND W_G02_9 1.0
 UP BND P_G02_9 302.53901131927387
 UP BND U_G02_10 1.0
 UP BND V_G02_10 1.0
 UP BND W_G02_10 1.0
 UP BND P_G02_10 302.53901131927387
 UP BND U_G02_11 1.0
 UP BND V_G02_11 1.0
 UP BND W_G02_11 1.0
 UP BND P_G02_11 302.53901131927387
 UP BND U_G02_12 1.0
 UP BND V_G02_12 1.0
 UP BND W_G02_12 1.0
 UP BND P_G02_12 302.53901131927387
 UP BND U_G02_13 1.0
 UP BND V_G02_13 1.0
 UP BND W_G02_13 1.0
 UP BND P_G02_13 302.53901131927387
 UP BND U_G02_14 1.0
 UP BND V_G02_14 1.0
 UP BND W_G02_14 1.0
 UP BND P_G02_14 302.53901131927387
 UP BND U_G02_15 1.0
 UP BND V_G02_15 1.0
 UP BND W_G02_15 1.0
 UP BND P_G02_15 302.53901131927387
 UP BND U_G02_16 1.0
 UP BND V_G02_16 1.0
 UP BND W_G02_16 1.0
 UP BND P_G02_16 302.53901131927387
 UP BND U_G02_17 1.0
 UP BND V_G02_17 1.0
 UP BND W_G02_17 1.0
 UP BND P_G02_17 302.53901131927387
 UP BND U_G02_18 1.0
 UP BND V_G02_18 1.0
 UP BND W_G02_18 1.0
 UP BND P_G02_18 302.53901131927387
 UP BND U_G02_19 1.0
 UP BND V_G02_19 1.0
 UP BND W_G02_19 1.0
 UP BND P_G02_19 302.53901131927387
 UP BND U_G02_20 1.0
 UP BND V_G02_20 1.0
 UP BND W_G02_20 1.0
 UP BND P_G02_20 302.53901131927387
 UP BND U_G02_21 1.0
 UP BND V_G02_21 1.0
 UP BND W_G02_21 1.0
 UP BND P_G02_21 302.53901131927387
 UP BND U_G02_22 1.0
 UP BND V_G02_22 1.0
 UP BND W_G02_22 1.0
 UP BND P_G02_22 302.53901131927387
 UP BND U_G02_23 1.0
 UP BND V_G02_23 1.0
 UP BND W_G02_23 1.0
 UP BND P_G02_23 302.53901131927387
 UP BND U_G03_0 1.0
 UP BND V_G03_0 1.0
 UP BND W_G03_0 1.0
 UP BND P_G03_0 378.7022069724787
 UP BND U_G03_1 1.0
 UP BND V_G03_1 1.0
 UP BND W_G03_1 1.0
 UP BND P_G03_1 378.7022069724787
 UP BND U_G03_2 1.0
 UP BND V_G03_2 1.0
 UP BND W_G03_2 1.0
 UP BND P_G03_2 378.7022069724787
 UP BND U_G03_3 1.0
 UP BND V_G03_3 1.0
 UP BND W_G03_3 1.0
 UP BND P_G03_3 378.7022069724787
 UP BND U_G03_4 1.0
 UP BND V_G03_4 1.0
 UP BND W_G03_4 1.0
 UP BND P_G03_4 378.7022069724787
 UP BND U_G03_5 1.0
 UP BND V_G03_5 1.0
 UP BND W_G03_5 1.0
 UP BND P_G03_5 378.7022069724787
 UP BND U_G03_6 1.0
 UP BND V_G03_6 1.0
 UP BND W_G03_6 1.0
 UP BND P_G03_6 378.7022069724787
 UP BND U_G03_7 1.0
 UP BND V_G03_7 1.0
 UP BND W_G03_7 1.0
 UP BND P_G03_7 378.7022069724787
 UP BND U_G03_8 1.0
 UP BND V_G03_8 1.0
 UP BND W_G03_8 1.0
 UP BND P_G03_8 378.7022069724787
 UP BND U_G03_9 1.0
 UP BND V_G03_9 1.0
 UP BND W_G03_9 1.0
 UP BND P_G03_9 378.7022069724787
 UP BND U_G03_10 1.0
 UP BND V_G03_10 1.0
 UP BND W_G03_10 1.0
 UP BND P_G03_10 378.7022069724787
 UP BND U_G03_11 1.0
 UP BND V_G03_11 1.0
 UP BND W_G03_11 1.0
 UP BND P_G03_11 378.7022069724787
 UP BND U_G03_12 1.0
 UP BND V_G03_12 1.0
 UP BND W_G03_12 1.0
 UP BND P_G03_12 378.7022069724787
 UP BND U_G03_13 1.0
 UP BND V_G03_13 1.0
 UP BND W_G03_13 1.0
 UP BND P_G03_13 378.7022069724787
 UP BND U_G03_14 1.0
 UP BND V_G03_14 1.0
 UP BND W_G03_14 1.0
 UP BND P_G03_14 378.7022069724787
 UP BND U_G03_15 1.0
 UP BND V_G03_15 1.0
 UP BND W_G03_15 1.0
 UP BND P_G03_15 378.7022069724787
 UP BND U_G03_16 1.0
 UP BND V_G03_16 1.0
 UP BND W_G03_16 1.0
 UP BND P_G03_16 378.7022069724787
 UP BND U_G03_17 1.0
 UP BND V_G03_17 1.0
 UP BND W_G03_17 1.0
 UP BND P_G03_17 378.7022069724787
 UP BND U_G03_18 1.0
 UP BND V_G03_18 1.0
 UP BND W_G03_18 1.0
 UP BND P_G03_18 378.7022069724787
 UP BND U_G03_19 1.0
 UP BND V_G03_19 1.0
 UP BND W_G03_19 1.0
 UP BND P_G03_19 378.7022069724787
 UP BND U_G03_20 1.0
 UP BND V_G03_20 1.0
 UP BND W_G03_20 1.0
 UP BND P_G03_20 378.7022069724787
 UP BND U_G03_21 1.0
 UP BND V_G03_21 1.0
 UP BND W_G03_21 1.0
 UP BND P_G03_21 378.7022069724787
 UP BND U_G03_22 1.0
 UP BND V_G03_22 1.0
 UP BND W_G03_22 1.0
 UP BND P_G03_22 378.7022069724787
 UP BND U_G03_23 1.0
 UP BND V_G03_23 1.0
 UP BND W_G03_23 1.0
 UP BND P_G03_23 378.7022069724787
 UP BND U_G04_0 1.0
 UP BND V_G04_0 1.0
 UP BND W_G04_0 1.0
 UP BND P_G04_0 243.5008517025378
 UP BND U_G04_1 1.0
 UP BND V_G04_1 1.0
 UP BND W_G04_1 1.0
 UP BND P_G04_1 243.5008517025378
 UP BND U_G04_2 1.0
 UP BND V_G04_2 1.0
 UP BND W_G04_2 1.0
 UP BND P_G04_2 243.5008517025378
 UP BND U_G04_3 1.0
 UP BND V_G04_3 1.0
 UP BND W_G04_3 1.0
 UP BND P_G04_3 243.5008517025378
 UP BND U_G04_4 1.0
 UP BND V_G04_4 1.0
 UP BND W_G04_4 1.0
 UP BND P_G04_4 243.5008517025378
 UP BND U_G04_5 1.0
 UP BND V_G04_5 1.0
 UP BND W_G04_5 1.0
 UP BND P_G04_5 243.5008517025378
 UP BND U_G04_6 1.0
 UP BND V_G04_6 1.0
 UP BND W_G04_6 1.0
 UP BND P_G04_6 243.5008517025378
 UP BND U_G04_7 1.0
 UP BND V_G04_7 1.0
 UP BND W_G04_7 1.0
 UP BND P_G04_7 243.5008517025378
 UP BND U_G04_8 1.0
 UP BND V_G04_8 1.0
 UP BND W_G04_8 1.0
 UP BND P_G04_8 243.5008517025378
 UP BND U_G04_9 1.0
 UP BND V_G04_9 1.0
 UP BND W_G04_9 1.0
 UP BND P_G04_9 243.5008517025378
 UP BND U_G04_10 1.0
 UP BND V_G04_10 1.0
 UP BND W_G04_10 1.0
 UP BND P_G04_10 243.5008517025378
 UP BND U_G04_11 1.0
 UP BND V_G04_11 1.0
 UP BND W_G04_11 1.0
 UP BND P_G04_11 243.5008517025378
 UP BND U_G04_12 1.0
 UP BND V_G04_12 1.0
 UP BND W_G04_12 1.0
 UP BND P_G04_12 243.5008517025378
 UP BND U_G04_13 1.0
 UP BND V_G04_13 1.0
 UP BND W_G04_13 1.0
 UP BND P_G04_13 243.5008517025378
 UP BND U_G04_14 1.0
 UP BND V_G04_14 1.0
 UP BND W_G04_14 1.0
 UP BND P_G04_14 243.5008517025378
 UP BND U_G04_15 1.0
 UP BND V_G04_15 1.0
 UP BND W_G04_15 1.0
 UP BND P_G04_15 243.5008517025378
 UP BND U_G04_16 1.0
 UP BND V_G04_16 1.0
 UP BND W_G04_16 1.0
 UP BND P_G04_16 243.5008517025378
 UP BND U_G04_17 1.0
 UP BND V_G04_17 1.0
 UP BND W_G04_17 1.0
 UP BND P_G04_17 243.5008517025378
 UP BND U_G04_18 1.0
 UP BND V_G04_18 1.0
 UP BND W_G04_18 1.0
 UP BND P_G04_18 243.5008517025378
 UP BND U_G04_19 1.0
 UP BND V_G04_19 1.0
 UP BND W_G04_19 1.0
 UP BND P_G04_19 243.5008517025378
 UP BND U_G04_20 1.0
 UP BND V_G04_20 1.0
 UP BND W_G04_20 1.0
 UP BND P_G04_20 243.5008517025378
 UP BND U_G04_21 1.0
 UP BND V_G04_21 1.0
 UP BND W_G04_21 1.0
 UP BND P_G04_21 243.5008517025378
 UP BND U_G04_22 1.0
 UP BND V_G04_22 1.0
 UP BND W_G04_22 1.0
 UP BND P_G04_22 243.5008517025378
 UP BND U_G04_23 1.0
 UP BND V_G04_23 1.0
 UP BND W_G04_23 1.0
 UP BND P_G04_23 243.5008517025378
 UP BND U_G05_0 1.0
 UP BND V_G05_0 1.0
 UP BND W_G05_0 1.0
 UP BND P_G05_0 372.7659968644606
 UP BND U_G05_1 1.0
 UP BND V_G05_1 1.0
 UP BND W_G05_1 1.0
 UP BND P_G05_1 372.7659968644606
 UP BND U_G05_2 1.0
 UP BND V_G05_2 1.0
 UP BND W_G05_2 1.0
 UP BND P_G05_2 372.7659968644606
 UP BND U_G05_3 1.0
 UP BND V_G05_3 1.0
 UP BND W_G05_3 1.0
 UP BND P_G05_3 372.7659968644606
 UP BND U_G05_4 1.0
 UP BND V_G05_4 1.0
 UP BND W_G05_4 1.0
 UP BND P_G05_4 372.7659968644606
 UP BND U_G05_5 1.0
 UP BND V_G05_5 1.0
 UP BND W_G05_5 1.0
 UP BND P_G05_5 372.7659968644606
 UP BND U_G05_6 1.0
 UP BND V_G05_6 1.0
 UP BND W_G05_6 1.0
 UP BND P_G05_6 372.7659968644606
 UP BND U_G05_7 1.0
 UP BND V_G05_7 1.0
 UP BND W_G05_7 1.0
 UP BND P_G05_7 372.7659968644606
 UP BND U_G05_8 1.0
 UP BND V_G05_8 1.0
 UP BND W_G05_8 1.0
 UP BND P_G05_8 372.7659968644606
 UP BND U_G05_9 1.0
 UP BND V_G05_9 1.0
 UP BND W_G05_9 1.0
 UP BND P_G05_9 372.7659968644606
 UP BND U_G05_10 1.0
 UP BND V_G05_10 1.0
 UP BND W_G05_10 1.0
 UP BND P_G05_10 372.7659968644606
 UP BND U_G05_11 1.0
 UP BND V_G05_11 1.0
 UP BND W_G05_11 1.0
 UP BND P_G05_11 372.7659968644606
 UP BND U_G05_12 1.0
 UP BND V_G05_12 1.0
 UP BND W_G05_12 1.0
 UP BND P_G05_12 372.7659968644606
 UP BND U_G05_13 1.0
 UP BND V_G05_13 1.0
 UP BND W_G05_13 1.0
 UP BND P_G05_13 372.7659968644606
 UP BND U_G05_14 1.0
 UP BND V_G05_14 1.0
 UP BND W_G05_14 1.0
 UP BND P_G05_14 372.7659968644606
 UP BND U_G05_15 1.0
 UP BND V_G05_15 1.0
 UP BND W_G05_15 1.0
 UP BND P_G05_15 372.7659968644606
 UP BND U_G05_16 1.0
 UP BND V_G05_16 1.0
 UP BND W_G05_16 1.0
 UP BND P_G05_16 372.7659968644606
 UP BND U_G05_17 1.0
 UP BND V_G05_17 1.0
 UP BND W_G05_17 1.0
 UP BND P_G05_17 372.7659968644606
 UP BND U_G05_18 1.0
 UP BND V_G05_18 1.0
 UP BND W_G05_18 1.0
 UP BND P_G05_18 372.7659968644606
 UP BND U_G05_19 1.0
 UP BND V_G05_19 1.0
 UP BND W_G05_19 1.0
 UP BND P_G05_19 372.7659968644606
 UP BND U_G05_20 1.0
 UP BND V_G05_20 1.0
 UP BND W_G05_20 1.0
 UP BND P_G05_20 372.7659968644606
 UP BND U_G05_21 1.0
 UP BND V_G05_21 1.0
 UP BND W_G05_21 1.0
 UP BND P_G05_21 372.7659968644606
 UP BND U_G05_22 1.0
 UP BND V_G05_22 1.0
 UP BND W_G05_22 1.0
 UP BND P_G05_22 372.7659968644606
 UP BND U_G05_23 1.0
 UP BND V_G05_23 1.0
 UP BND W_G05_23 1.0
 UP BND P_G05_23 372.7659968644606
 UP BND U_G06_0 1.0
 UP BND V_G06_0 1.0
 UP BND W_G06_0 1.0
 UP BND P_G06_0 227.70103767896063
 UP BND U_G06_1 1.0
 UP BND V_G06_1 1.0
 UP BND W_G06_1 1.0
 UP BND P_G06_1 227.70103767896063
 UP BND U_G06_2 1.0
 UP BND V_G06_2 1.0
 UP BND W_G06_2 1.0
 UP BND P_G06_2 227.70103767896063
 UP BND U_G06_3 1.0
 UP BND V_G06_3 1.0
 UP BND W_G06_3 1.0
 UP BND P_G06_3 227.70103767896063
 UP BND U_G06_4 1.0
 UP BND V_G06_4 1.0
 UP BND W_G06_4 1.0
 UP BND P_G06_4 227.70103767896063
 UP BND U_G06_5 1.0
 UP BND V_G06_5 1.0
 UP BND W_G06_5 1.0
 UP BND P_G06_5 227.70103767896063
 UP BND U_G06_6 1.0
 UP BND V_G06_6 1.0
 UP BND W_G06_6 1.0
 UP BND P_G06_6 227.70103767896063
 UP BND U_G06_7 1.0
 UP BND V_G06_7 1.0
 UP BND W_G06_7 1.0
 UP BND P_G06_7 227.70103767896063
 UP BND U_G06_8 1.0
 UP BND V_G06_8 1.0
 UP BND W_G06_8 1.0
 UP BND P_G06_8 227.70103767896063
 UP BND U_G06_9 1.0
 UP BND V_G06_9 1.0
 UP BND W_G06_9 1.0
 UP BND P_G06_9 227.70103767896063
 UP BND U_G06_10 1.0
 UP BND V_G06_10 1.0
 UP BND W_G06_10 1.0
 UP BND P_G06_10 227.70103767896063
 UP BND U_G06_11 1.0
 UP BND V_G06_11 1.0
 UP BND W_G06_11 1.0
 UP BND P_G06_11 227.70103767896063
 UP BND U_G06_12 1.0
 UP BND V_G06_12 1.0
 UP BND W_G06_12 1.0
 UP BND P_G06_12 227.70103767896063
 UP BND U_G06_13 1.0
 UP BND V_G06_13 1.0
 UP BND W_G06_13 1.0
 UP BND P_G06_13 227.70103767896063
 UP BND U_G06_14 1.0
 UP BND V_G06_14 1.0
 UP BND W_G06_14 1.0
 UP BND P_G06_14 227.70103767896063
 UP BND U_G06_15 1.0
 UP BND V_G06_15 1.0
 UP BND W_G06_15 1.0
 UP BND P_G06_15 227.70103767896063
 UP BND U_G06_16 1.0
 UP BND V_G06_16 1.0
 UP BND W_G06_16 1.0
 UP BND P_G06_16 227.70103767896063
 UP BND U_G06_17 1.0
 UP BND V_G06_17 1.0
 UP BND W_G06_17 1.0
 UP BND P_G06_17 227.70103767896063
 UP BND U_G06_18 1.0
 UP BND V_G06_18 1.0
 UP BND W_G06_18 1.0
 UP BND P_G06_18 227.70103767896063
 UP BND U_G06_19 1.0
 UP BND V_G06_19 1.0
 UP BND W_G06_19 1.0
 UP BND P_G06_19 227.70103767896063
 UP BND U_G06_20 1.0
 UP BND V_G06_20 1.0
 UP BND W_G06_20 1.0
 UP BND P_G06_20 227.70103767896063
 UP BND U_G06_21 1.0
 UP BND V_G06_21 1.0
 UP BND W_G06_21 1.0
 UP BND P_G06_21 227.70103767896063
 UP BND U_G06_22 1.0
 UP BND V_G06_22 1.0
 UP BND W_G06_22 1.0
 UP BND P_G06_22 227.70103767896063
 UP BND U_G06_23 1.0
 UP BND V_G06_23 1.0
 UP BND W_G06_23 1.0
 UP BND P_G06_23 227.70103767896063
 UP BND U_G07_0 1.0
 UP BND V_G07_0 1.0
 UP BND W_G07_0 1.0
 UP BND P_G07_0 256.1507902938931
 UP BND U_G07_1 1.0
 UP BND V_G07_1 1.0
 UP BND W_G07_1 1.0
 UP BND P_G07_1 256.1507902938931
 UP BND U_G07_2 1.0
 UP BND V_G07_2 1.0
 UP BND W_G07_2 1.0
 UP BND P_G07_2 256.1507902938931
 UP BND U_G07_3 1.0
 UP BND V_G07_3 1.0
 UP BND W_G07_3 1.0
 UP BND P_G07_3 256.1507902938931
 UP BND U_G07_4 1.0
 UP BND V_G07_4 1.0
 UP BND W_G07_4 1.0
 UP BND P_G07_4 256.1507902938931
 UP BND U_G07_5 1.0
 UP BND V_G07_5 1.0
 UP BND W_G07_5 1.0
 UP BND P_G07_5 256.1507902938931
 UP BND U_G07_6 1.0
 UP BND V_G07_6 1.0
 UP BND W_G07_6 1.0
 UP BND P_G07_6 256.1507902938931
 UP BND U_G07_7 1.0
 UP BND V_G07_7 1.0
 UP BND W_G07_7 1.0
 UP BND P_G07_7 256.1507902938931
 UP BND U_G07_8 1.0
 UP BND V_G07_8 1.0
 UP BND W_G07_8 1.0
 UP BND P_G07_8 256.1507902938931
 UP BND U_G07_9 1.0
 UP BND V_G07_9 1.0
 UP BND W_G07_9 1.0
 UP BND P_G07_9 256.1507902938931
 UP BND U_G07_10 1.0
 UP BND V_G07_10 1.0
 UP BND W_G07_10 1.0
 UP BND P_G07_10 256.1507902938931
 UP BND U_G07_11 1.0
 UP BND V_G07_11 1.0
 UP BND W_G07_11 1.0
 UP BND P_G07_11 256.1507902938931
 UP BND U_G07_12 1.0
 UP BND V_G07_12 1.0
 UP BND W_G07_12 1.0
 UP BND P_G07_12 256.1507902938931
 UP BND U_G07_13 1.0
 UP BND V_G07_13 1.0
 UP BND W_G07_13 1.0
 UP BND P_G07_13 256.1507902938931
 UP BND U_G07_14 1.0
 UP BND V_G07_14 1.0
 UP BND W_G07_14 1.0
 UP BND P_G07_14 256.1507902938931
 UP BND U_G07_15 1.0
 UP BND V_G07_15 1.0
 UP BND W_G07_15 1.0
 UP BND P_G07_15 256.1507902938931
 UP BND U_G07_16 1.0
 UP BND V_G07_16 1.0
 UP BND W_G07_16 1.0
 UP BND P_G07_16 256.1507902938931
 UP BND U_G07_17 1.0
 UP BND V_G07_17 1.0
 UP BND W_G07_17 1.0
 UP BND P_G07_17 256.1507902938931
 UP BND U_G07_18 1.0
 UP BND V_G07_18 1.0
 UP BND W_G07_18 1.0
 UP BND P_G07_18 256.1507902938931
 UP BND U_G07_19 1.0
 UP BND V_G07_19 1.0
 UP BND W_G07_19 1.0
 UP BND P_G07_19 256.1507902938931
 UP BND U_G07_20 1.0
 UP BND V_G07_20 1.0
 UP BND W_G07_20 1.0
 UP BND P_G07_20 256.1507902938931
 UP BND U_G07_21 1.0
 UP BND V_G07_21 1.0
 UP BND W_G07_21 1.0
 UP BND P_G07_21 256.1507902938931
 UP BND U_G07_22 1.0
 UP BND V_G07_22 1.0
 UP BND W_G07_22 1.0
 UP BND P_G07_22 256.1507902938931
 UP BND U_G07_23 1.0
 UP BND V_G07_23 1.0
 UP BND W_G07_23 1.0
 UP BND P_G07_23 256.1507902938931
 UP BND U_G08_0 1.0
 UP BND V_G08_0 1.0
 UP BND W_G08_0 1.0
 UP BND P_G08_0 80.26365640488692
 UP BND U_G08_1 1.0
 UP BND V_G08_1 1.0
 UP BND W_G08_1 1.0
 UP BND P_G08_1 80.26365640488692
 UP BND U_G08_2 1.0
 UP BND V_G08_2 1.0
 UP BND W_G08_2 1.0
 UP BND P_G08_2 80.26365640488692
 UP BND U_G08_3 1.0
 UP BND V_G08_3 1.0
 UP BND W_G08_3 1.0
 UP BND P_G08_3 80.26365640488692
 UP BND U_G08_4 1.0
 UP BND V_G08_4 1.0
 UP BND W_G08_4 1.0
 UP BND P_G08_4 80.26365640488692
 UP BND U_G08_5 1.0
 UP BND V_G08_5 1.0
 UP BND W_G08_5 1.0
 UP BND P_G08_5 80.26365640488692
 UP BND U_G08_6 1.0
 UP BND V_G08_6 1.0
 UP BND W_G08_6 1.0
 UP BND P_G08_6 80.26365640488692
 UP BND U_G08_7 1.0
 UP BND V_G08_7 1.0
 UP BND W_G08_7 1.0
 UP BND P_G08_7 80.26365640488692
 UP BND U_G08_8 1.0
 UP BND V_G08_8 1.0
 UP BND W_G08_8 1.0
 UP BND P_G08_8 80.26365640488692
 UP BND U_G08_9 1.0
 UP BND V_G08_9 1.0
 UP BND W_G08_9 1.0
 UP BND P_G08_9 80.26365640488692
 UP BND U_G08_10 1.0
 UP BND V_G08_10 1.0
 UP BND W_G08_10 1.0
 UP BND P_G08_10 80.26365640488692
 UP BND U_G08_11 1.0
 UP BND V_G08_11 1.0
 UP BND W_G08_11 1.0
 UP BND P_G08_11 80.26365640488692
 UP BND U_G08_12 1.0
 UP BND V_G08_12 1.0
 UP BND W_G08_12 1.0
 UP BND P_G08_12 80.26365640488692
 UP BND U_G08_13 1.0
 UP BND V_G08_13 1.0
 UP BND W_G08_13 1.0
 UP BND P_G08_13 80.26365640488692
 UP BND U_G08_14 1.0
 UP BND V_G08_14 1.0
 UP BND W_G08_14 1.0
 UP BND P_G08_14 80.26365640488692
 UP BND U_G08_15 1.0
 UP BND V_G08_15 1.0
 UP BND W_G08_15 1.0
 UP BND P_G08_15 80.26365640488692
 UP BND U_G08_16 1.0
 UP BND V_G08_16 1.0
 UP BND W_G08_16 1.0
 UP BND P_G08_16 80.26365640488692
 UP BND U_G08_17 1.0
 UP BND V_G08_17 1.0
 UP BND W_G08_17 1.0
 UP BND P_G08_17 80.26365640488692
 UP BND U_G08_18 1.0
 UP BND V_G08_18 1.0
 UP BND W_G08_18 1.0
 UP BND P_G08_18 80.26365640488692
 UP BND U_G08_19 1.0
 UP BND V_G08_19 1.0
 UP BND W_G08_19 1.0
 UP BND P_G08_19 80.26365640488692
 UP BND U_G08_20 1.0
 UP BND V_G08_20 1.0
 UP BND W_G08_20 1.0
 UP BND P_G08_20 80.26365640488692
 UP BND U_G08_21 1.0
 UP BND V_G08_21 1.0
 UP BND W_G08_21 1.0
 UP BND P_G08_21 80.26365640488692
 UP BND U_G08_22 1.0
 UP BND V_G08_22 1.0
 UP BND W_G08_22 1.0
 UP BND P_G08_22 80.26365640488692
 UP BND U_G08_23 1.0
 UP BND V_G08_23 1.0
 UP BND W_G08_23 1.0
 UP BND P_G08_23 80.26365640488692
 UP BND U_G09_0 1.0
 UP BND V_G09_0 1.0
 UP BND W_G09_0 1.0
 UP BND P_G09_0 65.2205516247846
 UP BND U_G09_1 1.0
 UP BND V_G09_1 1.0
 UP BND W_G09_1 1.0
 UP BND P_G09_1 65.2205516247846
 UP BND U_G09_2 1.0
 UP BND V_G09_2 1.0
 UP BND W_G09_2 1.0
 UP BND P_G09_2 65.2205516247846
 UP BND U_G09_3 1.0
 UP BND V_G09_3 1.0
 UP BND W_G09_3 1.0
 UP BND P_G09_3 65.2205516247846
 UP BND U_G09_4 1.0
 UP BND V_G09_4 1.0
 UP BND W_G09_4 1.0
 UP BND P_G09_4 65.2205516247846
 UP BND U_G09_5 1.0
 UP BND V_G09_5 1.0
 UP BND W_G09_5 1.0
 UP BND P_G09_5 65.2205516247846
 UP BND U_G09_6 1.0
 UP BND V_G09_6 1.0
 UP BND W_G09_6 1.0
 UP BND P_G09_6 65.2205516247846
 UP BND U_G09_7 1.0
 UP BND V_G09_7 1.0
 UP BND W_G09_7 1.0
 UP BND P_G09_7 65.2205516247846
 UP BND U_G09_8 1.0
 UP BND V_G09_8 1.0
 UP BND W_G09_8 1.0
 UP BND P_G09_8 65.2205516247846
 UP BND U_G09_9 1.0
 UP BND V_G09_9 1.0
 UP BND W_G09_9 1.0
 UP BND P_G09_9 65.2205516247846
 UP BND U_G09_10 1.0
 UP BND V_G09_10 1.0
 UP BND W_G09_10 1.0
 UP BND P_G09_10 65.2205516247846
 UP BND U_G09_11 1.0
 UP BND V_G09_11 1.0
 UP BND W_G09_11 1.0
 UP BND P_G09_11 65.2205516247846
 UP BND U_G09_12 1.0
 UP BND V_G09_12 1.0
 UP BND W_G09_12 1.0
 UP BND P_G09_12 65.2205516247846
 UP BND U_G09_13 1.0
 UP BND V_G09_13 1.0
 UP BND W_G09_13 1.0
 UP BND P_G09_13 65.2205516247846
 UP BND U_G09_14 1.0
 UP BND V_G09_14 1.0
 UP BND W_G09_14 1.0
 UP BND P_G09_14 65.2205516247846
 UP BND U_G09_15 1.0
 UP BND V_G09_15 1.0
 UP BND W_G09_15 1.0
 UP BND P_G09_15 65.2205516247846
 UP BND U_G09_16 1.0
 UP BND V_G09_16 1.0
 UP BND W_G09_16 1.0
 UP BND P_G09_16 65.2205516247846
 UP BND U_G09_17 1.0
 UP BND V_G09_17 1.0
 UP BND W_G09_17 1.0
 UP BND P_G09_17 65.2205516247846
 UP BND U_G09_18 1.0
 UP BND V_G09_18 1.0
 UP BND W_G09_18 1.0
 UP BND P_G09_18 65.2205516247846
 UP BND U_G09_19 1.0
 UP BND V_G09_19 1.0
 UP BND W_G09_19 1.0
 UP BND P_G09_19 65.2205516247846
 UP BND U_G09_20 1.0
 UP BND V_G09_20 1.0
 UP BND W_G09_20 1.0
 UP BND P_G09_20 65.2205516247846
 UP BND U_G09_21 1.0
 UP BND V_G09_21 1.0
 UP BND W_G09_21 1.0
 UP BND P_G09_21 65.2205516247846
 UP BND U_G09_22 1.0
 UP BND V_G09_22 1.0
 UP BND W_G09_22 1.0
 UP BND P_G09_22 65.2205516247846
 UP BND U_G09_23 1.0
 UP BND V_G09_23 1.0
 UP BND W_G09_23 1.0
 UP BND P_G09_23 65.2205516247846
 UP BND U_G10_0 1.0
 UP BND V_G10_0 1.0
 UP BND W_G10_0 1.0
 UP BND P_G10_0 393.72682313848696
 UP BND U_G10_1 1.0
 UP BND V_G10_1 1.0
 UP BND W_G10_1 1.0
 UP BND P_G10_1 393.72682313848696
 UP BND U_G10_2 1.0
 UP BND V_G10_2 1.0
 UP BND W_G10_2 1.0
 UP BND P_G10_2 393.72682313848696
 UP BND U_G10_3 1.0
 UP BND V_G10_3 1.0
 UP BND W_G10_3 1.0
 UP BND P_G10_3 393.72682313848696
 UP BND U_G10_4 1.0
 UP BND V_G10_4 1.0
 UP BND W_G10_4 1.0
 UP BND P_G10_4 393.72682313848696
 UP BND U_G10_5 1.0
 UP BND V_G10_5 1.0
 UP BND W_G10_5 1.0
 UP BND P_G10_5 393.72682313848696
 UP BND U_G10_6 1.0
 UP BND V_G10_6 1.0
 UP BND W_G10_6 1.0
 UP BND P_G10_6 393.72682313848696
 UP BND U_G10_7 1.0
 UP BND V_G10_7 1.0
 UP BND W_G10_7 1.0
 UP BND P_G10_7 393.72682313848696
 UP BND U_G10_8 1.0
 UP BND V_G10_8 1.0
 UP BND W_G10_8 1.0
 UP BND P_G10_8 393.72682313848696
 UP BND U_G10_9 1.0
 UP BND V_G10_9 1.0
 UP BND W_G10_9 1.0
 UP BND P_G10_9 393.72682313848696
 UP BND U_G10_10 1.0
 UP BND V_G10_10 1.0
 UP BND W_G10_10 1.0
 UP BND P_G10_10 393.72682313848696
 UP BND U_G10_11 1.0
 UP BND V_G10_11 1.0
 UP BND W_G10_11 1.0
 UP BND P_G10_11 393.72682313848696
 UP BND U_G10_12 1.0
 UP BND V_G10_12 1.0
 UP BND W_G10_12 1.0
 UP BND P_G10_12 393.72682313848696
 UP BND U_G10_13 1.0
 UP BND V_G10_13 1.0
 UP BND W_G10_13 1.0
 UP BND P_G10_13 393.72682313848696
 UP BND U_G10_14 1.0
 UP BND V_G10_14 1.0
 UP BND W_G10_14 1.0
 UP BND P_G10_14 393.72682313848696
 UP BND U_G10_15 1.0
 UP BND V_G10_15 1.0
 UP BND W_G10_15 1.0
 UP BND P_G10_15 393.72682313848696
 UP BND U_G10_16 1.0
 UP BND V_G10_16 1.0
 UP BND W_G10_16 1.0
 UP BND P_G10_16 393.72682313848696
 UP BND U_G10_17 1.0
 UP BND V_G10_17 1.0
 UP BND W_G10_17 1.0
 UP BND P_G10_17 393.72682313848696
 UP BND U_G10_18 1.0
 UP BND V_G10_18 1.0
 UP BND W_G10_18 1.0
 UP BND P_G10_18 393.72682313848696
 UP BND U_G10_19 1.0
 UP BND V_G10_19 1.0
 UP BND W_G10_19 1.0
 UP BND P_G10_19 393.72682313848696
 UP BND U_G10_20 1.0
 UP BND V_G10_20 1.0
 UP BND W_G10_20 1.0
 UP BND P_G10_20 393.72682313848696
 UP BND U_G10_21 1.0
 UP BND V_G10_21 1.0
 UP BND W_G10_21 1.0
 UP BND P_G10_21 393.72682313848696
 UP BND U_G10_22 1.0
 UP BND V_G10_22 1.0
 UP BND W_G10_22 1.0
 UP BND P_G10_22 393.72682313848696
 UP BND U_G10_23 1.0
 UP BND V_G10_23 1.0
 UP BND W_G10_23 1.0
 UP BND P_G10_23 393.72682313848696
 UP BND U_G11_0 1.0
 UP BND V_G11_0 1.0
 UP BND W_G11_0 1.0
 UP BND P_G11_0 210.69610616873393
 UP BND U_G11_1 1.0
 UP BND V_G11_1 1.0
 UP BND W_G11_1 1.0
 UP BND P_G11_1 210.69610616873393
 UP BND U_G11_2 1.0
 UP BND V_G11_2 1.0
 UP BND W_G11_2 1.0
 UP BND P_G11_2 210.69610616873393
 UP BND U_G11_3 1.0
 UP BND V_G11_3 1.0
 UP BND W_G11_3 1.0
 UP BND P_G11_3 210.69610616873393
 UP BND U_G11_4 1.0
 UP BND V_G11_4 1.0
 UP BND W_G11_4 1.0
 UP BND P_G11_4 210.69610616873393
 UP BND U_G11_5 1.0
 UP BND V_G11_5 1.0
 UP BND W_G11_5 1.0
 UP BND P_G11_5 210.69610616873393
 UP BND U_G11_6 1.0
 UP BND V_G11_6 1.0
 UP BND W_G11_6 1.0
 UP BND P_G11_6 210.69610616873393
 UP BND U_G11_7 1.0
 UP BND V_G11_7 1.0
 UP BND W_G11_7 1.0
 UP BND P_G11_7 210.69610616873393
 UP BND U_G11_8 1.0
 UP BND V_G11_8 1.0
 UP BND W_G11_8 1.0
 UP BND P_G11_8 210.69610616873393
 UP BND U_G11_9 1.0
 UP BND V_G11_9 1.0
 UP BND W_G11_9 1.0
 UP BND P_G11_9 210.69610616873393
 UP BND U_G11_10 1.0
 UP BND V_G11_10 1.0
 UP BND W_G11_10 1.0
 UP BND P_G11_10 210.69610616873393
 UP BND U_G11_11 1.0
 UP BND V_G11_11 1.0
 UP BND W_G11_11 1.0
 UP BND P_G11_11 210.69610616873393
 UP BND U_G11_12 1.0
 UP BND V_G11_12 1.0
 UP BND W_G11_12 1.0
 UP BND P_G11_12 210.69610616873393
 UP BND U_G11_13 1.0
 UP BND V_G11_13 1.0
 UP BND W_G11_13 1.0
 UP BND P_G11_13 210.69610616873393
 UP BND U_G11_14 1.0
 UP BND V_G11_14 1.0
 UP BND W_G11_14 1.0
 UP BND P_G11_14 210.69610616873393
 UP BND U_G11_15 1.0
 UP BND V_G11_15 1.0
 UP BND W_G11_15 1.0
 UP BND P_G11_15 210.69610616873393
 UP BND U_G11_16 1.0
 UP BND V_G11_16 1.0
 UP BND W_G11_16 1.0
 UP BND P_G11_16 210.69610616873393
 UP BND U_G11_17 1.0
 UP BND V_G11_17 1.0
 UP BND W_G11_17 1.0
 UP BND P_G11_17 210.69610616873393
 UP BND U_G11_18 1.0
 UP BND V_G11_18 1.0
 UP BND W_G11_18 1.0
 UP BND P_G11_18 210.69610616873393
 UP BND U_G11_19 1.0
 UP BND V_G11_19 1.0
 UP BND W_G11_19 1.0
 UP BND P_G11_19 210.69610616873393
 UP BND U_G11_20 1.0
 UP BND V_G11_20 1.0
 UP BND W_G11_20 1.0
 UP BND P_G11_20 210.69610616873393
 UP BND U_G11_21 1.0
 UP BND V_G11_21 1.0
 UP BND W_G11_21 1.0
 UP BND P_G11_21 210.69610616873393
 UP BND U_G11_22 1.0
 UP BND V_G11_22 1.0
 UP BND W_G11_22 1.0
 UP BND P_G11_22 210.69610616873393
 UP BND U_G11_23 1.0
 UP BND V_G11_23 1.0
 UP BND W_G11_23 1.0
 UP BND P_G11_23 210.69610616873393
 UP BND U_G12_0 1.0
 UP BND V_G12_0 1.0
 UP BND W_G12_0 1.0
 UP BND P_G12_0 231.5373992330507
 UP BND U_G12_1 1.0
 UP BND V_G12_1 1.0
 UP BND W_G12_1 1.0
 UP BND P_G12_1 231.5373992330507
 UP BND U_G12_2 1.0
 UP BND V_G12_2 1.0
 UP BND W_G12_2 1.0
 UP BND P_G12_2 231.5373992330507
 UP BND U_G12_3 1.0
 UP BND V_G12_3 1.0
 UP BND W_G12_3 1.0
 UP BND P_G12_3 231.5373992330507
 UP BND U_G12_4 1.0
 UP BND V_G12_4 1.0
 UP BND W_G12_4 1.0
 UP BND P_G12_4 231.5373992330507
 UP BND U_G12_5 1.0
 UP BND V_G12_5 1.0
 UP BND W_G12_5 1.0
 UP BND P_G12_5 231.5373992330507
 UP BND U_G12_6 1.0
 UP BND V_G12_6 1.0
 UP BND W_G12_6 1.0
 UP BND P_G12_6 231.5373992330507
 UP BND U_G12_7 1.0
 UP BND V_G12_7 1.0
 UP BND W_G12_7 1.0
 UP BND P_G12_7 231.5373992330507
 UP BND U_G12_8 1.0
 UP BND V_G12_8 1.0
 UP BND W_G12_8 1.0
 UP BND P_G12_8 231.5373992330507
 UP BND U_G12_9 1.0
 UP BND V_G12_9 1.0
 UP BND W_G12_9 1.0
 UP BND P_G12_9 231.5373992330507
 UP BND U_G12_10 1.0
 UP BND V_G12_10 1.0
 UP BND W_G12_10 1.0
 UP BND P_G12_10 231.5373992330507
 UP BND U_G12_11 1.0
 UP BND V_G12_11 1.0
 UP BND W_G12_11 1.0
 UP BND P_G12_11 231.5373992330507
 UP BND U_G12_12 1.0
 UP BND V_G12_12 1.0
 UP BND W_G12_12 1.0
 UP BND P_G12_12 231.5373992330507
 UP BND U_G12_13 1.0
 UP BND V_G12_13 1.0
 UP BND W_G12_13 1.0
 UP BND P_G12_13 231.5373992330507
 UP BND U_G12_14 1.0
 UP BND V_G12_14 1.0
 UP BND W_G12_14 1.0
 UP BND P_G12_14 231.5373992330507
 UP BND U_G12_15 1.0
 UP BND V_G12_15 1.0
 UP BND W_G12_15 1.0
 UP BND P_G12_15 231.5373992330507
 UP BND U_G12_16 1.0
 UP BND V_G12_16 1.0
 UP BND W_G12_16 1.0
 UP BND P_G12_16 231.5373992330507
 UP BND U_G12_17 1.0
 UP BND V_G12_17 1.0
 UP BND W_G12_17 1.0
 UP BND P_G12_17 231.5373992330507
 UP BND U_G12_18 1.0
 UP BND V_G12_18 1.0
 UP BND W_G12_18 1.0
 UP BND P_G12_18 231.5373992330507
 UP BND U_G12_19 1.0
 UP BND V_G12_19 1.0
 UP BND W_G12_19 1.0
 UP BND P_G12_19 231.5373992330507
 UP BND U_G12_20 1.0
 UP BND V_G12_20 1.0
 UP BND W_G12_20 1.0
 UP BND P_G12_20 231.5373992330507
 UP BND U_G12_21 1.0
 UP BND V_G12_21 1.0
 UP BND W_G12_21 1.0
 UP BND P_G12_21 231.5373992330507
 UP BND U_G12_22 1.0
 UP BND V_G12_22 1.0
 UP BND W_G12_22 1.0
 UP BND P_G12_22 231.5373992330507
 UP BND U_G12_23 1.0
 UP BND V_G12_23 1.0
 UP BND W_G12_23 1.0
 UP BND P_G12_23 231.5373992330507
 UP BND U_G13_0 1.0
 UP BND V_G13_0 1.0
 UP BND W_G13_0 1.0
 UP BND P_G13_0 194.69001494142253
 UP BND U_G13_1 1.0
 UP BND V_G13_1 1.0
 UP BND W_G13_1 1.0
 UP BND P_G13_1 194.69001494142253
 UP BND U_G13_2 1.0
 UP BND V_G13_2 1.0
 UP BND W_G13_2 1.0
 UP BND P_G13_2 194.69001494142253
 UP BND U_G13_3 1.0
 UP BND V_G13_3 1.0
 UP BND W_G13_3 1.0
 UP BND P_G13_3 194.69001494142253
 UP BND U_G13_4 1.0
 UP BND V_G13_4 1.0
 UP BND W_G13_4 1.0
 UP BND P_G13_4 194.69001494142253
 UP BND U_G13_5 1.0
 UP BND V_G13_5 1.0
 UP BND W_G13_5 1.0
 UP BND P_G13_5 194.69001494142253
 UP BND U_G13_6 1.0
 UP BND V_G13_6 1.0
 UP BND W_G13_6 1.0
 UP BND P_G13_6 194.69001494142253
 UP BND U_G13_7 1.0
 UP BND V_G13_7 1.0
 UP BND W_G13_7 1.0
 UP BND P_G13_7 194.69001494142253
 UP BND U_G13_8 1.0
 UP BND V_G13_8 1.0
 UP BND W_G13_8 1.0
 UP BND P_G13_8 194.69001494142253
 UP BND U_G13_9 1.0
 UP BND V_G13_9 1.0
 UP BND W_G13_9 1.0
 UP BND P_G13_9 194.69001494142253
 UP BND U_G13_10 1.0
 UP BND V_G13_10 1.0
 UP BND W_G13_10 1.0
 UP BND P_G13_10 194.69001494142253
 UP BND U_G13_11 1.0
 UP BND V_G13_11 1.0
 UP BND W_G13_11 1.0
 UP BND P_G13_11 194.69001494142253
 UP BND U_G13_12 1.0
 UP BND V_G13_12 1.0
 UP BND W_G13_12 1.0
 UP BND P_G13_12 194.69001494142253
 UP BND U_G13_13 1.0
 UP BND V_G13_13 1.0
 UP BND W_G13_13 1.0
 UP BND P_G13_13 194.69001494142253
 UP BND U_G13_14 1.0
 UP BND V_G13_14 1.0
 UP BND W_G13_14 1.0
 UP BND P_G13_14 194.69001494142253
 UP BND U_G13_15 1.0
 UP BND V_G13_15 1.0
 UP BND W_G13_15 1.0
 UP BND P_G13_15 194.69001494142253
 UP BND U_G13_16 1.0
 UP BND V_G13_16 1.0
 UP BND W_G13_16 1.0
 UP BND P_G13_16 194.69001494142253
 UP BND U_G13_17 1.0
 UP BND V_G13_17 1.0
 UP BND W_G13_17 1.0
 UP BND P_G13_17 194.69001494142253
 UP BND U_G13_18 1.0
 UP BND V_G13_18 1.0
 UP BND W_G13_18 1.0
 UP BND P_G13_18 194.69001494142253
 UP BND U_G13_19 1.0
 UP BND V_G13_19 1.0
 UP BND W_G13_19 1.0
 UP BND P_G13_19 194.69001494142253
 UP BND U_G13_20 1.0
 UP BND V_G13_20 1.0
 UP BND W_G13_20 1.0
 UP BND P_G13_20 194.69001494142253
 UP BND U_G13_21 1.0
 UP BND V_G13_21 1.0
 UP BND W_G13_21 1.0
 UP BND P_G13_21 194.69001494142253
 UP BND U_G13_22 1.0
 UP BND V_G13_22 1.0
 UP BND W_G13_22 1.0
 UP BND P_G13_22 194.69001494142253
 UP BND U_G13_23 1.0
 UP BND V_G13_23 1.0
 UP BND W_G13_23 1.0
 UP BND P_G13_23 194.69001494142253
 UP BND U_G14_0 1.0
 UP BND V_G14_0 1.0
 UP BND W_G14_0 1.0
 UP BND P_G14_0 259.94931466721926
 UP BND U_G14_1 1.0
 UP BND V_G14_1 1.0
 UP BND W_G14_1 1.0
 UP BND P_G14_1 259.94931466721926
 UP BND U_G14_2 1.0
 UP BND V_G14_2 1.0
 UP BND W_G14_2 1.0
 UP BND P_G14_2 259.94931466721926
 UP BND U_G14_3 1.0
 UP BND V_G14_3 1.0
 UP BND W_G14_3 1.0
 UP BND P_G14_3 259.94931466721926
 UP BND U_G14_4 1.0
 UP BND V_G14_4 1.0
 UP BND W_G14_4 1.0
 UP BND P_G14_4 259.94931466721926
 UP BND U_G14_5 1.0
 UP BND V_G14_5 1.0
 UP BND W_G14_5 1.0
 UP BND P_G14_5 259.94931466721926
 UP BND U_G14_6 1.0
 UP BND V_G14_6 1.0
 UP BND W_G14_6 1.0
 UP BND P_G14_6 259.94931466721926
 UP BND U_G14_7 1.0
 UP BND V_G14_7 1.0
 UP BND W_G14_7 1.0
 UP BND P_G14_7 259.94931466721926
 UP BND U_G14_8 1.0
 UP BND V_G14_8 1.0
 UP BND W_G14_8 1.0
 UP BND P_G14_8 259.94931466721926
 UP BND U_G14_9 1.0
 UP BND V_G14_9 1.0
 UP BND W_G14_9 1.0
 UP BND P_G14_9 259.94931466721926
 UP BND U_G14_10 1.0
 UP BND V_G14_10 1.0
 UP BND W_G14_10 1.0
 UP BND P_G14_10 259.94931466721926
 UP BND U_G14_11 1.0
 UP BND V_G14_11 1.0
 UP BND W_G14_11 1.0
 UP BND P_G14_11 259.94931466721926
 UP BND U_G14_12 1.0
 UP BND V_G14_12 1.0
 UP BND W_G14_12 1.0
 UP BND P_G14_12 259.94931466721926
 UP BND U_G14_13 1.0
 UP BND V_G14_13 1.0
 UP BND W_G14_13 1.0
 UP BND P_G14_13 259.94931466721926
 UP BND U_G14_14 1.0
 UP BND V_G14_14 1.0
 UP BND W_G14_14 1.0
 UP BND P_G14_14 259.94931466721926
 UP BND U_G14_15 1.0
 UP BND V_G14_15 1.0
 UP BND W_G14_15 1.0
 UP BND P_G14_15 259.94931466721926
 UP BND U_G14_16 1.0
 UP BND V_G14_16 1.0
 UP BND W_G14_16 1.0
 UP BND P_G14_16 259.94931466721926
 UP BND U_G14_17 1.0
 UP BND V_G14_17 1.0
 UP BND W_G14_17 1.0
 UP BND P_G14_17 259.94931466721926
 UP BND U_G14_18 1.0
 UP BND V_G14_18 1.0
 UP BND W_G14_18 1.0
 UP BND P_G14_18 259.94931466721926
 UP BND U_G14_19 1.0
 UP BND V_G14_19 1.0
 UP BND W_G14_19 1.0
 UP BND P_G14_19 259.94931466721926
 UP BND U_G14_20 1.0
 UP BND V_G14_20 1.0
 UP BND W_G14_20 1.0
 UP BND P_G14_20 259.94931466721926
 UP BND U_G14_21 1.0
 UP BND V_G14_21 1.0
 UP BND W_G14_21 1.0
 UP BND P_G14_21 259.94931466721926
 UP BND U_G14_22 1.0
 UP BND V_G14_22 1.0
 UP BND W_G14_22 1.0
 UP BND P_G14_22 259.94931466721926
 UP BND U_G14_23 1.0
 UP BND V_G14_23 1.0
 UP BND W_G14_23 1.0
 UP BND P_G14_23 259.94931466721926
 UP BND U_G15_0 1.0
 UP BND V_G15_0 1.0
 UP BND W_G15_0 1.0
 UP BND P_G15_0 61.36069591798402
 UP BND U_G15_1 1.0
 UP BND V_G15_1 1.0
 UP BND W_G15_1 1.0
 UP BND P_G15_1 61.36069591798402
 UP BND U_G15_2 1.0
 UP BND V_G15_2 1.0
 UP BND W_G15_2 1.0
 UP BND P_G15_2 61.36069591798402
 UP BND U_G15_3 1.0
 UP BND V_G15_3 1.0
 UP BND W_G15_3 1.0
 UP BND P_G15_3 61.36069591798402
 UP BND U_G15_4 1.0
 UP BND V_G15_4 1.0
 UP BND W_G15_4 1.0
 UP BND P_G15_4 61.36069591798402
 UP BND U_G15_5 1.0
 UP BND V_G15_5 1.0
 UP BND W_G15_5 1.0
 UP BND P_G15_5 61.36069591798402
 UP BND U_G15_6 1.0
 UP BND V_G15_6 1.0
 UP BND W_G15_6 1.0
 UP BND P_G15_6 61.36069591798402
 UP BND U_G15_7 1.0
 UP BND V_G15_7 1.0
 UP BND W_G15_7 1.0
 UP BND P_G15_7 61.36069591798402
 UP BND U_G15_8 1.0
 UP BND V_G15_8 1.0
 UP BND W_G15_8 1.0
 UP BND P_G15_8 61.36069591798402
 UP BND U_G15_9 1.0
 UP BND V_G15_9 1.0
 UP BND W_G15_9 1.0
 UP BND P_G15_9 61.36069591798402
 UP BND U_G15_10 1.0
 UP BND V_G15_10 1.0
 UP BND W_G15_10 1.0
 UP BND P_G15_10 61.36069591798402
 UP BND U_G15_11 1.0
 UP BND V_G15_11 1.0
 UP BND W_G15_11 1.0
 UP BND P_G15_11 61.36069591798402
 UP BND U_G15_12 1.0
 UP BND V_G15_12 1.0
 UP BND W_G15_12 1.0
 UP BND P_G15_12 61.36069591798402
 UP BND U_G15_13 1.0
 UP BND V_G15_13 1.0
 UP BND W_G15_13 1.0
 UP BND P_G15_13 61.36069591798402
 UP BND U_G15_14 1.0
 UP BND V_G15_14 1.0
 UP BND W_G15_14 1.0
 UP BND P_G15_14 61.36069591798402
 UP BND U_G15_15 1.0
 UP BND V_G15_15 1.0
 UP BND W_G15_15 1.0
 UP BND P_G15_15 61.36069591798402
 UP BND U_G15_16 1.0
 UP BND V_G15_16 1.0
 UP BND W_G15_16 1.0
 UP BND P_G15_16 61.36069591798402
 UP BND U_G15_17 1.0
 UP BND V_G15_17 1.0
 UP BND W_G15_17 1.0
 UP BND P_G15_17 61.36069591798402
 UP BND U_G15_18 1.0
 UP BND V_G15_18 1.0
 UP BND W_G15_18 1.0
 UP BND P_G15_18 61.36069591798402
 UP BND U_G15_19 1.0
 UP BND V_G15_19 1.0
 UP BND W_G15_19 1.0
 UP BND P_G15_19 61.36069591798402
 UP BND U_G15_20 1.0
 UP BND V_G15_20 1.0
 UP BND W_G15_20 1.0
 UP BND P_G15_20 61.36069591798402
 UP BND U_G15_21 1.0
 UP BND V_G15_21 1.0
 UP BND W_G15_21 1.0
 UP BND P_G15_21 61.36069591798402
 UP BND U_G15_22 1.0
 UP BND V_G15_22 1.0
 UP BND W_G15_22 1.0
 UP BND P_G15_22 61.36069591798402
 UP BND U_G15_23 1.0
 UP BND V_G15_23 1.0
 UP BND W_G15_23 1.0
 UP BND P_G15_23 61.36069591798402
 UP BND U_G16_0 1.0
 UP BND V_G16_0 1.0
 UP BND W_G16_0 1.0
 UP BND P_G16_0 144.0246067071037
 UP BND U_G16_1 1.0
 UP BND V_G16_1 1.0
 UP BND W_G16_1 1.0
 UP BND P_G16_1 144.0246067071037
 UP BND U_G16_2 1.0
 UP BND V_G16_2 1.0
 UP BND W_G16_2 1.0
 UP BND P_G16_2 144.0246067071037
 UP BND U_G16_3 1.0
 UP BND V_G16_3 1.0
 UP BND W_G16_3 1.0
 UP BND P_G16_3 144.0246067071037
 UP BND U_G16_4 1.0
 UP BND V_G16_4 1.0
 UP BND W_G16_4 1.0
 UP BND P_G16_4 144.0246067071037
 UP BND U_G16_5 1.0
 UP BND V_G16_5 1.0
 UP BND W_G16_5 1.0
 UP BND P_G16_5 144.0246067071037
 UP BND U_G16_6 1.0
 UP BND V_G16_6 1.0
 UP BND W_G16_6 1.0
 UP BND P_G16_6 144.0246067071037
 UP BND U_G16_7 1.0
 UP BND V_G16_7 1.0
 UP BND W_G16_7 1.0
 UP BND P_G16_7 144.0246067071037
 UP BND U_G16_8 1.0
 UP BND V_G16_8 1.0
 UP BND W_G16_8 1.0
 UP BND P_G16_8 144.0246067071037
 UP BND U_G16_9 1.0
 UP BND V_G16_9 1.0
 UP BND W_G16_9 1.0
 UP BND P_G16_9 144.0246067071037
 UP BND U_G16_10 1.0
 UP BND V_G16_10 1.0
 UP BND W_G16_10 1.0
 UP BND P_G16_10 144.0246067071037
 UP BND U_G16_11 1.0
 UP BND V_G16_11 1.0
 UP BND W_G16_11 1.0
 UP BND P_G16_11 144.0246067071037
 UP BND U_G16_12 1.0
 UP BND V_G16_12 1.0
 UP BND W_G16_12 1.0
 UP BND P_G16_12 144.0246067071037
 UP BND U_G16_13 1.0
 UP BND V_G16_13 1.0
 UP BND W_G16_13 1.0
 UP BND P_G16_13 144.0246067071037
 UP BND U_G16_14 1.0
 UP BND V_G16_14 1.0
 UP BND W_G16_14 1.0
 UP BND P_G16_14 144.0246067071037
 UP BND U_G16_15 1.0
 UP BND V_G16_15 1.0
 UP BND W_G16_15 1.0
 UP BND P_G16_15 144.0246067071037
 UP BND U_G16_16 1.0
 UP BND V_G16_16 1.0
 UP BND W_G16_16 1.0
 UP BND P_G16_16 144.0246067071037
 UP BND U_G16_17 1.0
 UP BND V_G16_17 1.0
 UP BND W_G16_17 1.0
 UP BND P_G16_17 144.0246067071037
 UP BND U_G16_18 1.0
 UP BND V_G16_18 1.0
 UP BND W_G16_18 1.0
 UP BND P_G16_18 144.0246067071037
 UP BND U_G16_19 1.0
 UP BND V_G16_19 1.0
 UP BND W_G16_19 1.0
 UP BND P_G16_19 144.0246067071037
 UP BND U_G16_20 1.0
 UP BND V_G16_20 1.0
 UP BND W_G16_20 1.0
 UP BND P_G16_20 144.0246067071037
 UP BND U_G16_21 1.0
 UP BND V_G16_21 1.0
 UP BND W_G16_21 1.0
 UP BND P_G16_21 144.0246067071037
 UP BND U_G16_22 1.0
 UP BND V_G16_22 1.0
 UP BND W_G16_22 1.0
 UP BND P_G16_22 144.0246067071037
 UP BND U_G16_23 1.0
 UP BND V_G16_23 1.0
 UP BND W_G16_23 1.0
 UP BND P_G16_23 144.0246067071037
 UP BND U_G17_0 1.0
 UP BND V_G17_0 1.0
 UP BND W_G17_0 1.0
 UP BND P_G17_0 276.87098159683103
 UP BND U_G17_1 1.0
 UP BND V_G17_1 1.0
 UP BND W_G17_1 1.0
 UP BND P_G17_1 276.87098159683103
 UP BND U_G17_2 1.0
 UP BND V_G17_2 1.0
 UP BND W_G17_2 1.0
 UP BND P_G17_2 276.87098159683103
 UP BND U_G17_3 1.0
 UP BND V_G17_3 1.0
 UP BND W_G17_3 1.0
 UP BND P_G17_3 276.87098159683103
 UP BND U_G17_4 1.0
 UP BND V_G17_4 1.0
 UP BND W_G17_4 1.0
 UP BND P_G17_4 276.87098159683103
 UP BND U_G17_5 1.0
 UP BND V_G17_5 1.0
 UP BND W_G17_5 1.0
 UP BND P_G17_5 276.87098159683103
 UP BND U_G17_6 1.0
 UP BND V_G17_6 1.0
 UP BND W_G17_6 1.0
 UP BND P_G17_6 276.87098159683103
 UP BND U_G17_7 1.0
 UP BND V_G17_7 1.0
 UP BND W_G17_7 1.0
 UP BND P_G17_7 276.87098159683103
 UP BND U_G17_8 1.0
 UP BND V_G17_8 1.0
 UP BND W_G17_8 1.0
 UP BND P_G17_8 276.87098159683103
 UP BND U_G17_9 1.0
 UP BND V_G17_9 1.0
 UP BND W_G17_9 1.0
 UP BND P_G17_9 276.87098159683103
 UP BND U_G17_10 1.0
 UP BND V_G17_10 1.0
 UP BND W_G17_10 1.0
 UP BND P_G17_10 276.87098159683103
 UP BND U_G17_11 1.0
 UP BND V_G17_11 1.0
 UP BND W_G17_11 1.0
 UP BND P_G17_11 276.87098159683103
 UP BND U_G17_12 1.0
 UP BND V_G17_12 1.0
 UP BND W_G17_12 1.0
 UP BND P_G17_12 276.87098159683103
 UP BND U_G17_13 1.0
 UP BND V_G17_13 1.0
 UP BND W_G17_13 1.0
 UP BND P_G17_13 276.87098159683103
 UP BND U_G17_14 1.0
 UP BND V_G17_14 1.0
 UP BND W_G17_14 1.0
 UP BND P_G17_14 276.87098159683103
 UP BND U_G17_15 1.0
 UP BND V_G17_15 1.0
 UP BND W_G17_15 1.0
 UP BND P_G17_15 276.87098159683103
 UP BND U_G17_16 1.0
 UP BND V_G17_16 1.0
 UP BND W_G17_16 1.0
 UP BND P_G17_16 276.87098159683103
 UP BND U_G17_17 1.0
 UP BND V_G17_17 1.0
 UP BND W_G17_17 1.0
 UP BND P_G17_17 276.87098159683103
 UP BND U_G17_18 1.0
 UP BND V_G17_18 1.0
 UP BND W_G17_18 1.0
 UP BND P_G17_18 276.87098159683103
 UP BND U_G17_19 1.0
 UP BND V_G17_19 1.0
 UP BND W_G17_19 1.0
 UP BND P_G17_19 276.87098159683103
 UP BND U_G17_20 1.0
 UP BND V_G17_20 1.0
 UP BND W_G17_20 1.0
 UP BND P_G17_20 276.87098159683103
 UP BND U_G17_21 1.0
 UP BND V_G17_21 1.0
 UP BND W_G17_21 1.0
 UP BND P_G17_21 276.87098159683103
 UP BND U_G17_22 1.0
 UP BND V_G17_22 1.0
 UP BND W_G17_22 1.0
 UP BND P_G17_22 276.87098159683103
 UP BND U_G17_23 1.0
 UP BND V_G17_23 1.0
 UP BND W_G17_23 1.0
 UP BND P_G17_23 276.87098159683103
 UP BND U_G18_0 1.0
 UP BND V_G18_0 1.0
 UP BND W_G18_0 1.0
 UP BND P_G18_0 328.6710539148283
 UP BND U_G18_1 1.0
 UP BND V_G18_1 1.0
 UP BND W_G18_1 1.0
 UP BND P_G18_1 328.6710539148283
 UP BND U_G18_2 1.0
 UP BND V_G18_2 1.0
 UP BND W_G18_2 1.0
 UP BND P_G18_2 328.6710539148283
 UP BND U_G18_3 1.0
 UP BND V_G18_3 1.0
 UP BND W_G18_3 1.0
 UP BND P_G18_3 328.6710539148283
 UP BND U_G18_4 1.0
 UP BND V_G18_4 1.0
 UP BND W_G18_4 1.0
 UP BND P_G18_4 328.6710539148283
 UP BND U_G18_5 1.0
 UP BND V_G18_5 1.0
 UP BND W_G18_5 1.0
 UP BND P_G18_5 328.6710539148283
 UP BND U_G18_6 1.0
 UP BND V_G18_6 1.0
 UP BND W_G18_6 1.0
 UP BND P_G18_6 328.6710539148283
 UP BND U_G18_7 1.0
 UP BND V_G18_7 1.0
 UP BND W_G18_7 1.0
 UP BND P_G18_7 328.6710539148283
 UP BND U_G18_8 1.0
 UP BND V_G18_8 1.0
 UP BND W_G18_8 1.0
 UP BND P_G18_8 328.6710539148283
 UP BND U_G18_9 1.0
 UP BND V_G18_9 1.0
 UP BND W_G18_9 1.0
 UP BND P_G18_9 328.6710539148283
 UP BND U_G18_10 1.0
 UP BND V_G18_10 1.0
 UP BND W_G18_10 1.0
 UP BND P_G18_10 328.6710539148283
 UP BND U_G18_11 1.0
 UP BND V_G18_11 1.0
 UP BND W_G18_11 1.0
 UP BND P_G18_11 328.6710539148283
 UP BND U_G18_12 1.0
 UP BND V_G18_12 1.0
 UP BND W_G18_12 1.0
 UP BND P_G18_12 328.6710539148283
 UP BND U_G18_13 1.0
 UP BND V_G18_13 1.0
 UP BND W_G18_13 1.0
 UP BND P_G18_13 328.6710539148283
 UP BND U_G18_14 1.0
 UP BND V_G18_14 1.0
 UP BND W_G18_14 1.0
 UP BND P_G18_14 328.6710539148283
 UP BND U_G18_15 1.0
 UP BND V_G18_15 1.0
 UP BND W_G18_15 1.0
 UP BND P_G18_15 328.6710539148283
 UP BND U_G18_16 1.0
 UP BND V_G18_16 1.0
 UP BND W_G18_16 1.0
 UP BND P_G18_16 328.6710539148283
 UP BND U_G18_17 1.0
 UP BND V_G18_17 1.0
 UP BND W_G18_17 1.0
 UP BND P_G18_17 328.6710539148283
 UP BND U_G18_18 1.0
 UP BND V_G18_18 1.0
 UP BND W_G18_18 1.0
 UP BND P_G18_18 328.6710539148283
 UP BND U_G18_19 1.0
 UP BND V_G18_19 1.0
 UP BND W_G18_19 1.0
 UP BND P_G18_19 328.6710539148283
 UP BND U_G18_20 1.0
 UP BND V_G18_20 1.0
 UP BND W_G18_20 1.0
 UP BND P_G18_20 328.6710539148283
 UP BND U_G18_21 1.0
 UP BND V_G18_21 1.0
 UP BND W_G18_21 1.0
 UP BND P_G18_21 328.6710539148283
 UP BND U_G18_22 1.0
 UP BND V_G18_22 1.0
 UP BND W_G18_22 1.0
 UP BND P_G18_22 328.6710539148283
 UP BND U_G18_23 1.0
 UP BND V_G18_23 1.0
 UP BND W_G18_23 1.0
 UP BND P_G18_23 328.6710539148283
 UP BND U_G19_0 1.0
 UP BND V_G19_0 1.0
 UP BND W_G19_0 1.0
 UP BND P_G19_0 128.88090466151073
 UP BND U_G19_1 1.0
 UP BND V_G19_1 1.0
 UP BND W_G19_1 1.0
 UP BND P_G19_1 128.88090466151073
 UP BND U_G19_2 1.0
 UP BND V_G19_2 1.0
 UP BND W_G19_2 1.0
 UP BND P_G19_2 128.88090466151073
 UP BND U_G19_3 1.0
 UP BND V_G19_3 1.0
 UP BND W_G19_3 1.0
 UP BND P_G19_3 128.88090466151073
 UP BND U_G19_4 1.0
 UP BND V_G19_4 1.0
 UP BND W_G19_4 1.0
 UP BND P_G19_4 128.88090466151073
 UP BND U_G19_5 1.0
 UP BND V_G19_5 1.0
 UP BND W_G19_5 1.0
 UP BND P_G19_5 128.88090466151073
 UP BND U_G19_6 1.0
 UP BND V_G19_6 1.0
 UP BND W_G19_6 1.0
 UP BND P_G19_6 128.88090466151073
 UP BND U_G19_7 1.0
 UP BND V_G19_7 1.0
 UP BND W_G19_7 1.0
 UP BND P_G19_7 128.88090466151073
 UP BND U_G19_8 1.0
 UP BND V_G19_8 1.0
 UP BND W_G19_8 1.0
 UP BND P_G19_8 128.88090466151073
 UP BND U_G19_9 1.0
 UP BND V_G19_9 1.0
 UP BND W_G19_9 1.0
 UP BND P_G19_9 128.88090466151073
 UP BND U_G19_10 1.0
 UP BND V_G19_10 1.0
 UP BND W_G19_10 1.0
 UP BND P_G19_10 128.88090466151073
 UP BND U_G19_11 1.0
 UP BND V_G19_11 1.0
 UP BND W_G19_11 1.0
 UP BND P_G19_11 128.88090466151073
 UP BND U_G19_12 1.0
 UP BND V_G19_12 1.0
 UP BND W_G19_12 1.0
 UP BND P_G19_12 128.88090466151073
 UP BND U_G19_13 1.0
 UP BND V_G19_13 1.0
 UP BND W_G19_13 1.0
 UP BND P_G19_13 128.88090466151073
 UP BND U_G19_14 1.0
 UP BND V_G19_14 1.0
 UP BND W_G19_14 1.0
 UP BND P_G19_14 128.88090466151073
 UP BND U_G19_15 1.0
 UP BND V_G19_15 1.0
 UP BND W_G19_15 1.0
 UP BND P_G19_15 128.88090466151073
 UP BND U_G19_16 1.0
 UP BND V_G19_16 1.0
 UP BND W_G19_16 1.0
 UP BND P_G19_16 128.88090466151073
 UP BND U_G19_17 1.0
 UP BND V_G19_17 1.0
 UP BND W_G19_17 1.0
 UP BND P_G19_17 128.88090466151073
 UP BND U_G19_18 1.0
 UP BND V_G19_18 1.0
 UP BND W_G19_18 1.0
 UP BND P_G19_18 128.88090466151073
 UP BND U_G19_19 1.0
 UP BND V_G19_19 1.0
 UP BND W_G19_19 1.0
 UP BND P_G19_19 128.88090466151073
 UP BND U_G19_20 1.0
 UP BND V_G19_20 1.0
 UP BND W_G19_20 1.0
 UP BND P_G19_20 128.88090466151073
 UP BND U_G19_21 1.0
 UP BND V_G19_21 1.0
 UP BND W_G19_21 1.0
 UP BND P_G19_21 128.88090466151073
 UP BND U_G19_22 1.0
 UP BND V_G19_22 1.0
 UP BND W_G19_22 1.0
 UP BND P_G19_22 128.88090466151073
 UP BND U_G19_23 1.0
 UP BND V_G19_23 1.0
 UP BND W_G19_23 1.0
 UP BND P_G19_23 128.88090466151073
 UP BND U_G20_0 1.0
 UP BND V_G20_0 1.0
 UP BND W_G20_0 1.0
 UP BND P_G20_0 341.2857165724777
 UP BND U_G20_1 1.0
 UP BND V_G20_1 1.0
 UP BND W_G20_1 1.0
 UP BND P_G20_1 341.2857165724777
 UP BND U_G20_2 1.0
 UP BND V_G20_2 1.0
 UP BND W_G20_2 1.0
 UP BND P_G20_2 341.2857165724777
 UP BND U_G20_3 1.0
 UP BND V_G20_3 1.0
 UP BND W_G20_3 1.0
 UP BND P_G20_3 341.2857165724777
 UP BND U_G20_4 1.0
 UP BND V_G20_4 1.0
 UP BND W_G20_4 1.0
 UP BND P_G20_4 341.2857165724777
 UP BND U_G20_5 1.0
 UP BND V_G20_5 1.0
 UP BND W_G20_5 1.0
 UP BND P_G20_5 341.2857165724777
 UP BND U_G20_6 1.0
 UP BND V_G20_6 1.0
 UP BND W_G20_6 1.0
 UP BND P_G20_6 341.2857165724777
 UP BND U_G20_7 1.0
 UP BND V_G20_7 1.0
 UP BND W_G20_7 1.0
 UP BND P_G20_7 341.2857165724777
 UP BND U_G20_8 1.0
 UP BND V_G20_8 1.0
 UP BND W_G20_8 1.0
 UP BND P_G20_8 341.2857165724777
 UP BND U_G20_9 1.0
 UP BND V_G20_9 1.0
 UP BND W_G20_9 1.0
 UP BND P_G20_9 341.2857165724777
 UP BND U_G20_10 1.0
 UP BND V_G20_10 1.0
 UP BND W_G20_10 1.0
 UP BND P_G20_10 341.2857165724777
 UP BND U_G20_11 1.0
 UP BND V_G20_11 1.0
 UP BND W_G20_11 1.0
 UP BND P_G20_11 341.2857165724777
 UP BND U_G20_12 1.0
 UP BND V_G20_12 1.0
 UP BND W_G20_12 1.0
 UP BND P_G20_12 341.2857165724777
 UP BND U_G20_13 1.0
 UP BND V_G20_13 1.0
 UP BND W_G20_13 1.0
 UP BND P_G20_13 341.2857165724777
 UP BND U_G20_14 1.0
 UP BND V_G20_14 1.0
 UP BND W_G20_14 1.0
 UP BND P_G20_14 341.2857165724777
 UP BND U_G20_15 1.0
 UP BND V_G20_15 1.0
 UP BND W_G20_15 1.0
 UP BND P_G20_15 341.2857165724777
 UP BND U_G20_16 1.0
 UP BND V_G20_16 1.0
 UP BND W_G20_16 1.0
 UP BND P_G20_16 341.2857165724777
 UP BND U_G20_17 1.0
 UP BND V_G20_17 1.0
 UP BND W_G20_17 1.0
 UP BND P_G20_17 341.2857165724777
 UP BND U_G20_18 1.0
 UP BND V_G20_18 1.0
 UP BND W_G20_18 1.0
 UP BND P_G20_18 341.2857165724777
 UP BND U_G20_19 1.0
 UP BND V_G20_19 1.0
 UP BND W_G20_19 1.0
 UP BND P_G20_19 341.2857165724777
 UP BND U_G20_20 1.0
 UP BND V_G20_20 1.0
 UP BND W_G20_20 1.0
 UP BND P_G20_20 341.2857165724777
 UP BND U_G20_21 1.0
 UP BND V_G20_21 1.0
 UP BND W_G20_21 1.0
 UP BND P_G20_21 341.2857165724777
 UP BND U_G20_22 1.0
 UP BND V_G20_22 1.0
 UP BND W_G20_22 1.0
 UP BND P_G20_22 341.2857165724777
 UP BND U_G20_23 1.0
 UP BND V_G20_23 1.0
 UP BND W_G20_23 1.0
 UP BND P_G20_23 341.2857165724777
 UP BND U_G21_0 1.0
 UP BND V_G21_0 1.0
 UP BND W_G21_0 1.0
 UP BND P_G21_0 286.21590213139416
 UP BND U_G21_1 1.0
 UP BND V_G21_1 1.0
 UP BND W_G21_1 1.0
 UP BND P_G21_1 286.21590213139416
 UP BND U_G21_2 1.0
 UP BND V_G21_2 1.0
 UP BND W_G21_2 1.0
 UP BND P_G21_2 286.21590213139416
 UP BND U_G21_3 1.0
 UP BND V_G21_3 1.0
 UP BND W_G21_3 1.0
 UP BND P_G21_3 286.21590213139416
 UP BND U_G21_4 1.0
 UP BND V_G21_4 1.0
 UP BND W_G21_4 1.0
 UP BND P_G21_4 286.21590213139416
 UP BND U_G21_5 1.0
 UP BND V_G21_5 1.0
 UP BND W_G21_5 1.0
 UP BND P_G21_5 286.21590213139416
 UP BND U_G21_6 1.0
 UP BND V_G21_6 1.0
 UP BND W_G21_6 1.0
 UP BND P_G21_6 286.21590213139416
 UP BND U_G21_7 1.0
 UP BND V_G21_7 1.0
 UP BND W_G21_7 1.0
 UP BND P_G21_7 286.21590213139416
 UP BND U_G21_8 1.0
 UP BND V_G21_8 1.0
 UP BND W_G21_8 1.0
 UP BND P_G21_8 286.21590213139416
 UP BND U_G21_9 1.0
 UP BND V_G21_9 1.0
 UP BND W_G21_9 1.0
 UP BND P_G21_9 286.21590213139416
 UP BND U_G21_10 1.0
 UP BND V_G21_10 1.0
 UP BND W_G21_10 1.0
 UP BND P_G21_10 286.21590213139416
 UP BND U_G21_11 1.0
 UP BND V_G21_11 1.0
 UP BND W_G21_11 1.0
 UP BND P_G21_11 286.21590213139416
 UP BND U_G21_12 1.0
 UP BND V_G21_12 1.0
 UP BND W_G21_12 1.0
 UP BND P_G21_12 286.21590213139416
 UP BND U_G21_13 1.0
 UP BND V_G21_13 1.0
 UP BND W_G21_13 1.0
 UP BND P_G21_13 286.21590213139416
 UP BND U_G21_14 1.0
 UP BND V_G21_14 1.0
 UP BND W_G21_14 1.0
 UP BND P_G21_14 286.21590213139416
 UP BND U_G21_15 1.0
 UP BND V_G21_15 1.0
 UP BND W_G21_15 1.0
 UP BND P_G21_15 286.21590213139416
 UP BND U_G21_16 1.0
 UP BND V_G21_16 1.0
 UP BND W_G21_16 1.0
 UP BND P_G21_16 286.21590213139416
 UP BND U_G21_17 1.0
 UP BND V_G21_17 1.0
 UP BND W_G21_17 1.0
 UP BND P_G21_17 286.21590213139416
 UP BND U_G21_18 1.0
 UP BND V_G21_18 1.0
 UP BND W_G21_18 1.0
 UP BND P_G21_18 286.21590213139416
 UP BND U_G21_19 1.0
 UP BND V_G21_19 1.0
 UP BND W_G21_19 1.0
 UP BND P_G21_19 286.21590213139416
 UP BND U_G21_20 1.0
 UP BND V_G21_20 1.0
 UP BND W_G21_20 1.0
 UP BND P_G21_20 286.21590213139416
 UP BND U_G21_21 1.0
 UP BND V_G21_21 1.0
 UP BND W_G21_21 1.0
 UP BND P_G21_21 286.21590213139416
 UP BND U_G21_22 1.0
 UP BND V_G21_22 1.0
 UP BND W_G21_22 1.0
 UP BND P_G21_22 286.21590213139416
 UP BND U_G21_23 1.0
 UP BND V_G21_23 1.0
 UP BND W_G21_23 1.0
 UP BND P_G21_23 286.21590213139416
 UP BND U_G22_0 1.0
 UP BND V_G22_0 1.0
 UP BND W_G22_0 1.0
 UP BND P_G22_0 157.23531711663608
 UP BND U_G22_1 1.0
 UP BND V_G22_1 1.0
 UP BND W_G22_1 1.0
 UP BND P_G22_1 157.23531711663608
 UP BND U_G22_2 1.0
 UP BND V_G22_2 1.0
 UP BND W_G22_2 1.0
 UP BND P_G22_2 157.23531711663608
 UP BND U_G22_3 1.0
 UP BND V_G22_3 1.0
 UP BND W_G22_3 1.0
 UP BND P_G22_3 157.23531711663608
 UP BND U_G22_4 1.0
 UP BND V_G22_4 1.0
 UP BND W_G22_4 1.0
 UP BND P_G22_4 157.23531711663608
 UP BND U_G22_5 1.0
 UP BND V_G22_5 1.0
 UP BND W_G22_5 1.0
 UP BND P_G22_5 157.23531711663608
 UP BND U_G22_6 1.0
 UP BND V_G22_6 1.0
 UP BND W_G22_6 1.0
 UP BND P_G22_6 157.23531711663608
 UP BND U_G22_7 1.0
 UP BND V_G22_7 1.0
 UP BND W_G22_7 1.0
 UP BND P_G22_7 157.23531711663608
 UP BND U_G22_8 1.0
 UP BND V_G22_8 1.0
 UP BND W_G22_8 1.0
 UP BND P_G22_8 157.23531711663608
 UP BND U_G22_9 1.0
 UP BND V_G22_9 1.0
 UP BND W_G22_9 1.0
 UP BND P_G22_9 157.23531711663608
 UP BND U_G22_10 1.0
 UP BND V_G22_10 1.0
 UP BND W_G22_10 1.0
 UP BND P_G22_10 157.23531711663608
 UP BND U_G22_11 1.0
 UP BND V_G22_11 1.0
 UP BND W_G22_11 1.0
 UP BND P_G22_11 157.23531711663608
 UP BND U_G22_12 1.0
 UP BND V_G22_12 1.0
 UP BND W_G22_12 1.0
 UP BND P_G22_12 157.23531711663608
 UP BND U_G22_13 1.0
 UP BND V_G22_13 1.0
 UP BND W_G22_13 1.0
 UP BND P_G22_13 157.23531711663608
 UP BND U_G22_14 1.0
 UP BND V_G22_14 1.0
 UP BND W_G22_14 1.0
 UP BND P_G22_14 157.23531711663608
 UP BND U_G22_15 1.0
 UP BND V_G22_15 1.0
 UP BND W_G22_15 1.0
 UP BND P_G22_15 157.23531711663608
 UP BND U_G22_16 1.0
 UP BND V_G22_16 1.0
 UP BND W_G22_16 1.0
 UP BND P_G22_16 157.23531711663608
 UP BND U_G22_17 1.0
 UP BND V_G22_17 1.0
 UP BND W_G22_17 1.0
 UP BND P_G22_17 157.23531711663608
 UP BND U_G22_18 1.0
 UP BND V_G22_18 1.0
 UP BND W_G22_18 1.0
 UP BND P_G22_18 157.23531711663608
 UP BND U_G22_19 1.0
 UP BND V_G22_19 1.0
 UP BND W_G22_19 1.0
 UP BND P_G22_19 157.23531711663608
 UP BND U_G22_20 1.0
 UP BND V_G22_20 1.0
 UP BND W_G22_20 1.0
 UP BND P_G22_20 157.23531711663608
 UP BND U_G22_21 1.0
 UP BND V_G22_21 1.0
 UP BND W_G22_21 1.0
 UP BND P_G22_21 157.23531711663608
 UP BND U_G22_22 1.0
 UP BND V_G22_22 1.0
 UP BND W_G22_22 1.0
 UP BND P_G22_22 157.23531711663608
 UP BND U_G22_23 1.0
 UP BND V_G22_23 1.0
 UP BND W_G22_23 1.0
 UP BND P_G22_23 157.23531711663608
 UP BND U_G23_0 1.0
 UP BND V_G23_0 1.0
 UP BND W_G23_0 1.0
 UP BND P_G23_0 52.9680918622841
 UP BND U_G23_1 1.0
 UP BND V_G23_1 1.0
 UP BND W_G23_1 1.0
 UP BND P_G23_1 52.9680918622841
 UP BND U_G23_2 1.0
 UP BND V_G23_2 1.0
 UP BND W_G23_2 1.0
 UP BND P_G23_2 52.9680918622841
 UP BND U_G23_3 1.0
 UP BND V_G23_3 1.0
 UP BND W_G23_3 1.0
 UP BND P_G23_3 52.9680918622841
 UP BND U_G23_4 1.0
 UP BND V_G23_4 1.0
 UP BND W_G23_4 1.0
 UP BND P_G23_4 52.9680918622841
 UP BND U_G23_5 1.0
 UP BND V_G23_5 1.0
 UP BND W_G23_5 1.0
 UP BND P_G23_5 52.9680918622841
 UP BND U_G23_6 1.0
 UP BND V_G23_6 1.0
 UP BND W_G23_6 1.0
 UP BND P_G23_6 52.9680918622841
 UP BND U_G23_7 1.0
 UP BND V_G23_7 1.0
 UP BND W_G23_7 1.0
 UP BND P_G23_7 52.9680918622841
 UP BND U_G23_8 1.0
 UP BND V_G23_8 1.0
 UP BND W_G23_8 1.0
 UP BND P_G23_8 52.9680918622841
 UP BND U_G23_9 1.0
 UP BND V_G23_9 1.0
 UP BND W_G23_9 1.0
 UP BND P_G23_9 52.9680918622841
 UP BND U_G23_10 1.0
 UP BND V_G23_10 1.0
 UP BND W_G23_10 1.0
 UP BND P_G23_10 52.9680918622841
 UP BND U_G23_11 1.0
 UP BND V_G23_11 1.0
 UP BND W_G23_11 1.0
 UP BND P_G23_11 52.9680918622841
 UP BND U_G23_12 1.0
 UP BND V_G23_12 1.0
 UP BND W_G23_12 1.0
 UP BND P_G23_12 52.9680918622841
 UP BND U_G23_13 1.0
 UP BND V_G23_13 1.0
 UP BND W_G23_13 1.0
 UP BND P_G23_13 52.9680918622841
 UP BND U_G23_14 1.0
 UP BND V_G23_14 1.0
 UP BND W_G23_14 1.0
 UP BND P_G23_14 52.9680918622841
 UP BND U_G23_15 1.0
 UP BND V_G23_15 1.0
 UP BND W_G23_15 1.0
 UP BND P_G23_15 52.9680918622841
 UP BND U_G23_16 1.0
 UP BND V_G23_16 1.0
 UP BND W_G23_16 1.0
 UP BND P_G23_16 52.9680918622841
 UP BND U_G23_17 1.0
 UP BND V_G23_17 1.0
 UP BND W_G23_17 1.0
 UP BND P_G23_17 52.9680918622841
 UP BND U_G23_18 1.0
 UP BND V_G23_18 1.0
 UP BND W_G23_18 1.0
 UP BND P_G23_18 52.9680918622841
 UP BND U_G23_19 1.0
 UP BND V_G23_19 1.0
 UP BND W_G23_19 1.0
 UP BND P_G23_19 52.9680918622841
 UP BND U_G23_20 1.0
 UP BND V_G23_20 1.0
 UP BND W_G23_20 1.0
 UP BND P_G23_20 52.9680918622841
 UP BND U_G23_21 1.0
 UP BND V_G23_21 1.0
 UP BND W_G23_21 1.0
 UP BND P_G23_21 52.9680918622841
 UP BND U_G23_22 1.0
 UP BND V_G23_22 1.0
 UP BND W_G23_22 1.0
 UP BND P_G23_22 52.9680918622841
 UP BND U_G23_23 1.0
 UP BND V_G23_23 1.0
 UP BND W_G23_23 1.0
 UP BND P_G23_23 52.9680918622841
 UP BND U_G24_0 1.0
 UP BND V_G24_0 1.0
 UP BND W_G24_0 1.0
 UP BND P_G24_0 228.10581112726166
 UP BND U_G24_1 1.0
 UP BND V_G24_1 1.0
 UP BND W_G24_1 1.0
 UP BND P_G24_1 228.10581112726166
 UP BND U_G24_2 1.0
 UP BND V_G24_2 1.0
 UP BND W_G24_2 1.0
 UP BND P_G24_2 228.10581112726166
 UP BND U_G24_3 1.0
 UP BND V_G24_3 1.0
 UP BND W_G24_3 1.0
 UP BND P_G24_3 228.10581112726166
 UP BND U_G24_4 1.0
 UP BND V_G24_4 1.0
 UP BND W_G24_4 1.0
 UP BND P_G24_4 228.10581112726166
 UP BND U_G24_5 1.0
 UP BND V_G24_5 1.0
 UP BND W_G24_5 1.0
 UP BND P_G24_5 228.10581112726166
 UP BND U_G24_6 1.0
 UP BND V_G24_6 1.0
 UP BND W_G24_6 1.0
 UP BND P_G24_6 228.10581112726166
 UP BND U_G24_7 1.0
 UP BND V_G24_7 1.0
 UP BND W_G24_7 1.0
 UP BND P_G24_7 228.10581112726166
 UP BND U_G24_8 1.0
 UP BND V_G24_8 1.0
 UP BND W_G24_8 1.0
 UP BND P_G24_8 228.10581112726166
 UP BND U_G24_9 1.0
 UP BND V_G24_9 1.0
 UP BND W_G24_9 1.0
 UP BND P_G24_9 228.10581112726166
 UP BND U_G24_10 1.0
 UP BND V_G24_10 1.0
 UP BND W_G24_10 1.0
 UP BND P_G24_10 228.10581112726166
 UP BND U_G24_11 1.0
 UP BND V_G24_11 1.0
 UP BND W_G24_11 1.0
 UP BND P_G24_11 228.10581112726166
 UP BND U_G24_12 1.0
 UP BND V_G24_12 1.0
 UP BND W_G24_12 1.0
 UP BND P_G24_12 228.10581112726166
 UP BND U_G24_13 1.0
 UP BND V_G24_13 1.0
 UP BND W_G24_13 1.0
 UP BND P_G24_13 228.10581112726166
 UP BND U_G24_14 1.0
 UP BND V_G24_14 1.0
 UP BND W_G24_14 1.0
 UP BND P_G24_14 228.10581112726166
 UP BND U_G24_15 1.0
 UP BND V_G24_15 1.0
 UP BND W_G24_15 1.0
 UP BND P_G24_15 228.10581112726166
 UP BND U_G24_16 1.0
 UP BND V_G24_16 1.0
 UP BND W_G24_16 1.0
 UP BND P_G24_16 228.10581112726166
 UP BND U_G24_17 1.0
 UP BND V_G24_17 1.0
 UP BND W_G24_17 1.0
 UP BND P_G24_17 228.10581112726166
 UP BND U_G24_18 1.0
 UP BND V_G24_18 1.0
 UP BND W_G24_18 1.0
 UP BND P_G24_18 228.10581112726166
 UP BND U_G24_19 1.0
 UP BND V_G24_19 1.0
 UP BND W_G24_19 1.0
 UP BND P_G24_19 228.10581112726166
 UP BND U_G24_20 1.0
 UP BND V_G24_20 1.0
 UP BND W_G24_20 1.0
 UP BND P_G24_20 228.10581112726166
 UP BND U_G24_21 1.0
 UP BND V_G24_21 1.0
 UP BND W_G24_21 1.0
 UP BND P_G24_21 228.10581112726166
 UP BND U_G24_22 1.0
 UP BND V_G24_22 1.0
 UP BND W_G24_22 1.0
 UP BND P_G24_22 228.10581112726166
 UP BND U_G24_23 1.0
 UP BND V_G24_23 1.0
 UP BND W_G24_23 1.0
 UP BND P_G24_23 228.10581112726166
 UP BND U_G25_0 1.0
 UP BND V_G25_0 1.0
 UP BND W_G25_0 1.0
 UP BND P_G25_0 86.54847799453036
 UP BND U_G25_1 1.0
 UP BND V_G25_1 1.0
 UP BND W_G25_1 1.0
 UP BND P_G25_1 86.54847799453036
 UP BND U_G25_2 1.0
 UP BND V_G25_2 1.0
 UP BND W_G25_2 1.0
 UP BND P_G25_2 86.54847799453036
 UP BND U_G25_3 1.0
 UP BND V_G25_3 1.0
 UP BND W_G25_3 1.0
 UP BND P_G25_3 86.54847799453036
 UP BND U_G25_4 1.0
 UP BND V_G25_4 1.0
 UP BND W_G25_4 1.0
 UP BND P_G25_4 86.54847799453036
 UP BND U_G25_5 1.0
 UP BND V_G25_5 1.0
 UP BND W_G25_5 1.0
 UP BND P_G25_5 86.54847799453036
 UP BND U_G25_6 1.0
 UP BND V_G25_6 1.0
 UP BND W_G25_6 1.0
 UP BND P_G25_6 86.54847799453036
 UP BND U_G25_7 1.0
 UP BND V_G25_7 1.0
 UP BND W_G25_7 1.0
 UP BND P_G25_7 86.54847799453036
 UP BND U_G25_8 1.0
 UP BND V_G25_8 1.0
 UP BND W_G25_8 1.0
 UP BND P_G25_8 86.54847799453036
 UP BND U_G25_9 1.0
 UP BND V_G25_9 1.0
 UP BND W_G25_9 1.0
 UP BND P_G25_9 86.54847799453036
 UP BND U_G25_10 1.0
 UP BND V_G25_10 1.0
 UP BND W_G25_10 1.0
 UP BND P_G25_10 86.54847799453036
 UP BND U_G25_11 1.0
 UP BND V_G25_11 1.0
 UP BND W_G25_11 1.0
 UP BND P_G25_11 86.54847799453036
 UP BND U_G25_12 1.0
 UP BND V_G25_12 1.0
 UP BND W_G25_12 1.0
 UP BND P_G25_12 86.54847799453036
 UP BND U_G25_13 1.0
 UP BND V_G25_13 1.0
 UP BND W_G25_13 1.0
 UP BND P_G25_13 86.54847799453036
 UP BND U_G25_14 1.0
 UP BND V_G25_14 1.0
 UP BND W_G25_14 1.0
 UP BND P_G25_14 86.54847799453036
 UP BND U_G25_15 1.0
 UP BND V_G25_15 1.0
 UP BND W_G25_15 1.0
 UP BND P_G25_15 86.54847799453036
 UP BND U_G25_16 1.0
 UP BND V_G25_16 1.0
 UP BND W_G25_16 1.0
 UP BND P_G25_16 86.54847799453036
 UP BND U_G25_17 1.0
 UP BND V_G25_17 1.0
 UP BND W_G25_17 1.0
 UP BND P_G25_17 86.54847799453036
 UP BND U_G25_18 1.0
 UP BND V_G25_18 1.0
 UP BND W_G25_18 1.0
 UP BND P_G25_18 86.54847799453036
 UP BND U_G25_19 1.0
 UP BND V_G25_19 1.0
 UP BND W_G25_19 1.0
 UP BND P_G25_19 86.54847799453036
 UP BND U_G25_20 1.0
 UP BND V_G25_20 1.0
 UP BND W_G25_20 1.0
 UP BND P_G25_20 86.54847799453036
 UP BND U_G25_21 1.0
 UP BND V_G25_21 1.0
 UP BND W_G25_21 1.0
 UP BND P_G25_21 86.54847799453036
 UP BND U_G25_22 1.0
 UP BND V_G25_22 1.0
 UP BND W_G25_22 1.0
 UP BND P_G25_22 86.54847799453036
 UP BND U_G25_23 1.0
 UP BND V_G25_23 1.0
 UP BND W_G25_23 1.0
 UP BND P_G25_23 86.54847799453036
 UP BND U_G26_0 1.0
 UP BND V_G26_0 1.0
 UP BND W_G26_0 1.0
 UP BND P_G26_0 104.93785307033771
 UP BND U_G26_1 1.0
 UP BND V_G26_1 1.0
 UP BND W_G26_1 1.0
 UP BND P_G26_1 104.93785307033771
 UP BND U_G26_2 1.0
 UP BND V_G26_2 1.0
 UP BND W_G26_2 1.0
 UP BND P_G26_2 104.93785307033771
 UP BND U_G26_3 1.0
 UP BND V_G26_3 1.0
 UP BND W_G26_3 1.0
 UP BND P_G26_3 104.93785307033771
 UP BND U_G26_4 1.0
 UP BND V_G26_4 1.0
 UP BND W_G26_4 1.0
 UP BND P_G26_4 104.93785307033771
 UP BND U_G26_5 1.0
 UP BND V_G26_5 1.0
 UP BND W_G26_5 1.0
 UP BND P_G26_5 104.93785307033771
 UP BND U_G26_6 1.0
 UP BND V_G26_6 1.0
 UP BND W_G26_6 1.0
 UP BND P_G26_6 104.93785307033771
 UP BND U_G26_7 1.0
 UP BND V_G26_7 1.0
 UP BND W_G26_7 1.0
 UP BND P_G26_7 104.93785307033771
 UP BND U_G26_8 1.0
 UP BND V_G26_8 1.0
 UP BND W_G26_8 1.0
 UP BND P_G26_8 104.93785307033771
 UP BND U_G26_9 1.0
 UP BND V_G26_9 1.0
 UP BND W_G26_9 1.0
 UP BND P_G26_9 104.93785307033771
 UP BND U_G26_10 1.0
 UP BND V_G26_10 1.0
 UP BND W_G26_10 1.0
 UP BND P_G26_10 104.93785307033771
 UP BND U_G26_11 1.0
 UP BND V_G26_11 1.0
 UP BND W_G26_11 1.0
 UP BND P_G26_11 104.93785307033771
 UP BND U_G26_12 1.0
 UP BND V_G26_12 1.0
 UP BND W_G26_12 1.0
 UP BND P_G26_12 104.93785307033771
 UP BND U_G26_13 1.0
 UP BND V_G26_13 1.0
 UP BND W_G26_13 1.0
 UP BND P_G26_13 104.93785307033771
 UP BND U_G26_14 1.0
 UP BND V_G26_14 1.0
 UP BND W_G26_14 1.0
 UP BND P_G26_14 104.93785307033771
 UP BND U_G26_15 1.0
 UP BND V_G26_15 1.0
 UP BND W_G26_15 1.0
 UP BND P_G26_15 104.93785307033771
 UP BND U_G26_16 1.0
 UP BND V_G26_16 1.0
 UP BND W_G26_16 1.0
 UP BND P_G26_16 104.93785307033771
 UP BND U_G26_17 1.0
 UP BND V_G26_17 1.0
 UP BND W_G26_17 1.0
 UP BND P_G26_17 104.93785307033771
 UP BND U_G26_18 1.0
 UP BND V_G26_18 1.0
 UP BND W_G26_18 1.0
 UP BND P_G26_18 104.93785307033771
 UP BND U_G26_19 1.0
 UP BND V_G26_19 1.0
 UP BND W_G26_19 1.0
 UP BND P_G26_19 104.93785307033771
 UP BND U_G26_20 1.0
 UP BND V_G26_20 1.0
 UP BND W_G26_20 1.0
 UP BND P_G26_20 104.93785307033771
 UP BND U_G26_21 1.0
 UP BND V_G26_21 1.0
 UP BND W_G26_21 1.0
 UP BND P_G26_21 104.93785307033771
 UP BND U_G26_22 1.0
 UP BND V_G26_22 1.0
 UP BND W_G26_22 1.0
 UP BND P_G26_22 104.93785307033771
 UP BND U_G26_23 1.0
 UP BND V_G26_23 1.0
 UP BND W_G26_23 1.0
 UP BND P_G26_23 104.93785307033771
 UP BND U_G27_0 1.0
 UP BND V_G27_0 1.0
 UP BND W_G27_0 1.0
 UP BND P_G27_0 343.1953745538875
 UP BND U_G27_1 1.0
 UP BND V_G27_1 1.0
 UP BND W_G27_1 1.0
 UP BND P_G27_1 343.1953745538875
 UP BND U_G27_2 1.0
 UP BND V_G27_2 1.0
 UP BND W_G27_2 1.0
 UP BND P_G27_2 343.1953745538875
 UP BND U_G27_3 1.0
 UP BND V_G27_3 1.0
 UP BND W_G27_3 1.0
 UP BND P_G27_3 343.1953745538875
 UP BND U_G27_4 1.0
 UP BND V_G27_4 1.0
 UP BND W_G27_4 1.0
 UP BND P_G27_4 343.1953745538875
 UP BND U_G27_5 1.0
 UP BND V_G27_5 1.0
 UP BND W_G27_5 1.0
 UP BND P_G27_5 343.1953745538875
 UP BND U_G27_6 1.0
 UP BND V_G27_6 1.0
 UP BND W_G27_6 1.0
 UP BND P_G27_6 343.1953745538875
 UP BND U_G27_7 1.0
 UP BND V_G27_7 1.0
 UP BND W_G27_7 1.0
 UP BND P_G27_7 343.1953745538875
 UP BND U_G27_8 1.0
 UP BND V_G27_8 1.0
 UP BND W_G27_8 1.0
 UP BND P_G27_8 343.1953745538875
 UP BND U_G27_9 1.0
 UP BND V_G27_9 1.0
 UP BND W_G27_9 1.0
 UP BND P_G27_9 343.1953745538875
 UP BND U_G27_10 1.0
 UP BND V_G27_10 1.0
 UP BND W_G27_10 1.0
 UP BND P_G27_10 343.1953745538875
 UP BND U_G27_11 1.0
 UP BND V_G27_11 1.0
 UP BND W_G27_11 1.0
 UP BND P_G27_11 343.1953745538875
 UP BND U_G27_12 1.0
 UP BND V_G27_12 1.0
 UP BND W_G27_12 1.0
 UP BND P_G27_12 343.1953745538875
 UP BND U_G27_13 1.0
 UP BND V_G27_13 1.0
 UP BND W_G27_13 1.0
 UP BND P_G27_13 343.1953745538875
 UP BND U_G27_14 1.0
 UP BND V_G27_14 1.0
 UP BND W_G27_14 1.0
 UP BND P_G27_14 343.1953745538875
 UP BND U_G27_15 1.0
 UP BND V_G27_15 1.0
 UP BND W_G27_15 1.0
 UP BND P_G27_15 343.1953745538875
 UP BND U_G27_16 1.0
 UP BND V_G27_16 1.0
 UP BND W_G27_16 1.0
 UP BND P_G27_16 343.1953745538875
 UP BND U_G27_17 1.0
 UP BND V_G27_17 1.0
 UP BND W_G27_17 1.0
 UP BND P_G27_17 343.1953745538875
 UP BND U_G27_18 1.0
 UP BND V_G27_18 1.0
 UP BND W_G27_18 1.0
 UP BND P_G27_18 343.1953745538875
 UP BND U_G27_19 1.0
 UP BND V_G27_19 1.0
 UP BND W_G27_19 1.0
 UP BND P_G27_19 343.1953745538875
 UP BND U_G27_20 1.0
 UP BND V_G27_20 1.0
 UP BND W_G27_20 1.0
 UP BND P_G27_20 343.1953745538875
 UP BND U_G27_21 1.0
 UP BND V_G27_21 1.0
 UP BND W_G27_21 1.0
 UP BND P_G27_21 343.1953745538875
 UP BND U_G27_22 1.0
 UP BND V_G27_22 1.0
 UP BND W_G27_22 1.0
 UP BND P_G27_22 343.1953745538875
 UP BND U_G27_23 1.0
 UP BND V_G27_23 1.0
 UP BND W_G27_23 1.0
 UP BND P_G27_23 343.1953745538875
 UP BND U_G28_0 1.0
 UP BND V_G28_0 1.0
 UP BND W_G28_0 1.0
 UP BND P_G28_0 72.8629693680466
 UP BND U_G28_1 1.0
 UP BND V_G28_1 1.0
 UP BND W_G28_1 1.0
 UP BND P_G28_1 72.8629693680466
 UP BND U_G28_2 1.0
 UP BND V_G28_2 1.0
 UP BND W_G28_2 1.0
 UP BND P_G28_2 72.8629693680466
 UP BND U_G28_3 1.0
 UP BND V_G28_3 1.0
 UP BND W_G28_3 1.0
 UP BND P_G28_3 72.8629693680466
 UP BND U_G28_4 1.0
 UP BND V_G28_4 1.0
 UP BND W_G28_4 1.0
 UP BND P_G28_4 72.8629693680466
 UP BND U_G28_5 1.0
 UP BND V_G28_5 1.0
 UP BND W_G28_5 1.0
 UP BND P_G28_5 72.8629693680466
 UP BND U_G28_6 1.0
 UP BND V_G28_6 1.0
 UP BND W_G28_6 1.0
 UP BND P_G28_6 72.8629693680466
 UP BND U_G28_7 1.0
 UP BND V_G28_7 1.0
 UP BND W_G28_7 1.0
 UP BND P_G28_7 72.8629693680466
 UP BND U_G28_8 1.0
 UP BND V_G28_8 1.0
 UP BND W_G28_8 1.0
 UP BND P_G28_8 72.8629693680466
 UP BND U_G28_9 1.0
 UP BND V_G28_9 1.0
 UP BND W_G28_9 1.0
 UP BND P_G28_9 72.8629693680466
 UP BND U_G28_10 1.0
 UP BND V_G28_10 1.0
 UP BND W_G28_10 1.0
 UP BND P_G28_10 72.8629693680466
 UP BND U_G28_11 1.0
 UP BND V_G28_11 1.0
 UP BND W_G28_11 1.0
 UP BND P_G28_11 72.8629693680466
 UP BND U_G28_12 1.0
 UP BND V_G28_12 1.0
 UP BND W_G28_12 1.0
 UP BND P_G28_12 72.8629693680466
 UP BND U_G28_13 1.0
 UP BND V_G28_13 1.0
 UP BND W_G28_13 1.0
 UP BND P_G28_13 72.8629693680466
 UP BND U_G28_14 1.0
 UP BND V_G28_14 1.0
 UP BND W_G28_14 1.0
 UP BND P_G28_14 72.8629693680466
 UP BND U_G28_15 1.0
 UP BND V_G28_15 1.0
 UP BND W_G28_15 1.0
 UP BND P_G28_15 72.8629693680466
 UP BND U_G28_16 1.0
 UP BND V_G28_16 1.0
 UP BND W_G28_16 1.0
 UP BND P_G28_16 72.8629693680466
 UP BND U_G28_17 1.0
 UP BND V_G28_17 1.0
 UP BND W_G28_17 1.0
 UP BND P_G28_17 72.8629693680466
 UP BND U_G28_18 1.0
 UP BND V_G28_18 1.0
 UP BND W_G28_18 1.0
 UP BND P_G28_18 72.8629693680466
 UP BND U_G28_19 1.0
 UP BND V_G28_19 1.0
 UP BND W_G28_19 1.0
 UP BND P_G28_19 72.8629693680466
 UP BND U_G28_20 1.0
 UP BND V_G28_20 1.0
 UP BND W_G28_20 1.0
 UP BND P_G28_20 72.8629693680466
 UP BND U_G28_21 1.0
 UP BND V_G28_21 1.0
 UP BND W_G28_21 1.0
 UP BND P_G28_21 72.8629693680466
 UP BND U_G28_22 1.0
 UP BND V_G28_22 1.0
 UP BND W_G28_22 1.0
 UP BND P_G28_22 72.8629693680466
 UP BND U_G28_23 1.0
 UP BND V_G28_23 1.0
 UP BND W_G28_23 1.0
 UP BND P_G28_23 72.8629693680466
 UP BND U_G29_0 1.0
 UP BND V_G29_0 1.0
 UP BND W_G29_0 1.0
 UP BND P_G29_0 227.06096913215717
 UP BND U_G29_1 1.0
 UP BND V_G29_1 1.0
 UP BND W_G29_1 1.0
 UP BND P_G29_1 227.06096913215717
 UP BND U_G29_2 1.0
 UP BND V_G29_2 1.0
 UP BND W_G29_2 1.0
 UP BND P_G29_2 227.06096913215717
 UP BND U_G29_3 1.0
 UP BND V_G29_3 1.0
 UP BND W_G29_3 1.0
 UP BND P_G29_3 227.06096913215717
 UP BND U_G29_4 1.0
 UP BND V_G29_4 1.0
 UP BND W_G29_4 1.0
 UP BND P_G29_4 227.06096913215717
 UP BND U_G29_5 1.0
 UP BND V_G29_5 1.0
 UP BND W_G29_5 1.0
 UP BND P_G29_5 227.06096913215717
 UP BND U_G29_6 1.0
 UP BND V_G29_6 1.0
 UP BND W_G29_6 1.0
 UP BND P_G29_6 227.06096913215717
 UP BND U_G29_7 1.0
 UP BND V_G29_7 1.0
 UP BND W_G29_7 1.0
 UP BND P_G29_7 227.06096913215717
 UP BND U_G29_8 1.0
 UP BND V_G29_8 1.0
 UP BND W_G29_8 1.0
 UP BND P_G29_8 227.06096913215717
 UP BND U_G29_9 1.0
 UP BND V_G29_9 1.0
 UP BND W_G29_9 1.0
 UP BND P_G29_9 227.06096913215717
 UP BND U_G29_10 1.0
 UP BND V_G29_10 1.0
 UP BND W_G29_10 1.0
 UP BND P_G29_10 227.06096913215717
 UP BND U_G29_11 1.0
 UP BND V_G29_11 1.0
 UP BND W_G29_11 1.0
 UP BND P_G29_11 227.06096913215717
 UP BND U_G29_12 1.0
 UP BND V_G29_12 1.0
 UP BND W_G29_12 1.0
 UP BND P_G29_12 227.06096913215717
 UP BND U_G29_13 1.0
 UP BND V_G29_13 1.0
 UP BND W_G29_13 1.0
 UP BND P_G29_13 227.06096913215717
 UP BND U_G29_14 1.0
 UP BND V_G29_14 1.0
 UP BND W_G29_14 1.0
 UP BND P_G29_14 227.06096913215717
 UP BND U_G29_15 1.0
 UP BND V_G29_15 1.0
 UP BND W_G29_15 1.0
 UP BND P_G29_15 227.06096913215717
 UP BND U_G29_16 1.0
 UP BND V_G29_16 1.0
 UP BND W_G29_16 1.0
 UP BND P_G29_16 227.06096913215717
 UP BND U_G29_17 1.0
 UP BND V_G29_17 1.0
 UP BND W_G29_17 1.0
 UP BND P_G29_17 227.06096913215717
 UP BND U_G29_18 1.0
 UP BND V_G29_18 1.0
 UP BND W_G29_18 1.0
 UP BND P_G29_18 227.06096913215717
 UP BND U_G29_19 1.0
 UP BND V_G29_19 1.0
 UP BND W_G29_19 1.0
 UP BND P_G29_19 227.06096913215717
 UP BND U_G29_20 1.0
 UP BND V_G29_20 1.0
 UP BND W_G29_20 1.0
 UP BND P_G29_20 227.06096913215717
 UP BND U_G29_21 1.0
 UP BND V_G29_21 1.0
 UP BND W_G29_21 1.0
 UP BND P_G29_21 227.06096913215717
 UP BND U_G29_22 1.0
 UP BND V_G29_22 1.0
 UP BND W_G29_22 1.0
 UP BND P_G29_22 227.06096913215717
 UP BND U_G29_23 1.0
 UP BND V_G29_23 1.0
 UP BND W_G29_23 1.0
 UP BND P_G29_23 227.06096913215717
ENDATA
