NAME UNLOAD_V3S3B2T12_TIGHT
ROWS
 N  OBJ
 L  LU_V0_S0_2
 L  LU_V0_S1_2
 L  LU_V0_S2_2
 L  LU_V0_S0_3
 L  LU_V0_S1_3
 L  LU_V0_S2_3
 L  LU_V0_S0_4
 L  LU_V0_S1_4
 L  LU_V0_S2_4
 L  LU_V0_S0_5
 L  LU_V0_S1_5
 L  LU_V0_S2_5
 L  LU_V0_S0_6
 L  LU_V0_S1_6
 L  LU_V0_S2_6
 L  LU_V0_S0_7
 L  LU_V0_S1_7
 L  LU_V0_S2_7
 L  LU_V0_S0_8
 L  LU_V0_S1_8
 L  LU_V0_S2_8
 L  LU_V0_S0_9
 L  LU_V0_S1_9
 L  LU_V0_S2_9
 L  LU_V0_S0_10
 L  LU_V0_S1_10
 L  LU_V0_S2_10
 L  LU_V0_S0_11
 L  LU_V0_S1_11
 L  LU_V0_S2_11
 E  VOL_V0
 G  DEPT_V0_S0_2
 G  DEPT_V0_S1_2
 G  DEPT_V0_S2_2
 G  DEPT_V0_S0_3
 G  DEPT_V0_S1_3
 G  DEPT_V0_S2_3
 G  DEPT_V0_S0_4
 G  DEPT_V0_S1_4
 G  DEPT_V0_S2_4
 G  DEPT_V0_S0_5
 G  DEPT_V0_S1_5
 G  DEPT_V0_S2_5
 G  DEPT_V0_S0_6
 G  DEPT_V0_S1_6
 G  DEPT_V0_S2_6
 G  DEPT_V0_S0_7
 G  DEPT_V0_S1_7
 G  DEPT_V0_S2_7
 G  DEPT_V0_S0_8
 G  DEPT_V0_S1_8
 G  DEPT_V0_S2_8
 G  DEPT_V0_S0_9
 G  DEPT_V0_S1_9
 G  DEPT_V0_S2_9
 G  DEPT_V0_S0_10
 G  DEPT_V0_S1_10
 G  DEPT_V0_S2_10
 G  DEPT_V0_S0_11
 G  DEPT_V0_S1_11
 G  DEPT_V0_S2_11
 L  LU_V1_S0_0
 L  LU_V1_S1_0
 L  LU_V1_S2_0
 L  LU_V1_S0_1
 L  LU_V1_S1_1
 L  LU_V1_S2_1
 L  LU_V1_S0_2
 L  LU_V1_S1_2
 L  LU_V1_S2_2
 L  LU_V1_S0_3
 L  LU_V1_S1_3
 L  LU_V1_S2_3
 L  LU_V1_S0_4
 L  LU_V1_S1_4
 L  LU_V1_S2_4
 L  LU_V1_S0_5
 L  LU_V1_S1_5
 L  LU_V1_S2_5
 L  LU_V1_S0_6
 L  LU_V1_S1_6
 L  LU_V1_S2_6
 L  LU_V1_S0_7
 L  LU_V1_S1_7
 L  LU_V1_S2_7
 L  LU_V1_S0_8
 L  LU_V1_S1_8
 L  LU_V1_S2_8
 L  LU_V1_S0_9
 L  LU_V1_S1_9
 L  LU_V1_S2_9
 L  LU_V1_S0_10
 L  LU_V1_S1_10
 L  LU_V1_S2_10
 L  LU_V1_S0_11
 L  LU_V1_S1_11
 L  LU_V1_S2_11
 E  VOL_V1
 G  DEPT_V1_S0_0
 G  DEPT_V1_S1_0
 G  DEPT_V1_S2_0
 G  DEPT_V1_S0_1
 G  DEPT_V1_S1_1
 G  DEPT_V1_S2_1
 G  DEPT_V1_S0_2
 G  DEPT_V1_S1_2
 G  DEPT_V1_S2_2
 G  DEPT_V1_S0_3
 G  DEPT_V1_S1_3
 G  DEPT_V1_S2_3
 G  DEPT_V1_S0_4
 G  DEPT_V1_S1_4
 G  DEPT_V1_S2_4
 G  DEPT_V1_S0_5
 G  DEPT_V1_S1_5
 G  DEPT_V1_S2_5
 G  DEPT_V1_S0_6
 G  DEPT_V1_S1_6
 G  DEPT_V1_S2_6
 G  DEPT_V1_S0_7
 G  DEPT_V1_S1_7
 G  DEPT_V1_S2_7
 G  DEPT_V1_S0_8
 G  DEPT_V1_S1_8
 G  DEPT_V1_S2_8
 G  DEPT_V1_S0_9
 G  DEPT_V1_S1_9
 G  DEPT_V1_S2_9
 G  DEPT_V1_S0_10
 G  DEPT_V1_S1_10
 G  DEPT_V1_S2_10
 G  DEPT_V1_S0_11
 G  DEPT_V1_S1_11
 G  DEPT_V1_S2_11
 L  LU_V2_S0_3
 L  LU_V2_S1_3
 L  LU_V2_S2_3
 L  LU_V2_S0_4
 L  LU_V2_S1_4
 L  LU_V2_S2_4
 L  LU_V2_S0_5
 L  LU_V2_S1_5
 L  LU_V2_S2_5
 L  LU_V2_S0_6
 L  LU_V2_S1_6
 L  LU_V2_S2_6
 L  LU_V2_S0_7
 L  LU_V2_S1_7
 L  LU_V2_S2_7
 L  LU_V2_S0_8
 L  LU_V2_S1_8
 L  LU_V2_S2_8
 L  LU_V2_S0_9
 L  LU_V2_S1_9
 L  LU_V2_S2_9
 L  LU_V2_S0_10
 L  LU_V2_S1_10
 L  LU_V2_S2_10
 L  LU_V2_S0_11
 L  LU_V2_S1_11
 L  LU_V2_S2_11
 E  VOL_V2
 G  DEPT_V2_S0_3
 G  DEPT_V2_S1_3
 G  DEPT_V2_S2_3
 G  DEPT_V2_S0_4
 G  DEPT_V2_S1_4
 G  DEPT_V2_S2_4
 G  DEPT_V2_S0_5
 G  DEPT_V2_S1_5
 G  DEPT_V2_S2_5
 G  DEPT_V2_S0_6
 G  DEPT_V2_S1_6
 G  DEPT_V2_S2_6
 G  DEPT_V2_S0_7
 G  DEPT_V2_S1_7
 G  DEPT_V2_S2_7
 G  DEPT_V2_S0_8
 G  DEPT_V2_S1_8
 G  DEPT_V2_S2_8
 G  DEPT_V2_S0_9
 G  DEPT_V2_S1_9
 G  DEPT_V2_S2_9
 G  DEPT_V2_S0_10
 G  DEPT_V2_S1_10
 G  DEPT_V2_S2_10
 G  DEPT_V2_S0_11
 G  DEPT_V2_S1_11
 G  DEPT_V2_S2_11
 E  SB_S0_A_0
 E  SB_S0_A_1
 E  SB_S0_A_2
 E  SB_S0_A_3
 E  SB_S0_A_4
 E  SB_S0_A_5
 E  SB_S0_A_6
 E  SB_S0_A_7
 E  SB_S0_A_8
 E  SB_S0_A_9
 E  SB_S0_A_10
 E  SB_S0_A_11
 E  SB_S0_B_0
 E  SB_S0_B_1
 E  SB_S0_B_2
 E  SB_S0_B_3
 E  SB_S0_B_4
 E  SB_S0_B_5
 E  SB_S0_B_6
 E  SB_S0_B_7
 E  SB_S0_B_8
 E  SB_S0_B_9
 E  SB_S0_B_10
 E  SB_S0_B_11
 L  SCAP_S0_0
 L  SCAP_S0_1
 L  SCAP_S0_2
 L  SCAP_S0_3
 L  SCAP_S0_4
 L  SCAP_S0_5
 L  SCAP_S0_6
 L  SCAP_S0_7
 L  SCAP_S0_8
 L  SCAP_S0_9
 L  SCAP_S0_10
 L  SCAP_S0_11
 E  SB_S1_A_0
 E  SB_S1_A_1
 E  SB_S1_A_2
 E  SB_S1_A_3
 E  SB_S1_A_4
 E  SB_S1_A_5
 E  SB_S1_A_6
 E  SB_S1_A_7
 E  SB_S1_A_8
 E  SB_S1_A_9
 E  SB_S1_A_10
 E  SB_S1_A_11
 E  SB_S1_B_0
 E  SB_S1_B_1
 E  SB_S1_B_2
 E  SB_S1_B_3
 E  SB_S1_B_4
 E  SB_S1_B_5
 E  SB_S1_B_6
 E  SB_S1_B_7
 E  SB_S1_B_8
 E  SB_S1_B_9
 E  SB_S1_B_10
 E  SB_S1_B_11
 L  SCAP_S1_0
 L  SCAP_S1_1
 L  SCAP_S1_2
 L  SCAP_S1_3
 L  SCAP_S1_4
 L  SCAP_S1_5
 L  SCAP_S1_6
 L  SCAP_S1_7
 L  SCAP_S1_8
 L  SCAP_S1_9
 L  SCAP_S1_10
 L  SCAP_S1_11
 E  SB_S2_A_0
 E  SB_S2_A_1
 E  SB_S2_A_2
 E  SB_S2_A_3
 E  SB_S2_A_4
 E  SB_S2_A_5
 E  SB_S2_A_6
 E  SB_S2_A_7
 E  SB_S2_A_8
 E  SB_S2_A_9
 E  SB_S2_A_10
 E  SB_S2_A_11
 E  SB_S2_B_0
 E  SB_S2_B_1
 E  SB_S2_B_2
 E  SB_S2_B_3
 E  SB_S2_B_4
 E  SB_S2_B_5
 E  SB_S2_B_6
 E  SB_S2_B_7
 E  SB_S2_B_8
 E  SB_S2_B_9
 E  SB_S2_B_10
 E  SB_S2_B_11
 L  SCAP_S2_0
 L  SCAP_S2_1
 L  SCAP_S2_2
 L  SCAP_S2_3
 L  SCAP_S2_4
 L  SCAP_S2_5
 L  SCAP_S2_6
 L  SCAP_S2_7
 L  SCAP_S2_8
 L  SCAP_S2_9
 L  SCAP_S2_10
 L  SCAP_S2_11
 L  LSB_S0_B0_0
 L  LSB_S0_B0_1
 L  LSB_S0_B0_2
 L  LSB_S0_B0_3
 L  LSB_S0_B0_4
 L  LSB_S0_B0_5
 L  LSB_S0_B0_6
 L  LSB_S0_B0_7
 L  LSB_S0_B0_8
 L  LSB_S0_B0_9
 L  LSB_S0_B0_10
 L  LSB_S0_B0_11
 L  LSB_S0_B1_0
 L  LSB_S0_B1_1
 L  LSB_S0_B1_2
 L  LSB_S0_B1_3
 L  LSB_S0_B1_4
 L  LSB_S0_B1_5
 L  LSB_S0_B1_6
 L  LSB_S0_B1_7
 L  LSB_S0_B1_8
 L  LSB_S0_B1_9
 L  LSB_S0_B1_10
 L  LSB_S0_B1_11
 L  LSB_S1_B0_0
 L  LSB_S1_B0_1
 L  LSB_S1_B0_2
 L  LSB_S1_B0_3
 L  LSB_S1_B0_4
 L  LSB_S1_B0_5
 L  LSB_S1_B0_6
 L  LSB_S1_B0_7
 L  LSB_S1_B0_8
 L  LSB_S1_B0_9
 L  LSB_S1_B0_10
 L  LSB_S1_B0_11
 L  LSB_S1_B1_0
 L  LSB_S1_B1_1
 L  LSB_S1_B1_2
 L  LSB_S1_B1_3
 L  LSB_S1_B1_4
 L  LSB_S1_B1_5
 L  LSB_S1_B1_6
 L  LSB_S1_B1_7
 L  LSB_S1_B1_8
 L  LSB_S1_B1_9
 L  LSB_S1_B1_10
 L  LSB_S1_B1_11
 L  LSB_S2_B0_0
 L  LSB_S2_B0_1
 L  LSB_S2_B0_2
 L  LSB_S2_B0_3
 L  LSB_S2_B0_4
 L  LSB_S2_B0_5
 L  LSB_S2_B0_6
 L  LSB_S2_B0_7
 L  LSB_S2_B0_8
 L  LSB_S2_B0_9
 L  LSB_S2_B0_10
 L  LSB_S2_B0_11
 L  LSB_S2_B1_0
 L  LSB_S2_B1_1
 L  LSB_S2_B1_2
 L  LSB_S2_B1_3
 L  LSB_S2_B1_4
 L  LSB_S2_B1_5
 L  LSB_S2_B1_6
 L  LSB_S2_B1_7
 L  LSB_S2_B1_8
 L  LSB_S2_B1_9
 L  LSB_S2_B1_10
 L  LSB_S2_B1_11
 L  ONEIN_B0_0
 L  ONEIN_B0_1
 L  ONEIN_B0_2
 L  ONEIN_B0_3
 L  ONEIN_B0_4
 L  ONEIN_B0_5
 L  ONEIN_B0_6
 L  ONEIN_B0_7
 L  ONEIN_B0_8
 L  ONEIN_B0_9
 L  ONEIN_B0_10
 L  ONEIN_B0_11
 L  ONEIN_B1_0
 L  ONEIN_B1_1
 L  ONEIN_B1_2
 L  ONEIN_B1_3
 L  ONEIN_B1_4
 L  ONEIN_B1_5
 L  ONEIN_B1_6
 L  ONEIN_B1_7
 L  ONEIN_B1_8
 L  ONEIN_B1_9
 L  ONEIN_B1_10
 L  ONEIN_B1_11
 E  BB_B0_A_0
 E  BB_B0_B_0
 L  BCAP_B0_0
 G  BSLO_B0_0
 L  BSHI_B0_0
 E  BB_B0_A_1
 E  BB_B0_B_1
 L  BCAP_B0_1
 G  BSLO_B0_1
 L  BSHI_B0_1
 E  BB_B0_A_2
 E  BB_B0_B_2
 L  BCAP_B0_2
 G  BSLO_B0_2
 L  BSHI_B0_2
 E  BB_B0_A_3
 E  BB_B0_B_3
 L  BCAP_B0_3
 G  BSLO_B0_3
 L  BSHI_B0_3
 E  BB_B0_A_4
 E  BB_B0_B_4
 L  BCAP_B0_4
 G  BSLO_B0_4
 L  BSHI_B0_4
 E  BB_B0_A_5
 E  BB_B0_B_5
 L  BCAP_B0_5
 G  BSLO_B0_5
 L  BSHI_B0_5
 E  BB_B0_A_6
 E  BB_B0_B_6
 L  BCAP_B0_6
 G  BSLO_B0_6
 L  BSHI_B0_6
 E  BB_B0_A_7
 E  BB_B0_B_7
 L  BCAP_B0_7
 G  BSLO_B0_7
 L  BSHI_B0_7
 E  BB_B0_A_8
 E  BB_B0_B_8
 L  BCAP_B0_8
 G  BSLO_B0_8
 L  BSHI_B0_8
 E  BB_B0_A_9
 E  BB_B0_B_9
 L  BCAP_B0_9
 G  BSLO_B0_9
 L  BSHI_B0_9
 E  BB_B0_A_10
 E  BB_B0_B_10
 L  BCAP_B0_10
 G  BSLO_B0_10
 L  BSHI_B0_10
 E  BB_B0_A_11
 E  BB_B0_B_11
 L  BCAP_B0_11
 G  BSLO_B0_11
 L  BSHI_B0_11
 E  BB_B1_A_0
 E  BB_B1_B_0
 L  BCAP_B1_0
 G  BSLO_B1_0
 L  BSHI_B1_0
 E  BB_B1_A_1
 E  BB_B1_B_1
 L  BCAP_B1_1
 G  BSLO_B1_1
 L  BSHI_B1_1
 E  BB_B1_A_2
 E  BB_B1_B_2
 L  BCAP_B1_2
 G  BSLO_B1_2
 L  BSHI_B1_2
 E  BB_B1_A_3
 E  BB_B1_B_3
 L  BCAP_B1_3
 G  BSLO_B1_3
 L  BSHI_B1_3
 E  BB_B1_A_4
 E  BB_B1_B_4
 L  BCAP_B1_4
 G  BSLO_B1_4
 L  BSHI_B1_4
 E  BB_B1_A_5
 E  BB_B1_B_5
 L  BCAP_B1_5
 G  BSLO_B1_5
 L  BSHI_B1_5
 E  BB_B1_A_6
 E  BB_B1_B_6
 L  BCAP_B1_6
 G  BSLO_B1_6
 L  BSHI_B1_6
 E  BB_B1_A_7
 E  BB_B1_B_7
 L  BCAP_B1_7
 G  BSLO_B1_7
 L  BSHI_B1_7
 E  BB_B1_A_8
 E  BB_B1_B_8
 L  BCAP_B1_8
 G  BSLO_B1_8
 L  BSHI_B1_8
 E  BB_B1_A_9
 E  BB_B1_B_9
 L  BCAP_B1_9
 G  BSLO_B1_9
 L  BSHI_B1_9
 E  BB_B1_A_10
 E  BB_B1_B_10
 L  BCAP_B1_10
 G  BSLO_B1_10
 L  BSHI_B1_10
 E  BB_B1_A_11
 E  BB_B1_B_11
 L  BCAP_B1_11
 G  BSLO_B1_11
 L  BSHI_B1_11
 E  CDU_0
 E  CDU_1
 E  CDU_2
 E  CDU_3
 E  CDU_4
 E  CDU_5
 E  CDU_6
 E  CDU_7
 E  CDU_8
 E  CDU_9
 E  CDU_10
 E  CDU_11
COLUMNS
    M529 'MARKER' 'INTORG'
    XU_V0_S0_2 LU_V0_S0_2 -50.0
    XU_V0_S0_2 DEPT_V0_S0_2 -3.0
    M532 'MARKER' 'INTEND'
    FU_V0_S0_2 LU_V0_S0_2 1.0
    FU_V0_S0_2 VOL_V0 1.0
    FU_V0_S0_2 SB_S0_B_2 -1.0
    M536 'MARKER' 'INTORG'
    XU_V0_S1_2 LU_V0_S1_2 -50.0
    XU_V0_S1_2 DEPT_V0_S1_2 -3.0
    M539 'MARKER' 'INTEND'
    FU_V0_S1_2 LU_V0_S1_2 1.0
    FU_V0_S1_2 VOL_V0 1.0
    FU_V0_S1_2 SB_S1_B_2 -1.0
    M543 'MARKER' 'INTORG'
    XU_V0_S2_2 LU_V0_S2_2 -50.0
    XU_V0_S2_2 DEPT_V0_S2_2 -3.0
    M546 'MARKER' 'INTEND'
    FU_V0_S2_2 LU_V0_S2_2 1.0
    FU_V0_S2_2 VOL_V0 1.0
    FU_V0_S2_2 SB_S2_B_2 -1.0
    M550 'MARKER' 'INTORG'
    XU_V0_S0_3 LU_V0_S0_3 -50.0
    XU_V0_S0_3 DEPT_V0_S0_3 -4.0
    M553 'MARKER' 'INTEND'
    FU_V0_S0_3 LU_V0_S0_3 1.0
    FU_V0_S0_3 VOL_V0 1.0
    FU_V0_S0_3 SB_S0_B_3 -1.0
    M557 'MARKER' 'INTORG'
    XU_V0_S1_3 LU_V0_S1_3 -50.0
    XU_V0_S1_3 DEPT_V0_S1_3 -4.0
    M560 'MARKER' 'INTEND'
    FU_V0_S1_3 LU_V0_S1_3 1.0
    FU_V0_S1_3 VOL_V0 1.0
    FU_V0_S1_3 SB_S1_B_3 -1.0
    M564 'MARKER' 'INTORG'
    XU_V0_S2_3 LU_V0_S2_3 -50.0
    XU_V0_S2_3 DEPT_V0_S2_3 -4.0
    M567 'MARKER' 'INTEND'
    FU_V0_S2_3 LU_V0_S2_3 1.0
    FU_V0_S2_3 VOL_V0 1.0
    FU_V0_S2_3 SB_S2_B_3 -1.0
    M571 'MARKER' 'INTORG'
    XU_V0_S0_4 LU_V0_S0_4 -50.0
    XU_V0_S0_4 DEPT_V0_S0_4 -5.0
    M574 'MARKER' 'INTEND'
    FU_V0_S0_4 LU_V0_S0_4 1.0
    FU_V0_S0_4 VOL_V0 1.0
    FU_V0_S0_4 SB_S0_B_4 -1.0
    M578 'MARKER' 'INTORG'
    XU_V0_S1_4 LU_V0_S1_4 -50.0
    XU_V0_S1_4 DEPT_V0_S1_4 -5.0
    M581 'MARKER' 'INTEND'
    FU_V0_S1_4 LU_V0_S1_4 1.0
    FU_V0_S1_4 VOL_V0 1.0
    FU_V0_S1_4 SB_S1_B_4 -1.0
    M585 'MARKER' 'INTORG'
    XU_V0_S2_4 LU_V0_S2_4 -50.0
    XU_V0_S2_4 DEPT_V0_S2_4 -5.0
    M588 'MARKER' 'INTEND'
    FU_V0_S2_4 LU_V0_S2_4 1.0
    FU_V0_S2_4 VOL_V0 1.0
    FU_V0_S2_4 SB_S2_B_4 -1.0
    M592 'MARKER' 'INTORG'
    XU_V0_S0_5 LU_V0_S0_5 -50.0
    XU_V0_S0_5 DEPT_V0_S0_5 -6.0
    M595 'MARKER' 'INTEND'
    FU_V0_S0_5 LU_V0_S0_5 1.0
    FU_V0_S0_5 VOL_V0 1.0
    FU_V0_S0_5 SB_S0_B_5 -1.0
    M599 'MARKER' 'INTORG'
    XU_V0_S1_5 LU_V0_S1_5 -50.0
    XU_V0_S1_5 DEPT_V0_S1_5 -6.0
    M602 'MARKER' 'INTEND'
    FU_V0_S1_5 LU_V0_S1_5 1.0
    FU_V0_S1_5 VOL_V0 1.0
    FU_V0_S1_5 SB_S1_B_5 -1.0
    M606 'MARKER' 'INTORG'
    XU_V0_S2_5 LU_V0_S2_5 -50.0
    XU_V0_S2_5 DEPT_V0_S2_5 -6.0
    M609 'MARKER' 'INTEND'
    FU_V0_S2_5 LU_V0_S2_5 1.0
    FU_V0_S2_5 VOL_V0 1.0
    FU_V0_S2_5 SB_S2_B_5 -1.0
    M613 'MARKER' 'INTORG'
    XU_V0_S0_6 LU_V0_S0_6 -50.0
    XU_V0_S0_6 DEPT_V0_S0_6 -7.0
    M616 'MARKER' 'INTEND'
    FU_V0_S0_6 LU_V0_S0_6 1.0
    FU_V0_S0_6 VOL_V0 1.0
    FU_V0_S0_6 SB_S0_B_6 -1.0
    M620 'MARKER' 'INTORG'
    XU_V0_S1_6 LU_V0_S1_6 -50.0
    XU_V0_S1_6 DEPT_V0_S1_6 -7.0
    M623 'MARKER' 'INTEND'
    FU_V0_S1_6 LU_V0_S1_6 1.0
    FU_V0_S1_6 VOL_V0 1.0
    FU_V0_S1_6 SB_S1_B_6 -1.0
    M627 'MARKER' 'INTORG'
    XU_V0_S2_6 LU_V0_S2_6 -50.0
    XU_V0_S2_6 DEPT_V0_S2_6 -7.0
    M630 'MARKER' 'INTEND'
    FU_V0_S2_6 LU_V0_S2_6 1.0
    FU_V0_S2_6 VOL_V0 1.0
    FU_V0_S2_6 SB_S2_B_6 -1.0
    M634 'MARKER' 'INTORG'
    XU_V0_S0_7 LU_V0_S0_7 -50.0
    XU_V0_S0_7 DEPT_V0_S0_7 -8.0
    M637 'MARKER' 'INTEND'
    FU_V0_S0_7 LU_V0_S0_7 1.0
    FU_V0_S0_7 VOL_V0 1.0
    FU_V0_S0_7 SB_S0_B_7 -1.0
    M641 'MARKER' 'INTORG'
    XU_V0_S1_7 LU_V0_S1_7 -50.0
    XU_V0_S1_7 DEPT_V0_S1_7 -8.0
    M644 'MARKER' 'INTEND'
    FU_V0_S1_7 LU_V0_S1_7 1.0
    FU_V0_S1_7 VOL_V0 1.0
    FU_V0_S1_7 SB_S1_B_7 -1.0
    M648 'MARKER' 'INTORG'
    XU_V0_S2_7 LU_V0_S2_7 -50.0
    XU_V0_S2_7 DEPT_V0_S2_7 -8.0
    M651 'MARKER' 'INTEND'
    FU_V0_S2_7 LU_V0_S2_7 1.0
    FU_V0_S2_7 VOL_V0 1.0
    FU_V0_S2_7 SB_S2_B_7 -1.0
    M655 'MARKER' 'INTORG'
    XU_V0_S0_8 LU_V0_S0_8 -50.0
    XU_V0_S0_8 DEPT_V0_S0_8 -9.0
    M658 'MARKER' 'INTEND'
    FU_V0_S0_8 LU_V0_S0_8 1.0
    FU_V0_S0_8 VOL_V0 1.0
    FU_V0_S0_8 SB_S0_B_8 -1.0
    M662 'MARKER' 'INTORG'
    XU_V0_S1_8 LU_V0_S1_8 -50.0
    XU_V0_S1_8 DEPT_V0_S1_8 -9.0
    M665 'MARKER' 'INTEND'
    FU_V0_S1_8 LU_V0_S1_8 1.0
    FU_V0_S1_8 VOL_V0 1.0
    FU_V0_S1_8 SB_S1_B_8 -1.0
    M669 'MARKER' 'INTORG'
    XU_V0_S2_8 LU_V0_S2_8 -50.0
    XU_V0_S2_8 DEPT_V0_S2_8 -9.0
    M672 'MARKER' 'INTEND'
    FU_V0_S2_8 LU_V0_S2_8 1.0
    FU_V0_S2_8 VOL_V0 1.0
    FU_V0_S2_8 SB_S2_B_8 -1.0
    M676 'MARKER' 'INTORG'
    XU_V0_S0_9 LU_V0_S0_9 -50.0
    XU_V0_S0_9 DEPT_V0_S0_9 -10.0
    M679 'MARKER' 'INTEND'
    FU_V0_S0_9 LU_V0_S0_9 1.0
    FU_V0_S0_9 VOL_V0 1.0
    FU_V0_S0_9 SB_S0_B_9 -1.0
    M683 'MARKER' 'INTORG'
    XU_V0_S1_9 LU_V0_S1_9 -50.0
    XU_V0_S1_9 DEPT_V0_S1_9 -10.0
    M686 'MARKER' 'INTEND'
    FU_V0_S1_9 LU_V0_S1_9 1.0
    FU_V0_S1_9 VOL_V0 1.0
    FU_V0_S1_9 SB_S1_B_9 -1.0
    M690 'MARKER' 'INTORG'
    XU_V0_S2_9 LU_V0_S2_9 -50.0
    XU_V0_S2_9 DEPT_V0_S2_9 -10.0
    M693 'MARKER' 'INTEND'
    FU_V0_S2_9 LU_V0_S2_9 1.0
    FU_V0_S2_9 VOL_V0 1.0
    FU_V0_S2_9 SB_S2_B_9 -1.0
    M697 'MARKER' 'INTORG'
    XU_V0_S0_10 LU_V0_S0_10 -50.0
    XU_V0_S0_10 DEPT_V0_S0_10 -11.0
    M700 'MARKER' 'INTEND'
    FU_V0_S0_10 LU_V0_S0_10 1.0
    FU_V0_S0_10 VOL_V0 1.0
    FU_V0_S0_10 SB_S0_B_10 -1.0
    M704 'MARKER' 'INTORG'
    XU_V0_S1_10 LU_V0_S1_10 -50.0
    XU_V0_S1_10 DEPT_V0_S1_10 -11.0
    M707 'MARKER' 'INTEND'
    FU_V0_S1_10 LU_V0_S1_10 1.0
    FU_V0_S1_10 VOL_V0 1.0
    FU_V0_S1_10 SB_S1_B_10 -1.0
    M711 'MARKER' 'INTORG'
    XU_V0_S2_10 LU_V0_S2_10 -50.0
    XU_V0_S2_10 DEPT_V0_S2_10 -11.0
    M714 'MARKER' 'INTEND'
    FU_V0_S2_10 LU_V0_S2_10 1.0
    FU_V0_S2_10 VOL_V0 1.0
    FU_V0_S2_10 SB_S2_B_10 -1.0
    M718 'MARKER' 'INTORG'
    XU_V0_S0_11 LU_V0_S0_11 -50.0
    XU_V0_S0_11 DEPT_V0_S0_11 -12.0
    M721 'MARKER' 'INTEND'
    FU_V0_S0_11 LU_V0_S0_11 1.0
    FU_V0_S0_11 VOL_V0 1.0
    FU_V0_S0_11 SB_S0_B_11 -1.0
    M725 'MARKER' 'INTORG'
    XU_V0_S1_11 LU_V0_S1_11 -50.0
    XU_V0_S1_11 DEPT_V0_S1_11 -12.0
    M728 'MARKER' 'INTEND'
    FU_V0_S1_11 LU_V0_S1_11 1.0
    FU_V0_S1_11 VOL_V0 1.0
    FU_V0_S1_11 SB_S1_B_11 -1.0
    M732 'MARKER' 'INTORG'
    XU_V0_S2_11 LU_V0_S2_11 -50.0
    XU_V0_S2_11 DEPT_V0_S2_11 -12.0
    M735 'MARKER' 'INTEND'
    FU_V0_S2_11 LU_V0_S2_11 1.0
    FU_V0_S2_11 VOL_V0 1.0
    FU_V0_S2_11 SB_S2_B_11 -1.0
    DEP_V0 OBJ 10.0
    DEP_V0 DEPT_V0_S0_2 1.0
    DEP_V0 DEPT_V0_S1_2 1.0
    DEP_V0 DEPT_V0_S2_2 1.0
    DEP_V0 DEPT_V0_S0_3 1.0
    DEP_V0 DEPT_V0_S1_3 1.0
    DEP_V0 DEPT_V0_S2_3 1.0
    DEP_V0 DEPT_V0_S0_4 1.0
    DEP_V0 DEPT_V0_S1_4 1.0
    DEP_V0 DEPT_V0_S2_4 1.0
    DEP_V0 DEPT_V0_S0_5 1.0
    DEP_V0 DEPT_V0_S1_5 1.0
    DEP_V0 DEPT_V0_S2_5 1.0
    DEP_V0 DEPT_V0_S0_6 1.0
    DEP_V0 DEPT_V0_S1_6 1.0
    DEP_V0 DEPT_V0_S2_6 1.0
    DEP_V0 DEPT_V0_S0_7 1.0
    DEP_V0 DEPT_V0_S1_7 1.0
    DEP_V0 DEPT_V0_S2_7 1.0
    DEP_V0 DEPT_V0_S0_8 1.0
    DEP_V0 DEPT_V0_S1_8 1.0
    DEP_V0 DEPT_V0_S2_8 1.0
    DEP_V0 DEPT_V0_S0_9 1.0
    DEP_V0 DEPT_V0_S1_9 1.0
    DEP_V0 DEPT_V0_S2_9 1.0
    DEP_V0 DEPT_V0_S0_10 1.0
    DEP_V0 DEPT_V0_S1_10 1.0
    DEP_V0 DEPT_V0_S2_10 1.0
    DEP_V0 DEPT_V0_S0_11 1.0
    DEP_V0 DEPT_V0_S1_11 1.0
    DEP_V0 DEPT_V0_S2_11 1.0
    M770 'MARKER' 'INTORG'
    XU_V1_S0_0 LU_V1_S0_0 -50.0
    XU_V1_S0_0 DEPT_V1_S0_0 -1.0
    M773 'MARKER' 'INTEND'
    FU_V1_S0_0 LU_V1_S0_0 1.0
    FU_V1_S0_0 VOL_V1 1.0
    FU_V1_S0_0 SB_S0_B_0 -1.0
    M777 'MARKER' 'INTORG'
    XU_V1_S1_0 LU_V1_S1_0 -50.0
    XU_V1_S1_0 DEPT_V1_S1_0 -1.0
    M780 'MARKER' 'INTEND'
    FU_V1_S1_0 LU_V1_S1_0 1.0
    FU_V1_S1_0 VOL_V1 1.0
    FU_V1_S1_0 SB_S1_B_0 -1.0
    M784 'MARKER' 'INTORG'
    XU_V1_S2_0 LU_V1_S2_0 -50.0
    XU_V1_S2_0 DEPT_V1_S2_0 -1.0
    M787 'MARKER' 'INTEND'
    FU_V1_S2_0 LU_V1_S2_0 1.0
    FU_V1_S2_0 VOL_V1 1.0
    FU_V1_S2_0 SB_S2_B_0 -1.0
    M791 'MARKER' 'INTORG'
    XU_V1_S0_1 LU_V1_S0_1 -50.0
    XU_V1_S0_1 DEPT_V1_S0_1 -2.0
    M794 'MARKER' 'INTEND'
    FU_V1_S0_1 LU_V1_S0_1 1.0
    FU_V1_S0_1 VOL_V1 1.0
    FU_V1_S0_1 SB_S0_B_1 -1.0
    M798 'MARKER' 'INTORG'
    XU_V1_S1_1 LU_V1_S1_1 -50.0
    XU_V1_S1_1 DEPT_V1_S1_1 -2.0
    M801 'MARKER' 'INTEND'
    FU_V1_S1_1 LU_V1_S1_1 1.0
    FU_V1_S1_1 VOL_V1 1.0
    FU_V1_S1_1 SB_S1_B_1 -1.0
    M805 'MARKER' 'INTORG'
    XU_V1_S2_1 LU_V1_S2_1 -50.0
    XU_V1_S2_1 DEPT_V1_S2_1 -2.0
    M808 'MARKER' 'INTEND'
    FU_V1_S2_1 LU_V1_S2_1 1.0
    FU_V1_S2_1 VOL_V1 1.0
    FU_V1_S2_1 SB_S2_B_1 -1.0
    M812 'MARKER' 'INTORG'
    XU_V1_S0_2 LU_V1_S0_2 -50.0
    XU_V1_S0_2 DEPT_V1_S0_2 -3.0
    M815 'MARKER' 'INTEND'
    FU_V1_S0_2 LU_V1_S0_2 1.0
    FU_V1_S0_2 VOL_V1 1.0
    FU_V1_S0_2 SB_S0_B_2 -1.0
    M819 'MARKER' 'INTORG'
    XU_V1_S1_2 LU_V1_S1_2 -50.0
    XU_V1_S1_2 DEPT_V1_S1_2 -3.0
    M822 'MARKER' 'INTEND'
    FU_V1_S1_2 LU_V1_S1_2 1.0
    FU_V1_S1_2 VOL_V1 1.0
    FU_V1_S1_2 SB_S1_B_2 -1.0
    M826 'MARKER' 'INTORG'
    XU_V1_S2_2 LU_V1_S2_2 -50.0
    XU_V1_S2_2 DEPT_V1_S2_2 -3.0
    M829 'MARKER' 'INTEND'
    FU_V1_S2_2 LU_V1_S2_2 1.0
    FU_V1_S2_2 VOL_V1 1.0
    FU_V1_S2_2 SB_S2_B_2 -1.0
    M833 'MARKER' 'INTORG'
    XU_V1_S0_3 LU_V1_S0_3 -50.0
    XU_V1_S0_3 DEPT_V1_S0_3 -4.0
    M836 'MARKER' 'INTEND'
    FU_V1_S0_3 LU_V1_S0_3 1.0
    FU_V1_S0_3 VOL_V1 1.0
    FU_V1_S0_3 SB_S0_B_3 -1.0
    M840 'MARKER' 'INTORG'
    XU_V1_S1_3 LU_V1_S1_3 -50.0
    XU_V1_S1_3 DEPT_V1_S1_3 -4.0
    M843 'MARKER' 'INTEND'
    FU_V1_S1_3 LU_V1_S1_3 1.0
    FU_V1_S1_3 VOL_V1 1.0
    FU_V1_S1_3 SB_S1_B_3 -1.0
    M847 'MARKER' 'INTORG'
    XU_V1_S2_3 LU_V1_S2_3 -50.0
    XU_V1_S2_3 DEPT_V1_S2_3 -4.0
    M850 'MARKER' 'INTEND'
    FU_V1_S2_3 LU_V1_S2_3 1.0
    FU_V1_S2_3 VOL_V1 1.0
    FU_V1_S2_3 SB_S2_B_3 -1.0
    M854 'MARKER' 'INTORG'
    XU_V1_S0_4 LU_V1_S0_4 -50.0
    XU_V1_S0_4 DEPT_V1_S0_4 -5.0
    M857 'MARKER' 'INTEND'
    FU_V1_S0_4 LU_V1_S0_4 1.0
    FU_V1_S0_4 VOL_V1 1.0
    FU_V1_S0_4 SB_S0_B_4 -1.0
    M861 'MARKER' 'INTORG'
    XU_V1_S1_4 LU_V1_S1_4 -50.0
    XU_V1_S1_4 DEPT_V1_S1_4 -5.0
    M864 'MARKER' 'INTEND'
    FU_V1_S1_4 LU_V1_S1_4 1.0
    FU_V1_S1_4 VOL_V1 1.0
    FU_V1_S1_4 SB_S1_B_4 -1.0
    M868 'MARKER' 'INTORG'
    XU_V1_S2_4 LU_V1_S2_4 -50.0
    XU_V1_S2_4 DEPT_V1_S2_4 -5.0
    M871 'MARKER' 'INTEND'
    FU_V1_S2_4 LU_V1_S2_4 1.0
    FU_V1_S2_4 VOL_V1 1.0
    FU_V1_S2_4 SB_S2_B_4 -1.0
    M875 'MARKER' 'INTORG'
    XU_V1_S0_5 LU_V1_S0_5 -50.0
    XU_V1_S0_5 DEPT_V1_S0_5 -6.0
    M878 'MARKER' 'INTEND'
    FU_V1_S0_5 LU_V1_S0_5 1.0
    FU_V1_S0_5 VOL_V1 1.0
    FU_V1_S0_5 SB_S0_B_5 -1.0
    M882 'MARKER' 'INTORG'
    XU_V1_S1_5 LU_V1_S1_5 -50.0
    XU_V1_S1_5 DEPT_V1_S1_5 -6.0
    M885 'MARKER' 'INTEND'
    FU_V1_S1_5 LU_V1_S1_5 1.0
    FU_V1_S1_5 VOL_V1 1.0
    FU_V1_S1_5 SB_S1_B_5 -1.0
    M889 'MARKER' 'INTORG'
    XU_V1_S2_5 LU_V1_S2_5 -50.0
    XU_V1_S2_5 DEPT_V1_S2_5 -6.0
    M892 'MARKER' 'INTEND'
    FU_V1_S2_5 LU_V1_S2_5 1.0
    FU_V1_S2_5 VOL_V1 1.0
    FU_V1_S2_5 SB_S2_B_5 -1.0
    M896 'MARKER' 'INTORG'
    XU_V1_S0_6 LU_V1_S0_6 -50.0
    XU_V1_S0_6 DEPT_V1_S0_6 -7.0
    M899 'MARKER' 'INTEND'
    FU_V1_S0_6 LU_V1_S0_6 1.0
    FU_V1_S0_6 VOL_V1 1.0
    FU_V1_S0_6 SB_S0_B_6 -1.0
    M903 'MARKER' 'INTORG'
    XU_V1_S1_6 LU_V1_S1_6 -50.0
    XU_V1_S1_6 DEPT_V1_S1_6 -7.0
    M906 'MARKER' 'INTEND'
    FU_V1_S1_6 LU_V1_S1_6 1.0
    FU_V1_S1_6 VOL_V1 1.0
    FU_V1_S1_6 SB_S1_B_6 -1.0
    M910 'MARKER' 'INTORG'
    XU_V1_S2_6 LU_V1_S2_6 -50.0
    XU_V1_S2_6 DEPT_V1_S2_6 -7.0
    M913 'MARKER' 'INTEND'
    FU_V1_S2_6 LU_V1_S2_6 1.0
    FU_V1_S2_6 VOL_V1 1.0
    FU_V1_S2_6 SB_S2_B_6 -1.0
    M917 'MARKER' 'INTORG'
    XU_V1_S0_7 LU_V1_S0_7 -50.0
    XU_V1_S0_7 DEPT_V1_S0_7 -8.0
    M920 'MARKER' 'INTEND'
    FU_V1_S0_7 LU_V1_S0_7 1.0
    FU_V1_S0_7 VOL_V1 1.0
    FU_V1_S0_7 SB_S0_B_7 -1.0
    M924 'MARKER' 'INTORG'
    XU_V1_S1_7 LU_V1_S1_7 -50.0
    XU_V1_S1_7 DEPT_V1_S1_7 -8.0
    M927 'MARKER' 'INTEND'
    FU_V1_S1_7 LU_V1_S1_7 1.0
    FU_V1_S1_7 VOL_V1 1.0
    FU_V1_S1_7 SB_S1_B_7 -1.0
    M931 'MARKER' 'INTORG'
    XU_V1_S2_7 LU_V1_S2_7 -50.0
    XU_V1_S2_7 DEPT_V1_S2_7 -8.0
    M934 'MARKER' 'INTEND'
    FU_V1_S2_7 LU_V1_S2_7 1.0
    FU_V1_S2_7 VOL_V1 1.0
    FU_V1_S2_7 SB_S2_B_7 -1.0
    M938 'MARKER' 'INTORG'
    XU_V1_S0_8 LU_V1_S0_8 -50.0
    XU_V1_S0_8 DEPT_V1_S0_8 -9.0
    M941 'MARKER' 'INTEND'
    FU_V1_S0_8 LU_V1_S0_8 1.0
    FU_V1_S0_8 VOL_V1 1.0
    FU_V1_S0_8 SB_S0_B_8 -1.0
    M945 'MARKER' 'INTORG'
    XU_V1_S1_8 LU_V1_S1_8 -50.0
    XU_V1_S1_8 DEPT_V1_S1_8 -9.0
    M948 'MARKER' 'INTEND'
    FU_V1_S1_8 LU_V1_S1_8 1.0
    FU_V1_S1_8 VOL_V1 1.0
    FU_V1_S1_8 SB_S1_B_8 -1.0
    M952 'MARKER' 'INTORG'
    XU_V1_S2_8 LU_V1_S2_8 -50.0
    XU_V1_S2_8 DEPT_V1_S2_8 -9.0
    M955 'MARKER' 'INTEND'
    FU_V1_S2_8 LU_V1_S2_8 1.0
    FU_V1_S2_8 VOL_V1 1.0
    FU_V1_S2_8 SB_S2_B_8 -1.0
    M959 'MARKER' 'INTORG'
    XU_V1_S0_9 LU_V1_S0_9 -50.0
    XU_V1_S0_9 DEPT_V1_S0_9 -10.0
    M962 'MARKER' 'INTEND'
    FU_V1_S0_9 LU_V1_S0_9 1.0
    FU_V1_S0_9 VOL_V1 1.0
    FU_V1_S0_9 SB_S0_B_9 -1.0
    M966 'MARKER' 'INTORG'
    XU_V1_S1_9 LU_V1_S1_9 -50.0
    XU_V1_S1_9 DEPT_V1_S1_9 -10.0
    M969 'MARKER' 'INTEND'
    FU_V1_S1_9 LU_V1_S1_9 1.0
    FU_V1_S1_9 VOL_V1 1.0
    FU_V1_S1_9 SB_S1_B_9 -1.0
    M973 'MARKER' 'INTORG'
    XU_V1_S2_9 LU_V1_S2_9 -50.0
    XU_V1_S2_9 DEPT_V1_S2_9 -10.0
    M976 'MARKER' 'INTEND'
    FU_V1_S2_9 LU_V1_S2_9 1.0
    FU_V1_S2_9 VOL_V1 1.0
    FU_V1_S2_9 SB_S2_B_9 -1.0
    M980 'MARKER' 'INTORG'
    XU_V1_S0_10 LU_V1_S0_10 -50.0
    XU_V1_S0_10 DEPT_V1_S0_10 -11.0
    M983 'MARKER' 'INTEND'
    FU_V1_S0_10 LU_V1_S0_10 1.0
    FU_V1_S0_10 VOL_V1 1.0
    FU_V1_S0_10 SB_S0_B_10 -1.0
    M987 'MARKER' 'INTORG'
    XU_V1_S1_10 LU_V1_S1_10 -50.0
    XU_V1_S1_10 DEPT_V1_S1_10 -11.0
    M990 'MARKER' 'INTEND'
    FU_V1_S1_10 LU_V1_S1_10 1.0
    FU_V1_S1_10 VOL_V1 1.0
    FU_V1_S1_10 SB_S1_B_10 -1.0
    M994 'MARKER' 'INTORG'
    XU_V1_S2_10 LU_V1_S2_10 -50.0
    XU_V1_S2_10 DEPT_V1_S2_10 -11.0
    M997 'MARKER' 'INTEND'
    FU_V1_S2_10 LU_V1_S2_10 1.0
    FU_V1_S2_10 VOL_V1 1.0
    FU_V1_S2_10 SB_S2_B_10 -1.0
    M1001 'MARKER' 'INTORG'
    XU_V1_S0_11 LU_V1_S0_11 -50.0
    XU_V1_S0_11 DEPT_V1_S0_11 -12.0
    M1004 'MARKER' 'INTEND'
    FU_V1_S0_11 LU_V1_S0_11 1.0
    FU_V1_S0_11 VOL_V1 1.0
    FU_V1_S0_11 SB_S0_B_11 -1.0
    M1008 'MARKER' 'INTORG'
    XU_V1_S1_11 LU_V1_S1_11 -50.0
    XU_V1_S1_11 DEPT_V1_S1_11 -12.0
    M1011 'MARKER' 'INTEND'
    FU_V1_S1_11 LU_V1_S1_11 1.0
    FU_V1_S1_11 VOL_V1 1.0
    FU_V1_S1_11 SB_S1_B_11 -1.0
    M1015 'MARKER' 'INTORG'
    XU_V1_S2_11 LU_V1_S2_11 -50.0
    XU_V1_S2_11 DEPT_V1_S2_11 -12.0
    M1018 'MARKER' 'INTEND'
    FU_V1_S2_11 LU_V1_S2_11 1.0
    FU_V1_S2_11 VOL_V1 1.0
    FU_V1_S2_11 SB_S2_B_11 -1.0
    DEP_V1 OBJ 10.0
    DEP_V1 DEPT_V1_S0_0 1.0
    DEP_V1 DEPT_V1_S1_0 1.0
    DEP_V1 DEPT_V1_S2_0 1.0
    DEP_V1 DEPT_V1_S0_1 1.0
    DEP_V1 DEPT_V1_S1_1 1.0
    DEP_V1 DEPT_V1_S2_1 1.0
    DEP_V1 DEPT_V1_S0_2 1.0
    DEP_V1 DEPT_V1_S1_2 1.0
    DEP_V1 DEPT_V1_S2_2 1.0
    DEP_V1 DEPT_V1_S0_3 1.0
    DEP_V1 DEPT_V1_S1_3 1.0
    DEP_V1 DEPT_V1_S2_3 1.0
    DEP_V1 DEPT_V1_S0_4 1.0
    DEP_V1 DEPT_V1_S1_4 1.0
    DEP_V1 DEPT_V1_S2_4 1.0
    DEP_V1 DEPT_V1_S0_5 1.0
    DEP_V1 DEPT_V1_S1_5 1.0
    DEP_V1 DEPT_V1_S2_5 1.0
    DEP_V1 DEPT_V1_S0_6 1.0
    DEP_V1 DEPT_V1_S1_6 1.0
    DEP_V1 DEPT_V1_S2_6 1.0
    DEP_V1 DEPT_V1_S0_7 1.0
    DEP_V1 DEPT_V1_S1_7 1.0
    DEP_V1 DEPT_V1_S2_7 1.0
    DEP_V1 DEPT_V1_S0_8 1.0
    DEP_V1 DEPT_V1_S1_8 1.0
    DEP_V1 DEPT_V1_S2_8 1.0
    DEP_V1 DEPT_V1_S0_9 1.0
    DEP_V1 DEPT_V1_S1_9 1.0
    DEP_V1 DEPT_V1_S2_9 1.0
    DEP_V1 DEPT_V1_S0_10 1.0
    DEP_V1 DEPT_V1_S1_10 1.0
    DEP_V1 DEPT_V1_S2_10 1.0
    DEP_V1 DEPT_V1_S0_11 1.0
    DEP_V1 DEPT_V1_S1_11 1.0
    DEP_V1 DEPT_V1_S2_11 1.0
    M1059 'MARKER' 'INTORG'
    XU_V2_S0_3 LU_V2_S0_3 -50.0
    XU_V2_S0_3 DEPT_V2_S0_3 -4.0
    M1062 'MARKER' 'INTEND'
    FU_V2_S0_3 LU_V2_S0_3 1.0
    FU_V2_S0_3 VOL_V2 1.0
    FU_V2_S0_3 SB_S0_B_3 -1.0
    M1066 'MARKER' 'INTORG'
    XU_V2_S1_3 LU_V2_S1_3 -50.0
    XU_V2_S1_3 DEPT_V2_S1_3 -4.0
    M1069 'MARKER' 'INTEND'
    FU_V2_S1_3 LU_V2_S1_3 1.0
    FU_V2_S1_3 VOL_V2 1.0
    FU_V2_S1_3 SB_S1_B_3 -1.0
    M1073 'MARKER' 'INTORG'
    XU_V2_S2_3 LU_V2_S2_3 -50.0
    XU_V2_S2_3 DEPT_V2_S2_3 -4.0
    M1076 'MARKER' 'INTEND'
    FU_V2_S2_3 LU_V2_S2_3 1.0
    FU_V2_S2_3 VOL_V2 1.0
    FU_V2_S2_3 SB_S2_B_3 -1.0
    M1080 'MARKER' 'INTORG'
    XU_V2_S0_4 LU_V2_S0_4 -50.0
    XU_V2_S0_4 DEPT_V2_S0_4 -5.0
    M1083 'MARKER' 'INTEND'
    FU_V2_S0_4 LU_V2_S0_4 1.0
    FU_V2_S0_4 VOL_V2 1.0
    FU_V2_S0_4 SB_S0_B_4 -1.0
    M1087 'MARKER' 'INTORG'
    XU_V2_S1_4 LU_V2_S1_4 -50.0
    XU_V2_S1_4 DEPT_V2_S1_4 -5.0
    M1090 'MARKER' 'INTEND'
    FU_V2_S1_4 LU_V2_S1_4 1.0
    FU_V2_S1_4 VOL_V2 1.0
    FU_V2_S1_4 SB_S1_B_4 -1.0
    M1094 'MARKER' 'INTORG'
    XU_V2_S2_4 LU_V2_S2_4 -50.0
    XU_V2_S2_4 DEPT_V2_S2_4 -5.0
    M1097 'MARKER' 'INTEND'
    FU_V2_S2_4 LU_V2_S2_4 1.0
    FU_V2_S2_4 VOL_V2 1.0
    FU_V2_S2_4 SB_S2_B_4 -1.0
    M1101 'MARKER' 'INTORG'
    XU_V2_S0_5 LU_V2_S0_5 -50.0
    XU_V2_S0_5 DEPT_V2_S0_5 -6.0
    M1104 'MARKER' 'INTEND'
    FU_V2_S0_5 LU_V2_S0_5 1.0
    FU_V2_S0_5 VOL_V2 1.0
    FU_V2_S0_5 SB_S0_B_5 -1.0
    M1108 'MARKER' 'INTORG'
    XU_V2_S1_5 LU_V2_S1_5 -50.0
    XU_V2_S1_5 DEPT_V2_S1_5 -6.0
    M1111 'MARKER' 'INTEND'
    FU_V2_S1_5 LU_V2_S1_5 1.0
    FU_V2_S1_5 VOL_V2 1.0
    FU_V2_S1_5 SB_S1_B_5 -1.0
    M1115 'MARKER' 'INTORG'
    XU_V2_S2_5 LU_V2_S2_5 -50.0
    XU_V2_S2_5 DEPT_V2_S2_5 -6.0
    M1118 'MARKER' 'INTEND'
    FU_V2_S2_5 LU_V2_S2_5 1.0
    FU_V2_S2_5 VOL_V2 1.0
    FU_V2_S2_5 SB_S2_B_5 -1.0
    M1122 'MARKER' 'INTORG'
    XU_V2_S0_6 LU_V2_S0_6 -50.0
    XU_V2_S0_6 DEPT_V2_S0_6 -7.0
    M1125 'MARKER' 'INTEND'
    FU_V2_S0_6 LU_V2_S0_6 1.0
    FU_V2_S0_6 VOL_V2 1.0
    FU_V2_S0_6 SB_S0_B_6 -1.0
    M1129 'MARKER' 'INTORG'
    XU_V2_S1_6 LU_V2_S1_6 -50.0
    XU_V2_S1_6 DEPT_V2_S1_6 -7.0
    M1132 'MARKER' 'INTEND'
    FU_V2_S1_6 LU_V2_S1_6 1.0
    FU_V2_S1_6 VOL_V2 1.0
    FU_V2_S1_6 SB_S1_B_6 -1.0
    M1136 'MARKER' 'INTORG'
    XU_V2_S2_6 LU_V2_S2_6 -50.0
    XU_V2_S2_6 DEPT_V2_S2_6 -7.0
    M1139 'MARKER' 'INTEND'
    FU_V2_S2_6 LU_V2_S2_6 1.0
    FU_V2_S2_6 VOL_V2 1.0
    FU_V2_S2_6 SB_S2_B_6 -1.0
    M1143 'MARKER' 'INTORG'
    XU_V2_S0_7 LU_V2_S0_7 -50.0
    XU_V2_S0_7 DEPT_V2_S0_7 -8.0
    M1146 'MARKER' 'INTEND'
    FU_V2_S0_7 LU_V2_S0_7 1.0
    FU_V2_S0_7 VOL_V2 1.0
    FU_V2_S0_7 SB_S0_B_7 -1.0
    M1150 'MARKER' 'INTORG'
    XU_V2_S1_7 LU_V2_S1_7 -50.0
    XU_V2_S1_7 DEPT_V2_S1_7 -8.0
    M1153 'MARKER' 'INTEND'
    FU_V2_S1_7 LU_V2_S1_7 1.0
    FU_V2_S1_7 VOL_V2 1.0
    FU_V2_S1_7 SB_S1_B_7 -1.0
    M1157 'MARKER' 'INTORG'
    XU_V2_S2_7 LU_V2_S2_7 -50.0
    XU_V2_S2_7 DEPT_V2_S2_7 -8.0
    M1160 'MARKER' 'INTEND'
    FU_V2_S2_7 LU_V2_S2_7 1.0
    FU_V2_S2_7 VOL_V2 1.0
    FU_V2_S2_7 SB_S2_B_7 -1.0
    M1164 'MARKER' 'INTORG'
    XU_V2_S0_8 LU_V2_S0_8 -50.0
    XU_V2_S0_8 DEPT_V2_S0_8 -9.0
    M1167 'MARKER' 'INTEND'
    FU_V2_S0_8 LU_V2_S0_8 1.0
    FU_V2_S0_8 VOL_V2 1.0
    FU_V2_S0_8 SB_S0_B_8 -1.0
    M1171 'MARKER' 'INTORG'
    XU_V2_S1_8 LU_V2_S1_8 -50.0
    XU_V2_S1_8 DEPT_V2_S1_8 -9.0
    M1174 'MARKER' 'INTEND'
    FU_V2_S1_8 LU_V2_S1_8 1.0
    FU_V2_S1_8 VOL_V2 1.0
    FU_V2_S1_8 SB_S1_B_8 -1.0
    M1178 'MARKER' 'INTORG'
    XU_V2_S2_8 LU_V2_S2_8 -50.0
    XU_V2_S2_8 DEPT_V2_S2_8 -9.0
    M1181 'MARKER' 'INTEND'
    FU_V2_S2_8 LU_V2_S2_8 1.0
    FU_V2_S2_8 VOL_V2 1.0
    FU_V2_S2_8 SB_S2_B_8 -1.0
    M1185 'MARKER' 'INTORG'
    XU_V2_S0_9 LU_V2_S0_9 -50.0
    XU_V2_S0_9 DEPT_V2_S0_9 -10.0
    M1188 'MARKER' 'INTEND'
    FU_V2_S0_9 LU_V2_S0_9 1.0
    FU_V2_S0_9 VOL_V2 1.0
    FU_V2_S0_9 SB_S0_B_9 -1.0
    M1192 'MARKER' 'INTORG'
    XU_V2_S1_9 LU_V2_S1_9 -50.0
    XU_V2_S1_9 DEPT_V2_S1_9 -10.0
    M1195 'MARKER' 'INTEND'
    FU_V2_S1_9 LU_V2_S1_9 1.0
    FU_V2_S1_9 VOL_V2 1.0
    FU_V2_S1_9 SB_S1_B_9 -1.0
    M1199 'MARKER' 'INTORG'
    XU_V2_S2_9 LU_V2_S2_9 -50.0
    XU_V2_S2_9 DEPT_V2_S2_9 -10.0
    M1202 'MARKER' 'INTEND'
    FU_V2_S2_9 LU_V2_S2_9 1.0
    FU_V2_S2_9 VOL_V2 1.0
    FU_V2_S2_9 SB_S2_B_9 -1.0
    M1206 'MARKER' 'INTORG'
    XU_V2_S0_10 LU_V2_S0_10 -50.0
    XU_V2_S0_10 DEPT_V2_S0_10 -11.0
    M1209 'MARKER' 'INTEND'
    FU_V2_S0_10 LU_V2_S0_10 1.0
    FU_V2_S0_10 VOL_V2 1.0
    FU_V2_S0_10 SB_S0_B_10 -1.0
    M1213 'MARKER' 'INTORG'
    XU_V2_S1_10 LU_V2_S1_10 -50.0
    XU_V2_S1_10 DEPT_V2_S1_10 -11.0
    M1216 'MARKER' 'INTEND'
    FU_V2_S1_10 LU_V2_S1_10 1.0
    FU_V2_S1_10 VOL_V2 1.0
    FU_V2_S1_10 SB_S1_B_10 -1.0
    M1220 'MARKER' 'INTORG'
    XU_V2_S2_10 LU_V2_S2_10 -50.0
    XU_V2_S2_10 DEPT_V2_S2_10 -11.0
    M1223 'MARKER' 'INTEND'
    FU_V2_S2_10 LU_V2_S2_10 1.0
    FU_V2_S2_10 VOL_V2 1.0
    FU_V2_S2_10 SB_S2_B_10 -1.0
    M1227 'MARKER' 'INTORG'
    XU_V2_S0_11 LU_V2_S0_11 -50.0
    XU_V2_S0_11 DEPT_V2_S0_11 -12.0
    M1230 'MARKER' 'INTEND'
    FU_V2_S0_11 LU_V2_S0_11 1.0
    FU_V2_S0_11 VOL_V2 1.0
    FU_V2_S0_11 SB_S0_B_11 -1.0
    M1234 'MARKER' 'INTORG'
    XU_V2_S1_11 LU_V2_S1_11 -50.0
    XU_V2_S1_11 DEPT_V2_S1_11 -12.0
    M1237 'MARKER' 'INTEND'
    FU_V2_S1_11 LU_V2_S1_11 1.0
    FU_V2_S1_11 VOL_V2 1.0
    FU_V2_S1_11 SB_S1_B_11 -1.0
    M1241 'MARKER' 'INTORG'
    XU_V2_S2_11 LU_V2_S2_11 -50.0
    XU_V2_S2_11 DEPT_V2_S2_11 -12.0
    M1244 'MARKER' 'INTEND'
    FU_V2_S2_11 LU_V2_S2_11 1.0
    FU_V2_S2_11 VOL_V2 1.0
    FU_V2_S2_11 SB_S2_B_11 -1.0
    DEP_V2 OBJ 10.0
    DEP_V2 DEPT_V2_S0_3 1.0
    DEP_V2 DEPT_V2_S1_3 1.0
    DEP_V2 DEPT_V2_S2_3 1.0
    DEP_V2 DEPT_V2_S0_4 1.0
    DEP_V2 DEPT_V2_S1_4 1.0
    DEP_V2 DEPT_V2_S2_4 1.0
    DEP_V2 DEPT_V2_S0_5 1.0
    DEP_V2 DEPT_V2_S1_5 1.0
    DEP_V2 DEPT_V2_S2_5 1.0
    DEP_V2 DEPT_V2_S0_6 1.0
    DEP_V2 DEPT_V2_S1_6 1.0
    DEP_V2 DEPT_V2_S2_6 1.0
    DEP_V2 DEPT_V2_S0_7 1.0
    DEP_V2 DEPT_V2_S1_7 1.0
    DEP_V2 DEPT_V2_S2_7 1.0
    DEP_V2 DEPT_V2_S0_8 1.0
    DEP_V2 DEPT_V2_S1_8 1.0
    DEP_V2 DEPT_V2_S2_8 1.0
    DEP_V2 DEPT_V2_S0_9 1.0
    DEP_V2 DEPT_V2_S1_9 1.0
    DEP_V2 DEPT_V2_S2_9 1.0
    DEP_V2 DEPT_V2_S0_10 1.0
    DEP_V2 DEPT_V2_S1_10 1.0
    DEP_V2 DEPT_V2_S2_10 1.0
    DEP_V2 DEPT_V2_S0_11 1.0
    DEP_V2 DEPT_V2_S1_11 1.0
    DEP_V2 DEPT_V2_S2_11 1.0
    IS_S0_A_0 SB_S0_A_0 1.0
    IS_S0_A_0 SB_S0_A_1 -1.0
    IS_S0_A_0 SCAP_S0_0 1.0
    FSB_S0_B0_A_0 SB_S0_A_0 1.0
    FSB_S0_B0_A_0 LSB_S0_B0_0 1.0
    FSB_S0_B0_A_0 BB_B0_A_0 -1.0
    FSB_S0_B1_A_0 SB_S0_A_0 1.0
    FSB_S0_B1_A_0 LSB_S0_B1_0 1.0
    FSB_S0_B1_A_0 BB_B1_A_0 -1.0
    IS_S0_A_1 SB_S0_A_1 1.0
    IS_S0_A_1 SB_S0_A_2 -1.0
    IS_S0_A_1 SCAP_S0_1 1.0
    FSB_S0_B0_A_1 SB_S0_A_1 1.0
    FSB_S0_B0_A_1 LSB_S0_B0_1 1.0
    FSB_S0_B0_A_1 BB_B0_A_1 -1.0
    FSB_S0_B1_A_1 SB_S0_A_1 1.0
    FSB_S0_B1_A_1 LSB_S0_B1_1 1.0
    FSB_S0_B1_A_1 BB_B1_A_1 -1.0
    IS_S0_A_2 SB_S0_A_2 1.0
    IS_S0_A_2 SB_S0_A_3 -1.0
    IS_S0_A_2 SCAP_S0_2 1.0
    FSB_S0_B0_A_2 SB_S0_A_2 1.0
    FSB_S0_B0_A_2 LSB_S0_B0_2 1.0
    FSB_S0_B0_A_2 BB_B0_A_2 -1.0
    FSB_S0_B1_A_2 SB_S0_A_2 1.0
    FSB_S0_B1_A_2 LSB_S0_B1_2 1.0
    FSB_S0_B1_A_2 BB_B1_A_2 -1.0
    IS_S0_A_3 SB_S0_A_3 1.0
    IS_S0_A_3 SB_S0_A_4 -1.0
    IS_S0_A_3 SCAP_S0_3 1.0
    FSB_S0_B0_A_3 SB_S0_A_3 1.0
    FSB_S0_B0_A_3 LSB_S0_B0_3 1.0
    FSB_S0_B0_A_3 BB_B0_A_3 -1.0
    FSB_S0_B1_A_3 SB_S0_A_3 1.0
    FSB_S0_B1_A_3 LSB_S0_B1_3 1.0
    FSB_S0_B1_A_3 BB_B1_A_3 -1.0
    IS_S0_A_4 SB_S0_A_4 1.0
    IS_S0_A_4 SB_S0_A_5 -1.0
    IS_S0_A_4 SCAP_S0_4 1.0
    FSB_S0_B0_A_4 SB_S0_A_4 1.0
    FSB_S0_B0_A_4 LSB_S0_B0_4 1.0
    FSB_S0_B0_A_4 BB_B0_A_4 -1.0
    FSB_S0_B1_A_4 SB_S0_A_4 1.0
    FSB_S0_B1_A_4 LSB_S0_B1_4 1.0
    FSB_S0_B1_A_4 BB_B1_A_4 -1.0
    IS_S0_A_5 SB_S0_A_5 1.0
    IS_S0_A_5 SB_S0_A_6 -1.0
    IS_S0_A_5 SCAP_S0_5 1.0
    FSB_S0_B0_A_5 SB_S0_A_5 1.0
    FSB_S0_B0_A_5 LSB_S0_B0_5 1.0
    FSB_S0_B0_A_5 BB_B0_A_5 -1.0
    FSB_S0_B1_A_5 SB_S0_A_5 1.0
    FSB_S0_B1_A_5 LSB_S0_B1_5 1.0
    FSB_S0_B1_A_5 BB_B1_A_5 -1.0
    IS_S0_A_6 SB_S0_A_6 1.0
    IS_S0_A_6 SB_S0_A_7 -1.0
    IS_S0_A_6 SCAP_S0_6 1.0
    FSB_S0_B0_A_6 SB_S0_A_6 1.0
    FSB_S0_B0_A_6 LSB_S0_B0_6 1.0
    FSB_S0_B0_A_6 BB_B0_A_6 -1.0
    FSB_S0_B1_A_6 SB_S0_A_6 1.0
    FSB_S0_B1_A_6 LSB_S0_B1_6 1.0
    FSB_S0_B1_A_6 BB_B1_A_6 -1.0
    IS_S0_A_7 SB_S0_A_7 1.0
    IS_S0_A_7 SB_S0_A_8 -1.0
    IS_S0_A_7 SCAP_S0_7 1.0
    FSB_S0_B0_A_7 SB_S0_A_7 1.0
    FSB_S0_B0_A_7 LSB_S0_B0_7 1.0
    FSB_S0_B0_A_7 BB_B0_A_7 -1.0
    FSB_S0_B1_A_7 SB_S0_A_7 1.0
    FSB_S0_B1_A_7 LSB_S0_B1_7 1.0
    FSB_S0_B1_A_7 BB_B1_A_7 -1.0
    IS_S0_A_8 SB_S0_A_8 1.0
    IS_S0_A_8 SB_S0_A_9 -1.0
    IS_S0_A_8 SCAP_S0_8 1.0
    FSB_S0_B0_A_8 SB_S0_A_8 1.0
    FSB_S0_B0_A_8 LSB_S0_B0_8 1.0
    FSB_S0_B0_A_8 BB_B0_A_8 -1.0
    FSB_S0_B1_A_8 SB_S0_A_8 1.0
    FSB_S0_B1_A_8 LSB_S0_B1_8 1.0
    FSB_S0_B1_A_8 BB_B1_A_8 -1.0
    IS_S0_A_9 SB_S0_A_9 1.0
    IS_S0_A_9 SB_S0_A_10 -1.0
    IS_S0_A_9 SCAP_S0_9 1.0
    FSB_S0_B0_A_9 SB_S0_A_9 1.0
    FSB_S0_B0_A_9 LSB_S0_B0_9 1.0
    FSB_S0_B0_A_9 BB_B0_A_9 -1.0
    FSB_S0_B1_A_9 SB_S0_A_9 1.0
    FSB_S0_B1_A_9 LSB_S0_B1_9 1.0
    FSB_S0_B1_A_9 BB_B1_A_9 -1.0
    IS_S0_A_10 SB_S0_A_10 1.0
    IS_S0_A_10 SB_S0_A_11 -1.0
    IS_S0_A_10 SCAP_S0_10 1.0
    FSB_S0_B0_A_10 SB_S0_A_10 1.0
    FSB_S0_B0_A_10 LSB_S0_B0_10 1.0
    FSB_S0_B0_A_10 BB_B0_A_10 -1.0
    FSB_S0_B1_A_10 SB_S0_A_10 1.0
    FSB_S0_B1_A_10 LSB_S0_B1_10 1.0
    FSB_S0_B1_A_10 BB_B1_A_10 -1.0
    IS_S0_A_11 OBJ 0.05
    IS_S0_A_11 SB_S0_A_11 1.0
    IS_S0_A_11 SCAP_S0_11 1.0
    FSB_S0_B0_A_11 SB_S0_A_11 1.0
    FSB_S0_B0_A_11 LSB_S0_B0_11 1.0
    FSB_S0_B0_A_11 BB_B0_A_11 -1.0
    FSB_S0_B1_A_11 SB_S0_A_11 1.0
    FSB_S0_B1_A_11 LSB_S0_B1_11 1.0
    FSB_S0_B1_A_11 BB_B1_A_11 -1.0
    IS_S0_B_0 SB_S0_B_0 1.0
    IS_S0_B_0 SB_S0_B_1 -1.0
    IS_S0_B_0 SCAP_S0_0 1.0
    FSB_S0_B0_B_0 SB_S0_B_0 1.0
    FSB_S0_B0_B_0 LSB_S0_B0_0 1.0
    FSB_S0_B0_B_0 BB_B0_B_0 -1.0
    FSB_S0_B1_B_0 SB_S0_B_0 1.0
    FSB_S0_B1_B_0 LSB_S0_B1_0 1.0
    FSB_S0_B1_B_0 BB_B1_B_0 -1.0
    IS_S0_B_1 SB_S0_B_1 1.0
    IS_S0_B_1 SB_S0_B_2 -1.0
    IS_S0_B_1 SCAP_S0_1 1.0
    FSB_S0_B0_B_1 SB_S0_B_1 1.0
    FSB_S0_B0_B_1 LSB_S0_B0_1 1.0
    FSB_S0_B0_B_1 BB_B0_B_1 -1.0
    FSB_S0_B1_B_1 SB_S0_B_1 1.0
    FSB_S0_B1_B_1 LSB_S0_B1_1 1.0
    FSB_S0_B1_B_1 BB_B1_B_1 -1.0
    IS_S0_B_2 SB_S0_B_2 1.0
    IS_S0_B_2 SB_S0_B_3 -1.0
    IS_S0_B_2 SCAP_S0_2 1.0
    FSB_S0_B0_B_2 SB_S0_B_2 1.0
    FSB_S0_B0_B_2 LSB_S0_B0_2 1.0
    FSB_S0_B0_B_2 BB_B0_B_2 -1.0
    FSB_S0_B1_B_2 SB_S0_B_2 1.0
    FSB_S0_B1_B_2 LSB_S0_B1_2 1.0
    FSB_S0_B1_B_2 BB_B1_B_2 -1.0
    IS_S0_B_3 SB_S0_B_3 1.0
    IS_S0_B_3 SB_S0_B_4 -1.0
    IS_S0_B_3 SCAP_S0_3 1.0
    FSB_S0_B0_B_3 SB_S0_B_3 1.0
    FSB_S0_B0_B_3 LSB_S0_B0_3 1.0
    FSB_S0_B0_B_3 BB_B0_B_3 -1.0
    FSB_S0_B1_B_3 SB_S0_B_3 1.0
    FSB_S0_B1_B_3 LSB_S0_B1_3 1.0
    FSB_S0_B1_B_3 BB_B1_B_3 -1.0
    IS_S0_B_4 SB_S0_B_4 1.0
    IS_S0_B_4 SB_S0_B_5 -1.0
    IS_S0_B_4 SCAP_S0_4 1.0
    FSB_S0_B0_B_4 SB_S0_B_4 1.0
    FSB_S0_B0_B_4 LSB_S0_B0_4 1.0
    FSB_S0_B0_B_4 BB_B0_B_4 -1.0
    FSB_S0_B1_B_4 SB_S0_B_4 1.0
    FSB_S0_B1_B_4 LSB_S0_B1_4 1.0
    FSB_S0_B1_B_4 BB_B1_B_4 -1.0
    IS_S0_B_5 SB_S0_B_5 1.0
    IS_S0_B_5 SB_S0_B_6 -1.0
    IS_S0_B_5 SCAP_S0_5 1.0
    FSB_S0_B0_B_5 SB_S0_B_5 1.0
    FSB_S0_B0_B_5 LSB_S0_B0_5 1.0
    FSB_S0_B0_B_5 BB_B0_B_5 -1.0
    FSB_S0_B1_B_5 SB_S0_B_5 1.0
    FSB_S0_B1_B_5 LSB_S0_B1_5 1.0
    FSB_S0_B1_B_5 BB_B1_B_5 -1.0
    IS_S0_B_6 SB_S0_B_6 1.0
    IS_S0_B_6 SB_S0_B_7 -1.0
    IS_S0_B_6 SCAP_S0_6 1.0
    FSB_S0_B0_B_6 SB_S0_B_6 1.0
    FSB_S0_B0_B_6 LSB_S0_B0_6 1.0
    FSB_S0_B0_B_6 BB_B0_B_6 -1.0
    FSB_S0_B1_B_6 SB_S0_B_6 1.0
    FSB_S0_B1_B_6 LSB_S0_B1_6 1.0
    FSB_S0_B1_B_6 BB_B1_B_6 -1.0
    IS_S0_B_7 SB_S0_B_7 1.0
    IS_S0_B_7 SB_S0_B_8 -1.0
    IS_S0_B_7 SCAP_S0_7 1.0
    FSB_S0_B0_B_7 SB_S0_B_7 1.0
    FSB_S0_B0_B_7 LSB_S0_B0_7 1.0
    FSB_S0_B0_B_7 BB_B0_B_7 -1.0
    FSB_S0_B1_B_7 SB_S0_B_7 1.0
    FSB_S0_B1_B_7 LSB_S0_B1_7 1.0
    FSB_S0_B1_B_7 BB_B1_B_7 -1.0
    IS_S0_B_8 SB_S0_B_8 1.0
    IS_S0_B_8 SB_S0_B_9 -1.0
    IS_S0_B_8 SCAP_S0_8 1.0
    FSB_S0_B0_B_8 SB_S0_B_8 1.0
    FSB_S0_B0_B_8 LSB_S0_B0_8 1.0
    FSB_S0_B0_B_8 BB_B0_B_8 -1.0
    FSB_S0_B1_B_8 SB_S0_B_8 1.0
    FSB_S0_B1_B_8 LSB_S0_B1_8 1.0
    FSB_S0_B1_B_8 BB_B1_B_8 -1.0
    IS_S0_B_9 SB_S0_B_9 1.0
    IS_S0_B_9 SB_S0_B_10 -1.0
    IS_S0_B_9 SCAP_S0_9 1.0
    FSB_S0_B0_B_9 SB_S0_B_9 1.0
    FSB_S0_B0_B_9 LSB_S0_B0_9 1.0
    FSB_S0_B0_B_9 BB_B0_B_9 -1.0
    FSB_S0_B1_B_9 SB_S0_B_9 1.0
    FSB_S0_B1_B_9 LSB_S0_B1_9 1.0
    FSB_S0_B1_B_9 BB_B1_B_9 -1.0
    IS_S0_B_10 SB_S0_B_10 1.0
    IS_S0_B_10 SB_S0_B_11 -1.0
    IS_S0_B_10 SCAP_S0_10 1.0
    FSB_S0_B0_B_10 SB_S0_B_10 1.0
    FSB_S0_B0_B_10 LSB_S0_B0_10 1.0
    FSB_S0_B0_B_10 BB_B0_B_10 -1.0
    FSB_S0_B1_B_10 SB_S0_B_10 1.0
    FSB_S0_B1_B_10 LSB_S0_B1_10 1.0
    FSB_S0_B1_B_10 BB_B1_B_10 -1.0
    IS_S0_B_11 OBJ 0.05
    IS_S0_B_11 SB_S0_B_11 1.0
    IS_S0_B_11 SCAP_S0_11 1.0
    FSB_S0_B0_B_11 SB_S0_B_11 1.0
    FSB_S0_B0_B_11 LSB_S0_B0_11 1.0
    FSB_S0_B0_B_11 BB_B0_B_11 -1.0
    FSB_S0_B1_B_11 SB_S0_B_11 1.0
    FSB_S0_B1_B_11 LSB_S0_B1_11 1.0
    FSB_S0_B1_B_11 BB_B1_B_11 -1.0
    IS_S1_A_0 SB_S1_A_0 1.0
    IS_S1_A_0 SB_S1_A_1 -1.0
    IS_S1_A_0 SCAP_S1_0 1.0
    FSB_S1_B0_A_0 SB_S1_A_0 1.0
    FSB_S1_B0_A_0 LSB_S1_B0_0 1.0
    FSB_S1_B0_A_0 BB_B0_A_0 -1.0
    FSB_S1_B1_A_0 SB_S1_A_0 1.0
    FSB_S1_B1_A_0 LSB_S1_B1_0 1.0
    FSB_S1_B1_A_0 BB_B1_A_0 -1.0
    IS_S1_A_1 SB_S1_A_1 1.0
    IS_S1_A_1 SB_S1_A_2 -1.0
    IS_S1_A_1 SCAP_S1_1 1.0
    FSB_S1_B0_A_1 SB_S1_A_1 1.0
    FSB_S1_B0_A_1 LSB_S1_B0_1 1.0
    FSB_S1_B0_A_1 BB_B0_A_1 -1.0
    FSB_S1_B1_A_1 SB_S1_A_1 1.0
    FSB_S1_B1_A_1 LSB_S1_B1_1 1.0
    FSB_S1_B1_A_1 BB_B1_A_1 -1.0
    IS_S1_A_2 SB_S1_A_2 1.0
    IS_S1_A_2 SB_S1_A_3 -1.0
    IS_S1_A_2 SCAP_S1_2 1.0
    FSB_S1_B0_A_2 SB_S1_A_2 1.0
    FSB_S1_B0_A_2 LSB_S1_B0_2 1.0
    FSB_S1_B0_A_2 BB_B0_A_2 -1.0
    FSB_S1_B1_A_2 SB_S1_A_2 1.0
    FSB_S1_B1_A_2 LSB_S1_B1_2 1.0
    FSB_S1_B1_A_2 BB_B1_A_2 -1.0
    IS_S1_A_3 SB_S1_A_3 1.0
    IS_S1_A_3 SB_S1_A_4 -1.0
    IS_S1_A_3 SCAP_S1_3 1.0
    FSB_S1_B0_A_3 SB_S1_A_3 1.0
    FSB_S1_B0_A_3 LSB_S1_B0_3 1.0
    FSB_S1_B0_A_3 BB_B0_A_3 -1.0
    FSB_S1_B1_A_3 SB_S1_A_3 1.0
    FSB_S1_B1_A_3 LSB_S1_B1_3 1.0
    FSB_S1_B1_A_3 BB_B1_A_3 -1.0
    IS_S1_A_4 SB_S1_A_4 1.0
    IS_S1_A_4 SB_S1_A_5 -1.0
    IS_S1_A_4 SCAP_S1_4 1.0
    FSB_S1_B0_A_4 SB_S1_A_4 1.0
    FSB_S1_B0_A_4 LSB_S1_B0_4 1.0
    FSB_S1_B0_A_4 BB_B0_A_4 -1.0
    FSB_S1_B1_A_4 SB_S1_A_4 1.0
    FSB_S1_B1_A_4 LSB_S1_B1_4 1.0
    FSB_S1_B1_A_4 BB_B1_A_4 -1.0
    IS_S1_A_5 SB_S1_A_5 1.0
    IS_S1_A_5 SB_S1_A_6 -1.0
    IS_S1_A_5 SCAP_S1_5 1.0
    FSB_S1_B0_A_5 SB_S1_A_5 1.0
    FSB_S1_B0_A_5 LSB_S1_B0_5 1.0
    FSB_S1_B0_A_5 BB_B0_A_5 -1.0
    FSB_S1_B1_A_5 SB_S1_A_5 1.0
    FSB_S1_B1_A_5 LSB_S1_B1_5 1.0
    FSB_S1_B1_A_5 BB_B1_A_5 -1.0
    IS_S1_A_6 SB_S1_A_6 1.0
    IS_S1_A_6 SB_S1_A_7 -1.0
    IS_S1_A_6 SCAP_S1_6 1.0
    FSB_S1_B0_A_6 SB_S1_A_6 1.0
    FSB_S1_B0_A_6 LSB_S1_B0_6 1.0
    FSB_S1_B0_A_6 BB_B0_A_6 -1.0
    FSB_S1_B1_A_6 SB_S1_A_6 1.0
    FSB_S1_B1_A_6 LSB_S1_B1_6 1.0
    FSB_S1_B1_A_6 BB_B1_A_6 -1.0
    IS_S1_A_7 SB_S1_A_7 1.0
    IS_S1_A_7 SB_S1_A_8 -1.0
    IS_S1_A_7 SCAP_S1_7 1.0
    FSB_S1_B0_A_7 SB_S1_A_7 1.0
    FSB_S1_B0_A_7 LSB_S1_B0_7 1.0
    FSB_S1_B0_A_7 BB_B0_A_7 -1.0
    FSB_S1_B1_A_7 SB_S1_A_7 1.0
    FSB_S1_B1_A_7 LSB_S1_B1_7 1.0
    FSB_S1_B1_A_7 BB_B1_A_7 -1.0
    IS_S1_A_8 SB_S1_A_8 1.0
    IS_S1_A_8 SB_S1_A_9 -1.0
    IS_S1_A_8 SCAP_S1_8 1.0
    FSB_S1_B0_A_8 SB_S1_A_8 1.0
    FSB_S1_B0_A_8 LSB_S1_B0_8 1.0
    FSB_S1_B0_A_8 BB_B0_A_8 -1.0
    FSB_S1_B1_A_8 SB_S1_A_8 1.0
    FSB_S1_B1_A_8 LSB_S1_B1_8 1.0
    FSB_S1_B1_A_8 BB_B1_A_8 -1.0
    IS_S1_A_9 SB_S1_A_9 1.0
    IS_S1_A_9 SB_S1_A_10 -1.0
    IS_S1_A_9 SCAP_S1_9 1.0
    FSB_S1_B0_A_9 SB_S1_A_9 1.0
    FSB_S1_B0_A_9 LSB_S1_B0_9 1.0
    FSB_S1_B0_A_9 BB_B0_A_9 -1.0
    FSB_S1_B1_A_9 SB_S1_A_9 1.0
    FSB_S1_B1_A_9 LSB_S1_B1_9 1.0
    FSB_S1_B1_A_9 BB_B1_A_9 -1.0
    IS_S1_A_10 SB_S1_A_10 1.0
    IS_S1_A_10 SB_S1_A_11 -1.0
    IS_S1_A_10 SCAP_S1_10 1.0
    FSB_S1_B0_A_10 SB_S1_A_10 1.0
    FSB_S1_B0_A_10 LSB_S1_B0_10 1.0
    FSB_S1_B0_A_10 BB_B0_A_10 -1.0
    FSB_S1_B1_A_10 SB_S1_A_10 1.0
    FSB_S1_B1_A_10 LSB_S1_B1_10 1.0
    FSB_S1_B1_A_10 BB_B1_A_10 -1.0
    IS_S1_A_11 OBJ 0.05
    IS_S1_A_11 SB_S1_A_11 1.0
    IS_S1_A_11 SCAP_S1_11 1.0
    FSB_S1_B0_A_11 SB_S1_A_11 1.0
    FSB_S1_B0_A_11 LSB_S1_B0_11 1.0
    FSB_S1_B0_A_11 BB_B0_A_11 -1.0
    FSB_S1_B1_A_11 SB_S1_A_11 1.0
    FSB_S1_B1_A_11 LSB_S1_B1_11 1.0
    FSB_S1_B1_A_11 BB_B1_A_11 -1.0
    IS_S1_B_0 SB_S1_B_0 1.0
    IS_S1_B_0 SB_S1_B_1 -1.0
    IS_S1_B_0 SCAP_S1_0 1.0
    FSB_S1_B0_B_0 SB_S1_B_0 1.0
    FSB_S1_B0_B_0 LSB_S1_B0_0 1.0
    FSB_S1_B0_B_0 BB_B0_B_0 -1.0
    FSB_S1_B1_B_0 SB_S1_B_0 1.0
    FSB_S1_B1_B_0 LSB_S1_B1_0 1.0
    FSB_S1_B1_B_0 BB_B1_B_0 -1.0
    IS_S1_B_1 SB_S1_B_1 1.0
    IS_S1_B_1 SB_S1_B_2 -1.0
    IS_S1_B_1 SCAP_S1_1 1.0
    FSB_S1_B0_B_1 SB_S1_B_1 1.0
    FSB_S1_B0_B_1 LSB_S1_B0_1 1.0
    FSB_S1_B0_B_1 BB_B0_B_1 -1.0
    FSB_S1_B1_B_1 SB_S1_B_1 1.0
    FSB_S1_B1_B_1 LSB_S1_B1_1 1.0
    FSB_S1_B1_B_1 BB_B1_B_1 -1.0
    IS_S1_B_2 SB_S1_B_2 1.0
    IS_S1_B_2 SB_S1_B_3 -1.0
    IS_S1_B_2 SCAP_S1_2 1.0
    FSB_S1_B0_B_2 SB_S1_B_2 1.0
    FSB_S1_B0_B_2 LSB_S1_B0_2 1.0
    FSB_S1_B0_B_2 BB_B0_B_2 -1.0
    FSB_S1_B1_B_2 SB_S1_B_2 1.0
    FSB_S1_B1_B_2 LSB_S1_B1_2 1.0
    FSB_S1_B1_B_2 BB_B1_B_2 -1.0
    IS_S1_B_3 SB_S1_B_3 1.0
    IS_S1_B_3 SB_S1_B_4 -1.0
    IS_S1_B_3 SCAP_S1_3 1.0
    FSB_S1_B0_B_3 SB_S1_B_3 1.0
    FSB_S1_B0_B_3 LSB_S1_B0_3 1.0
    FSB_S1_B0_B_3 BB_B0_B_3 -1.0
    FSB_S1_B1_B_3 SB_S1_B_3 1.0
    FSB_S1_B1_B_3 LSB_S1_B1_3 1.0
    FSB_S1_B1_B_3 BB_B1_B_3 -1.0
    IS_S1_B_4 SB_S1_B_4 1.0
    IS_S1_B_4 SB_S1_B_5 -1.0
    IS_S1_B_4 SCAP_S1_4 1.0
    FSB_S1_B0_B_4 SB_S1_B_4 1.0
    FSB_S1_B0_B_4 LSB_S1_B0_4 1.0
    FSB_S1_B0_B_4 BB_B0_B_4 -1.0
    FSB_S1_B1_B_4 SB_S1_B_4 1.0
    FSB_S1_B1_B_4 LSB_S1_B1_4 1.0
    FSB_S1_B1_B_4 BB_B1_B_4 -1.0
    IS_S1_B_5 SB_S1_B_5 1.0
    IS_S1_B_5 SB_S1_B_6 -1.0
    IS_S1_B_5 SCAP_S1_5 1.0
    FSB_S1_B0_B_5 SB_S1_B_5 1.0
    FSB_S1_B0_B_5 LSB_S1_B0_5 1.0
    FSB_S1_B0_B_5 BB_B0_B_5 -1.0
    FSB_S1_B1_B_5 SB_S1_B_5 1.0
    FSB_S1_B1_B_5 LSB_S1_B1_5 1.0
    FSB_S1_B1_B_5 BB_B1_B_5 -1.0
    IS_S1_B_6 SB_S1_B_6 1.0
    IS_S1_B_6 SB_S1_B_7 -1.0
    IS_S1_B_6 SCAP_S1_6 1.0
    FSB_S1_B0_B_6 SB_S1_B_6 1.0
    FSB_S1_B0_B_6 LSB_S1_B0_6 1.0
    FSB_S1_B0_B_6 BB_B0_B_6 -1.0
    FSB_S1_B1_B_6 SB_S1_B_6 1.0
    FSB_S1_B1_B_6 LSB_S1_B1_6 1.0
    FSB_S1_B1_B_6 BB_B1_B_6 -1.0
    IS_S1_B_7 SB_S1_B_7 1.0
    IS_S1_B_7 SB_S1_B_8 -1.0
    IS_S1_B_7 SCAP_S1_7 1.0
    FSB_S1_B0_B_7 SB_S1_B_7 1.0
    FSB_S1_B0_B_7 LSB_S1_B0_7 1.0
    FSB_S1_B0_B_7 BB_B0_B_7 -1.0
    FSB_S1_B1_B_7 SB_S1_B_7 1.0
    FSB_S1_B1_B_7 LSB_S1_B1_7 1.0
    FSB_S1_B1_B_7 BB_B1_B_7 -1.0
    IS_S1_B_8 SB_S1_B_8 1.0
    IS_S1_B_8 SB_S1_B_9 -1.0
    IS_S1_B_8 SCAP_S1_8 1.0
    FSB_S1_B0_B_8 SB_S1_B_8 1.0
    FSB_S1_B0_B_8 LSB_S1_B0_8 1.0
    FSB_S1_B0_B_8 BB_B0_B_8 -1.0
    FSB_S1_B1_B_8 SB_S1_B_8 1.0
    FSB_S1_B1_B_8 LSB_S1_B1_8 1.0
    FSB_S1_B1_B_8 BB_B1_B_8 -1.0
    IS_S1_B_9 SB_S1_B_9 1.0
    IS_S1_B_9 SB_S1_B_10 -1.0
    IS_S1_B_9 SCAP_S1_9 1.0
    FSB_S1_B0_B_9 SB_S1_B_9 1.0
    FSB_S1_B0_B_9 LSB_S1_B0_9 1.0
    FSB_S1_B0_B_9 BB_B0_B_9 -1.0
    FSB_S1_B1_B_9 SB_S1_B_9 1.0
    FSB_S1_B1_B_9 LSB_S1_B1_9 1.0
    FSB_S1_B1_B_9 BB_B1_B_9 -1.0
    IS_S1_B_10 SB_S1_B_10 1.0
    IS_S1_B_10 SB_S1_B_11 -1.0
    IS_S1_B_10 SCAP_S1_10 1.0
    FSB_S1_B0_B_10 SB_S1_B_10 1.0
    FSB_S1_B0_B_10 LSB_S1_B0_10 1.0
    FSB_S1_B0_B_10 BB_B0_B_10 -1.0
    FSB_S1_B1_B_10 SB_S1_B_10 1.0
    FSB_S1_B1_B_10 LSB_S1_B1_10 1.0
    FSB_S1_B1_B_10 BB_B1_B_10 -1.0
    IS_S1_B_11 OBJ 0.05
    IS_S1_B_11 SB_S1_B_11 1.0
    IS_S1_B_11 SCAP_S1_11 1.0
    FSB_S1_B0_B_11 SB_S1_B_11 1.0
    FSB_S1_B0_B_11 LSB_S1_B0_11 1.0
    FSB_S1_B0_B_11 BB_B0_B_11 -1.0
    FSB_S1_B1_B_11 SB_S1_B_11 1.0
    FSB_S1_B1_B_11 LSB_S1_B1_11 1.0
    FSB_S1_B1_B_11 BB_B1_B_11 -1.0
    IS_S2_A_0 SB_S2_A_0 1.0
    IS_S2_A_0 SB_S2_A_1 -1.0
    IS_S2_A_0 SCAP_S2_0 1.0
    FSB_S2_B0_A_0 SB_S2_A_0 1.0
    FSB_S2_B0_A_0 LSB_S2_B0_0 1.0
    FSB_S2_B0_A_0 BB_B0_A_0 -1.0
    FSB_S2_B1_A_0 SB_S2_A_0 1.0
    FSB_S2_B1_A_0 LSB_S2_B1_0 1.0
    FSB_S2_B1_A_0 BB_B1_A_0 -1.0
    IS_S2_A_1 SB_S2_A_1 1.0
    IS_S2_A_1 SB_S2_A_2 -1.0
    IS_S2_A_1 SCAP_S2_1 1.0
    FSB_S2_B0_A_1 SB_S2_A_1 1.0
    FSB_S2_B0_A_1 LSB_S2_B0_1 1.0
    FSB_S2_B0_A_1 BB_B0_A_1 -1.0
    FSB_S2_B1_A_1 SB_S2_A_1 1.0
    FSB_S2_B1_A_1 LSB_S2_B1_1 1.0
    FSB_S2_B1_A_1 BB_B1_A_1 -1.0
    IS_S2_A_2 SB_S2_A_2 1.0
    IS_S2_A_2 SB_S2_A_3 -1.0
    IS_S2_A_2 SCAP_S2_2 1.0
    FSB_S2_B0_A_2 SB_S2_A_2 1.0
    FSB_S2_B0_A_2 LSB_S2_B0_2 1.0
    FSB_S2_B0_A_2 BB_B0_A_2 -1.0
    FSB_S2_B1_A_2 SB_S2_A_2 1.0
    FSB_S2_B1_A_2 LSB_S2_B1_2 1.0
    FSB_S2_B1_A_2 BB_B1_A_2 -1.0
    IS_S2_A_3 SB_S2_A_3 1.0
    IS_S2_A_3 SB_S2_A_4 -1.0
    IS_S2_A_3 SCAP_S2_3 1.0
    FSB_S2_B0_A_3 SB_S2_A_3 1.0
    FSB_S2_B0_A_3 LSB_S2_B0_3 1.0
    FSB_S2_B0_A_3 BB_B0_A_3 -1.0
    FSB_S2_B1_A_3 SB_S2_A_3 1.0
    FSB_S2_B1_A_3 LSB_S2_B1_3 1.0
    FSB_S2_B1_A_3 BB_B1_A_3 -1.0
    IS_S2_A_4 SB_S2_A_4 1.0
    IS_S2_A_4 SB_S2_A_5 -1.0
    IS_S2_A_4 SCAP_S2_4 1.0
    FSB_S2_B0_A_4 SB_S2_A_4 1.0
    FSB_S2_B0_A_4 LSB_S2_B0_4 1.0
    FSB_S2_B0_A_4 BB_B0_A_4 -1.0
    FSB_S2_B1_A_4 SB_S2_A_4 1.0
    FSB_S2_B1_A_4 LSB_S2_B1_4 1.0
    FSB_S2_B1_A_4 BB_B1_A_4 -1.0
    IS_S2_A_5 SB_S2_A_5 1.0
    IS_S2_A_5 SB_S2_A_6 -1.0
    IS_S2_A_5 SCAP_S2_5 1.0
    FSB_S2_B0_A_5 SB_S2_A_5 1.0
    FSB_S2_B0_A_5 LSB_S2_B0_5 1.0
    FSB_S2_B0_A_5 BB_B0_A_5 -1.0
    FSB_S2_B1_A_5 SB_S2_A_5 1.0
    FSB_S2_B1_A_5 LSB_S2_B1_5 1.0
    FSB_S2_B1_A_5 BB_B1_A_5 -1.0
    IS_S2_A_6 SB_S2_A_6 1.0
    IS_S2_A_6 SB_S2_A_7 -1.0
    IS_S2_A_6 SCAP_S2_6 1.0
    FSB_S2_B0_A_6 SB_S2_A_6 1.0
    FSB_S2_B0_A_6 LSB_S2_B0_6 1.0
    FSB_S2_B0_A_6 BB_B0_A_6 -1.0
    FSB_S2_B1_A_6 SB_S2_A_6 1.0
    FSB_S2_B1_A_6 LSB_S2_B1_6 1.0
    FSB_S2_B1_A_6 BB_B1_A_6 -1.0
    IS_S2_A_7 SB_S2_A_7 1.0
    IS_S2_A_7 SB_S2_A_8 -1.0
    IS_S2_A_7 SCAP_S2_7 1.0
    FSB_S2_B0_A_7 SB_S2_A_7 1.0
    FSB_S2_B0_A_7 LSB_S2_B0_7 1.0
    FSB_S2_B0_A_7 BB_B0_A_7 -1.0
    FSB_S2_B1_A_7 SB_S2_A_7 1.0
    FSB_S2_B1_A_7 LSB_S2_B1_7 1.0
    FSB_S2_B1_A_7 BB_B1_A_7 -1.0
    IS_S2_A_8 SB_S2_A_8 1.0
    IS_S2_A_8 SB_S2_A_9 -1.0
    IS_S2_A_8 SCAP_S2_8 1.0
    FSB_S2_B0_A_8 SB_S2_A_8 1.0
    FSB_S2_B0_A_8 LSB_S2_B0_8 1.0
    FSB_S2_B0_A_8 BB_B0_A_8 -1.0
    FSB_S2_B1_A_8 SB_S2_A_8 1.0
    FSB_S2_B1_A_8 LSB_S2_B1_8 1.0
    FSB_S2_B1_A_8 BB_B1_A_8 -1.0
    IS_S2_A_9 SB_S2_A_9 1.0
    IS_S2_A_9 SB_S2_A_10 -1.0
    IS_S2_A_9 SCAP_S2_9 1.0
    FSB_S2_B0_A_9 SB_S2_A_9 1.0
    FSB_S2_B0_A_9 LSB_S2_B0_9 1.0
    FSB_S2_B0_A_9 BB_B0_A_9 -1.0
    FSB_S2_B1_A_9 SB_S2_A_9 1.0
    FSB_S2_B1_A_9 LSB_S2_B1_9 1.0
    FSB_S2_B1_A_9 BB_B1_A_9 -1.0
    IS_S2_A_10 SB_S2_A_10 1.0
    IS_S2_A_10 SB_S2_A_11 -1.0
    IS_S2_A_10 SCAP_S2_10 1.0
    FSB_S2_B0_A_10 SB_S2_A_10 1.0
    FSB_S2_B0_A_10 LSB_S2_B0_10 1.0
    FSB_S2_B0_A_10 BB_B0_A_10 -1.0
    FSB_S2_B1_A_10 SB_S2_A_10 1.0
    FSB_S2_B1_A_10 LSB_S2_B1_10 1.0
    FSB_S2_B1_A_10 BB_B1_A_10 -1.0
    IS_S2_A_11 OBJ 0.05
    IS_S2_A_11 SB_S2_A_11 1.0
    IS_S2_A_11 SCAP_S2_11 1.0
    FSB_S2_B0_A_11 SB_S2_A_11 1.0
    FSB_S2_B0_A_11 LSB_S2_B0_11 1.0
    FSB_S2_B0_A_11 BB_B0_A_11 -1.0
    FSB_S2_B1_A_11 SB_S2_A_11 1.0
    FSB_S2_B1_A_11 LSB_S2_B1_11 1.0
    FSB_S2_B1_A_11 BB_B1_A_11 -1.0
    IS_S2_B_0 SB_S2_B_0 1.0
    IS_S2_B_0 SB_S2_B_1 -1.0
    IS_S2_B_0 SCAP_S2_0 1.0
    FSB_S2_B0_B_0 SB_S2_B_0 1.0
    FSB_S2_B0_B_0 LSB_S2_B0_0 1.0
    FSB_S2_B0_B_0 BB_B0_B_0 -1.0
    FSB_S2_B1_B_0 SB_S2_B_0 1.0
    FSB_S2_B1_B_0 LSB_S2_B1_0 1.0
    FSB_S2_B1_B_0 BB_B1_B_0 -1.0
    IS_S2_B_1 SB_S2_B_1 1.0
    IS_S2_B_1 SB_S2_B_2 -1.0
    IS_S2_B_1 SCAP_S2_1 1.0
    FSB_S2_B0_B_1 SB_S2_B_1 1.0
    FSB_S2_B0_B_1 LSB_S2_B0_1 1.0
    FSB_S2_B0_B_1 BB_B0_B_1 -1.0
    FSB_S2_B1_B_1 SB_S2_B_1 1.0
    FSB_S2_B1_B_1 LSB_S2_B1_1 1.0
    FSB_S2_B1_B_1 BB_B1_B_1 -1.0
    IS_S2_B_2 SB_S2_B_2 1.0
    IS_S2_B_2 SB_S2_B_3 -1.0
    IS_S2_B_2 SCAP_S2_2 1.0
    FSB_S2_B0_B_2 SB_S2_B_2 1.0
    FSB_S2_B0_B_2 LSB_S2_B0_2 1.0
    FSB_S2_B0_B_2 BB_B0_B_2 -1.0
    FSB_S2_B1_B_2 SB_S2_B_2 1.0
    FSB_S2_B1_B_2 LSB_S2_B1_2 1.0
    FSB_S2_B1_B_2 BB_B1_B_2 -1.0
    IS_S2_B_3 SB_S2_B_3 1.0
    IS_S2_B_3 SB_S2_B_4 -1.0
    IS_S2_B_3 SCAP_S2_3 1.0
    FSB_S2_B0_B_3 SB_S2_B_3 1.0
    FSB_S2_B0_B_3 LSB_S2_B0_3 1.0
    FSB_S2_B0_B_3 BB_B0_B_3 -1.0
    FSB_S2_B1_B_3 SB_S2_B_3 1.0
    FSB_S2_B1_B_3 LSB_S2_B1_3 1.0
    FSB_S2_B1_B_3 BB_B1_B_3 -1.0
    IS_S2_B_4 SB_S2_B_4 1.0
    IS_S2_B_4 SB_S2_B_5 -1.0
    IS_S2_B_4 SCAP_S2_4 1.0
    FSB_S2_B0_B_4 SB_S2_B_4 1.0
    FSB_S2_B0_B_4 LSB_S2_B0_4 1.0
    FSB_S2_B0_B_4 BB_B0_B_4 -1.0
    FSB_S2_B1_B_4 SB_S2_B_4 1.0
    FSB_S2_B1_B_4 LSB_S2_B1_4 1.0
    FSB_S2_B1_B_4 BB_B1_B_4 -1.0
    IS_S2_B_5 SB_S2_B_5 1.0
    IS_S2_B_5 SB_S2_B_6 -1.0
    IS_S2_B_5 SCAP_S2_5 1.0
    FSB_S2_B0_B_5 SB_S2_B_5 1.0
    FSB_S2_B0_B_5 LSB_S2_B0_5 1.0
    FSB_S2_B0_B_5 BB_B0_B_5 -1.0
    FSB_S2_B1_B_5 SB_S2_B_5 1.0
    FSB_S2_B1_B_5 LSB_S2_B1_5 1.0
    FSB_S2_B1_B_5 BB_B1_B_5 -1.0
    IS_S2_B_6 SB_S2_B_6 1.0
    IS_S2_B_6 SB_S2_B_7 -1.0
    IS_S2_B_6 SCAP_S2_6 1.0
    FSB_S2_B0_B_6 SB_S2_B_6 1.0
    FSB_S2_B0_B_6 LSB_S2_B0_6 1.0
    FSB_S2_B0_B_6 BB_B0_B_6 -1.0
    FSB_S2_B1_B_6 SB_S2_B_6 1.0
    FSB_S2_B1_B_6 LSB_S2_B1_6 1.0
    FSB_S2_B1_B_6 BB_B1_B_6 -1.0
    IS_S2_B_7 SB_S2_B_7 1.0
    IS_S2_B_7 SB_S2_B_8 -1.0
    IS_S2_B_7 SCAP_S2_7 1.0
    FSB_S2_B0_B_7 SB_S2_B_7 1.0
    FSB_S2_B0_B_7 LSB_S2_B0_7 1.0
    FSB_S2_B0_B_7 BB_B0_B_7 -1.0
    FSB_S2_B1_B_7 SB_S2_B_7 1.0
    FSB_S2_B1_B_7 LSB_S2_B1_7 1.0
    FSB_S2_B1_B_7 BB_B1_B_7 -1.0
    IS_S2_B_8 SB_S2_B_8 1.0
    IS_S2_B_8 SB_S2_B_9 -1.0
    IS_S2_B_8 SCAP_S2_8 1.0
    FSB_S2_B0_B_8 SB_S2_B_8 1.0
    FSB_S2_B0_B_8 LSB_S2_B0_8 1.0
    FSB_S2_B0_B_8 BB_B0_B_8 -1.0
    FSB_S2_B1_B_8 SB_S2_B_8 1.0
    FSB_S2_B1_B_8 LSB_S2_B1_8 1.0
    FSB_S2_B1_B_8 BB_B1_B_8 -1.0
    IS_S2_B_9 SB_S2_B_9 1.0
    IS_S2_B_9 SB_S2_B_10 -1.0
    IS_S2_B_9 SCAP_S2_9 1.0
    FSB_S2_B0_B_9 SB_S2_B_9 1.0
    FSB_S2_B0_B_9 LSB_S2_B0_9 1.0
    FSB_S2_B0_B_9 BB_B0_B_9 -1.0
    FSB_S2_B1_B_9 SB_S2_B_9 1.0
    FSB_S2_B1_B_9 LSB_S2_B1_9 1.0
    FSB_S2_B1_B_9 BB_B1_B_9 -1.0
    IS_S2_B_10 SB_S2_B_10 1.0
    IS_S2_B_10 SB_S2_B_11 -1.0
    IS_S2_B_10 SCAP_S2_10 1.0
    FSB_S2_B0_B_10 SB_S2_B_10 1.0
    FSB_S2_B0_B_10 LSB_S2_B0_10 1.0
    FSB_S2_B0_B_10 BB_B0_B_10 -1.0
    FSB_S2_B1_B_10 SB_S2_B_10 1.0
    FSB_S2_B1_B_10 LSB_S2_B1_10 1.0
    FSB_S2_B1_B_10 BB_B1_B_10 -1.0
    IS_S2_B_11 OBJ 0.05
    IS_S2_B_11 SB_S2_B_11 1.0
    IS_S2_B_11 SCAP_S2_11 1.0
    FSB_S2_B0_B_11 SB_S2_B_11 1.0
    FSB_S2_B0_B_11 LSB_S2_B0_11 1.0
    FSB_S2_B0_B_11 BB_B0_B_11 -1.0
    FSB_S2_B1_B_11 SB_S2_B_11 1.0
    FSB_S2_B1_B_11 LSB_S2_B1_11 1.0
    FSB_S2_B1_B_11 BB_B1_B_11 -1.0
    M1924 'MARKER' 'INTORG'
    YSB_S0_B0_0 OBJ 5.0
    YSB_S0_B0_0 LSB_S0_B0_0 -40.0
    YSB_S0_B0_0 ONEIN_B0_0 1.0
    YSB_S0_B0_1 OBJ 5.0
    YSB_S0_B0_1 LSB_S0_B0_1 -40.0
    YSB_S0_B0_1 ONEIN_B0_1 1.0
    YSB_S0_B0_2 OBJ 5.0
    YSB_S0_B0_2 LSB_S0_B0_2 -40.0
    YSB_S0_B0_2 ONEIN_B0_2 1.0
    YSB_S0_B0_3 OBJ 5.0
    YSB_S0_B0_3 LSB_S0_B0_3 -40.0
    YSB_S0_B0_3 ONEIN_B0_3 1.0
    YSB_S0_B0_4 OBJ 5.0
    YSB_S0_B0_4 LSB_S0_B0_4 -40.0
    YSB_S0_B0_4 ONEIN_B0_4 1.0
    YSB_S0_B0_5 OBJ 5.0
    YSB_S0_B0_5 LSB_S0_B0_5 -40.0
    YSB_S0_B0_5 ONEIN_B0_5 1.0
    YSB_S0_B0_6 OBJ 5.0
    YSB_S0_B0_6 LSB_S0_B0_6 -40.0
    YSB_S0_B0_6 ONEIN_B0_6 1.0
    YSB_S0_B0_7 OBJ 5.0
    YSB_S0_B0_7 LSB_S0_B0_7 -40.0
    YSB_S0_B0_7 ONEIN_B0_7 1.0
    YSB_S0_B0_8 OBJ 5.0
    YSB_S0_B0_8 LSB_S0_B0_8 -40.0
    YSB_S0_B0_8 ONEIN_B0_8 1.0
    YSB_S0_B0_9 OBJ 5.0
    YSB_S0_B0_9 LSB_S0_B0_9 -40.0
    YSB_S0_B0_9 ONEIN_B0_9 1.0
    YSB_S0_B0_10 OBJ 5.0
    YSB_S0_B0_10 LSB_S0_B0_10 -40.0
    YSB_S0_B0_10 ONEIN_B0_10 1.0
    YSB_S0_B0_11 OBJ 5.0
    YSB_S0_B0_11 LSB_S0_B0_11 -40.0
    YSB_S0_B0_11 ONEIN_B0_11 1.0
    YSB_S0_B1_0 OBJ 5.0
    YSB_S0_B1_0 LSB_S0_B1_0 -40.0
    YSB_S0_B1_0 ONEIN_B1_0 1.0
    YSB_S0_B1_1 OBJ 5.0
    YSB_S0_B1_1 LSB_S0_B1_1 -40.0
    YSB_S0_B1_1 ONEIN_B1_1 1.0
    YSB_S0_B1_2 OBJ 5.0
    YSB_S0_B1_2 LSB_S0_B1_2 -40.0
    YSB_S0_B1_2 ONEIN_B1_2 1.0
    YSB_S0_B1_3 OBJ 5.0
    YSB_S0_B1_3 LSB_S0_B1_3 -40.0
    YSB_S0_B1_3 ONEIN_B1_3 1.0
    YSB_S0_B1_4 OBJ 5.0
    YSB_S0_B1_4 LSB_S0_B1_4 -40.0
    YSB_S0_B1_4 ONEIN_B1_4 1.0
    YSB_S0_B1_5 OBJ 5.0
    YSB_S0_B1_5 LSB_S0_B1_5 -40.0
    YSB_S0_B1_5 ONEIN_B1_5 1.0
    YSB_S0_B1_6 OBJ 5.0
    YSB_S0_B1_6 LSB_S0_B1_6 -40.0
    YSB_S0_B1_6 ONEIN_B1_6 1.0
    YSB_S0_B1_7 OBJ 5.0
    YSB_S0_B1_7 LSB_S0_B1_7 -40.0
    YSB_S0_B1_7 ONEIN_B1_7 1.0
    YSB_S0_B1_8 OBJ 5.0
    YSB_S0_B1_8 LSB_S0_B1_8 -40.0
    YSB_S0_B1_8 ONEIN_B1_8 1.0
    YSB_S0_B1_9 OBJ 5.0
    YSB_S0_B1_9 LSB_S0_B1_9 -40.0
    YSB_S0_B1_9 ONEIN_B1_9 1.0
    YSB_S0_B1_10 OBJ 5.0
    YSB_S0_B1_10 LSB_S0_B1_10 -40.0
    YSB_S0_B1_10 ONEIN_B1_10 1.0
    YSB_S0_B1_11 OBJ 5.0
    YSB_S0_B1_11 LSB_S0_B1_11 -40.0
    YSB_S0_B1_11 ONEIN_B1_11 1.0
    YSB_S1_B0_0 OBJ 5.0
    YSB_S1_B0_0 LSB_S1_B0_0 -40.0
    YSB_S1_B0_0 ONEIN_B0_0 1.0
    YSB_S1_B0_1 OBJ 5.0
    YSB_S1_B0_1 LSB_S1_B0_1 -40.0
    YSB_S1_B0_1 ONEIN_B0_1 1.0
    YSB_S1_B0_2 OBJ 5.0
    YSB_S1_B0_2 LSB_S1_B0_2 -40.0
    YSB_S1_B0_2 ONEIN_B0_2 1.0
    YSB_S1_B0_3 OBJ 5.0
    YSB_S1_B0_3 LSB_S1_B0_3 -40.0
    YSB_S1_B0_3 ONEIN_B0_3 1.0
    YSB_S1_B0_4 OBJ 5.0
    YSB_S1_B0_4 LSB_S1_B0_4 -40.0
    YSB_S1_B0_4 ONEIN_B0_4 1.0
    YSB_S1_B0_5 OBJ 5.0
    YSB_S1_B0_5 LSB_S1_B0_5 -40.0
    YSB_S1_B0_5 ONEIN_B0_5 1.0
    YSB_S1_B0_6 OBJ 5.0
    YSB_S1_B0_6 LSB_S1_B0_6 -40.0
    YSB_S1_B0_6 ONEIN_B0_6 1.0
    YSB_S1_B0_7 OBJ 5.0
    YSB_S1_B0_7 LSB_S1_B0_7 -40.0
    YSB_S1_B0_7 ONEIN_B0_7 1.0
    YSB_S1_B0_8 OBJ 5.0
    YSB_S1_B0_8 LSB_S1_B0_8 -40.0
    YSB_S1_B0_8 ONEIN_B0_8 1.0
    YSB_S1_B0_9 OBJ 5.0
    YSB_S1_B0_9 LSB_S1_B0_9 -40.0
    YSB_S1_B0_9 ONEIN_B0_9 1.0
    YSB_S1_B0_10 OBJ 5.0
    YSB_S1_B0_10 LSB_S1_B0_10 -40.0
    YSB_S1_B0_10 ONEIN_B0_10 1.0
    YSB_S1_B0_11 OBJ 5.0
    YSB_S1_B0_11 LSB_S1_B0_11 -40.0
    YSB_S1_B0_11 ONEIN_B0_11 1.0
    YSB_S1_B1_0 OBJ 5.0
    YSB_S1_B1_0 LSB_S1_B1_0 -40.0
    YSB_S1_B1_0 ONEIN_B1_0 1.0
    YSB_S1_B1_1 OBJ 5.0
    YSB_S1_B1_1 LSB_S1_B1_1 -40.0
    YSB_S1_B1_1 ONEIN_B1_1 1.0
    YSB_S1_B1_2 OBJ 5.0
    YSB_S1_B1_2 LSB_S1_B1_2 -40.0
    YSB_S1_B1_2 ONEIN_B1_2 1.0
    YSB_S1_B1_3 OBJ 5.0
    YSB_S1_B1_3 LSB_S1_B1_3 -40.0
    YSB_S1_B1_3 ONEIN_B1_3 1.0
    YSB_S1_B1_4 OBJ 5.0
    YSB_S1_B1_4 LSB_S1_B1_4 -40.0
    YSB_S1_B1_4 ONEIN_B1_4 1.0
    YSB_S1_B1_5 OBJ 5.0
    YSB_S1_B1_5 LSB_S1_B1_5 -40.0
    YSB_S1_B1_5 ONEIN_B1_5 1.0
    YSB_S1_B1_6 OBJ 5.0
    YSB_S1_B1_6 LSB_S1_B1_6 -40.0
    YSB_S1_B1_6 ONEIN_B1_6 1.0
    YSB_S1_B1_7 OBJ 5.0
    YSB_S1_B1_7 LSB_S1_B1_7 -40.0
    YSB_S1_B1_7 ONEIN_B1_7 1.0
    YSB_S1_B1_8 OBJ 5.0
    YSB_S1_B1_8 LSB_S1_B1_8 -40.0
    YSB_S1_B1_8 ONEIN_B1_8 1.0
    YSB_S1_B1_9 OBJ 5.0
    YSB_S1_B1_9 LSB_S1_B1_9 -40.0
    YSB_S1_B1_9 ONEIN_B1_9 1.0
    YSB_S1_B1_10 OBJ 5.0
    YSB_S1_B1_10 LSB_S1_B1_10 -40.0
    YSB_S1_B1_10 ONEIN_B1_10 1.0
    YSB_S1_B1_11 OBJ 5.0
    YSB_S1_B1_11 LSB_S1_B1_11 -40.0
    YSB_S1_B1_11 ONEIN_B1_11 1.0
    YSB_S2_B0_0 OBJ 5.0
    YSB_S2_B0_0 LSB_S2_B0_0 -40.0
    YSB_S2_B0_0 ONEIN_B0_0 1.0
    YSB_S2_B0_1 OBJ 5.0
    YSB_S2_B0_1 LSB_S2_B0_1 -40.0
    YSB_S2_B0_1 ONEIN_B0_1 1.0
    YSB_S2_B0_2 OBJ 5.0
    YSB_S2_B0_2 LSB_S2_B0_2 -40.0
    YSB_S2_B0_2 ONEIN_B0_2 1.0
    YSB_S2_B0_3 OBJ 5.0
    YSB_S2_B0_3 LSB_S2_B0_3 -40.0
    YSB_S2_B0_3 ONEIN_B0_3 1.0
    YSB_S2_B0_4 OBJ 5.0
    YSB_S2_B0_4 LSB_S2_B0_4 -40.0
    YSB_S2_B0_4 ONEIN_B0_4 1.0
    YSB_S2_B0_5 OBJ 5.0
    YSB_S2_B0_5 LSB_S2_B0_5 -40.0
    YSB_S2_B0_5 ONEIN_B0_5 1.0
    YSB_S2_B0_6 OBJ 5.0
    YSB_S2_B0_6 LSB_S2_B0_6 -40.0
    YSB_S2_B0_6 ONEIN_B0_6 1.0
    YSB_S2_B0_7 OBJ 5.0
    YSB_S2_B0_7 LSB_S2_B0_7 -40.0
    YSB_S2_B0_7 ONEIN_B0_7 1.0
    YSB_S2_B0_8 OBJ 5.0
    YSB_S2_B0_8 LSB_S2_B0_8 -40.0
    YSB_S2_B0_8 ONEIN_B0_8 1.0
    YSB_S2_B0_9 OBJ 5.0
    YSB_S2_B0_9 LSB_S2_B0_9 -40.0
    YSB_S2_B0_9 ONEIN_B0_9 1.0
    YSB_S2_B0_10 OBJ 5.0
    YSB_S2_B0_10 LSB_S2_B0_10 -40.0
    YSB_S2_B0_10 ONEIN_B0_10 1.0
    YSB_S2_B0_11 OBJ 5.0
    YSB_S2_B0_11 LSB_S2_B0_11 -40.0
    YSB_S2_B0_11 ONEIN_B0_11 1.0
    YSB_S2_B1_0 OBJ 5.0
    YSB_S2_B1_0 LSB_S2_B1_0 -40.0
    YSB_S2_B1_0 ONEIN_B1_0 1.0
    YSB_S2_B1_1 OBJ 5.0
    YSB_S2_B1_1 LSB_S2_B1_1 -40.0
    YSB_S2_B1_1 ONEIN_B1_1 1.0
    YSB_S2_B1_2 OBJ 5.0
    YSB_S2_B1_2 LSB_S2_B1_2 -40.0
    YSB_S2_B1_2 ONEIN_B1_2 1.0
    YSB_S2_B1_3 OBJ 5.0
    YSB_S2_B1_3 LSB_S2_B1_3 -40.0
    YSB_S2_B1_3 ONEIN_B1_3 1.0
    YSB_S2_B1_4 OBJ 5.0
    YSB_S2_B1_4 LSB_S2_B1_4 -40.0
    YSB_S2_B1_4 ONEIN_B1_4 1.0
    YSB_S2_B1_5 OBJ 5.0
    YSB_S2_B1_5 LSB_S2_B1_5 -40.0
    YSB_S2_B1_5 ONEIN_B1_5 1.0
    YSB_S2_B1_6 OBJ 5.0
    YSB_S2_B1_6 LSB_S2_B1_6 -40.0
    YSB_S2_B1_6 ONEIN_B1_6 1.0
    YSB_S2_B1_7 OBJ 5.0
    YSB_S2_B1_7 LSB_S2_B1_7 -40.0
    YSB_S2_B1_7 ONEIN_B1_7 1.0
    YSB_S2_B1_8 OBJ 5.0
    YSB_S2_B1_8 LSB_S2_B1_8 -40.0
    YSB_S2_B1_8 ONEIN_B1_8 1.0
    YSB_S2_B1_9 OBJ 5.0
    YSB_S2_B1_9 LSB_S2_B1_9 -40.0
    YSB_S2_B1_9 ONEIN_B1_9 1.0
    YSB_S2_B1_10 OBJ 5.0
    YSB_S2_B1_10 LSB_S2_B1_10 -40.0
    YSB_S2_B1_10 ONEIN_B1_10 1.0
    YSB_S2_B1_11 OBJ 5.0
    YSB_S2_B1_11 LSB_S2_B1_11 -40.0
    YSB_S2_B1_11 ONEIN_B1_11 1.0
    M2141 'MARKER' 'INTEND'
    IB_B0_A_0 BB_B0_A_0 1.0
    IB_B0_A_0 BCAP_B0_0 1.0
    IB_B0_A_0 BB_B0_A_1 -1.0
    FB_B0_A_0 BB_B0_A_0 1.0
    FB_B0_A_0 BSLO_B0_0 -0.6000000000000001
    FB_B0_A_0 BSHI_B0_0 -1.4000000000000001
    FB_B0_A_0 CDU_0 1.0
    IB_B0_B_0 BB_B0_B_0 1.0
    IB_B0_B_0 BCAP_B0_0 1.0
    IB_B0_B_0 BB_B0_B_1 -1.0
    FB_B0_B_0 BB_B0_B_0 1.0
    FB_B0_B_0 BSLO_B0_0 1.7
    FB_B0_B_0 BSHI_B0_0 0.8999999999999999
    FB_B0_B_0 CDU_0 1.0
    IB_B0_A_1 BB_B0_A_1 1.0
    IB_B0_A_1 BCAP_B0_1 1.0
    IB_B0_A_1 BB_B0_A_2 -1.0
    FB_B0_A_1 BB_B0_A_1 1.0
    FB_B0_A_1 BSLO_B0_1 -0.6000000000000001
    FB_B0_A_1 BSHI_B0_1 -1.4000000000000001
    FB_B0_A_1 CDU_1 1.0
    IB_B0_B_1 BB_B0_B_1 1.0
    IB_B0_B_1 BCAP_B0_1 1.0
    IB_B0_B_1 BB_B0_B_2 -1.0
    FB_B0_B_1 BB_B0_B_1 1.0
    FB_B0_B_1 BSLO_B0_1 1.7
    FB_B0_B_1 BSHI_B0_1 0.8999999999999999
    FB_B0_B_1 CDU_1 1.0
    IB_B0_A_2 BB_B0_A_2 1.0
    IB_B0_A_2 BCAP_B0_2 1.0
    IB_B0_A_2 BB_B0_A_3 -1.0
    FB_B0_A_2 BB_B0_A_2 1.0
    FB_B0_A_2 BSLO_B0_2 -0.6000000000000001
    FB_B0_A_2 BSHI_B0_2 -1.4000000000000001
    FB_B0_A_2 CDU_2 1.0
    IB_B0_B_2 BB_B0_B_2 1.0
    IB_B0_B_2 BCAP_B0_2 1.0
    IB_B0_B_2 BB_B0_B_3 -1.0
    FB_B0_B_2 BB_B0_B_2 1.0
    FB_B0_B_2 BSLO_B0_2 1.7
    FB_B0_B_2 BSHI_B0_2 0.8999999999999999
    FB_B0_B_2 CDU_2 1.0
    IB_B0_A_3 BB_B0_A_3 1.0
    IB_B0_A_3 BCAP_B0_3 1.0
    IB_B0_A_3 BB_B0_A_4 -1.0
    FB_B0_A_3 BB_B0_A_3 1.0
    FB_B0_A_3 BSLO_B0_3 -0.6000000000000001
    FB_B0_A_3 BSHI_B0_3 -1.4000000000000001
    FB_B0_A_3 CDU_3 1.0
    IB_B0_B_3 BB_B0_B_3 1.0
    IB_B0_B_3 BCAP_B0_3 1.0
    IB_B0_B_3 BB_B0_B_4 -1.0
    FB_B0_B_3 BB_B0_B_3 1.0
    FB_B0_B_3 BSLO_B0_3 1.7
    FB_B0_B_3 BSHI_B0_3 0.8999999999999999
    FB_B0_B_3 CDU_3 1.0
    IB_B0_A_4 BB_B0_A_4 1.0
    IB_B0_A_4 BCAP_B0_4 1.0
    IB_B0_A_4 BB_B0_A_5 -1.0
    FB_B0_A_4 BB_B0_A_4 1.0
    FB_B0_A_4 BSLO_B0_4 -0.6000000000000001
    FB_B0_A_4 BSHI_B0_4 -1.4000000000000001
    FB_B0_A_4 CDU_4 1.0
    IB_B0_B_4 BB_B0_B_4 1.0
    IB_B0_B_4 BCAP_B0_4 1.0
    IB_B0_B_4 BB_B0_B_5 -1.0
    FB_B0_B_4 BB_B0_B_4 1.0
    FB_B0_B_4 BSLO_B0_4 1.7
    FB_B0_B_4 BSHI_B0_4 0.8999999999999999
    FB_B0_B_4 CDU_4 1.0
    IB_B0_A_5 BB_B0_A_5 1.0
    IB_B0_A_5 BCAP_B0_5 1.0
    IB_B0_A_5 BB_B0_A_6 -1.0
    FB_B0_A_5 BB_B0_A_5 1.0
    FB_B0_A_5 BSLO_B0_5 -0.6000000000000001
    FB_B0_A_5 BSHI_B0_5 -1.4000000000000001
    FB_B0_A_5 CDU_5 1.0
    IB_B0_B_5 BB_B0_B_5 1.0
    IB_B0_B_5 BCAP_B0_5 1.0
    IB_B0_B_5 BB_B0_B_6 -1.0
    FB_B0_B_5 BB_B0_B_5 1.0
    FB_B0_B_5 BSLO_B0_5 1.7
    FB_B0_B_5 BSHI_B0_5 0.8999999999999999
    FB_B0_B_5 CDU_5 1.0
    IB_B0_A_6 BB_B0_A_6 1.0
    IB_B0_A_6 BCAP_B0_6 1.0
    IB_B0_A_6 BB_B0_A_7 -1.0
    FB_B0_A_6 BB_B0_A_6 1.0
    FB_B0_A_6 BSLO_B0_6 -0.6000000000000001
    FB_B0_A_6 BSHI_B0_6 -1.4000000000000001
    FB_B0_A_6 CDU_6 1.0
    IB_B0_B_6 BB_B0_B_6 1.0
    IB_B0_B_6 BCAP_B0_6 1.0
    IB_B0_B_6 BB_B0_B_7 -1.0
    FB_B0_B_6 BB_B0_B_6 1.0
    FB_B0_B_6 BSLO_B0_6 1.7
    FB_B0_B_6 BSHI_B0_6 0.8999999999999999
    FB_B0_B_6 CDU_6 1.0
    IB_B0_A_7 BB_B0_A_7 1.0
    IB_B0_A_7 BCAP_B0_7 1.0
    IB_B0_A_7 BB_B0_A_8 -1.0
    FB_B0_A_7 BB_B0_A_7 1.0
    FB_B0_A_7 BSLO_B0_7 -0.6000000000000001
    FB_B0_A_7 BSHI_B0_7 -1.4000000000000001
    FB_B0_A_7 CDU_7 1.0
    IB_B0_B_7 BB_B0_B_7 1.0
    IB_B0_B_7 BCAP_B0_7 1.0
    IB_B0_B_7 BB_B0_B_8 -1.0
    FB_B0_B_7 BB_B0_B_7 1.0
    FB_B0_B_7 BSLO_B0_7 1.7
    FB_B0_B_7 BSHI_B0_7 0.8999999999999999
    FB_B0_B_7 CDU_7 1.0
    IB_B0_A_8 BB_B0_A_8 1.0
    IB_B0_A_8 BCAP_B0_8 1.0
    IB_B0_A_8 BB_B0_A_9 -1.0
    FB_B0_A_8 BB_B0_A_8 1.0
    FB_B0_A_8 BSLO_B0_8 -0.6000000000000001
    FB_B0_A_8 BSHI_B0_8 -1.4000000000000001
    FB_B0_A_8 CDU_8 1.0
    IB_B0_B_8 BB_B0_B_8 1.0
    IB_B0_B_8 BCAP_B0_8 1.0
    IB_B0_B_8 BB_B0_B_9 -1.0
    FB_B0_B_8 BB_B0_B_8 1.0
    FB_B0_B_8 BSLO_B0_8 1.7
    FB_B0_B_8 BSHI_B0_8 0.8999999999999999
    FB_B0_B_8 CDU_8 1.0
    IB_B0_A_9 BB_B0_A_9 1.0
    IB_B0_A_9 BCAP_B0_9 1.0
    IB_B0_A_9 BB_B0_A_10 -1.0
    FB_B0_A_9 BB_B0_A_9 1.0
    FB_B0_A_9 BSLO_B0_9 -0.6000000000000001
    FB_B0_A_9 BSHI_B0_9 -1.4000000000000001
    FB_B0_A_9 CDU_9 1.0
    IB_B0_B_9 BB_B0_B_9 1.0
    IB_B0_B_9 BCAP_B0_9 1.0
    IB_B0_B_9 BB_B0_B_10 -1.0
    FB_B0_B_9 BB_B0_B_9 1.0
    FB_B0_B_9 BSLO_B0_9 1.7
    FB_B0_B_9 BSHI_B0_9 0.8999999999999999
    FB_B0_B_9 CDU_9 1.0
    IB_B0_A_10 BB_B0_A_10 1.0
    IB_B0_A_10 BCAP_B0_10 1.0
    IB_B0_A_10 BB_B0_A_11 -1.0
    FB_B0_A_10 BB_B0_A_10 1.0
    FB_B0_A_10 BSLO_B0_10 -0.6000000000000001
    FB_B0_A_10 BSHI_B0_10 -1.4000000000000001
    FB_B0_A_10 CDU_10 1.0
    IB_B0_B_10 BB_B0_B_10 1.0
    IB_B0_B_10 BCAP_B0_10 1.0
    IB_B0_B_10 BB_B0_B_11 -1.0
    FB_B0_B_10 BB_B0_B_10 1.0
    FB_B0_B_10 BSLO_B0_10 1.7
    FB_B0_B_10 BSHI_B0_10 0.8999999999999999
    FB_B0_B_10 CDU_10 1.0
    IB_B0_A_11 BB_B0_A_11 1.0
    IB_B0_A_11 BCAP_B0_11 1.0
    FB_B0_A_11 BB_B0_A_11 1.0
    FB_B0_A_11 BSLO_B0_11 -0.6000000000000001
    FB_B0_A_11 BSHI_B0_11 -1.4000000000000001
    FB_B0_A_11 CDU_11 1.0
    IB_B0_B_11 BB_B0_B_11 1.0
    IB_B0_B_11 BCAP_B0_11 1.0
    FB_B0_B_11 BB_B0_B_11 1.0
    FB_B0_B_11 BSLO_B0_11 1.7
    FB_B0_B_11 BSHI_B0_11 0.8999999999999999
    FB_B0_B_11 CDU_11 1.0
    IB_B1_A_0 BB_B1_A_0 1.0
    IB_B1_A_0 BCAP_B1_0 1.0
    IB_B1_A_0 BB_B1_A_1 -1.0
    FB_B1_A_0 BB_B1_A_0 1.0
    FB_B1_A_0 BSLO_B1_0 -1.0
    FB_B1_A_0 BSHI_B1_0 -2.0
    FB_B1_A_0 CDU_0 1.0
    IB_B1_B_0 BB_B1_B_0 1.0
    IB_B1_B_0 BCAP_B1_0 1.0
    IB_B1_B_0 BB_B1_B_1 -1.0
    FB_B1_B_0 BB_B1_B_0 1.0
    FB_B1_B_0 BSLO_B1_0 1.3
    FB_B1_B_0 BSHI_B1_0 0.2999999999999998
    FB_B1_B_0 CDU_0 1.0
    IB_B1_A_1 BB_B1_A_1 1.0
    IB_B1_A_1 BCAP_B1_1 1.0
    IB_B1_A_1 BB_B1_A_2 -1.0
    FB_B1_A_1 BB_B1_A_1 1.0
    FB_B1_A_1 BSLO_B1_1 -1.0
    FB_B1_A_1 BSHI_B1_1 -2.0
    FB_B1_A_1 CDU_1 1.0
    IB_B1_B_1 BB_B1_B_1 1.0
    IB_B1_B_1 BCAP_B1_1 1.0
    IB_B1_B_1 BB_B1_B_2 -1.0
    FB_B1_B_1 BB_B1_B_1 1.0
    FB_B1_B_1 BSLO_B1_1 1.3
    FB_B1_B_1 BSHI_B1_1 0.2999999999999998
    FB_B1_B_1 CDU_1 1.0
    IB_B1_A_2 BB_B1_A_2 1.0
    IB_B1_A_2 BCAP_B1_2 1.0
    IB_B1_A_2 BB_B1_A_3 -1.0
    FB_B1_A_2 BB_B1_A_2 1.0
    FB_B1_A_2 BSLO_B1_2 -1.0
    FB_B1_A_2 BSHI_B1_2 -2.0
    FB_B1_A_2 CDU_2 1.0
    IB_B1_B_2 BB_B1_B_2 1.0
    IB_B1_B_2 BCAP_B1_2 1.0
    IB_B1_B_2 BB_B1_B_3 -1.0
    FB_B1_B_2 BB_B1_B_2 1.0
    FB_B1_B_2 BSLO_B1_2 1.3
    FB_B1_B_2 BSHI_B1_2 0.2999999999999998
    FB_B1_B_2 CDU_2 1.0
    IB_B1_A_3 BB_B1_A_3 1.0
    IB_B1_A_3 BCAP_B1_3 1.0
    IB_B1_A_3 BB_B1_A_4 -1.0
    FB_B1_A_3 BB_B1_A_3 1.0
    FB_B1_A_3 BSLO_B1_3 -1.0
    FB_B1_A_3 BSHI_B1_3 -2.0
    FB_B1_A_3 CDU_3 1.0
    IB_B1_B_3 BB_B1_B_3 1.0
    IB_B1_B_3 BCAP_B1_3 1.0
    IB_B1_B_3 BB_B1_B_4 -1.0
    FB_B1_B_3 BB_B1_B_3 1.0
    FB_B1_B_3 BSLO_B1_3 1.3
    FB_B1_B_3 BSHI_B1_3 0.2999999999999998
    FB_B1_B_3 CDU_3 1.0
    IB_B1_A_4 BB_B1_A_4 1.0
    IB_B1_A_4 BCAP_B1_4 1.0
    IB_B1_A_4 BB_B1_A_5 -1.0
    FB_B1_A_4 BB_B1_A_4 1.0
    FB_B1_A_4 BSLO_B1_4 -1.0
    FB_B1_A_4 BSHI_B1_4 -2.0
    FB_B1_A_4 CDU_4 1.0
    IB_B1_B_4 BB_B1_B_4 1.0
    IB_B1_B_4 BCAP_B1_4 1.0
    IB_B1_B_4 BB_B1_B_5 -1.0
    FB_B1_B_4 BB_B1_B_4 1.0
    FB_B1_B_4 BSLO_B1_4 1.3
    FB_B1_B_4 BSHI_B1_4 0.2999999999999998
    FB_B1_B_4 CDU_4 1.0
    IB_B1_A_5 BB_B1_A_5 1.0
    IB_B1_A_5 BCAP_B1_5 1.0
    IB_B1_A_5 BB_B1_A_6 -1.0
    FB_B1_A_5 BB_B1_A_5 1.0
    FB_B1_A_5 BSLO_B1_5 -1.0
    FB_B1_A_5 BSHI_B1_5 -2.0
    FB_B1_A_5 CDU_5 1.0
    IB_B1_B_5 BB_B1_B_5 1.0
    IB_B1_B_5 BCAP_B1_5 1.0
    IB_B1_B_5 BB_B1_B_6 -1.0
    FB_B1_B_5 BB_B1_B_5 1.0
    FB_B1_B_5 BSLO_B1_5 1.3
    FB_B1_B_5 BSHI_B1_5 0.2999999999999998
    FB_B1_B_5 CDU_5 1.0
    IB_B1_A_6 BB_B1_A_6 1.0
    IB_B1_A_6 BCAP_B1_6 1.0
    IB_B1_A_6 BB_B1_A_7 -1.0
    FB_B1_A_6 BB_B1_A_6 1.0
    FB_B1_A_6 BSLO_B1_6 -1.0
    FB_B1_A_6 BSHI_B1_6 -2.0
    FB_B1_A_6 CDU_6 1.0
    IB_B1_B_6 BB_B1_B_6 1.0
    IB_B1_B_6 BCAP_B1_6 1.0
    IB_B1_B_6 BB_B1_B_7 -1.0
    FB_B1_B_6 BB_B1_B_6 1.0
    FB_B1_B_6 BSLO_B1_6 1.3
    FB_B1_B_6 BSHI_B1_6 0.2999999999999998
    FB_B1_B_6 CDU_6 1.0
    IB_B1_A_7 BB_B1_A_7 1.0
    IB_B1_A_7 BCAP_B1_7 1.0
    IB_B1_A_7 BB_B1_A_8 -1.0
    FB_B1_A_7 BB_B1_A_7 1.0
    FB_B1_A_7 BSLO_B1_7 -1.0
    FB_B1_A_7 BSHI_B1_7 -2.0
    FB_B1_A_7 CDU_7 1.0
    IB_B1_B_7 BB_B1_B_7 1.0
    IB_B1_B_7 BCAP_B1_7 1.0
    IB_B1_B_7 BB_B1_B_8 -1.0
    FB_B1_B_7 BB_B1_B_7 1.0
    FB_B1_B_7 BSLO_B1_7 1.3
    FB_B1_B_7 BSHI_B1_7 0.2999999999999998
    FB_B1_B_7 CDU_7 1.0
    IB_B1_A_8 BB_B1_A_8 1.0
    IB_B1_A_8 BCAP_B1_8 1.0
    IB_B1_A_8 BB_B1_A_9 -1.0
    FB_B1_A_8 BB_B1_A_8 1.0
    FB_B1_A_8 BSLO_B1_8 -1.0
    FB_B1_A_8 BSHI_B1_8 -2.0
    FB_B1_A_8 CDU_8 1.0
    IB_B1_B_8 BB_B1_B_8 1.0
    IB_B1_B_8 BCAP_B1_8 1.0
    IB_B1_B_8 BB_B1_B_9 -1.0
    FB_B1_B_8 BB_B1_B_8 1.0
    FB_B1_B_8 BSLO_B1_8 1.3
    FB_B1_B_8 BSHI_B1_8 0.2999999999999998
    FB_B1_B_8 CDU_8 1.0
    IB_B1_A_9 BB_B1_A_9 1.0
    IB_B1_A_9 BCAP_B1_9 1.0
    IB_B1_A_9 BB_B1_A_10 -1.0
    FB_B1_A_9 BB_B1_A_9 1.0
    FB_B1_A_9 BSLO_B1_9 -1.0
    FB_B1_A_9 BSHI_B1_9 -2.0
    FB_B1_A_9 CDU_9 1.0
    IB_B1_B_9 BB_B1_B_9 1.0
    IB_B1_B_9 BCAP_B1_9 1.0
    IB_B1_B_9 BB_B1_B_10 -1.0
    FB_B1_B_9 BB_B1_B_9 1.0
    FB_B1_B_9 BSLO_B1_9 1.3
    FB_B1_B_9 BSHI_B1_9 0.2999999999999998
    FB_B1_B_9 CDU_9 1.0
    IB_B1_A_10 BB_B1_A_10 1.0
    IB_B1_A_10 BCAP_B1_10 1.0
    IB_B1_A_10 BB_B1_A_11 -1.0
    FB_B1_A_10 BB_B1_A_10 1.0
    FB_B1_A_10 BSLO_B1_10 -1.0
    FB_B1_A_10 BSHI_B1_10 -2.0
    FB_B1_A_10 CDU_10 1.0
    IB_B1_B_10 BB_B1_B_10 1.0
    IB_B1_B_10 BCAP_B1_10 1.0
    IB_B1_B_10 BB_B1_B_11 -1.0
    FB_B1_B_10 BB_B1_B_10 1.0
    FB_B1_B_10 BSLO_B1_10 1.3
    FB_B1_B_10 BSHI_B1_10 0.2999999999999998
    FB_B1_B_10 CDU_10 1.0
    IB_B1_A_11 BB_B1_A_11 1.0
    IB_B1_A_11 BCAP_B1_11 1.0
    FB_B1_A_11 BB_B1_A_11 1.0
    FB_B1_A_11 BSLO_B1_11 -1.0
    FB_B1_A_11 BSHI_B1_11 -2.0
    FB_B1_A_11 CDU_11 1.0
    IB_B1_B_11 BB_B1_B_11 1.0
    IB_B1_B_11 BCAP_B1_11 1.0
    FB_B1_B_11 BB_B1_B_11 1.0
    FB_B1_B_11 BSLO_B1_11 1.3
    FB_B1_B_11 BSHI_B1_11 0.2999999999999998
    FB_B1_B_11 CDU_11 1.0
RHS
    RHS VOL_V0 65.37456976449604
    RHS VOL_V1 93.89734947748931
    RHS VOL_V2 90.55098475906456
    RHS SB_S0_A_0 40.0
    RHS SCAP_S0_0 150.0
    RHS SCAP_S0_1 150.0
    RHS SCAP_S0_2 150.0
    RHS SCAP_S0_3 150.0
    RHS SCAP_S0_4 150.0
    RHS SCAP_S0_5 150.0
    RHS SCAP_S0_6 150.0
    RHS SCAP_S0_7 150.0
    RHS SCAP_S0_8 150.0
    RHS SCAP_S0_9 150.0
    RHS SCAP_S0_10 150.0
    RHS SCAP_S0_11 150.0
    RHS SB_S1_B_0 40.0
    RHS SCAP_S1_0 150.0
    RHS SCAP_S1_1 150.0
    RHS SCAP_S1_2 150.0
    RHS SCAP_S1_3 150.0
    RHS SCAP_S1_4 150.0
    RHS SCAP_S1_5 150.0
    RHS SCAP_S1_6 150.0
    RHS SCAP_S1_7 150.0
    RHS SCAP_S1_8 150.0
    RHS SCAP_S1_9 150.0
    RHS SCAP_S1_10 150.0
    RHS SCAP_S1_11 150.0
    RHS SB_S2_A_0 40.0
    RHS SCAP_S2_0 150.0
    RHS SCAP_S2_1 150.0
    RHS SCAP_S2_2 150.0
    RHS SCAP_S2_3 150.0
    RHS SCAP_S2_4 150.0
    RHS SCAP_S2_5 150.0
    RHS SCAP_S2_6 150.0
    RHS SCAP_S2_7 150.0
    RHS SCAP_S2_8 150.0
    RHS SCAP_S2_9 150.0
    RHS SCAP_S2_10 150.0
    RHS SCAP_S2_11 150.0
    RHS ONEIN_B0_0 1.0
    RHS ONEIN_B0_1 1.0
    RHS ONEIN_B0_2 1.0
    RHS ONEIN_B0_3 1.0
    RHS ONEIN_B0_4 1.0
    RHS ONEIN_B0_5 1.0
    RHS ONEIN_B0_6 1.0
    RHS ONEIN_B0_7 1.0
    RHS ONEIN_B0_8 1.0
    RHS ONEIN_B0_9 1.0
    RHS ONEIN_B0_10 1.0
    RHS ONEIN_B0_11 1.0
    RHS ONEIN_B1_0 1.0
    RHS ONEIN_B1_1 1.0
    RHS ONEIN_B1_2 1.0
    RHS ONEIN_B1_3 1.0
    RHS ONEIN_B1_4 1.0
    RHS ONEIN_B1_5 1.0
    RHS ONEIN_B1_6 1.0
    RHS ONEIN_B1_7 1.0
    RHS ONEIN_B1_8 1.0
    RHS ONEIN_B1_9 1.0
    RHS ONEIN_B1_10 1.0
    RHS ONEIN_B1_11 1.0
    RHS BB_B0_A_0 30.0
    RHS BB_B0_B_0 10.0
    RHS BCAP_B0_0 120.0
    RHS BCAP_B0_1 120.0
    RHS BCAP_B0_2 120.0
    RHS BCAP_B0_3 120.0
    RHS BCAP_B0_4 120.0
    RHS BCAP_B0_5 120.0
    RHS BCAP_B0_6 120.0
    RHS BCAP_B0_7 120.0
    RHS BCAP_B0_8 120.0
    RHS BCAP_B0_9 120.0
    RHS BCAP_B0_10 120.0
    RHS BCAP_B0_11 120.0
    RHS BB_B1_A_0 10.0
    RHS BB_B1_B_0 30.0
    RHS BCAP_B1_0 120.0
    RHS BCAP_B1_1 120.0
    RHS BCAP_B1_2 120.0
    RHS BCAP_B1_3 120.0
    RHS BCAP_B1_4 120.0
    RHS BCAP_B1_5 120.0
    RHS BCAP_B1_6 120.0
    RHS BCAP_B1_7 120.0
    RHS BCAP_B1_8 120.0
    RHS BCAP_B1_9 120.0
    RHS BCAP_B1_10 120.0
    RHS BCAP_B1_11 120.0
    RHS CDU_0 30.0
    RHS CDU_1 30.0
    RHS CDU_2 30.0
    RHS CDU_3 30.0
    RHS CDU_4 30.0
    RHS CDU_5 30.0
    RHS CDU_6 30.0
    RHS CDU_7 30.0
    RHS CDU_8 30.0
    RHS CDU_9 30.0
    RHS CDU_10 30.0
    RHS CDU_11 30.0
BOUNDS
 UP BND XU_V0_S0_2 1.0
 UP BND FU_V0_S0_2 50.0
 UP BND XU_V0_S1_2 1.0
 UP BND FU_V0_S1_2 50.0
 UP BND XU_V0_S2_2 1.0
 UP BND FU_V0_S2_2 50.0
 UP BND XU_V0_S0_3 1.0
 UP BND FU_V0_S0_3 50.0
 UP BND XU_V0_S1_3 1.0
 UP BND FU_V0_S1_3 50.0
 UP BND XU_V0_S2_3 1.0
 UP BND FU_V0_S2_3 50.0
 UP BND XU_V0_S0_4 1.0
 UP BND FU_V0_S0_4 50.0
 UP BND XU_V0_S1_4 1.0
 UP BND FU_V0_S1_4 50.0
 UP BND XU_V0_S2_4 1.0
 UP BND FU_V0_S2_4 50.0
 UP BND XU_V0_S0_5 1.0
 UP BND FU_V0_S0_5 50.0
 UP BND XU_V0_S1_5 1.0
 UP BND FU_V0_S1_5 50.0
 UP BND XU_V0_S2_5 1.0
 UP BND FU_V0_S2_5 50.0
 UP BND XU_V0_S0_6 1.0
 UP BND FU_V0_S0_6 50.0
 UP BND XU_V0_S1_6 1.0
 UP BND FU_V0_S1_6 50.0
 UP BND XU_V0_S2_6 1.0
 UP BND FU_V0_S2_6 50.0
 UP BND XU_V0_S0_7 1.0
 UP BND FU_V0_S0_7 50.0
 UP BND XU_V0_S1_7 1.0
 UP BND FU_V0_S1_7 50.0
 UP BND XU_V0_S2_7 1.0
 UP BND FU_V0_S2_7 50.0
 UP BND XU_V0_S0_8 1.0
 UP BND FU_V0_S0_8 50.0
 UP BND XU_V0_S1_8 1.0
 UP BND FU_V0_S1_8 50.0
 UP BND XU_V0_S2_8 1.0
 UP BND FU_V0_S2_8 50.0
 UP BND XU_V0_S0_9 1.0
 UP BND FU_V0_S0_9 50.0
 UP BND XU_V0_S1_9 1.0
 UP BND FU_V0_S1_9 50.0
 UP BND XU_V0_S2_9 1.0
 UP BND FU_V0_S2_9 50.0
 UP BND XU_V0_S0_10 1.0
 UP BND FU_V0_S0_10 50.0
 UP BND XU_V0_S1_10 1.0
 UP BND FU_V0_S1_10 50.0
 UP BND XU_V0_S2_10 1.0
 UP BND FU_V0_S2_10 50.0
 UP BND XU_V0_S0_11 1.0
 UP BND FU_V0_S0_11 50.0
 UP BND XU_V0_S1_11 1.0
 UP BND FU_V0_S1_11 50.0
 UP BND XU_V0_S2_11 1.0
 UP BND FU_V0_S2_11 50.0
 LO BND DEP_V0 2.0
 UP BND DEP_V0 12.0
 UP BND XU_V1_S0_0 1.0
 UP BND FU_V1_S0_0 50.0
 UP BND XU_V1_S1_0 1.0
 UP BND FU_V1_S1_0 50.0
 UP BND XU_V1_S2_0 1.0
 UP BND FU_V1_S2_0 50.0
 UP BND XU_V1_S0_1 1.0
 UP BND FU_V1_S0_1 50.0
 UP BND XU_V1_S1_1 1.0
 UP BND FU_V1_S1_1 50.0
 UP BND XU_V1_S2_1 1.0
 UP BND FU_V1_S2_1 50.0
 UP BND XU_V1_S0_2 1.0
 UP BND FU_V1_S0_2 50.0
 UP BND XU_V1_S1_2 1.0
 UP BND FU_V1_S1_2 50.0
 UP BND XU_V1_S2_2 1.0
 UP BND FU_V1_S2_2 50.0
 UP BND XU_V1_S0_3 1.0
 UP BND FU_V1_S0_3 50.0
 UP BND XU_V1_S1_3 1.0
 UP BND FU_V1_S1_3 50.0
 UP BND XU_V1_S2_3 1.0
 UP BND FU_V1_S2_3 50.0
 UP BND XU_V1_S0_4 1.0
 UP BND FU_V1_S0_4 50.0
 UP BND XU_V1_S1_4 1.0
 UP BND FU_V1_S1_4 50.0
 UP BND XU_V1_S2_4 1.0
 UP BND FU_V1_S2_4 50.0
 UP BND XU_V1_S0_5 1.0
 UP BND FU_V1_S0_5 50.0
 UP BND XU_V1_S1_5 1.0
 UP BND FU_V1_S1_5 50.0
 UP BND XU_V1_S2_5 1.0
 UP BND FU_V1_S2_5 50.0
 UP BND XU_V1_S0_6 1.0
 UP BND FU_V1_S0_6 50.0
 UP BND XU_V1_S1_6 1.0
 UP BND FU_V1_S1_6 50.0
 UP BND XU_V1_S2_6 1.0
 UP BND FU_V1_S2_6 50.0
 UP BND XU_V1_S0_7 1.0
 UP BND FU_V1_S0_7 50.0
 UP BND XU_V1_S1_7 1.0
 UP BND FU_V1_S1_7 50.0
 UP BND XU_V1_S2_7 1.0
 UP BND FU_V1_S2_7 50.0
 UP BND XU_V1_S0_8 1.0
 UP BND FU_V1_S0_8 50.0
 UP BND XU_V1_S1_8 1.0
 UP BND FU_V1_S1_8 50.0
 UP BND XU_V1_S2_8 1.0
 UP BND FU_V1_S2_8 50.0
 UP BND XU_V1_S0_9 1.0
 UP BND FU_V1_S0_9 50.0
 UP BND XU_V1_S1_9 1.0
 UP BND FU_V1_S1_9 50.0
 UP BND XU_V1_S2_9 1.0
 UP BND FU_V1_S2_9 50.0
 UP BND XU_V1_S0_10 1.0
 UP BND FU_V1_S0_10 50.0
 UP BND XU_V1_S1_10 1.0
 UP BND FU_V1_S1_10 50.0
 UP BND XU_V1_S2_10 1.0
 UP BND FU_V1_S2_10 50.0
 UP BND XU_V1_S0_11 1.0
 UP BND FU_V1_S0_11 50.0
 UP BND XU_V1_S1_11 1.0
 UP BND FU_V1_S1_11 50.0
 UP BND XU_V1_S2_11 1.0
 UP BND FU_V1_S2_11 50.0
 UP BND DEP_V1 12.0
 UP BND XU_V2_S0_3 1.0
 UP BND FU_V2_S0_3 50.0
 UP BND XU_V2_S1_3 1.0
 UP BND FU_V2_S1_3 50.0
 UP BND XU_V2_S2_3 1.0
 UP BND FU_V2_S2_3 50.0
 UP BND XU_V2_S0_4 1.0
 UP BND FU_V2_S0_4 50.0
 UP BND XU_V2_S1_4 1.0
 UP BND FU_V2_S1_4 50.0
 UP BND XU_V2_S2_4 1.0
 UP BND FU_V2_S2_4 50.0
 UP BND XU_V2_S0_5 1.0
 UP BND FU_V2_S0_5 50.0
 UP BND XU_V2_S1_5 1.0
 UP BND FU_V2_S1_5 50.0
 UP BND XU_V2_S2_5 1.0
 UP BND FU_V2_S2_5 50.0
 UP BND XU_V2_S0_6 1.0
 UP BND FU_V2_S0_6 50.0
 UP BND XU_V2_S1_6 1.0
 UP BND FU_V2_S1_6 50.0
 UP BND XU_V2_S2_6 1.0
 UP BND FU_V2_S2_6 50.0
 UP BND XU_V2_S0_7 1.0
 UP BND FU_V2_S0_7 50.0
 UP BND XU_V2_S1_7 1.0
 UP BND FU_V2_S1_7 50.0
 UP BND XU_V2_S2_7 1.0
 UP BND FU_V2_S2_7 50.0
 UP BND XU_V2_S0_8 1.0
 UP BND FU_V2_S0_8 50.0
 UP BND XU_V2_S1_8 1.0
 UP BND FU_V2_S1_8 50.0
 UP BND XU_V2_S2_8 1.0
 UP BND FU_V2_S2_8 50.0
 UP BND XU_V2_S0_9 1.0
 UP BND FU_V2_S0_9 50.0
 UP BND XU_V2_S1_9 1.0
 UP BND FU_V2_S1_9 50.0
 UP BND XU_V2_S2_9 1.0
 UP BND FU_V2_S2_9 50.0
 UP BND XU_V2_S0_10 1.0
 UP BND FU_V2_S0_10 50.0
 UP BND XU_V2_S1_10 1.0
 UP BND FU_V2_S1_10 50.0
 UP BND XU_V2_S2_10 1.0
 UP BND FU_V2_S2_10 50.0
 UP BND XU_V2_S0_11 1.0
 UP BND FU_V2_S0_11 50.0
 UP BND XU_V2_S1_11 1.0
 UP BND FU_V2_S1_11 50.0
 UP BND XU_V2_S2_11 1.0
 UP BND FU_V2_S2_11 50.0
 LO BND DEP_V2 3.0
 UP BND DEP_V2 12.0
 UP BND IS_S0_A_0 150.0
 UP BND FSB_S0_B0_A_0 40.0
 UP BND FSB_S0_B1_A_0 40.0
 UP BND IS_S0_A_1 150.0
 UP BND FSB_S0_B0_A_1 40.0
 UP BND FSB_S0_B1_A_1 40.0
 UP BND IS_S0_A_2 150.0
 UP BND FSB_S0_B0_A_2 40.0
 UP BND FSB_S0_B1_A_2 40.0
 UP BND IS_S0_A_3 150.0
 UP BND FSB_S0_B0_A_3 40.0
 UP BND FSB_S0_B1_A_3 40.0
 UP BND IS_S0_A_4 150.0
 UP BND FSB_S0_B0_A_4 40.0
 UP BND FSB_S0_B1_A_4 40.0
 UP BND IS_S0_A_5 150.0
 UP BND FSB_S0_B0_A_5 40.0
 UP BND FSB_S0_B1_A_5 40.0
 UP BND IS_S0_A_6 150.0
 UP BND FSB_S0_B0_A_6 40.0
 UP BND FSB_S0_B1_A_6 40.0
 UP BND IS_S0_A_7 150.0
 UP BND FSB_S0_B0_A_7 40.0
 UP BND FSB_S0_B1_A_7 40.0
 UP BND IS_S0_A_8 150.0
 UP BND FSB_S0_B0_A_8 40.0
 UP BND FSB_S0_B1_A_8 40.0
 UP BND IS_S0_A_9 150.0
 UP BND FSB_S0_B0_A_9 40.0
 UP BND FSB_S0_B1_A_9 40.0
 UP BND IS_S0_A_10 150.0
 UP BND FSB_S0_B0_A_10 40.0
 UP BND FSB_S0_B1_A_10 40.0
 UP BND IS_S0_A_11 150.0
 UP BND FSB_S0_B0_A_11 40.0
 UP BND FSB_S0_B1_A_11 40.0
 UP BND IS_S0_B_0 150.0
 UP BND FSB_S0_B0_B_0 40.0
 UP BND FSB_S0_B1_B_0 40.0
 UP BND IS_S0_B_1 150.0
 UP BND FSB_S0_B0_B_1 40.0
 UP BND FSB_S0_B1_B_1 40.0
 UP BND IS_S0_B_2 150.0
 UP BND FSB_S0_B0_B_2 40.0
 UP BND FSB_S0_B1_B_2 40.0
 UP BND IS_S0_B_3 150.0
 UP BND FSB_S0_B0_B_3 40.0
 UP BND FSB_S0_B1_B_3 40.0
 UP BND IS_S0_B_4 150.0
 UP BND FSB_S0_B0_B_4 40.0
 UP BND FSB_S0_B1_B_4 40.0
 UP BND IS_S0_B_5 150.0
 UP BND FSB_S0_B0_B_5 40.0
 UP BND FSB_S0_B1_B_5 40.0
 UP BND IS_S0_B_6 150.0
 UP BND FSB_S0_B0_B_6 40.0
 UP BND FSB_S0_B1_B_6 40.0
 UP BND IS_S0_B_7 150.0
 UP BND FSB_S0_B0_B_7 40.0
 UP BND FSB_S0_B1_B_7 40.0
 UP BND IS_S0_B_8 150.0
 UP BND FSB_S0_B0_B_8 40.0
 UP BND FSB_S0_B1_B_8 40.0
 UP BND IS_S0_B_9 150.0
 UP BND FSB_S0_B0_B_9 40.0
 UP BND FSB_S0_B1_B_9 40.0
 UP BND IS_S0_B_10 150.0
 UP BND FSB_S0_B0_B_10 40.0
 UP BND FSB_S0_B1_B_10 40.0
 UP BND IS_S0_B_11 150.0
 UP BND FSB_S0_B0_B_11 40.0
 UP BND FSB_S0_B1_B_11 40.0
 UP BND IS_S1_A_0 150.0
 UP BND FSB_S1_B0_A_0 40.0
 UP BND FSB_S1_B1_A_0 40.0
 UP BND IS_S1_A_1 150.0
 UP BND FSB_S1_B0_A_1 40.0
 UP BND FSB_S1_B1_A_1 40.0
 UP BND IS_S1_A_2 150.0
 UP BND FSB_S1_B0_A_2 40.0
 UP BND FSB_S1_B1_A_2 40.0
 UP BND IS_S1_A_3 150.0
 UP BND FSB_S1_B0_A_3 40.0
 UP BND FSB_S1_B1_A_3 40.0
 UP BND IS_S1_A_4 150.0
 UP BND FSB_S1_B0_A_4 40.0
 UP BND FSB_S1_B1_A_4 40.0
 UP BND IS_S1_A_5 150.0
 UP BND FSB_S1_B0_A_5 40.0
 UP BND FSB_S1_B1_A_5 40.0
 UP BND IS_S1_A_6 150.0
 UP BND FSB_S1_B0_A_6 40.0
 UP BND FSB_S1_B1_A_6 40.0
 UP BND IS_S1_A_7 150.0
 UP BND FSB_S1_B0_A_7 40.0
 UP BND FSB_S1_B1_A_7 40.0
 UP BND IS_S1_A_8 150.0
 UP BND FSB_S1_B0_A_8 40.0
 UP BND FSB_S1_B1_A_8 40.0
 UP BND IS_S1_A_9 150.0
 UP BND FSB_S1_B0_A_9 40.0
 UP BND FSB_S1_B1_A_9 40.0
 UP BND IS_S1_A_10 150.0
 UP BND FSB_S1_B0_A_10 40.0
 UP BND FSB_S1_B1_A_10 40.0
 UP BND IS_S1_A_11 150.0
 UP BND FSB_S1_B0_A_11 40.0
 UP BND FSB_S1_B1_A_11 40.0
 UP BND IS_S1_B_0 150.0
 UP BND FSB_S1_B0_B_0 40.0
 UP BND FSB_S1_B1_B_0 40.0
 UP BND IS_S1_B_1 150.0
 UP BND FSB_S1_B0_B_1 40.0
 UP BND FSB_S1_B1_B_1 40.0
 UP BND IS_S1_B_2 150.0
 UP BND FSB_S1_B0_B_2 40.0
 UP BND FSB_S1_B1_B_2 40.0
 UP BND IS_S1_B_3 150.0
 UP BND FSB_S1_B0_B_3 40.0
 UP BND FSB_S1_B1_B_3 40.0
 UP BND IS_S1_B_4 150.0
 UP BND FSB_S1_B0_B_4 40.0
 UP BND FSB_S1_B1_B_4 40.0
 UP BND IS_S1_B_5 150.0
 UP BND FSB_S1_B0_B_5 40.0
 UP BND FSB_S1_B1_B_5 40.0
 UP BND IS_S1_B_6 150.0
 UP BND FSB_S1_B0_B_6 40.0
 UP BND FSB_S1_B1_B_6 40.0
 UP BND IS_S1_B_7 150.0
 UP BND FSB_S1_B0_B_7 40.0
 UP BND FSB_S1_B1_B_7 40.0
 UP BND IS_S1_B_8 150.0
 UP BND FSB_S1_B0_B_8 40.0
 UP BND FSB_S1_B1_B_8 40.0
 UP BND IS_S1_B_9 150.0
 UP BND FSB_S1_B0_B_9 40.0
 UP BND FSB_S1_B1_B_9 40.0
 UP BND IS_S1_B_10 150.0
 UP BND FSB_S1_B0_B_10 40.0
 UP BND FSB_S1_B1_B_10 40.0
 UP BND IS_S1_B_11 150.0
 UP BND FSB_S1_B0_B_11 40.0
 UP BND FSB_S1_B1_B_11 40.0
 UP BND IS_S2_A_0 150.0
 UP BND FSB_S2_B0_A_0 40.0
 UP BND FSB_S2_B1_A_0 40.0
 UP BND IS_S2_A_1 150.0
 UP BND FSB_S2_B0_A_1 40.0
 UP BND FSB_S2_B1_A_1 40.0
 UP BND IS_S2_A_2 150.0
 UP BND FSB_S2_B0_A_2 40.0
 UP BND FSB_S2_B1_A_2 40.0
 UP BND IS_S2_A_3 150.0
 UP BND FSB_S2_B0_A_3 40.0
 UP BND FSB_S2_B1_A_3 40.0
 UP BND IS_S2_A_4 150.0
 UP BND FSB_S2_B0_A_4 40.0
 UP BND FSB_S2_B1_A_4 40.0
 UP BND IS_S2_A_5 150.0
 UP BND FSB_S2_B0_A_5 40.0
 UP BND FSB_S2_B1_A_5 40.0
 UP BND IS_S2_A_6 150.0
 UP BND FSB_S2_B0_A_6 40.0
 UP BND FSB_S2_B1_A_6 40.0
 UP BND IS_S2_A_7 150.0
 UP BND FSB_S2_B0_A_7 40.0
 UP BND FSB_S2_B1_A_7 40.0
 UP BND IS_S2_A_8 150.0
 UP BND FSB_S2_B0_A_8 40.0
 UP BND FSB_S2_B1_A_8 40.0
 UP BND IS_S2_A_9 150.0
 UP BND FSB_S2_B0_A_9 40.0
 UP BND FSB_S2_B1_A_9 40.0
 UP BND IS_S2_A_10 150.0
 UP BND FSB_S2_B0_A_10 40.0
 UP BND FSB_S2_B1_A_10 40.0
 UP BND IS_S2_A_11 150.0
 UP BND FSB_S2_B0_A_11 40.0
 UP BND FSB_S2_B1_A_11 40.0
 UP BND IS_S2_B_0 150.0
 UP BND FSB_S2_B0_B_0 40.0
 UP BND FSB_S2_B1_B_0 40.0
 UP BND IS_S2_B_1 150.0
 UP BND FSB_S2_B0_B_1 40.0
 UP BND FSB_S2_B1_B_1 40.0
 UP BND IS_S2_B_2 150.0
 UP BND FSB_S2_B0_B_2 40.0
 UP BND FSB_S2_B1_B_2 40.0
 UP BND IS_S2_B_3 150.0
 UP BND FSB_S2_B0_B_3 40.0
 UP BND FSB_S2_B1_B_3 40.0
 UP BND IS_S2_B_4 150.0
 UP BND FSB_S2_B0_B_4 40.0
 UP BND FSB_S2_B1_B_4 40.0
 UP BND IS_S2_B_5 150.0
 UP BND FSB_S2_B0_B_5 40.0
 UP BND FSB_S2_B1_B_5 40.0
 UP BND IS_S2_B_6 150.0
 UP BND FSB_S2_B0_B_6 40.0
 UP BND FSB_S2_B1_B_6 40.0
 UP BND IS_S2_B_7 150.0
 UP BND FSB_S2_B0_B_7 40.0
 UP BND FSB_S2_B1_B_7 40.0
 UP BND IS_S2_B_8 150.0
 UP BND FSB_S2_B0_B_8 40.0
 UP BND FSB_S2_B1_B_8 40.0
 UP BND IS_S2_B_9 150.0
 UP BND FSB_S2_B0_B_9 40.0
 UP BND FSB_S2_B1_B_9 40.0
 UP BND IS_S2_B_10 150.0
 UP BND FSB_S2_B0_B_10 40.0
 UP BND FSB_S2_B1_B_10 40.0
 UP BND IS_S2_B_11 150.0
 UP BND FSB_S2_B0_B_11 40.0
 UP BND FSB_S2_B1_B_11 40.0
 UP BND YSB_S0_B0_0 1.0
 UP BND YSB_S0_B0_1 1.0
 UP BND YSB_S0_B0_2 1.0
 UP BND YSB_S0_B0_3 1.0
 UP BND YSB_S0_B0_4 1.0
 UP BND YSB_S0_B0_5 1.0
 UP BND YSB_S0_B0_6 1.0
 UP BND YSB_S0_B0_7 1.0
 UP BND YSB_S0_B0_8 1.0
 UP BND YSB_S0_B0_9 1.0
 UP BND YSB_S0_B0_10 1.0
 UP BND YSB_S0_B0_11 1.0
 UP BND YSB_S0_B1_0 1.0
 UP BND YSB_S0_B1_1 1.0
 UP BND YSB_S0_B1_2 1.0
 UP BND YSB_S0_B1_3 1.0
 UP BND YSB_S0_B1_4 1.0
 UP BND YSB_S0_B1_5 1.0
 UP BND YSB_S0_B1_6 1.0
 UP BND YSB_S0_B1_7 1.0
 UP BND YSB_S0_B1_8 1.0
 UP BND YSB_S0_B1_9 1.0
 UP BND YSB_S0_B1_10 1.0
 UP BND YSB_S0_B1_11 1.0
 UP BND YSB_S1_B0_0 1.0
 UP BND YSB_S1_B0_1 1.0
 UP BND YSB_S1_B0_2 1.0
 UP BND YSB_S1_B0_3 1.0
 UP BND YSB_S1_B0_4 1.0
 UP BND YSB_S1_B0_5 1.0
 UP BND YSB_S1_B0_6 1.0
 UP BND YSB_S1_B0_7 1.0
 UP BND YSB_S1_B0_8 1.0
 UP BND YSB_S1_B0_9 1.0
 UP BND YSB_S1_B0_10 1.0
 UP BND YSB_S1_B0_11 1.0
 UP BND YSB_S1_B1_0 1.0
 UP BND YSB_S1_B1_1 1.0
 UP BND YSB_S1_B1_2 1.0
 UP BND YSB_S1_B1_3 1.0
 UP BND YSB_S1_B1_4 1.0
 UP BND YSB_S1_B1_5 1.0
 UP BND YSB_S1_B1_6 1.0
 UP BND YSB_S1_B1_7 1.0
 UP BND YSB_S1_B1_8 1.0
 UP BND YSB_S1_B1_9 1.0
 UP BND YSB_S1_B1_10 1.0
 UP BND YSB_S1_B1_11 1.0
 UP BND YSB_S2_B0_0 1.0
 UP BND YSB_S2_B0_1 1.0
 UP BND YSB_S2_B0_2 1.0
 UP BND YSB_S2_B0_3 1.0
 UP BND YSB_S2_B0_4 1.0
 UP BND YSB_S2_B0_5 1.0
 UP BND YSB_S2_B0_6 1.0
 UP BND YSB_S2_B0_7 1.0
 UP BND YSB_S2_B0_8 1.0
 UP BND YSB_S2_B0_9 1.0
 UP BND YSB_S2_B0_10 1.0
 UP BND YSB_S2_B0_11 1.0
 UP BND YSB_S2_B1_0 1.0
 UP BND YSB_S2_B1_1 1.0
 UP BND YSB_S2_B1_2 1.0
 UP BND YSB_S2_B1_3 1.0
 UP BND YSB_S2_B1_4 1.0
 UP BND YSB_S2_B1_5 1.0
 UP BND YSB_S2_B1_6 1.0
 UP BND YSB_S2_B1_7 1.0
 UP BND YSB_S2_B1_8 1.0
 UP BND YSB_S2_B1_9 1.0
 UP BND YSB_S2_B1_10 1.0
 UP BND YSB_S2_B1_11 1.0
 UP BND IB_B0_A_0 120.0
 UP BND IB_B0_B_0 120.0
 UP BND IB_B0_A_1 120.0
 UP BND IB_B0_B_1 120.0
 UP BND IB_B0_A_2 120.0
 UP BND IB_B0_B_2 120.0
 UP BND IB_B0_A_3 120.0
 UP BND IB_B0_B_3 120.0
 UP BND IB_B0_A_4 120.0
 UP BND IB_B0_B_4 120.0
 UP BND IB_B0_A_5 120.0
 UP BND IB_B0_B_5 120.0
 UP BND IB_B0_A_6 120.0
 UP BND IB_B0_B_6 120.0
 UP BND IB_B0_A_7 120.0
 UP BND IB_B0_B_7 120.0
 UP BND IB_B0_A_8 120.0
 UP BND IB_B0_B_8 120.0
 UP BND IB_B0_A_9 120.0
 UP BND IB_B0_B_9 120.0
 UP BND IB_B0_A_10 120.0
 UP BND IB_B0_B_10 120.0
 UP BND IB_B0_A_11 120.0
 UP BND IB_B0_B_11 120.0
 UP BND IB_B1_A_0 120.0
 UP BND IB_B1_B_0 120.0
 UP BND IB_B1_A_1 120.0
 UP BND IB_B1_B_1 120.0
 UP BND IB_B1_A_2 120.0
 UP BND IB_B1_B_2 120.0
 UP BND IB_B1_A_3 120.0
 UP BND IB_B1_B_3 120.0
 UP BND IB_B1_A_4 120.0
 UP BND IB_B1_B_4 120.0
 UP BND IB_B1_A_5 120.0
 UP BND IB_B1_B_5 120.0
 UP BND IB_B1_A_6 120.0
 UP BND IB_B1_B_6 120.0
 UP BND IB_B1_A_7 120.0
 UP BND IB_B1_B_7 120.0
 UP BND IB_B1_A_8 120.0
 UP BND IB_B1_B_8 120.0
 UP BND IB_B1_A_9 120.0
 UP BND IB_B1_B_9 120.0
 UP BND IB_B1_A_10 120.0
 UP BND IB_B1_B_10 120.0
 UP BND IB_B1_A_11 120.0
 UP BND IB_B1_B_11 120.0
ENDATA
