NAME ASSIGN_80
ROWS
 N  OBJ
 E  r0
 E  r1
 E  r2
 E  r3
 E  r4
 E  r5
 E  r6
 E  r7
 E  r8
 E  r9
 E  r10
 E  r11
 E  r12
 E  r13
 E  r14
 E  r15
 E  r16
 E  r17
 E  r18
 E  r19
 E  r20
 E  r21
 E  r22
 E  r23
 E  r24
 E  r25
 E  r26
 E  r27
 E  r28
 E  r29
 E  r30
 E  r31
 E  r32
 E  r33
 E  r34
 E  r35
 E  r36
 E  r37
 E  r38
 E  r39
 E  r40
 E  r41
 E  r42
 E  r43
 E  r44
 E  r45
 E  r46
 E  r47
 E  r48
 E  r49
 E  r50
 E  r51
 E  r52
 E  r53
 E  r54
 E  r55
 E  r56
 E  r57
 E  r58
 E  r59
 E  r60
 E  r61
 E  r62
 E  r63
 E  r64
 E  r65
 E  r66
 E  r67
 E  r68
 E  r69
 E  r70
 E  r71
 E  r72
 E  r73
 E  r74
 E  r75
 E  r76
 E  r77
 E  r78
 E  r79
 E  c0
 E  c1
 E  c2
 E  c3
 E  c4
 E  c5
 E  c6
 E  c7
 E  c8
 E  c9
 E  c10
 E  c11
 E  c12
 E  c13
 E  c14
 E  c15
 E  c16
 E  c17
 E  c18
 E  c19
 E  c20
 E  c21
 E  c22
 E  c23
 E  c24
 E  c25
 E  c26
 E  c27
 E  c28
 E  c29
 E  c30
 E  c31
 E  c32
 E  c33
 E  c34
 E  c35
 E  c36
 E  c37
 E  c38
 E  c39
 E  c40
 E  c41
 E  c42
 E  c43
 E  c44
 E  c45
 E  c46
 E  c47
 E  c48
 E  c49
 E  c50
 E  c51
 E  c52
 E  c53
 E  c54
 E  c55
 E  c56
 E  c57
 E  c58
 E  c59
 E  c60
 E  c61
 E  c62
 E  c63
 E  c64
 E  c65
 E  c66
 E  c67
 E  c68
 E  c69
 E  c70
 E  c71
 E  c72
 E  c73
 E  c74
 E  c75
 E  c76
 E  c77
 E  c78
 E  c79
COLUMNS
    x0_0 OBJ 3.0
    x0_0 r0 1.0
    x0_0 c0 1.0
    x0_1 OBJ 2.0
    x0_1 r0 1.0
    x0_1 c1 1.0
    x0_2 OBJ 4.0
    x0_2 r0 1.0
    x0_2 c2 1.0
    x0_3 OBJ 1.0
    x0_3 r0 1.0
    x0_3 c3 1.0
    x0_4 OBJ 1.0
    x0_4 r0 1.0
    x0_4 c4 1.0
    x0_5 OBJ 5.0
    x0_5 r0 1.0
    x0_5 c5 1.0
    x0_6 OBJ 1.0
    x0_6 r0 1.0
    x0_6 c6 1.0
    x0_7 OBJ 3.0
    x0_7 r0 1.0
    x0_7 c7 1.0
    x0_8 OBJ 5.0
    x0_8 r0 1.0
    x0_8 c8 1.0
    x0_9 OBJ 1.0
    x0_9 r0 1.0
    x0_9 c9 1.0
    x0_10 OBJ 5.0
    x0_10 r0 1.0
    x0_10 c10 1.0
    x0_11 OBJ 2.0
    x0_11 r0 1.0
    x0_11 c11 1.0
    x0_12 OBJ 1.0
    x0_12 r0 1.0
    x0_12 c12 1.0
    x0_13 OBJ 1.0
    x0_13 r0 1.0
    x0_13 c13 1.0
    x0_14 OBJ 4.0
    x0_14 r0 1.0
    x0_14 c14 1.0
    x0_15 OBJ 4.0
    x0_15 r0 1.0
    x0_15 c15 1.0
    x0_16 OBJ 1.0
    x0_16 r0 1.0
    x0_16 c16 1.0
    x0_17 OBJ 2.0
    x0_17 r0 1.0
    x0_17 c17 1.0
    x0_18 OBJ 1.0
    x0_18 r0 1.0
    x0_18 c18 1.0
    x0_19 OBJ 5.0
    x0_19 r0 1.0
    x0_19 c19 1.0
    x0_20 OBJ 4.0
    x0_20 r0 1.0
    x0_20 c20 1.0
    x0_21 OBJ 1.0
    x0_21 r0 1.0
    x0_21 c21 1.0
    x0_22 OBJ 5.0
    x0_22 r0 1.0
    x0_22 c22 1.0
    x0_23 OBJ 1.0
    x0_23 r0 1.0
    x0_23 c23 1.0
    x0_24 OBJ 2.0
    x0_24 r0 1.0
    x0_24 c24 1.0
    x0_25 OBJ 5.0
    x0_25 r0 1.0
    x0_25 c25 1.0
    x0_26 OBJ 1.0
    x0_26 r0 1.0
    x0_26 c26 1.0
    x0_27 OBJ 5.0
    x0_27 r0 1.0
    x0_27 c27 1.0
    x0_28 OBJ 5.0
    x0_28 r0 1.0
    x0_28 c28 1.0
    x0_29 OBJ 4.0
    x0_29 r0 1.0
    x0_29 c29 1.0
    x0_30 OBJ 1.0
    x0_30 r0 1.0
    x0_30 c30 1.0
    x0_31 OBJ 2.0
    x0_31 r0 1.0
    x0_31 c31 1.0
    x0_32 OBJ 1.0
    x0_32 r0 1.0
    x0_32 c32 1.0
    x0_33 OBJ 5.0
    x0_33 r0 1.0
    x0_33 c33 1.0
    x0_34 OBJ 2.0
    x0_34 r0 1.0
    x0_34 c34 1.0
    x0_35 OBJ 3.0
    x0_35 r0 1.0
    x0_35 c35 1.0
    x0_36 OBJ 4.0
    x0_36 r0 1.0
    x0_36 c36 1.0
    x0_37 OBJ 2.0
    x0_37 r0 1.0
    x0_37 c37 1.0
    x0_38 OBJ 5.0
    x0_38 r0 1.0
    x0_38 c38 1.0
    x0_39 OBJ 1.0
    x0_39 r0 1.0
    x0_39 c39 1.0
    x0_40 OBJ 5.0
    x0_40 r0 1.0
    x0_40 c40 1.0
    x0_41 OBJ 3.0
    x0_41 r0 1.0
    x0_41 c41 1.0
    x0_42 OBJ 5.0
    x0_42 r0 1.0
    x0_42 c42 1.0
    x0_43 OBJ 2.0
    x0_43 r0 1.0
    x0_43 c43 1.0
    x0_44 OBJ 1.0
    x0_44 r0 1.0
    x0_44 c44 1.0
    x0_45 OBJ 5.0
    x0_45 r0 1.0
    x0_45 c45 1.0
    x0_46 OBJ 5.0
    x0_46 r0 1.0
    x0_46 c46 1.0
    x0_47 OBJ 2.0
    x0_47 r0 1.0
    x0_47 c47 1.0
    x0_48 OBJ 3.0
    x0_48 r0 1.0
    x0_48 c48 1.0
    x0_49 OBJ 1.0
    x0_49 r0 1.0
    x0_49 c49 1.0
    x0_50 OBJ 5.0
    x0_50 r0 1.0
    x0_50 c50 1.0
    x0_51 OBJ 1.0
    x0_51 r0 1.0
    x0_51 c51 1.0
    x0_52 OBJ 5.0
    x0_52 r0 1.0
    x0_52 c52 1.0
    x0_53 OBJ 1.0
    x0_53 r0 1.0
    x0_53 c53 1.0
    x0_54 OBJ 5.0
    x0_54 r0 1.0
    x0_54 c54 1.0
    x0_55 OBJ 2.0
    x0_55 r0 1.0
    x0_55 c55 1.0
    x0_56 OBJ 4.0
    x0_56 r0 1.0
    x0_56 c56 1.0
    x0_57 OBJ 5.0
    x0_57 r0 1.0
    x0_57 c57 1.0
    x0_58 OBJ 4.0
    x0_58 r0 1.0
    x0_58 c58 1.0
    x0_59 OBJ 3.0
    x0_59 r0 1.0
    x0_59 c59 1.0
    x0_60 OBJ 4.0
    x0_60 r0 1.0
    x0_60 c60 1.0
    x0_61 OBJ 5.0
    x0_61 r0 1.0
    x0_61 c61 1.0
    x0_62 OBJ 4.0
    x0_62 r0 1.0
    x0_62 c62 1.0
    x0_63 OBJ 3.0
    x0_63 r0 1.0
    x0_63 c63 1.0
    x0_64 OBJ 3.0
    x0_64 r0 1.0
    x0_64 c64 1.0
    x0_65 OBJ 2.0
    x0_65 r0 1.0
    x0_65 c65 1.0
    x0_66 OBJ 2.0
    x0_66 r0 1.0
    x0_66 c66 1.0
    x0_67 OBJ 2.0
    x0_67 r0 1.0
    x0_67 c67 1.0
    x0_68 OBJ 1.0
    x0_68 r0 1.0
    x0_68 c68 1.0
    x0_69 OBJ 5.0
    x0_69 r0 1.0
    x0_69 c69 1.0
    x0_70 OBJ 3.0
    x0_70 r0 1.0
    x0_70 c70 1.0
    x0_71 OBJ 5.0
    x0_71 r0 1.0
    x0_71 c71 1.0
    x0_72 OBJ 4.0
    x0_72 r0 1.0
    x0_72 c72 1.0
    x0_73 OBJ 3.0
    x0_73 r0 1.0
    x0_73 c73 1.0
    x0_74 OBJ 4.0
    x0_74 r0 1.0
    x0_74 c74 1.0
    x0_75 OBJ 3.0
    x0_75 r0 1.0
    x0_75 c75 1.0
    x0_76 OBJ 5.0
    x0_76 r0 1.0
    x0_76 c76 1.0
    x0_77 OBJ 1.0
    x0_77 r0 1.0
    x0_77 c77 1.0
    x0_78 OBJ 1.0
    x0_78 r0 1.0
    x0_78 c78 1.0
    x0_79 OBJ 5.0
    x0_79 r0 1.0
    x0_79 c79 1.0
    x1_0 OBJ 4.0
    x1_0 r1 1.0
    x1_0 c0 1.0
    x1_1 OBJ 2.0
    x1_1 r1 1.0
    x1_1 c1 1.0
    x1_2 OBJ 3.0
    x1_2 r1 1.0
    x1_2 c2 1.0
    x1_3 OBJ 2.0
    x1_3 r1 1.0
    x1_3 c3 1.0
    x1_4 OBJ 4.0
    x1_4 r1 1.0
    x1_4 c4 1.0
    x1_5 OBJ 4.0
    x1_5 r1 1.0
    x1_5 c5 1.0
    x1_6 OBJ 1.0
    x1_6 r1 1.0
    x1_6 c6 1.0
    x1_7 OBJ 1.0
    x1_7 r1 1.0
    x1_7 c7 1.0
    x1_8 OBJ 5.0
    x1_8 r1 1.0
    x1_8 c8 1.0
    x1_9 OBJ 5.0
    x1_9 r1 1.0
    x1_9 c9 1.0
    x1_10 OBJ 3.0
    x1_10 r1 1.0
    x1_10 c10 1.0
    x1_11 OBJ 3.0
    x1_11 r1 1.0
    x1_11 c11 1.0
    x1_12 OBJ 3.0
    x1_12 r1 1.0
    x1_12 c12 1.0
    x1_13 OBJ 5.0
    x1_13 r1 1.0
    x1_13 c13 1.0
    x1_14 OBJ 4.0
    x1_14 r1 1.0
    x1_14 c14 1.0
    x1_15 OBJ 5.0
    x1_15 r1 1.0
    x1_15 c15 1.0
    x1_16 OBJ 4.0
    x1_16 r1 1.0
    x1_16 c16 1.0
    x1_17 OBJ 1.0
    x1_17 r1 1.0
    x1_17 c17 1.0
    x1_18 OBJ 1.0
    x1_18 r1 1.0
    x1_18 c18 1.0
    x1_19 OBJ 3.0
    x1_19 r1 1.0
    x1_19 c19 1.0
    x1_20 OBJ 4.0
    x1_20 r1 1.0
    x1_20 c20 1.0
    x1_21 OBJ 1.0
    x1_21 r1 1.0
    x1_21 c21 1.0
    x1_22 OBJ 1.0
    x1_22 r1 1.0
    x1_22 c22 1.0
    x1_23 OBJ 3.0
    x1_23 r1 1.0
    x1_23 c23 1.0
    x1_24 OBJ 5.0
    x1_24 r1 1.0
    x1_24 c24 1.0
    x1_25 OBJ 4.0
    x1_25 r1 1.0
    x1_25 c25 1.0
    x1_26 OBJ 3.0
    x1_26 r1 1.0
    x1_26 c26 1.0
    x1_27 OBJ 4.0
    x1_27 r1 1.0
    x1_27 c27 1.0
    x1_28 OBJ 3.0
    x1_28 r1 1.0
    x1_28 c28 1.0
    x1_29 OBJ 1.0
    x1_29 r1 1.0
    x1_29 c29 1.0
    x1_30 OBJ 4.0
    x1_30 r1 1.0
    x1_30 c30 1.0
    x1_31 OBJ 3.0
    x1_31 r1 1.0
    x1_31 c31 1.0
    x1_32 OBJ 2.0
    x1_32 r1 1.0
    x1_32 c32 1.0
    x1_33 OBJ 5.0
    x1_33 r1 1.0
    x1_33 c33 1.0
    x1_34 OBJ 1.0
    x1_34 r1 1.0
    x1_34 c34 1.0
    x1_35 OBJ 4.0
    x1_35 r1 1.0
    x1_35 c35 1.0
    x1_36 OBJ 1.0
    x1_36 r1 1.0
    x1_36 c36 1.0
    x1_37 OBJ 2.0
    x1_37 r1 1.0
    x1_37 c37 1.0
    x1_38 OBJ 3.0
    x1_38 r1 1.0
    x1_38 c38 1.0
    x1_39 OBJ 2.0
    x1_39 r1 1.0
    x1_39 c39 1.0
    x1_40 OBJ 2.0
    x1_40 r1 1.0
    x1_40 c40 1.0
    x1_41 OBJ 4.0
    x1_41 r1 1.0
    x1_41 c41 1.0
    x1_42 OBJ 4.0
    x1_42 r1 1.0
    x1_42 c42 1.0
    x1_43 OBJ 4.0
    x1_43 r1 1.0
    x1_43 c43 1.0
    x1_44 OBJ 1.0
    x1_44 r1 1.0
    x1_44 c44 1.0
    x1_45 OBJ 2.0
    x1_45 r1 1.0
    x1_45 c45 1.0
    x1_46 OBJ 4.0
    x1_46 r1 1.0
    x1_46 c46 1.0
    x1_47 OBJ 4.0
    x1_47 r1 1.0
    x1_47 c47 1.0
    x1_48 OBJ 5.0
    x1_48 r1 1.0
    x1_48 c48 1.0
    x1_49 OBJ 3.0
    x1_49 r1 1.0
    x1_49 c49 1.0
    x1_50 OBJ 2.0
    x1_50 r1 1.0
    x1_50 c50 1.0
    x1_51 OBJ 4.0
    x1_51 r1 1.0
    x1_51 c51 1.0
    x1_52 OBJ 5.0
    x1_52 r1 1.0
    x1_52 c52 1.0
    x1_53 OBJ 3.0
    x1_53 r1 1.0
    x1_53 c53 1.0
    x1_54 OBJ 4.0
    x1_54 r1 1.0
    x1_54 c54 1.0
    x1_55 OBJ 3.0
    x1_55 r1 1.0
    x1_55 c55 1.0
    x1_56 OBJ 4.0
    x1_56 r1 1.0
    x1_56 c56 1.0
    x1_57 OBJ 2.0
    x1_57 r1 1.0
    x1_57 c57 1.0
    x1_58 OBJ 2.0
    x1_58 r1 1.0
    x1_58 c58 1.0
    x1_59 OBJ 1.0
    x1_59 r1 1.0
    x1_59 c59 1.0
    x1_60 OBJ 2.0
    x1_60 r1 1.0
    x1_60 c60 1.0
    x1_61 OBJ 2.0
    x1_61 r1 1.0
    x1_61 c61 1.0
    x1_62 OBJ 2.0
    x1_62 r1 1.0
    x1_62 c62 1.0
    x1_63 OBJ 2.0
    x1_63 r1 1.0
    x1_63 c63 1.0
    x1_64 OBJ 1.0
    x1_64 r1 1.0
    x1_64 c64 1.0
    x1_65 OBJ 4.0
    x1_65 r1 1.0
    x1_65 c65 1.0
    x1_66 OBJ 5.0
    x1_66 r1 1.0
    x1_66 c66 1.0
    x1_67 OBJ 2.0
    x1_67 r1 1.0
    x1_67 c67 1.0
    x1_68 OBJ 3.0
    x1_68 r1 1.0
    x1_68 c68 1.0
    x1_69 OBJ 3.0
    x1_69 r1 1.0
    x1_69 c69 1.0
    x1_70 OBJ 1.0
    x1_70 r1 1.0
    x1_70 c70 1.0
    x1_71 OBJ 2.0
    x1_71 r1 1.0
    x1_71 c71 1.0
    x1_72 OBJ 4.0
    x1_72 r1 1.0
    x1_72 c72 1.0
    x1_73 OBJ 5.0
    x1_73 r1 1.0
    x1_73 c73 1.0
    x1_74 OBJ 3.0
    x1_74 r1 1.0
    x1_74 c74 1.0
    x1_75 OBJ 5.0
    x1_75 r1 1.0
    x1_75 c75 1.0
    x1_76 OBJ 5.0
    x1_76 r1 1.0
    x1_76 c76 1.0
    x1_77 OBJ 3.0
    x1_77 r1 1.0
    x1_77 c77 1.0
    x1_78 OBJ 2.0
    x1_78 r1 1.0
    x1_78 c78 1.0
    x1_79 OBJ 5.0
    x1_79 r1 1.0
    x1_79 c79 1.0
    x2_0 OBJ 5.0
    x2_0 r2 1.0
    x2_0 c0 1.0
    x2_1 OBJ 1.0
    x2_1 r2 1.0
    x2_1 c1 1.0
    x2_2 OBJ 4.0
    x2_2 r2 1.0
    x2_2 c2 1.0
    x2_3 OBJ 5.0
    x2_3 r2 1.0
    x2_3 c3 1.0
    x2_4 OBJ 4.0
    x2_4 r2 1.0
    x2_4 c4 1.0
    x2_5 OBJ 4.0
    x2_5 r2 1.0
    x2_5 c5 1.0
    x2_6 OBJ 4.0
    x2_6 r2 1.0
    x2_6 c6 1.0
    x2_7 OBJ 4.0
    x2_7 r2 1.0
    x2_7 c7 1.0
    x2_8 OBJ 1.0
    x2_8 r2 1.0
    x2_8 c8 1.0
    x2_9 OBJ 4.0
    x2_9 r2 1.0
    x2_9 c9 1.0
    x2_10 OBJ 4.0
    x2_10 r2 1.0
    x2_10 c10 1.0
    x2_11 OBJ 1.0
    x2_11 r2 1.0
    x2_11 c11 1.0
    x2_12 OBJ 2.0
    x2_12 r2 1.0
    x2_12 c12 1.0
    x2_13 OBJ 1.0
    x2_13 r2 1.0
    x2_13 c13 1.0
    x2_14 OBJ 2.0
    x2_14 r2 1.0
    x2_14 c14 1.0
    x2_15 OBJ 4.0
    x2_15 r2 1.0
    x2_15 c15 1.0
    x2_16 OBJ 2.0
    x2_16 r2 1.0
    x2_16 c16 1.0
    x2_17 OBJ 1.0
    x2_17 r2 1.0
    x2_17 c17 1.0
    x2_18 OBJ 3.0
    x2_18 r2 1.0
    x2_18 c18 1.0
    x2_19 OBJ 5.0
    x2_19 r2 1.0
    x2_19 c19 1.0
    x2_20 OBJ 1.0
    x2_20 r2 1.0
    x2_20 c20 1.0
    x2_21 OBJ 1.0
    x2_21 r2 1.0
    x2_21 c21 1.0
    x2_22 OBJ 1.0
    x2_22 r2 1.0
    x2_22 c22 1.0
    x2_23 OBJ 5.0
    x2_23 r2 1.0
    x2_23 c23 1.0
    x2_24 OBJ 2.0
    x2_24 r2 1.0
    x2_24 c24 1.0
    x2_25 OBJ 5.0
    x2_25 r2 1.0
    x2_25 c25 1.0
    x2_26 OBJ 1.0
    x2_26 r2 1.0
    x2_26 c26 1.0
    x2_27 OBJ 3.0
    x2_27 r2 1.0
    x2_27 c27 1.0
    x2_28 OBJ 5.0
    x2_28 r2 1.0
    x2_28 c28 1.0
    x2_29 OBJ 1.0
    x2_29 r2 1.0
    x2_29 c29 1.0
    x2_30 OBJ 1.0
    x2_30 r2 1.0
    x2_30 c30 1.0
    x2_31 OBJ 2.0
    x2_31 r2 1.0
    x2_31 c31 1.0
    x2_32 OBJ 5.0
    x2_32 r2 1.0
    x2_32 c32 1.0
    x2_33 OBJ 4.0
    x2_33 r2 1.0
    x2_33 c33 1.0
    x2_34 OBJ 2.0
    x2_34 r2 1.0
    x2_34 c34 1.0
    x2_35 OBJ 3.0
    x2_35 r2 1.0
    x2_35 c35 1.0
    x2_36 OBJ 3.0
    x2_36 r2 1.0
    x2_36 c36 1.0
    x2_37 OBJ 5.0
    x2_37 r2 1.0
    x2_37 c37 1.0
    x2_38 OBJ 3.0
    x2_38 r2 1.0
    x2_38 c38 1.0
    x2_39 OBJ 4.0
    x2_39 r2 1.0
    x2_39 c39 1.0
    x2_40 OBJ 1.0
    x2_40 r2 1.0
    x2_40 c40 1.0
    x2_41 OBJ 1.0
    x2_41 r2 1.0
    x2_41 c41 1.0
    x2_42 OBJ 4.0
    x2_42 r2 1.0
    x2_42 c42 1.0
    x2_43 OBJ 4.0
    x2_43 r2 1.0
    x2_43 c43 1.0
    x2_44 OBJ 4.0
    x2_44 r2 1.0
    x2_44 c44 1.0
    x2_45 OBJ 4.0
    x2_45 r2 1.0
    x2_45 c45 1.0
    x2_46 OBJ 3.0
    x2_46 r2 1.0
    x2_46 c46 1.0
    x2_47 OBJ 1.0
    x2_47 r2 1.0
    x2_47 c47 1.0
    x2_48 OBJ 2.0
    x2_48 r2 1.0
    x2_48 c48 1.0
    x2_49 OBJ 1.0
    x2_49 r2 1.0
    x2_49 c49 1.0
    x2_50 OBJ 3.0
    x2_50 r2 1.0
    x2_50 c50 1.0
    x2_51 OBJ 3.0
    x2_51 r2 1.0
    x2_51 c51 1.0
    x2_52 OBJ 4.0
    x2_52 r2 1.0
    x2_52 c52 1.0
    x2_53 OBJ 2.0
    x2_53 r2 1.0
    x2_53 c53 1.0
    x2_54 OBJ 5.0
    x2_54 r2 1.0
    x2_54 c54 1.0
    x2_55 OBJ 1.0
    x2_55 r2 1.0
    x2_55 c55 1.0
    x2_56 OBJ 2.0
    x2_56 r2 1.0
    x2_56 c56 1.0
    x2_57 OBJ 5.0
    x2_57 r2 1.0
    x2_57 c57 1.0
    x2_58 OBJ 3.0
    x2_58 r2 1.0
    x2_58 c58 1.0
    x2_59 OBJ 2.0
    x2_59 r2 1.0
    x2_59 c59 1.0
    x2_60 OBJ 5.0
    x2_60 r2 1.0
    x2_60 c60 1.0
    x2_61 OBJ 1.0
    x2_61 r2 1.0
    x2_61 c61 1.0
    x2_62 OBJ 5.0
    x2_62 r2 1.0
    x2_62 c62 1.0
    x2_63 OBJ 3.0
    x2_63 r2 1.0
    x2_63 c63 1.0
    x2_64 OBJ 1.0
    x2_64 r2 1.0
    x2_64 c64 1.0
    x2_65 OBJ 3.0
    x2_65 r2 1.0
    x2_65 c65 1.0
    x2_66 OBJ 5.0
    x2_66 r2 1.0
    x2_66 c66 1.0
    x2_67 OBJ 3.0
    x2_67 r2 1.0
    x2_67 c67 1.0
    x2_68 OBJ 2.0
    x2_68 r2 1.0
    x2_68 c68 1.0
    x2_69 OBJ 3.0
    x2_69 r2 1.0
    x2_69 c69 1.0
    x2_70 OBJ 2.0
    x2_70 r2 1.0
    x2_70 c70 1.0
    x2_71 OBJ 5.0
    x2_71 r2 1.0
    x2_71 c71 1.0
    x2_72 OBJ 5.0
    x2_72 r2 1.0
    x2_72 c72 1.0
    x2_73 OBJ 5.0
    x2_73 r2 1.0
    x2_73 c73 1.0
    x2_74 OBJ 3.0
    x2_74 r2 1.0
    x2_74 c74 1.0
    x2_75 OBJ 2.0
    x2_75 r2 1.0
    x2_75 c75 1.0
    x2_76 OBJ 5.0
    x2_76 r2 1.0
    x2_76 c76 1.0
    x2_77 OBJ 2.0
    x2_77 r2 1.0
    x2_77 c77 1.0
    x2_78 OBJ 2.0
    x2_78 r2 1.0
    x2_78 c78 1.0
    x2_79 OBJ 4.0
    x2_79 r2 1.0
    x2_79 c79 1.0
    x3_0 OBJ 2.0
    x3_0 r3 1.0
    x3_0 c0 1.0
    x3_1 OBJ 2.0
    x3_1 r3 1.0
    x3_1 c1 1.0
    x3_2 OBJ 5.0
    x3_2 r3 1.0
    x3_2 c2 1.0
    x3_3 OBJ 4.0
    x3_3 r3 1.0
    x3_3 c3 1.0
    x3_4 OBJ 3.0
    x3_4 r3 1.0
    x3_4 c4 1.0
    x3_5 OBJ 1.0
    x3_5 r3 1.0
    x3_5 c5 1.0
    x3_6 OBJ 1.0
    x3_6 r3 1.0
    x3_6 c6 1.0
    x3_7 OBJ 3.0
    x3_7 r3 1.0
    x3_7 c7 1.0
    x3_8 OBJ 4.0
    x3_8 r3 1.0
    x3_8 c8 1.0
    x3_9 OBJ 3.0
    x3_9 r3 1.0
    x3_9 c9 1.0
    x3_10 OBJ 2.0
    x3_10 r3 1.0
    x3_10 c10 1.0
    x3_11 OBJ 5.0
    x3_11 r3 1.0
    x3_11 c11 1.0
    x3_12 OBJ 3.0
    x3_12 r3 1.0
    x3_12 c12 1.0
    x3_13 OBJ 4.0
    x3_13 r3 1.0
    x3_13 c13 1.0
    x3_14 OBJ 3.0
    x3_14 r3 1.0
    x3_14 c14 1.0
    x3_15 OBJ 3.0
    x3_15 r3 1.0
    x3_15 c15 1.0
    x3_16 OBJ 1.0
    x3_16 r3 1.0
    x3_16 c16 1.0
    x3_17 OBJ 2.0
    x3_17 r3 1.0
    x3_17 c17 1.0
    x3_18 OBJ 1.0
    x3_18 r3 1.0
    x3_18 c18 1.0
    x3_19 OBJ 2.0
    x3_19 r3 1.0
    x3_19 c19 1.0
    x3_20 OBJ 4.0
    x3_20 r3 1.0
    x3_20 c20 1.0
    x3_21 OBJ 2.0
    x3_21 r3 1.0
    x3_21 c21 1.0
    x3_22 OBJ 3.0
    x3_22 r3 1.0
    x3_22 c22 1.0
    x3_23 OBJ 2.0
    x3_23 r3 1.0
    x3_23 c23 1.0
    x3_24 OBJ 4.0
    x3_24 r3 1.0
    x3_24 c24 1.0
    x3_25 OBJ 5.0
    x3_25 r3 1.0
    x3_25 c25 1.0
    x3_26 OBJ 5.0
    x3_26 r3 1.0
    x3_26 c26 1.0
    x3_27 OBJ 1.0
    x3_27 r3 1.0
    x3_27 c27 1.0
    x3_28 OBJ 4.0
    x3_28 r3 1.0
    x3_28 c28 1.0
    x3_29 OBJ 3.0
    x3_29 r3 1.0
    x3_29 c29 1.0
    x3_30 OBJ 1.0
    x3_30 r3 1.0
    x3_30 c30 1.0
    x3_31 OBJ 1.0
    x3_31 r3 1.0
    x3_31 c31 1.0
    x3_32 OBJ 4.0
    x3_32 r3 1.0
    x3_32 c32 1.0
    x3_33 OBJ 2.0
    x3_33 r3 1.0
    x3_33 c33 1.0
    x3_34 OBJ 4.0
    x3_34 r3 1.0
    x3_34 c34 1.0
    x3_35 OBJ 2.0
    x3_35 r3 1.0
    x3_35 c35 1.0
    x3_36 OBJ 4.0
    x3_36 r3 1.0
    x3_36 c36 1.0
    x3_37 OBJ 3.0
    x3_37 r3 1.0
    x3_37 c37 1.0
    x3_38 OBJ 1.0
    x3_38 r3 1.0
    x3_38 c38 1.0
    x3_39 OBJ 4.0
    x3_39 r3 1.0
    x3_39 c39 1.0
    x3_40 OBJ 4.0
    x3_40 r3 1.0
    x3_40 c40 1.0
    x3_41 OBJ 4.0
    x3_41 r3 1.0
    x3_41 c41 1.0
    x3_42 OBJ 1.0
    x3_42 r3 1.0
    x3_42 c42 1.0
    x3_43 OBJ 2.0
    x3_43 r3 1.0
    x3_43 c43 1.0
    x3_44 OBJ 2.0
    x3_44 r3 1.0
    x3_44 c44 1.0
    x3_45 OBJ 2.0
    x3_45 r3 1.0
    x3_45 c45 1.0
    x3_46 OBJ 1.0
    x3_46 r3 1.0
    x3_46 c46 1.0
    x3_47 OBJ 2.0
    x3_47 r3 1.0
    x3_47 c47 1.0
    x3_48 OBJ 5.0
    x3_48 r3 1.0
    x3_48 c48 1.0
    x3_49 OBJ 4.0
    x3_49 r3 1.0
    x3_49 c49 1.0
    x3_50 OBJ 2.0
    x3_50 r3 1.0
    x3_50 c50 1.0
    x3_51 OBJ 5.0
    x3_51 r3 1.0
    x3_51 c51 1.0
    x3_52 OBJ 5.0
    x3_52 r3 1.0
    x3_52 c52 1.0
    x3_53 OBJ 4.0
    x3_53 r3 1.0
    x3_53 c53 1.0
    x3_54 OBJ 3.0
    x3_54 r3 1.0
    x3_54 c54 1.0
    x3_55 OBJ 2.0
    x3_55 r3 1.0
    x3_55 c55 1.0
    x3_56 OBJ 5.0
    x3_56 r3 1.0
    x3_56 c56 1.0
    x3_57 OBJ 5.0
    x3_57 r3 1.0
    x3_57 c57 1.0
    x3_58 OBJ 2.0
    x3_58 r3 1.0
    x3_58 c58 1.0
    x3_59 OBJ 1.0
    x3_59 r3 1.0
    x3_59 c59 1.0
    x3_60 OBJ 1.0
    x3_60 r3 1.0
    x3_60 c60 1.0
    x3_61 OBJ 1.0
    x3_61 r3 1.0
    x3_61 c61 1.0
    x3_62 OBJ 5.0
    x3_62 r3 1.0
    x3_62 c62 1.0
    x3_63 OBJ 2.0
    x3_63 r3 1.0
    x3_63 c63 1.0
    x3_64 OBJ 4.0
    x3_64 r3 1.0
    x3_64 c64 1.0
    x3_65 OBJ 2.0
    x3_65 r3 1.0
    x3_65 c65 1.0
    x3_66 OBJ 2.0
    x3_66 r3 1.0
    x3_66 c66 1.0
    x3_67 OBJ 1.0
    x3_67 r3 1.0
    x3_67 c67 1.0
    x3_68 OBJ 3.0
    x3_68 r3 1.0
    x3_68 c68 1.0
    x3_69 OBJ 2.0
    x3_69 r3 1.0
    x3_69 c69 1.0
    x3_70 OBJ 3.0
    x3_70 r3 1.0
    x3_70 c70 1.0
    x3_71 OBJ 5.0
    x3_71 r3 1.0
    x3_71 c71 1.0
    x3_72 OBJ 2.0
    x3_72 r3 1.0
    x3_72 c72 1.0
    x3_73 OBJ 5.0
    x3_73 r3 1.0
    x3_73 c73 1.0
    x3_74 OBJ 3.0
    x3_74 r3 1.0
    x3_74 c74 1.0
    x3_75 OBJ 3.0
    x3_75 r3 1.0
    x3_75 c75 1.0
    x3_76 OBJ 5.0
    x3_76 r3 1.0
    x3_76 c76 1.0
    x3_77 OBJ 4.0
    x3_77 r3 1.0
    x3_77 c77 1.0
    x3_78 OBJ 2.0
    x3_78 r3 1.0
    x3_78 c78 1.0
    x3_79 OBJ 1.0
    x3_79 r3 1.0
    x3_79 c79 1.0
    x4_0 OBJ 3.0
    x4_0 r4 1.0
    x4_0 c0 1.0
    x4_1 OBJ 4.0
    x4_1 r4 1.0
    x4_1 c1 1.0
    x4_2 OBJ 5.0
    x4_2 r4 1.0
    x4_2 c2 1.0
    x4_3 OBJ 5.0
    x4_3 r4 1.0
    x4_3 c3 1.0
    x4_4 OBJ 4.0
    x4_4 r4 1.0
    x4_4 c4 1.0
    x4_5 OBJ 5.0
    x4_5 r4 1.0
    x4_5 c5 1.0
    x4_6 OBJ 2.0
    x4_6 r4 1.0
    x4_6 c6 1.0
    x4_7 OBJ 5.0
    x4_7 r4 1.0
    x4_7 c7 1.0
    x4_8 OBJ 2.0
    x4_8 r4 1.0
    x4_8 c8 1.0
    x4_9 OBJ 5.0
    x4_9 r4 1.0
    x4_9 c9 1.0
    x4_10 OBJ 5.0
    x4_10 r4 1.0
    x4_10 c10 1.0
    x4_11 OBJ 1.0
    x4_11 r4 1.0
    x4_11 c11 1.0
    x4_12 OBJ 4.0
    x4_12 r4 1.0
    x4_12 c12 1.0
    x4_13 OBJ 2.0
    x4_13 r4 1.0
    x4_13 c13 1.0
    x4_14 OBJ 5.0
    x4_14 r4 1.0
    x4_14 c14 1.0
    x4_15 OBJ 1.0
    x4_15 r4 1.0
    x4_15 c15 1.0
    x4_16 OBJ 2.0
    x4_16 r4 1.0
    x4_16 c16 1.0
    x4_17 OBJ 2.0
    x4_17 r4 1.0
    x4_17 c17 1.0
    x4_18 OBJ 2.0
    x4_18 r4 1.0
    x4_18 c18 1.0
    x4_19 OBJ 4.0
    x4_19 r4 1.0
    x4_19 c19 1.0
    x4_20 OBJ 5.0
    x4_20 r4 1.0
    x4_20 c20 1.0
    x4_21 OBJ 1.0
    x4_21 r4 1.0
    x4_21 c21 1.0
    x4_22 OBJ 5.0
    x4_22 r4 1.0
    x4_22 c22 1.0
    x4_23 OBJ 1.0
    x4_23 r4 1.0
    x4_23 c23 1.0
    x4_24 OBJ 3.0
    x4_24 r4 1.0
    x4_24 c24 1.0
    x4_25 OBJ 5.0
    x4_25 r4 1.0
    x4_25 c25 1.0
    x4_26 OBJ 5.0
    x4_26 r4 1.0
    x4_26 c26 1.0
    x4_27 OBJ 5.0
    x4_27 r4 1.0
    x4_27 c27 1.0
    x4_28 OBJ 4.0
    x4_28 r4 1.0
    x4_28 c28 1.0
    x4_29 OBJ 1.0
    x4_29 r4 1.0
    x4_29 c29 1.0
    x4_30 OBJ 5.0
    x4_30 r4 1.0
    x4_30 c30 1.0
    x4_31 OBJ 1.0
    x4_31 r4 1.0
    x4_31 c31 1.0
    x4_32 OBJ 2.0
    x4_32 r4 1.0
    x4_32 c32 1.0
    x4_33 OBJ 2.0
    x4_33 r4 1.0
    x4_33 c33 1.0
    x4_34 OBJ 3.0
    x4_34 r4 1.0
    x4_34 c34 1.0
    x4_35 OBJ 1.0
    x4_35 r4 1.0
    x4_35 c35 1.0
    x4_36 OBJ 1.0
    x4_36 r4 1.0
    x4_36 c36 1.0
    x4_37 OBJ 5.0
    x4_37 r4 1.0
    x4_37 c37 1.0
    x4_38 OBJ 4.0
    x4_38 r4 1.0
    x4_38 c38 1.0
    x4_39 OBJ 5.0
    x4_39 r4 1.0
    x4_39 c39 1.0
    x4_40 OBJ 1.0
    x4_40 r4 1.0
    x4_40 c40 1.0
    x4_41 OBJ 1.0
    x4_41 r4 1.0
    x4_41 c41 1.0
    x4_42 OBJ 4.0
    x4_42 r4 1.0
    x4_42 c42 1.0
    x4_43 OBJ 3.0
    x4_43 r4 1.0
    x4_43 c43 1.0
    x4_44 OBJ 5.0
    x4_44 r4 1.0
    x4_44 c44 1.0
    x4_45 OBJ 5.0
    x4_45 r4 1.0
    x4_45 c45 1.0
    x4_46 OBJ 5.0
    x4_46 r4 1.0
    x4_46 c46 1.0
    x4_47 OBJ 5.0
    x4_47 r4 1.0
    x4_47 c47 1.0
    x4_48 OBJ 2.0
    x4_48 r4 1.0
    x4_48 c48 1.0
    x4_49 OBJ 3.0
    x4_49 r4 1.0
    x4_49 c49 1.0
    x4_50 OBJ 4.0
    x4_50 r4 1.0
    x4_50 c50 1.0
    x4_51 OBJ 5.0
    x4_51 r4 1.0
    x4_51 c51 1.0
    x4_52 OBJ 5.0
    x4_52 r4 1.0
    x4_52 c52 1.0
    x4_53 OBJ 4.0
    x4_53 r4 1.0
    x4_53 c53 1.0
    x4_54 OBJ 5.0
    x4_54 r4 1.0
    x4_54 c54 1.0
    x4_55 OBJ 2.0
    x4_55 r4 1.0
    x4_55 c55 1.0
    x4_56 OBJ 5.0
    x4_56 r4 1.0
    x4_56 c56 1.0
    x4_57 OBJ 3.0
    x4_57 r4 1.0
    x4_57 c57 1.0
    x4_58 OBJ 5.0
    x4_58 r4 1.0
    x4_58 c58 1.0
    x4_59 OBJ 2.0
    x4_59 r4 1.0
    x4_59 c59 1.0
    x4_60 OBJ 4.0
    x4_60 r4 1.0
    x4_60 c60 1.0
    x4_61 OBJ 2.0
    x4_61 r4 1.0
    x4_61 c61 1.0
    x4_62 OBJ 4.0
    x4_62 r4 1.0
    x4_62 c62 1.0
    x4_63 OBJ 1.0
    x4_63 r4 1.0
    x4_63 c63 1.0
    x4_64 OBJ 4.0
    x4_64 r4 1.0
    x4_64 c64 1.0
    x4_65 OBJ 4.0
    x4_65 r4 1.0
    x4_65 c65 1.0
    x4_66 OBJ 3.0
    x4_66 r4 1.0
    x4_66 c66 1.0
    x4_67 OBJ 1.0
    x4_67 r4 1.0
    x4_67 c67 1.0
    x4_68 OBJ 2.0
    x4_68 r4 1.0
    x4_68 c68 1.0
    x4_69 OBJ 4.0
    x4_69 r4 1.0
    x4_69 c69 1.0
    x4_70 OBJ 1.0
    x4_70 r4 1.0
    x4_70 c70 1.0
    x4_71 OBJ 2.0
    x4_71 r4 1.0
    x4_71 c71 1.0
    x4_72 OBJ 3.0
    x4_72 r4 1.0
    x4_72 c72 1.0
    x4_73 OBJ 1.0
    x4_73 r4 1.0
    x4_73 c73 1.0
    x4_74 OBJ 2.0
    x4_74 r4 1.0
    x4_74 c74 1.0
    x4_75 OBJ 3.0
    x4_75 r4 1.0
    x4_75 c75 1.0
    x4_76 OBJ 2.0
    x4_76 r4 1.0
    x4_76 c76 1.0
    x4_77 OBJ 3.0
    x4_77 r4 1.0
    x4_77 c77 1.0
    x4_78 OBJ 2.0
    x4_78 r4 1.0
    x4_78 c78 1.0
    x4_79 OBJ 4.0
    x4_79 r4 1.0
    x4_79 c79 1.0
    x5_0 OBJ 2.0
    x5_0 r5 1.0
    x5_0 c0 1.0
    x5_1 OBJ 1.0
    x5_1 r5 1.0
    x5_1 c1 1.0
    x5_2 OBJ 4.0
    x5_2 r5 1.0
    x5_2 c2 1.0
    x5_3 OBJ 4.0
    x5_3 r5 1.0
    x5_3 c3 1.0
    x5_4 OBJ 2.0
    x5_4 r5 1.0
    x5_4 c4 1.0
    x5_5 OBJ 2.0
    x5_5 r5 1.0
    x5_5 c5 1.0
    x5_6 OBJ 2.0
    x5_6 r5 1.0
    x5_6 c6 1.0
    x5_7 OBJ 4.0
    x5_7 r5 1.0
    x5_7 c7 1.0
    x5_8 OBJ 5.0
    x5_8 r5 1.0
    x5_8 c8 1.0
    x5_9 OBJ 4.0
    x5_9 r5 1.0
    x5_9 c9 1.0
    x5_10 OBJ 3.0
    x5_10 r5 1.0
    x5_10 c10 1.0
    x5_11 OBJ 4.0
    x5_11 r5 1.0
    x5_11 c11 1.0
    x5_12 OBJ 2.0
    x5_12 r5 1.0
    x5_12 c12 1.0
    x5_13 OBJ 3.0
    x5_13 r5 1.0
    x5_13 c13 1.0
    x5_14 OBJ 3.0
    x5_14 r5 1.0
    x5_14 c14 1.0
    x5_15 OBJ 1.0
    x5_15 r5 1.0
    x5_15 c15 1.0
    x5_16 OBJ 3.0
    x5_16 r5 1.0
    x5_16 c16 1.0
    x5_17 OBJ 1.0
    x5_17 r5 1.0
    x5_17 c17 1.0
    x5_18 OBJ 3.0
    x5_18 r5 1.0
    x5_18 c18 1.0
    x5_19 OBJ 5.0
    x5_19 r5 1.0
    x5_19 c19 1.0
    x5_20 OBJ 4.0
    x5_20 r5 1.0
    x5_20 c20 1.0
    x5_21 OBJ 4.0
    x5_21 r5 1.0
    x5_21 c21 1.0
    x5_22 OBJ 1.0
    x5_22 r5 1.0
    x5_22 c22 1.0
    x5_23 OBJ 4.0
    x5_23 r5 1.0
    x5_23 c23 1.0
    x5_24 OBJ 3.0
    x5_24 r5 1.0
    x5_24 c24 1.0
    x5_25 OBJ 5.0
    x5_25 r5 1.0
    x5_25 c25 1.0
    x5_26 OBJ 5.0
    x5_26 r5 1.0
    x5_26 c26 1.0
    x5_27 OBJ 3.0
    x5_27 r5 1.0
    x5_27 c27 1.0
    x5_28 OBJ 5.0
    x5_28 r5 1.0
    x5_28 c28 1.0
    x5_29 OBJ 1.0
    x5_29 r5 1.0
    x5_29 c29 1.0
    x5_30 OBJ 1.0
    x5_30 r5 1.0
    x5_30 c30 1.0
    x5_31 OBJ 2.0
    x5_31 r5 1.0
    x5_31 c31 1.0
    x5_32 OBJ 1.0
    x5_32 r5 1.0
    x5_32 c32 1.0
    x5_33 OBJ 1.0
    x5_33 r5 1.0
    x5_33 c33 1.0
    x5_34 OBJ 3.0
    x5_34 r5 1.0
    x5_34 c34 1.0
    x5_35 OBJ 3.0
    x5_35 r5 1.0
    x5_35 c35 1.0
    x5_36 OBJ 1.0
    x5_36 r5 1.0
    x5_36 c36 1.0
    x5_37 OBJ 2.0
    x5_37 r5 1.0
    x5_37 c37 1.0
    x5_38 OBJ 3.0
    x5_38 r5 1.0
    x5_38 c38 1.0
    x5_39 OBJ 2.0
    x5_39 r5 1.0
    x5_39 c39 1.0
    x5_40 OBJ 4.0
    x5_40 r5 1.0
    x5_40 c40 1.0
    x5_41 OBJ 3.0
    x5_41 r5 1.0
    x5_41 c41 1.0
    x5_42 OBJ 4.0
    x5_42 r5 1.0
    x5_42 c42 1.0
    x5_43 OBJ 2.0
    x5_43 r5 1.0
    x5_43 c43 1.0
    x5_44 OBJ 5.0
    x5_44 r5 1.0
    x5_44 c44 1.0
    x5_45 OBJ 5.0
    x5_45 r5 1.0
    x5_45 c45 1.0
    x5_46 OBJ 5.0
    x5_46 r5 1.0
    x5_46 c46 1.0
    x5_47 OBJ 4.0
    x5_47 r5 1.0
    x5_47 c47 1.0
    x5_48 OBJ 3.0
    x5_48 r5 1.0
    x5_48 c48 1.0
    x5_49 OBJ 1.0
    x5_49 r5 1.0
    x5_49 c49 1.0
    x5_50 OBJ 3.0
    x5_50 r5 1.0
    x5_50 c50 1.0
    x5_51 OBJ 1.0
    x5_51 r5 1.0
    x5_51 c51 1.0
    x5_52 OBJ 2.0
    x5_52 r5 1.0
    x5_52 c52 1.0
    x5_53 OBJ 4.0
    x5_53 r5 1.0
    x5_53 c53 1.0
    x5_54 OBJ 1.0
    x5_54 r5 1.0
    x5_54 c54 1.0
    x5_55 OBJ 3.0
    x5_55 r5 1.0
    x5_55 c55 1.0
    x5_56 OBJ 1.0
    x5_56 r5 1.0
    x5_56 c56 1.0
    x5_57 OBJ 1.0
    x5_57 r5 1.0
    x5_57 c57 1.0
    x5_58 OBJ 3.0
    x5_58 r5 1.0
    x5_58 c58 1.0
    x5_59 OBJ 1.0
    x5_59 r5 1.0
    x5_59 c59 1.0
    x5_60 OBJ 5.0
    x5_60 r5 1.0
    x5_60 c60 1.0
    x5_61 OBJ 2.0
    x5_61 r5 1.0
    x5_61 c61 1.0
    x5_62 OBJ 1.0
    x5_62 r5 1.0
    x5_62 c62 1.0
    x5_63 OBJ 3.0
    x5_63 r5 1.0
    x5_63 c63 1.0
    x5_64 OBJ 1.0
    x5_64 r5 1.0
    x5_64 c64 1.0
    x5_65 OBJ 4.0
    x5_65 r5 1.0
    x5_65 c65 1.0
    x5_66 OBJ 1.0
    x5_66 r5 1.0
    x5_66 c66 1.0
    x5_67 OBJ 3.0
    x5_67 r5 1.0
    x5_67 c67 1.0
    x5_68 OBJ 5.0
    x5_68 r5 1.0
    x5_68 c68 1.0
    x5_69 OBJ 4.0
    x5_69 r5 1.0
    x5_69 c69 1.0
    x5_70 OBJ 3.0
    x5_70 r5 1.0
    x5_70 c70 1.0
    x5_71 OBJ 5.0
    x5_71 r5 1.0
    x5_71 c71 1.0
    x5_72 OBJ 2.0
    x5_72 r5 1.0
    x5_72 c72 1.0
    x5_73 OBJ 1.0
    x5_73 r5 1.0
    x5_73 c73 1.0
    x5_74 OBJ 5.0
    x5_74 r5 1.0
    x5_74 c74 1.0
    x5_75 OBJ 2.0
    x5_75 r5 1.0
    x5_75 c75 1.0
    x5_76 OBJ 1.0
    x5_76 r5 1.0
    x5_76 c76 1.0
    x5_77 OBJ 2.0
    x5_77 r5 1.0
    x5_77 c77 1.0
    x5_78 OBJ 3.0
    x5_78 r5 1.0
    x5_78 c78 1.0
    x5_79 OBJ 1.0
    x5_79 r5 1.0
    x5_79 c79 1.0
    x6_0 OBJ 2.0
    x6_0 r6 1.0
    x6_0 c0 1.0
    x6_1 OBJ 2.0
    x6_1 r6 1.0
    x6_1 c1 1.0
    x6_2 OBJ 3.0
    x6_2 r6 1.0
    x6_2 c2 1.0
    x6_3 OBJ 3.0
    x6_3 r6 1.0
    x6_3 c3 1.0
    x6_4 OBJ 5.0
    x6_4 r6 1.0
    x6_4 c4 1.0
    x6_5 OBJ 2.0
    x6_5 r6 1.0
    x6_5 c5 1.0
    x6_6 OBJ 3.0
    x6_6 r6 1.0
    x6_6 c6 1.0
    x6_7 OBJ 4.0
    x6_7 r6 1.0
    x6_7 c7 1.0
    x6_8 OBJ 5.0
    x6_8 r6 1.0
    x6_8 c8 1.0
    x6_9 OBJ 2.0
    x6_9 r6 1.0
    x6_9 c9 1.0
    x6_10 OBJ 3.0
    x6_10 r6 1.0
    x6_10 c10 1.0
    x6_11 OBJ 3.0
    x6_11 r6 1.0
    x6_11 c11 1.0
    x6_12 OBJ 1.0
    x6_12 r6 1.0
    x6_12 c12 1.0
    x6_13 OBJ 3.0
    x6_13 r6 1.0
    x6_13 c13 1.0
    x6_14 OBJ 1.0
    x6_14 r6 1.0
    x6_14 c14 1.0
    x6_15 OBJ 1.0
    x6_15 r6 1.0
    x6_15 c15 1.0
    x6_16 OBJ 1.0
    x6_16 r6 1.0
    x6_16 c16 1.0
    x6_17 OBJ 5.0
    x6_17 r6 1.0
    x6_17 c17 1.0
    x6_18 OBJ 5.0
    x6_18 r6 1.0
    x6_18 c18 1.0
    x6_19 OBJ 2.0
    x6_19 r6 1.0
    x6_19 c19 1.0
    x6_20 OBJ 5.0
    x6_20 r6 1.0
    x6_20 c20 1.0
    x6_21 OBJ 4.0
    x6_21 r6 1.0
    x6_21 c21 1.0
    x6_22 OBJ 2.0
    x6_22 r6 1.0
    x6_22 c22 1.0
    x6_23 OBJ 4.0
    x6_23 r6 1.0
    x6_23 c23 1.0
    x6_24 OBJ 1.0
    x6_24 r6 1.0
    x6_24 c24 1.0
    x6_25 OBJ 4.0
    x6_25 r6 1.0
    x6_25 c25 1.0
    x6_26 OBJ 4.0
    x6_26 r6 1.0
    x6_26 c26 1.0
    x6_27 OBJ 5.0
    x6_27 r6 1.0
    x6_27 c27 1.0
    x6_28 OBJ 4.0
    x6_28 r6 1.0
    x6_28 c28 1.0
    x6_29 OBJ 5.0
    x6_29 r6 1.0
    x6_29 c29 1.0
    x6_30 OBJ 3.0
    x6_30 r6 1.0
    x6_30 c30 1.0
    x6_31 OBJ 2.0
    x6_31 r6 1.0
    x6_31 c31 1.0
    x6_32 OBJ 2.0
    x6_32 r6 1.0
    x6_32 c32 1.0
    x6_33 OBJ 3.0
    x6_33 r6 1.0
    x6_33 c33 1.0
    x6_34 OBJ 2.0
    x6_34 r6 1.0
    x6_34 c34 1.0
    x6_35 OBJ 2.0
    x6_35 r6 1.0
    x6_35 c35 1.0
    x6_36 OBJ 4.0
    x6_36 r6 1.0
    x6_36 c36 1.0
    x6_37 OBJ 3.0
    x6_37 r6 1.0
    x6_37 c37 1.0
    x6_38 OBJ 1.0
    x6_38 r6 1.0
    x6_38 c38 1.0
    x6_39 OBJ 2.0
    x6_39 r6 1.0
    x6_39 c39 1.0
    x6_40 OBJ 1.0
    x6_40 r6 1.0
    x6_40 c40 1.0
    x6_41 OBJ 1.0
    x6_41 r6 1.0
    x6_41 c41 1.0
    x6_42 OBJ 3.0
    x6_42 r6 1.0
    x6_42 c42 1.0
    x6_43 OBJ 4.0
    x6_43 r6 1.0
    x6_43 c43 1.0
    x6_44 OBJ 2.0
    x6_44 r6 1.0
    x6_44 c44 1.0
    x6_45 OBJ 1.0
    x6_45 r6 1.0
    x6_45 c45 1.0
    x6_46 OBJ 1.0
    x6_46 r6 1.0
    x6_46 c46 1.0
    x6_47 OBJ 4.0
    x6_47 r6 1.0
    x6_47 c47 1.0
    x6_48 OBJ 5.0
    x6_48 r6 1.0
    x6_48 c48 1.0
    x6_49 OBJ 3.0
    x6_49 r6 1.0
    x6_49 c49 1.0
    x6_50 OBJ 5.0
    x6_50 r6 1.0
    x6_50 c50 1.0
    x6_51 OBJ 2.0
    x6_51 r6 1.0
    x6_51 c51 1.0
    x6_52 OBJ 3.0
    x6_52 r6 1.0
    x6_52 c52 1.0
    x6_53 OBJ 1.0
    x6_53 r6 1.0
    x6_53 c53 1.0
    x6_54 OBJ 4.0
    x6_54 r6 1.0
    x6_54 c54 1.0
    x6_55 OBJ 2.0
    x6_55 r6 1.0
    x6_55 c55 1.0
    x6_56 OBJ 2.0
    x6_56 r6 1.0
    x6_56 c56 1.0
    x6_57 OBJ 3.0
    x6_57 r6 1.0
    x6_57 c57 1.0
    x6_58 OBJ 4.0
    x6_58 r6 1.0
    x6_58 c58 1.0
    x6_59 OBJ 1.0
    x6_59 r6 1.0
    x6_59 c59 1.0
    x6_60 OBJ 3.0
    x6_60 r6 1.0
    x6_60 c60 1.0
    x6_61 OBJ 3.0
    x6_61 r6 1.0
    x6_61 c61 1.0
    x6_62 OBJ 3.0
    x6_62 r6 1.0
    x6_62 c62 1.0
    x6_63 OBJ 5.0
    x6_63 r6 1.0
    x6_63 c63 1.0
    x6_64 OBJ 3.0
    x6_64 r6 1.0
    x6_64 c64 1.0
    x6_65 OBJ 2.0
    x6_65 r6 1.0
    x6_65 c65 1.0
    x6_66 OBJ 1.0
    x6_66 r6 1.0
    x6_66 c66 1.0
    x6_67 OBJ 3.0
    x6_67 r6 1.0
    x6_67 c67 1.0
    x6_68 OBJ 2.0
    x6_68 r6 1.0
    x6_68 c68 1.0
    x6_69 OBJ 3.0
    x6_69 r6 1.0
    x6_69 c69 1.0
    x6_70 OBJ 2.0
    x6_70 r6 1.0
    x6_70 c70 1.0
    x6_71 OBJ 1.0
    x6_71 r6 1.0
    x6_71 c71 1.0
    x6_72 OBJ 3.0
    x6_72 r6 1.0
    x6_72 c72 1.0
    x6_73 OBJ 4.0
    x6_73 r6 1.0
    x6_73 c73 1.0
    x6_74 OBJ 1.0
    x6_74 r6 1.0
    x6_74 c74 1.0
    x6_75 OBJ 4.0
    x6_75 r6 1.0
    x6_75 c75 1.0
    x6_76 OBJ 3.0
    x6_76 r6 1.0
    x6_76 c76 1.0
    x6_77 OBJ 5.0
    x6_77 r6 1.0
    x6_77 c77 1.0
    x6_78 OBJ 2.0
    x6_78 r6 1.0
    x6_78 c78 1.0
    x6_79 OBJ 2.0
    x6_79 r6 1.0
    x6_79 c79 1.0
    x7_0 OBJ 5.0
    x7_0 r7 1.0
    x7_0 c0 1.0
    x7_1 OBJ 1.0
    x7_1 r7 1.0
    x7_1 c1 1.0
    x7_2 OBJ 1.0
    x7_2 r7 1.0
    x7_2 c2 1.0
    x7_3 OBJ 3.0
    x7_3 r7 1.0
    x7_3 c3 1.0
    x7_4 OBJ 1.0
    x7_4 r7 1.0
    x7_4 c4 1.0
    x7_5 OBJ 2.0
    x7_5 r7 1.0
    x7_5 c5 1.0
    x7_6 OBJ 4.0
    x7_6 r7 1.0
    x7_6 c6 1.0
    x7_7 OBJ 5.0
    x7_7 r7 1.0
    x7_7 c7 1.0
    x7_8 OBJ 1.0
    x7_8 r7 1.0
    x7_8 c8 1.0
    x7_9 OBJ 4.0
    x7_9 r7 1.0
    x7_9 c9 1.0
    x7_10 OBJ 1.0
    x7_10 r7 1.0
    x7_10 c10 1.0
    x7_11 OBJ 3.0
    x7_11 r7 1.0
    x7_11 c11 1.0
    x7_12 OBJ 3.0
    x7_12 r7 1.0
    x7_12 c12 1.0
    x7_13 OBJ 2.0
    x7_13 r7 1.0
    x7_13 c13 1.0
    x7_14 OBJ 1.0
    x7_14 r7 1.0
    x7_14 c14 1.0
    x7_15 OBJ 5.0
    x7_15 r7 1.0
    x7_15 c15 1.0
    x7_16 OBJ 5.0
    x7_16 r7 1.0
    x7_16 c16 1.0
    x7_17 OBJ 2.0
    x7_17 r7 1.0
    x7_17 c17 1.0
    x7_18 OBJ 5.0
    x7_18 r7 1.0
    x7_18 c18 1.0
    x7_19 OBJ 4.0
    x7_19 r7 1.0
    x7_19 c19 1.0
    x7_20 OBJ 3.0
    x7_20 r7 1.0
    x7_20 c20 1.0
    x7_21 OBJ 4.0
    x7_21 r7 1.0
    x7_21 c21 1.0
    x7_22 OBJ 2.0
    x7_22 r7 1.0
    x7_22 c22 1.0
    x7_23 OBJ 3.0
    x7_23 r7 1.0
    x7_23 c23 1.0
    x7_24 OBJ 5.0
    x7_24 r7 1.0
    x7_24 c24 1.0
    x7_25 OBJ 2.0
    x7_25 r7 1.0
    x7_25 c25 1.0
    x7_26 OBJ 1.0
    x7_26 r7 1.0
    x7_26 c26 1.0
    x7_27 OBJ 5.0
    x7_27 r7 1.0
    x7_27 c27 1.0
    x7_28 OBJ 4.0
    x7_28 r7 1.0
    x7_28 c28 1.0
    x7_29 OBJ 5.0
    x7_29 r7 1.0
    x7_29 c29 1.0
    x7_30 OBJ 2.0
    x7_30 r7 1.0
    x7_30 c30 1.0
    x7_31 OBJ 5.0
    x7_31 r7 1.0
    x7_31 c31 1.0
    x7_32 OBJ 5.0
    x7_32 r7 1.0
    x7_32 c32 1.0
    x7_33 OBJ 5.0
    x7_33 r7 1.0
    x7_33 c33 1.0
    x7_34 OBJ 1.0
    x7_34 r7 1.0
    x7_34 c34 1.0
    x7_35 OBJ 5.0
    x7_35 r7 1.0
    x7_35 c35 1.0
    x7_36 OBJ 2.0
    x7_36 r7 1.0
    x7_36 c36 1.0
    x7_37 OBJ 1.0
    x7_37 r7 1.0
    x7_37 c37 1.0
    x7_38 OBJ 1.0
    x7_38 r7 1.0
    x7_38 c38 1.0
    x7_39 OBJ 1.0
    x7_39 r7 1.0
    x7_39 c39 1.0
    x7_40 OBJ 2.0
    x7_40 r7 1.0
    x7_40 c40 1.0
    x7_41 OBJ 3.0
    x7_41 r7 1.0
    x7_41 c41 1.0
    x7_42 OBJ 1.0
    x7_42 r7 1.0
    x7_42 c42 1.0
    x7_43 OBJ 4.0
    x7_43 r7 1.0
    x7_43 c43 1.0
    x7_44 OBJ 4.0
    x7_44 r7 1.0
    x7_44 c44 1.0
    x7_45 OBJ 5.0
    x7_45 r7 1.0
    x7_45 c45 1.0
    x7_46 OBJ 1.0
    x7_46 r7 1.0
    x7_46 c46 1.0
    x7_47 OBJ 1.0
    x7_47 r7 1.0
    x7_47 c47 1.0
    x7_48 OBJ 5.0
    x7_48 r7 1.0
    x7_48 c48 1.0
    x7_49 OBJ 2.0
    x7_49 r7 1.0
    x7_49 c49 1.0
    x7_50 OBJ 4.0
    x7_50 r7 1.0
    x7_50 c50 1.0
    x7_51 OBJ 3.0
    x7_51 r7 1.0
    x7_51 c51 1.0
    x7_52 OBJ 1.0
    x7_52 r7 1.0
    x7_52 c52 1.0
    x7_53 OBJ 4.0
    x7_53 r7 1.0
    x7_53 c53 1.0
    x7_54 OBJ 1.0
    x7_54 r7 1.0
    x7_54 c54 1.0
    x7_55 OBJ 5.0
    x7_55 r7 1.0
    x7_55 c55 1.0
    x7_56 OBJ 5.0
    x7_56 r7 1.0
    x7_56 c56 1.0
    x7_57 OBJ 1.0
    x7_57 r7 1.0
    x7_57 c57 1.0
    x7_58 OBJ 5.0
    x7_58 r7 1.0
    x7_58 c58 1.0
    x7_59 OBJ 1.0
    x7_59 r7 1.0
    x7_59 c59 1.0
    x7_60 OBJ 4.0
    x7_60 r7 1.0
    x7_60 c60 1.0
    x7_61 OBJ 3.0
    x7_61 r7 1.0
    x7_61 c61 1.0
    x7_62 OBJ 1.0
    x7_62 r7 1.0
    x7_62 c62 1.0
    x7_63 OBJ 3.0
    x7_63 r7 1.0
    x7_63 c63 1.0
    x7_64 OBJ 2.0
    x7_64 r7 1.0
    x7_64 c64 1.0
    x7_65 OBJ 2.0
    x7_65 r7 1.0
    x7_65 c65 1.0
    x7_66 OBJ 2.0
    x7_66 r7 1.0
    x7_66 c66 1.0
    x7_67 OBJ 4.0
    x7_67 r7 1.0
    x7_67 c67 1.0
    x7_68 OBJ 4.0
    x7_68 r7 1.0
    x7_68 c68 1.0
    x7_69 OBJ 4.0
    x7_69 r7 1.0
    x7_69 c69 1.0
    x7_70 OBJ 1.0
    x7_70 r7 1.0
    x7_70 c70 1.0
    x7_71 OBJ 4.0
    x7_71 r7 1.0
    x7_71 c71 1.0
    x7_72 OBJ 3.0
    x7_72 r7 1.0
    x7_72 c72 1.0
    x7_73 OBJ 1.0
    x7_73 r7 1.0
    x7_73 c73 1.0
    x7_74 OBJ 5.0
    x7_74 r7 1.0
    x7_74 c74 1.0
    x7_75 OBJ 2.0
    x7_75 r7 1.0
    x7_75 c75 1.0
    x7_76 OBJ 1.0
    x7_76 r7 1.0
    x7_76 c76 1.0
    x7_77 OBJ 5.0
    x7_77 r7 1.0
    x7_77 c77 1.0
    x7_78 OBJ 2.0
    x7_78 r7 1.0
    x7_78 c78 1.0
    x7_79 OBJ 3.0
    x7_79 r7 1.0
    x7_79 c79 1.0
    x8_0 OBJ 3.0
    x8_0 r8 1.0
    x8_0 c0 1.0
    x8_1 OBJ 3.0
    x8_1 r8 1.0
    x8_1 c1 1.0
    x8_2 OBJ 5.0
    x8_2 r8 1.0
    x8_2 c2 1.0
    x8_3 OBJ 5.0
    x8_3 r8 1.0
    x8_3 c3 1.0
    x8_4 OBJ 2.0
    x8_4 r8 1.0
    x8_4 c4 1.0
    x8_5 OBJ 1.0
    x8_5 r8 1.0
    x8_5 c5 1.0
    x8_6 OBJ 4.0
    x8_6 r8 1.0
    x8_6 c6 1.0
    x8_7 OBJ 1.0
    x8_7 r8 1.0
    x8_7 c7 1.0
    x8_8 OBJ 4.0
    x8_8 r8 1.0
    x8_8 c8 1.0
    x8_9 OBJ 3.0
    x8_9 r8 1.0
    x8_9 c9 1.0
    x8_10 OBJ 1.0
    x8_10 r8 1.0
    x8_10 c10 1.0
    x8_11 OBJ 2.0
    x8_11 r8 1.0
    x8_11 c11 1.0
    x8_12 OBJ 4.0
    x8_12 r8 1.0
    x8_12 c12 1.0
    x8_13 OBJ 3.0
    x8_13 r8 1.0
    x8_13 c13 1.0
    x8_14 OBJ 5.0
    x8_14 r8 1.0
    x8_14 c14 1.0
    x8_15 OBJ 3.0
    x8_15 r8 1.0
    x8_15 c15 1.0
    x8_16 OBJ 4.0
    x8_16 r8 1.0
    x8_16 c16 1.0
    x8_17 OBJ 4.0
    x8_17 r8 1.0
    x8_17 c17 1.0
    x8_18 OBJ 4.0
    x8_18 r8 1.0
    x8_18 c18 1.0
    x8_19 OBJ 1.0
    x8_19 r8 1.0
    x8_19 c19 1.0
    x8_20 OBJ 5.0
    x8_20 r8 1.0
    x8_20 c20 1.0
    x8_21 OBJ 2.0
    x8_21 r8 1.0
    x8_21 c21 1.0
    x8_22 OBJ 3.0
    x8_22 r8 1.0
    x8_22 c22 1.0
    x8_23 OBJ 1.0
    x8_23 r8 1.0
    x8_23 c23 1.0
    x8_24 OBJ 4.0
    x8_24 r8 1.0
    x8_24 c24 1.0
    x8_25 OBJ 1.0
    x8_25 r8 1.0
    x8_25 c25 1.0
    x8_26 OBJ 3.0
    x8_26 r8 1.0
    x8_26 c26 1.0
    x8_27 OBJ 4.0
    x8_27 r8 1.0
    x8_27 c27 1.0
    x8_28 OBJ 1.0
    x8_28 r8 1.0
    x8_28 c28 1.0
    x8_29 OBJ 5.0
    x8_29 r8 1.0
    x8_29 c29 1.0
    x8_30 OBJ 4.0
    x8_30 r8 1.0
    x8_30 c30 1.0
    x8_31 OBJ 3.0
    x8_31 r8 1.0
    x8_31 c31 1.0
    x8_32 OBJ 4.0
    x8_32 r8 1.0
    x8_32 c32 1.0
    x8_33 OBJ 2.0
    x8_33 r8 1.0
    x8_33 c33 1.0
    x8_34 OBJ 2.0
    x8_34 r8 1.0
    x8_34 c34 1.0
    x8_35 OBJ 1.0
    x8_35 r8 1.0
    x8_35 c35 1.0
    x8_36 OBJ 5.0
    x8_36 r8 1.0
    x8_36 c36 1.0
    x8_37 OBJ 1.0
    x8_37 r8 1.0
    x8_37 c37 1.0
    x8_38 OBJ 2.0
    x8_38 r8 1.0
    x8_38 c38 1.0
    x8_39 OBJ 5.0
    x8_39 r8 1.0
    x8_39 c39 1.0
    x8_40 OBJ 3.0
    x8_40 r8 1.0
    x8_40 c40 1.0
    x8_41 OBJ 3.0
    x8_41 r8 1.0
    x8_41 c41 1.0
    x8_42 OBJ 2.0
    x8_42 r8 1.0
    x8_42 c42 1.0
    x8_43 OBJ 5.0
    x8_43 r8 1.0
    x8_43 c43 1.0
    x8_44 OBJ 5.0
    x8_44 r8 1.0
    x8_44 c44 1.0
    x8_45 OBJ 3.0
    x8_45 r8 1.0
    x8_45 c45 1.0
    x8_46 OBJ 1.0
    x8_46 r8 1.0
    x8_46 c46 1.0
    x8_47 OBJ 3.0
    x8_47 r8 1.0
    x8_47 c47 1.0
    x8_48 OBJ 2.0
    x8_48 r8 1.0
    x8_48 c48 1.0
    x8_49 OBJ 4.0
    x8_49 r8 1.0
    x8_49 c49 1.0
    x8_50 OBJ 4.0
    x8_50 r8 1.0
    x8_50 c50 1.0
    x8_51 OBJ 4.0
    x8_51 r8 1.0
    x8_51 c51 1.0
    x8_52 OBJ 1.0
    x8_52 r8 1.0
    x8_52 c52 1.0
    x8_53 OBJ 2.0
    x8_53 r8 1.0
    x8_53 c53 1.0
    x8_54 OBJ 1.0
    x8_54 r8 1.0
    x8_54 c54 1.0
    x8_55 OBJ 4.0
    x8_55 r8 1.0
    x8_55 c55 1.0
    x8_56 OBJ 4.0
    x8_56 r8 1.0
    x8_56 c56 1.0
    x8_57 OBJ 4.0
    x8_57 r8 1.0
    x8_57 c57 1.0
    x8_58 OBJ 3.0
    x8_58 r8 1.0
    x8_58 c58 1.0
    x8_59 OBJ 2.0
    x8_59 r8 1.0
    x8_59 c59 1.0
    x8_60 OBJ 4.0
    x8_60 r8 1.0
    x8_60 c60 1.0
    x8_61 OBJ 3.0
    x8_61 r8 1.0
    x8_61 c61 1.0
    x8_62 OBJ 4.0
    x8_62 r8 1.0
    x8_62 c62 1.0
    x8_63 OBJ 3.0
    x8_63 r8 1.0
    x8_63 c63 1.0
    x8_64 OBJ 1.0
    x8_64 r8 1.0
    x8_64 c64 1.0
    x8_65 OBJ 3.0
    x8_65 r8 1.0
    x8_65 c65 1.0
    x8_66 OBJ 1.0
    x8_66 r8 1.0
    x8_66 c66 1.0
    x8_67 OBJ 3.0
    x8_67 r8 1.0
    x8_67 c67 1.0
    x8_68 OBJ 3.0
    x8_68 r8 1.0
    x8_68 c68 1.0
    x8_69 OBJ 4.0
    x8_69 r8 1.0
    x8_69 c69 1.0
    x8_70 OBJ 1.0
    x8_70 r8 1.0
    x8_70 c70 1.0
    x8_71 OBJ 2.0
    x8_71 r8 1.0
    x8_71 c71 1.0
    x8_72 OBJ 1.0
    x8_72 r8 1.0
    x8_72 c72 1.0
    x8_73 OBJ 3.0
    x8_73 r8 1.0
    x8_73 c73 1.0
    x8_74 OBJ 3.0
    x8_74 r8 1.0
    x8_74 c74 1.0
    x8_75 OBJ 3.0
    x8_75 r8 1.0
    x8_75 c75 1.0
    x8_76 OBJ 1.0
    x8_76 r8 1.0
    x8_76 c76 1.0
    x8_77 OBJ 4.0
    x8_77 r8 1.0
    x8_77 c77 1.0
    x8_78 OBJ 4.0
    x8_78 r8 1.0
    x8_78 c78 1.0
    x8_79 OBJ 5.0
    x8_79 r8 1.0
    x8_79 c79 1.0
    x9_0 OBJ 1.0
    x9_0 r9 1.0
    x9_0 c0 1.0
    x9_1 OBJ 3.0
    x9_1 r9 1.0
    x9_1 c1 1.0
    x9_2 OBJ 4.0
    x9_2 r9 1.0
    x9_2 c2 1.0
    x9_3 OBJ 3.0
    x9_3 r9 1.0
    x9_3 c3 1.0
    x9_4 OBJ 1.0
    x9_4 r9 1.0
    x9_4 c4 1.0
    x9_5 OBJ 3.0
    x9_5 r9 1.0
    x9_5 c5 1.0
    x9_6 OBJ 1.0
    x9_6 r9 1.0
    x9_6 c6 1.0
    x9_7 OBJ 1.0
    x9_7 r9 1.0
    x9_7 c7 1.0
    x9_8 OBJ 3.0
    x9_8 r9 1.0
    x9_8 c8 1.0
    x9_9 OBJ 2.0
    x9_9 r9 1.0
    x9_9 c9 1.0
    x9_10 OBJ 2.0
    x9_10 r9 1.0
    x9_10 c10 1.0
    x9_11 OBJ 3.0
    x9_11 r9 1.0
    x9_11 c11 1.0
    x9_12 OBJ 4.0
    x9_12 r9 1.0
    x9_12 c12 1.0
    x9_13 OBJ 5.0
    x9_13 r9 1.0
    x9_13 c13 1.0
    x9_14 OBJ 3.0
    x9_14 r9 1.0
    x9_14 c14 1.0
    x9_15 OBJ 2.0
    x9_15 r9 1.0
    x9_15 c15 1.0
    x9_16 OBJ 3.0
    x9_16 r9 1.0
    x9_16 c16 1.0
    x9_17 OBJ 4.0
    x9_17 r9 1.0
    x9_17 c17 1.0
    x9_18 OBJ 1.0
    x9_18 r9 1.0
    x9_18 c18 1.0
    x9_19 OBJ 4.0
    x9_19 r9 1.0
    x9_19 c19 1.0
    x9_20 OBJ 5.0
    x9_20 r9 1.0
    x9_20 c20 1.0
    x9_21 OBJ 5.0
    x9_21 r9 1.0
    x9_21 c21 1.0
    x9_22 OBJ 2.0
    x9_22 r9 1.0
    x9_22 c22 1.0
    x9_23 OBJ 1.0
    x9_23 r9 1.0
    x9_23 c23 1.0
    x9_24 OBJ 1.0
    x9_24 r9 1.0
    x9_24 c24 1.0
    x9_25 OBJ 4.0
    x9_25 r9 1.0
    x9_25 c25 1.0
    x9_26 OBJ 4.0
    x9_26 r9 1.0
    x9_26 c26 1.0
    x9_27 OBJ 5.0
    x9_27 r9 1.0
    x9_27 c27 1.0
    x9_28 OBJ 2.0
    x9_28 r9 1.0
    x9_28 c28 1.0
    x9_29 OBJ 3.0
    x9_29 r9 1.0
    x9_29 c29 1.0
    x9_30 OBJ 4.0
    x9_30 r9 1.0
    x9_30 c30 1.0
    x9_31 OBJ 1.0
    x9_31 r9 1.0
    x9_31 c31 1.0
    x9_32 OBJ 5.0
    x9_32 r9 1.0
    x9_32 c32 1.0
    x9_33 OBJ 2.0
    x9_33 r9 1.0
    x9_33 c33 1.0
    x9_34 OBJ 2.0
    x9_34 r9 1.0
    x9_34 c34 1.0
    x9_35 OBJ 4.0
    x9_35 r9 1.0
    x9_35 c35 1.0
    x9_36 OBJ 4.0
    x9_36 r9 1.0
    x9_36 c36 1.0
    x9_37 OBJ 3.0
    x9_37 r9 1.0
    x9_37 c37 1.0
    x9_38 OBJ 3.0
    x9_38 r9 1.0
    x9_38 c38 1.0
    x9_39 OBJ 3.0
    x9_39 r9 1.0
    x9_39 c39 1.0
    x9_40 OBJ 3.0
    x9_40 r9 1.0
    x9_40 c40 1.0
    x9_41 OBJ 3.0
    x9_41 r9 1.0
    x9_41 c41 1.0
    x9_42 OBJ 4.0
    x9_42 r9 1.0
    x9_42 c42 1.0
    x9_43 OBJ 2.0
    x9_43 r9 1.0
    x9_43 c43 1.0
    x9_44 OBJ 3.0
    x9_44 r9 1.0
    x9_44 c44 1.0
    x9_45 OBJ 4.0
    x9_45 r9 1.0
    x9_45 c45 1.0
    x9_46 OBJ 5.0
    x9_46 r9 1.0
    x9_46 c46 1.0
    x9_47 OBJ 4.0
    x9_47 r9 1.0
    x9_47 c47 1.0
    x9_48 OBJ 1.0
    x9_48 r9 1.0
    x9_48 c48 1.0
    x9_49 OBJ 2.0
    x9_49 r9 1.0
    x9_49 c49 1.0
    x9_50 OBJ 2.0
    x9_50 r9 1.0
    x9_50 c50 1.0
    x9_51 OBJ 1.0
    x9_51 r9 1.0
    x9_51 c51 1.0
    x9_52 OBJ 2.0
    x9_52 r9 1.0
    x9_52 c52 1.0
    x9_53 OBJ 5.0
    x9_53 r9 1.0
    x9_53 c53 1.0
    x9_54 OBJ 4.0
    x9_54 r9 1.0
    x9_54 c54 1.0
    x9_55 OBJ 5.0
    x9_55 r9 1.0
    x9_55 c55 1.0
    x9_56 OBJ 2.0
    x9_56 r9 1.0
    x9_56 c56 1.0
    x9_57 OBJ 4.0
    x9_57 r9 1.0
    x9_57 c57 1.0
    x9_58 OBJ 3.0
    x9_58 r9 1.0
    x9_58 c58 1.0
    x9_59 OBJ 4.0
    x9_59 r9 1.0
    x9_59 c59 1.0
    x9_60 OBJ 4.0
    x9_60 r9 1.0
    x9_60 c60 1.0
    x9_61 OBJ 2.0
    x9_61 r9 1.0
    x9_61 c61 1.0
    x9_62 OBJ 5.0
    x9_62 r9 1.0
    x9_62 c62 1.0
    x9_63 OBJ 2.0
    x9_63 r9 1.0
    x9_63 c63 1.0
    x9_64 OBJ 2.0
    x9_64 r9 1.0
    x9_64 c64 1.0
    x9_65 OBJ 1.0
    x9_65 r9 1.0
    x9_65 c65 1.0
    x9_66 OBJ 2.0
    x9_66 r9 1.0
    x9_66 c66 1.0
    x9_67 OBJ 3.0
    x9_67 r9 1.0
    x9_67 c67 1.0
    x9_68 OBJ 5.0
    x9_68 r9 1.0
    x9_68 c68 1.0
    x9_69 OBJ 1.0
    x9_69 r9 1.0
    x9_69 c69 1.0
    x9_70 OBJ 3.0
    x9_70 r9 1.0
    x9_70 c70 1.0
    x9_71 OBJ 2.0
    x9_71 r9 1.0
    x9_71 c71 1.0
    x9_72 OBJ 3.0
    x9_72 r9 1.0
    x9_72 c72 1.0
    x9_73 OBJ 3.0
    x9_73 r9 1.0
    x9_73 c73 1.0
    x9_74 OBJ 5.0
    x9_74 r9 1.0
    x9_74 c74 1.0
    x9_75 OBJ 2.0
    x9_75 r9 1.0
    x9_75 c75 1.0
    x9_76 OBJ 1.0
    x9_76 r9 1.0
    x9_76 c76 1.0
    x9_77 OBJ 4.0
    x9_77 r9 1.0
    x9_77 c77 1.0
    x9_78 OBJ 4.0
    x9_78 r9 1.0
    x9_78 c78 1.0
    x9_79 OBJ 4.0
    x9_79 r9 1.0
    x9_79 c79 1.0
    x10_0 OBJ 5.0
    x10_0 r10 1.0
    x10_0 c0 1.0
    x10_1 OBJ 2.0
    x10_1 r10 1.0
    x10_1 c1 1.0
    x10_2 OBJ 4.0
    x10_2 r10 1.0
    x10_2 c2 1.0
    x10_3 OBJ 3.0
    x10_3 r10 1.0
    x10_3 c3 1.0
    x10_4 OBJ 3.0
    x10_4 r10 1.0
    x10_4 c4 1.0
    x10_5 OBJ 1.0
    x10_5 r10 1.0
    x10_5 c5 1.0
    x10_6 OBJ 4.0
    x10_6 r10 1.0
    x10_6 c6 1.0
    x10_7 OBJ 3.0
    x10_7 r10 1.0
    x10_7 c7 1.0
    x10_8 OBJ 5.0
    x10_8 r10 1.0
    x10_8 c8 1.0
    x10_9 OBJ 3.0
    x10_9 r10 1.0
    x10_9 c9 1.0
    x10_10 OBJ 2.0
    x10_10 r10 1.0
    x10_10 c10 1.0
    x10_11 OBJ 5.0
    x10_11 r10 1.0
    x10_11 c11 1.0
    x10_12 OBJ 5.0
    x10_12 r10 1.0
    x10_12 c12 1.0
    x10_13 OBJ 2.0
    x10_13 r10 1.0
    x10_13 c13 1.0
    x10_14 OBJ 1.0
    x10_14 r10 1.0
    x10_14 c14 1.0
    x10_15 OBJ 3.0
    x10_15 r10 1.0
    x10_15 c15 1.0
    x10_16 OBJ 2.0
    x10_16 r10 1.0
    x10_16 c16 1.0
    x10_17 OBJ 4.0
    x10_17 r10 1.0
    x10_17 c17 1.0
    x10_18 OBJ 4.0
    x10_18 r10 1.0
    x10_18 c18 1.0
    x10_19 OBJ 4.0
    x10_19 r10 1.0
    x10_19 c19 1.0
    x10_20 OBJ 4.0
    x10_20 r10 1.0
    x10_20 c20 1.0
    x10_21 OBJ 3.0
    x10_21 r10 1.0
    x10_21 c21 1.0
    x10_22 OBJ 1.0
    x10_22 r10 1.0
    x10_22 c22 1.0
    x10_23 OBJ 2.0
    x10_23 r10 1.0
    x10_23 c23 1.0
    x10_24 OBJ 1.0
    x10_24 r10 1.0
    x10_24 c24 1.0
    x10_25 OBJ 4.0
    x10_25 r10 1.0
    x10_25 c25 1.0
    x10_26 OBJ 4.0
    x10_26 r10 1.0
    x10_26 c26 1.0
    x10_27 OBJ 5.0
    x10_27 r10 1.0
    x10_27 c27 1.0
    x10_28 OBJ 4.0
    x10_28 r10 1.0
    x10_28 c28 1.0
    x10_29 OBJ 1.0
    x10_29 r10 1.0
    x10_29 c29 1.0
    x10_30 OBJ 1.0
    x10_30 r10 1.0
    x10_30 c30 1.0
    x10_31 OBJ 4.0
    x10_31 r10 1.0
    x10_31 c31 1.0
    x10_32 OBJ 5.0
    x10_32 r10 1.0
    x10_32 c32 1.0
    x10_33 OBJ 4.0
    x10_33 r10 1.0
    x10_33 c33 1.0
    x10_34 OBJ 4.0
    x10_34 r10 1.0
    x10_34 c34 1.0
    x10_35 OBJ 2.0
    x10_35 r10 1.0
    x10_35 c35 1.0
    x10_36 OBJ 1.0
    x10_36 r10 1.0
    x10_36 c36 1.0
    x10_37 OBJ 2.0
    x10_37 r10 1.0
    x10_37 c37 1.0
    x10_38 OBJ 2.0
    x10_38 r10 1.0
    x10_38 c38 1.0
    x10_39 OBJ 2.0
    x10_39 r10 1.0
    x10_39 c39 1.0
    x10_40 OBJ 5.0
    x10_40 r10 1.0
    x10_40 c40 1.0
    x10_41 OBJ 1.0
    x10_41 r10 1.0
    x10_41 c41 1.0
    x10_42 OBJ 4.0
    x10_42 r10 1.0
    x10_42 c42 1.0
    x10_43 OBJ 1.0
    x10_43 r10 1.0
    x10_43 c43 1.0
    x10_44 OBJ 5.0
    x10_44 r10 1.0
    x10_44 c44 1.0
    x10_45 OBJ 1.0
    x10_45 r10 1.0
    x10_45 c45 1.0
    x10_46 OBJ 1.0
    x10_46 r10 1.0
    x10_46 c46 1.0
    x10_47 OBJ 2.0
    x10_47 r10 1.0
    x10_47 c47 1.0
    x10_48 OBJ 2.0
    x10_48 r10 1.0
    x10_48 c48 1.0
    x10_49 OBJ 5.0
    x10_49 r10 1.0
    x10_49 c49 1.0
    x10_50 OBJ 1.0
    x10_50 r10 1.0
    x10_50 c50 1.0
    x10_51 OBJ 3.0
    x10_51 r10 1.0
    x10_51 c51 1.0
    x10_52 OBJ 2.0
    x10_52 r10 1.0
    x10_52 c52 1.0
    x10_53 OBJ 3.0
    x10_53 r10 1.0
    x10_53 c53 1.0
    x10_54 OBJ 5.0
    x10_54 r10 1.0
    x10_54 c54 1.0
    x10_55 OBJ 4.0
    x10_55 r10 1.0
    x10_55 c55 1.0
    x10_56 OBJ 1.0
    x10_56 r10 1.0
    x10_56 c56 1.0
    x10_57 OBJ 1.0
    x10_57 r10 1.0
    x10_57 c57 1.0
    x10_58 OBJ 1.0
    x10_58 r10 1.0
    x10_58 c58 1.0
    x10_59 OBJ 3.0
    x10_59 r10 1.0
    x10_59 c59 1.0
    x10_60 OBJ 5.0
    x10_60 r10 1.0
    x10_60 c60 1.0
    x10_61 OBJ 5.0
    x10_61 r10 1.0
    x10_61 c61 1.0
    x10_62 OBJ 2.0
    x10_62 r10 1.0
    x10_62 c62 1.0
    x10_63 OBJ 4.0
    x10_63 r10 1.0
    x10_63 c63 1.0
    x10_64 OBJ 3.0
    x10_64 r10 1.0
    x10_64 c64 1.0
    x10_65 OBJ 2.0
    x10_65 r10 1.0
    x10_65 c65 1.0
    x10_66 OBJ 5.0
    x10_66 r10 1.0
    x10_66 c66 1.0
    x10_67 OBJ 1.0
    x10_67 r10 1.0
    x10_67 c67 1.0
    x10_68 OBJ 1.0
    x10_68 r10 1.0
    x10_68 c68 1.0
    x10_69 OBJ 5.0
    x10_69 r10 1.0
    x10_69 c69 1.0
    x10_70 OBJ 3.0
    x10_70 r10 1.0
    x10_70 c70 1.0
    x10_71 OBJ 4.0
    x10_71 r10 1.0
    x10_71 c71 1.0
    x10_72 OBJ 3.0
    x10_72 r10 1.0
    x10_72 c72 1.0
    x10_73 OBJ 3.0
    x10_73 r10 1.0
    x10_73 c73 1.0
    x10_74 OBJ 2.0
    x10_74 r10 1.0
    x10_74 c74 1.0
    x10_75 OBJ 4.0
    x10_75 r10 1.0
    x10_75 c75 1.0
    x10_76 OBJ 5.0
    x10_76 r10 1.0
    x10_76 c76 1.0
    x10_77 OBJ 2.0
    x10_77 r10 1.0
    x10_77 c77 1.0
    x10_78 OBJ 5.0
    x10_78 r10 1.0
    x10_78 c78 1.0
    x10_79 OBJ 2.0
    x10_79 r10 1.0
    x10_79 c79 1.0
    x11_0 OBJ 1.0
    x11_0 r11 1.0
    x11_0 c0 1.0
    x11_1 OBJ 4.0
    x11_1 r11 1.0
    x11_1 c1 1.0
    x11_2 OBJ 3.0
    x11_2 r11 1.0
    x11_2 c2 1.0
    x11_3 OBJ 1.0
    x11_3 r11 1.0
    x11_3 c3 1.0
    x11_4 OBJ 1.0
    x11_4 r11 1.0
    x11_4 c4 1.0
    x11_5 OBJ 2.0
    x11_5 r11 1.0
    x11_5 c5 1.0
    x11_6 OBJ 4.0
    x11_6 r11 1.0
    x11_6 c6 1.0
    x11_7 OBJ 4.0
    x11_7 r11 1.0
    x11_7 c7 1.0
    x11_8 OBJ 1.0
    x11_8 r11 1.0
    x11_8 c8 1.0
    x11_9 OBJ 3.0
    x11_9 r11 1.0
    x11_9 c9 1.0
    x11_10 OBJ 2.0
    x11_10 r11 1.0
    x11_10 c10 1.0
    x11_11 OBJ 4.0
    x11_11 r11 1.0
    x11_11 c11 1.0
    x11_12 OBJ 3.0
    x11_12 r11 1.0
    x11_12 c12 1.0
    x11_13 OBJ 2.0
    x11_13 r11 1.0
    x11_13 c13 1.0
    x11_14 OBJ 4.0
    x11_14 r11 1.0
    x11_14 c14 1.0
    x11_15 OBJ 1.0
    x11_15 r11 1.0
    x11_15 c15 1.0
    x11_16 OBJ 3.0
    x11_16 r11 1.0
    x11_16 c16 1.0
    x11_17 OBJ 4.0
    x11_17 r11 1.0
    x11_17 c17 1.0
    x11_18 OBJ 3.0
    x11_18 r11 1.0
    x11_18 c18 1.0
    x11_19 OBJ 4.0
    x11_19 r11 1.0
    x11_19 c19 1.0
    x11_20 OBJ 2.0
    x11_20 r11 1.0
    x11_20 c20 1.0
    x11_21 OBJ 1.0
    x11_21 r11 1.0
    x11_21 c21 1.0
    x11_22 OBJ 3.0
    x11_22 r11 1.0
    x11_22 c22 1.0
    x11_23 OBJ 5.0
    x11_23 r11 1.0
    x11_23 c23 1.0
    x11_24 OBJ 1.0
    x11_24 r11 1.0
    x11_24 c24 1.0
    x11_25 OBJ 2.0
    x11_25 r11 1.0
    x11_25 c25 1.0
    x11_26 OBJ 4.0
    x11_26 r11 1.0
    x11_26 c26 1.0
    x11_27 OBJ 2.0
    x11_27 r11 1.0
    x11_27 c27 1.0
    x11_28 OBJ 3.0
    x11_28 r11 1.0
    x11_28 c28 1.0
    x11_29 OBJ 2.0
    x11_29 r11 1.0
    x11_29 c29 1.0
    x11_30 OBJ 2.0
    x11_30 r11 1.0
    x11_30 c30 1.0
    x11_31 OBJ 4.0
    x11_31 r11 1.0
    x11_31 c31 1.0
    x11_32 OBJ 2.0
    x11_32 r11 1.0
    x11_32 c32 1.0
    x11_33 OBJ 3.0
    x11_33 r11 1.0
    x11_33 c33 1.0
    x11_34 OBJ 3.0
    x11_34 r11 1.0
    x11_34 c34 1.0
    x11_35 OBJ 1.0
    x11_35 r11 1.0
    x11_35 c35 1.0
    x11_36 OBJ 5.0
    x11_36 r11 1.0
    x11_36 c36 1.0
    x11_37 OBJ 4.0
    x11_37 r11 1.0
    x11_37 c37 1.0
    x11_38 OBJ 5.0
    x11_38 r11 1.0
    x11_38 c38 1.0
    x11_39 OBJ 2.0
    x11_39 r11 1.0
    x11_39 c39 1.0
    x11_40 OBJ 2.0
    x11_40 r11 1.0
    x11_40 c40 1.0
    x11_41 OBJ 4.0
    x11_41 r11 1.0
    x11_41 c41 1.0
    x11_42 OBJ 4.0
    x11_42 r11 1.0
    x11_42 c42 1.0
    x11_43 OBJ 1.0
    x11_43 r11 1.0
    x11_43 c43 1.0
    x11_44 OBJ 5.0
    x11_44 r11 1.0
    x11_44 c44 1.0
    x11_45 OBJ 2.0
    x11_45 r11 1.0
    x11_45 c45 1.0
    x11_46 OBJ 4.0
    x11_46 r11 1.0
    x11_46 c46 1.0
    x11_47 OBJ 1.0
    x11_47 r11 1.0
    x11_47 c47 1.0
    x11_48 OBJ 2.0
    x11_48 r11 1.0
    x11_48 c48 1.0
    x11_49 OBJ 1.0
    x11_49 r11 1.0
    x11_49 c49 1.0
    x11_50 OBJ 5.0
    x11_50 r11 1.0
    x11_50 c50 1.0
    x11_51 OBJ 2.0
    x11_51 r11 1.0
    x11_51 c51 1.0
    x11_52 OBJ 4.0
    x11_52 r11 1.0
    x11_52 c52 1.0
    x11_53 OBJ 1.0
    x11_53 r11 1.0
    x11_53 c53 1.0
    x11_54 OBJ 1.0
    x11_54 r11 1.0
    x11_54 c54 1.0
    x11_55 OBJ 2.0
    x11_55 r11 1.0
    x11_55 c55 1.0
    x11_56 OBJ 4.0
    x11_56 r11 1.0
    x11_56 c56 1.0
    x11_57 OBJ 4.0
    x11_57 r11 1.0
    x11_57 c57 1.0
    x11_58 OBJ 3.0
    x11_58 r11 1.0
    x11_58 c58 1.0
    x11_59 OBJ 1.0
    x11_59 r11 1.0
    x11_59 c59 1.0
    x11_60 OBJ 1.0
    x11_60 r11 1.0
    x11_60 c60 1.0
    x11_61 OBJ 2.0
    x11_61 r11 1.0
    x11_61 c61 1.0
    x11_62 OBJ 3.0
    x11_62 r11 1.0
    x11_62 c62 1.0
    x11_63 OBJ 2.0
    x11_63 r11 1.0
    x11_63 c63 1.0
    x11_64 OBJ 2.0
    x11_64 r11 1.0
    x11_64 c64 1.0
    x11_65 OBJ 5.0
    x11_65 r11 1.0
    x11_65 c65 1.0
    x11_66 OBJ 4.0
    x11_66 r11 1.0
    x11_66 c66 1.0
    x11_67 OBJ 1.0
    x11_67 r11 1.0
    x11_67 c67 1.0
    x11_68 OBJ 3.0
    x11_68 r11 1.0
    x11_68 c68 1.0
    x11_69 OBJ 4.0
    x11_69 r11 1.0
    x11_69 c69 1.0
    x11_70 OBJ 3.0
    x11_70 r11 1.0
    x11_70 c70 1.0
    x11_71 OBJ 3.0
    x11_71 r11 1.0
    x11_71 c71 1.0
    x11_72 OBJ 4.0
    x11_72 r11 1.0
    x11_72 c72 1.0
    x11_73 OBJ 2.0
    x11_73 r11 1.0
    x11_73 c73 1.0
    x11_74 OBJ 1.0
    x11_74 r11 1.0
    x11_74 c74 1.0
    x11_75 OBJ 1.0
    x11_75 r11 1.0
    x11_75 c75 1.0
    x11_76 OBJ 1.0
    x11_76 r11 1.0
    x11_76 c76 1.0
    x11_77 OBJ 3.0
    x11_77 r11 1.0
    x11_77 c77 1.0
    x11_78 OBJ 1.0
    x11_78 r11 1.0
    x11_78 c78 1.0
    x11_79 OBJ 3.0
    x11_79 r11 1.0
    x11_79 c79 1.0
    x12_0 OBJ 4.0
    x12_0 r12 1.0
    x12_0 c0 1.0
    x12_1 OBJ 1.0
    x12_1 r12 1.0
    x12_1 c1 1.0
    x12_2 OBJ 5.0
    x12_2 r12 1.0
    x12_2 c2 1.0
    x12_3 OBJ 2.0
    x12_3 r12 1.0
    x12_3 c3 1.0
    x12_4 OBJ 4.0
    x12_4 r12 1.0
    x12_4 c4 1.0
    x12_5 OBJ 3.0
    x12_5 r12 1.0
    x12_5 c5 1.0
    x12_6 OBJ 3.0
    x12_6 r12 1.0
    x12_6 c6 1.0
    x12_7 OBJ 4.0
    x12_7 r12 1.0
    x12_7 c7 1.0
    x12_8 OBJ 1.0
    x12_8 r12 1.0
    x12_8 c8 1.0
    x12_9 OBJ 1.0
    x12_9 r12 1.0
    x12_9 c9 1.0
    x12_10 OBJ 4.0
    x12_10 r12 1.0
    x12_10 c10 1.0
    x12_11 OBJ 2.0
    x12_11 r12 1.0
    x12_11 c11 1.0
    x12_12 OBJ 3.0
    x12_12 r12 1.0
    x12_12 c12 1.0
    x12_13 OBJ 5.0
    x12_13 r12 1.0
    x12_13 c13 1.0
    x12_14 OBJ 4.0
    x12_14 r12 1.0
    x12_14 c14 1.0
    x12_15 OBJ 2.0
    x12_15 r12 1.0
    x12_15 c15 1.0
    x12_16 OBJ 3.0
    x12_16 r12 1.0
    x12_16 c16 1.0
    x12_17 OBJ 3.0
    x12_17 r12 1.0
    x12_17 c17 1.0
    x12_18 OBJ 4.0
    x12_18 r12 1.0
    x12_18 c18 1.0
    x12_19 OBJ 1.0
    x12_19 r12 1.0
    x12_19 c19 1.0
    x12_20 OBJ 4.0
    x12_20 r12 1.0
    x12_20 c20 1.0
    x12_21 OBJ 2.0
    x12_21 r12 1.0
    x12_21 c21 1.0
    x12_22 OBJ 4.0
    x12_22 r12 1.0
    x12_22 c22 1.0
    x12_23 OBJ 1.0
    x12_23 r12 1.0
    x12_23 c23 1.0
    x12_24 OBJ 4.0
    x12_24 r12 1.0
    x12_24 c24 1.0
    x12_25 OBJ 1.0
    x12_25 r12 1.0
    x12_25 c25 1.0
    x12_26 OBJ 4.0
    x12_26 r12 1.0
    x12_26 c26 1.0
    x12_27 OBJ 1.0
    x12_27 r12 1.0
    x12_27 c27 1.0
    x12_28 OBJ 1.0
    x12_28 r12 1.0
    x12_28 c28 1.0
    x12_29 OBJ 3.0
    x12_29 r12 1.0
    x12_29 c29 1.0
    x12_30 OBJ 2.0
    x12_30 r12 1.0
    x12_30 c30 1.0
    x12_31 OBJ 1.0
    x12_31 r12 1.0
    x12_31 c31 1.0
    x12_32 OBJ 5.0
    x12_32 r12 1.0
    x12_32 c32 1.0
    x12_33 OBJ 3.0
    x12_33 r12 1.0
    x12_33 c33 1.0
    x12_34 OBJ 3.0
    x12_34 r12 1.0
    x12_34 c34 1.0
    x12_35 OBJ 3.0
    x12_35 r12 1.0
    x12_35 c35 1.0
    x12_36 OBJ 3.0
    x12_36 r12 1.0
    x12_36 c36 1.0
    x12_37 OBJ 5.0
    x12_37 r12 1.0
    x12_37 c37 1.0
    x12_38 OBJ 1.0
    x12_38 r12 1.0
    x12_38 c38 1.0
    x12_39 OBJ 3.0
    x12_39 r12 1.0
    x12_39 c39 1.0
    x12_40 OBJ 3.0
    x12_40 r12 1.0
    x12_40 c40 1.0
    x12_41 OBJ 3.0
    x12_41 r12 1.0
    x12_41 c41 1.0
    x12_42 OBJ 3.0
    x12_42 r12 1.0
    x12_42 c42 1.0
    x12_43 OBJ 1.0
    x12_43 r12 1.0
    x12_43 c43 1.0
    x12_44 OBJ 5.0
    x12_44 r12 1.0
    x12_44 c44 1.0
    x12_45 OBJ 1.0
    x12_45 r12 1.0
    x12_45 c45 1.0
    x12_46 OBJ 1.0
    x12_46 r12 1.0
    x12_46 c46 1.0
    x12_47 OBJ 2.0
    x12_47 r12 1.0
    x12_47 c47 1.0
    x12_48 OBJ 1.0
    x12_48 r12 1.0
    x12_48 c48 1.0
    x12_49 OBJ 4.0
    x12_49 r12 1.0
    x12_49 c49 1.0
    x12_50 OBJ 4.0
    x12_50 r12 1.0
    x12_50 c50 1.0
    x12_51 OBJ 4.0
    x12_51 r12 1.0
    x12_51 c51 1.0
    x12_52 OBJ 3.0
    x12_52 r12 1.0
    x12_52 c52 1.0
    x12_53 OBJ 4.0
    x12_53 r12 1.0
    x12_53 c53 1.0
    x12_54 OBJ 4.0
    x12_54 r12 1.0
    x12_54 c54 1.0
    x12_55 OBJ 2.0
    x12_55 r12 1.0
    x12_55 c55 1.0
    x12_56 OBJ 4.0
    x12_56 r12 1.0
    x12_56 c56 1.0
    x12_57 OBJ 2.0
    x12_57 r12 1.0
    x12_57 c57 1.0
    x12_58 OBJ 1.0
    x12_58 r12 1.0
    x12_58 c58 1.0
    x12_59 OBJ 3.0
    x12_59 r12 1.0
    x12_59 c59 1.0
    x12_60 OBJ 2.0
    x12_60 r12 1.0
    x12_60 c60 1.0
    x12_61 OBJ 5.0
    x12_61 r12 1.0
    x12_61 c61 1.0
    x12_62 OBJ 2.0
    x12_62 r12 1.0
    x12_62 c62 1.0
    x12_63 OBJ 3.0
    x12_63 r12 1.0
    x12_63 c63 1.0
    x12_64 OBJ 3.0
    x12_64 r12 1.0
    x12_64 c64 1.0
    x12_65 OBJ 4.0
    x12_65 r12 1.0
    x12_65 c65 1.0
    x12_66 OBJ 3.0
    x12_66 r12 1.0
    x12_66 c66 1.0
    x12_67 OBJ 5.0
    x12_67 r12 1.0
    x12_67 c67 1.0
    x12_68 OBJ 1.0
    x12_68 r12 1.0
    x12_68 c68 1.0
    x12_69 OBJ 5.0
    x12_69 r12 1.0
    x12_69 c69 1.0
    x12_70 OBJ 2.0
    x12_70 r12 1.0
    x12_70 c70 1.0
    x12_71 OBJ 4.0
    x12_71 r12 1.0
    x12_71 c71 1.0
    x12_72 OBJ 2.0
    x12_72 r12 1.0
    x12_72 c72 1.0
    x12_73 OBJ 2.0
    x12_73 r12 1.0
    x12_73 c73 1.0
    x12_74 OBJ 4.0
    x12_74 r12 1.0
    x12_74 c74 1.0
    x12_75 OBJ 1.0
    x12_75 r12 1.0
    x12_75 c75 1.0
    x12_76 OBJ 1.0
    x12_76 r12 1.0
    x12_76 c76 1.0
    x12_77 OBJ 4.0
    x12_77 r12 1.0
    x12_77 c77 1.0
    x12_78 OBJ 5.0
    x12_78 r12 1.0
    x12_78 c78 1.0
    x12_79 OBJ 5.0
    x12_79 r12 1.0
    x12_79 c79 1.0
    x13_0 OBJ 3.0
    x13_0 r13 1.0
    x13_0 c0 1.0
    x13_1 OBJ 2.0
    x13_1 r13 1.0
    x13_1 c1 1.0
    x13_2 OBJ 4.0
    x13_2 r13 1.0
    x13_2 c2 1.0
    x13_3 OBJ 1.0
    x13_3 r13 1.0
    x13_3 c3 1.0
    x13_4 OBJ 1.0
    x13_4 r13 1.0
    x13_4 c4 1.0
    x13_5 OBJ 3.0
    x13_5 r13 1.0
    x13_5 c5 1.0
    x13_6 OBJ 5.0
    x13_6 r13 1.0
    x13_6 c6 1.0
    x13_7 OBJ 1.0
    x13_7 r13 1.0
    x13_7 c7 1.0
    x13_8 OBJ 2.0
    x13_8 r13 1.0
    x13_8 c8 1.0
    x13_9 OBJ 1.0
    x13_9 r13 1.0
    x13_9 c9 1.0
    x13_10 OBJ 4.0
    x13_10 r13 1.0
    x13_10 c10 1.0
    x13_11 OBJ 4.0
    x13_11 r13 1.0
    x13_11 c11 1.0
    x13_12 OBJ 4.0
    x13_12 r13 1.0
    x13_12 c12 1.0
    x13_13 OBJ 2.0
    x13_13 r13 1.0
    x13_13 c13 1.0
    x13_14 OBJ 2.0
    x13_14 r13 1.0
    x13_14 c14 1.0
    x13_15 OBJ 2.0
    x13_15 r13 1.0
    x13_15 c15 1.0
    x13_16 OBJ 4.0
    x13_16 r13 1.0
    x13_16 c16 1.0
    x13_17 OBJ 4.0
    x13_17 r13 1.0
    x13_17 c17 1.0
    x13_18 OBJ 5.0
    x13_18 r13 1.0
    x13_18 c18 1.0
    x13_19 OBJ 2.0
    x13_19 r13 1.0
    x13_19 c19 1.0
    x13_20 OBJ 5.0
    x13_20 r13 1.0
    x13_20 c20 1.0
    x13_21 OBJ 1.0
    x13_21 r13 1.0
    x13_21 c21 1.0
    x13_22 OBJ 3.0
    x13_22 r13 1.0
    x13_22 c22 1.0
    x13_23 OBJ 3.0
    x13_23 r13 1.0
    x13_23 c23 1.0
    x13_24 OBJ 3.0
    x13_24 r13 1.0
    x13_24 c24 1.0
    x13_25 OBJ 5.0
    x13_25 r13 1.0
    x13_25 c25 1.0
    x13_26 OBJ 3.0
    x13_26 r13 1.0
    x13_26 c26 1.0
    x13_27 OBJ 3.0
    x13_27 r13 1.0
    x13_27 c27 1.0
    x13_28 OBJ 3.0
    x13_28 r13 1.0
    x13_28 c28 1.0
    x13_29 OBJ 3.0
    x13_29 r13 1.0
    x13_29 c29 1.0
    x13_30 OBJ 2.0
    x13_30 r13 1.0
    x13_30 c30 1.0
    x13_31 OBJ 4.0
    x13_31 r13 1.0
    x13_31 c31 1.0
    x13_32 OBJ 2.0
    x13_32 r13 1.0
    x13_32 c32 1.0
    x13_33 OBJ 2.0
    x13_33 r13 1.0
    x13_33 c33 1.0
    x13_34 OBJ 2.0
    x13_34 r13 1.0
    x13_34 c34 1.0
    x13_35 OBJ 2.0
    x13_35 r13 1.0
    x13_35 c35 1.0
    x13_36 OBJ 2.0
    x13_36 r13 1.0
    x13_36 c36 1.0
    x13_37 OBJ 3.0
    x13_37 r13 1.0
    x13_37 c37 1.0
    x13_38 OBJ 5.0
    x13_38 r13 1.0
    x13_38 c38 1.0
    x13_39 OBJ 2.0
    x13_39 r13 1.0
    x13_39 c39 1.0
    x13_40 OBJ 3.0
    x13_40 r13 1.0
    x13_40 c40 1.0
    x13_41 OBJ 1.0
    x13_41 r13 1.0
    x13_41 c41 1.0
    x13_42 OBJ 4.0
    x13_42 r13 1.0
    x13_42 c42 1.0
    x13_43 OBJ 3.0
    x13_43 r13 1.0
    x13_43 c43 1.0
    x13_44 OBJ 2.0
    x13_44 r13 1.0
    x13_44 c44 1.0
    x13_45 OBJ 5.0
    x13_45 r13 1.0
    x13_45 c45 1.0
    x13_46 OBJ 5.0
    x13_46 r13 1.0
    x13_46 c46 1.0
    x13_47 OBJ 2.0
    x13_47 r13 1.0
    x13_47 c47 1.0
    x13_48 OBJ 1.0
    x13_48 r13 1.0
    x13_48 c48 1.0
    x13_49 OBJ 4.0
    x13_49 r13 1.0
    x13_49 c49 1.0
    x13_50 OBJ 1.0
    x13_50 r13 1.0
    x13_50 c50 1.0
    x13_51 OBJ 1.0
    x13_51 r13 1.0
    x13_51 c51 1.0
    x13_52 OBJ 1.0
    x13_52 r13 1.0
    x13_52 c52 1.0
    x13_53 OBJ 4.0
    x13_53 r13 1.0
    x13_53 c53 1.0
    x13_54 OBJ 2.0
    x13_54 r13 1.0
    x13_54 c54 1.0
    x13_55 OBJ 4.0
    x13_55 r13 1.0
    x13_55 c55 1.0
    x13_56 OBJ 3.0
    x13_56 r13 1.0
    x13_56 c56 1.0
    x13_57 OBJ 1.0
    x13_57 r13 1.0
    x13_57 c57 1.0
    x13_58 OBJ 3.0
    x13_58 r13 1.0
    x13_58 c58 1.0
    x13_59 OBJ 2.0
    x13_59 r13 1.0
    x13_59 c59 1.0
    x13_60 OBJ 1.0
    x13_60 r13 1.0
    x13_60 c60 1.0
    x13_61 OBJ 1.0
    x13_61 r13 1.0
    x13_61 c61 1.0
    x13_62 OBJ 2.0
    x13_62 r13 1.0
    x13_62 c62 1.0
    x13_63 OBJ 5.0
    x13_63 r13 1.0
    x13_63 c63 1.0
    x13_64 OBJ 5.0
    x13_64 r13 1.0
    x13_64 c64 1.0
    x13_65 OBJ 2.0
    x13_65 r13 1.0
    x13_65 c65 1.0
    x13_66 OBJ 1.0
    x13_66 r13 1.0
    x13_66 c66 1.0
    x13_67 OBJ 3.0
    x13_67 r13 1.0
    x13_67 c67 1.0
    x13_68 OBJ 5.0
    x13_68 r13 1.0
    x13_68 c68 1.0
    x13_69 OBJ 2.0
    x13_69 r13 1.0
    x13_69 c69 1.0
    x13_70 OBJ 4.0
    x13_70 r13 1.0
    x13_70 c70 1.0
    x13_71 OBJ 5.0
    x13_71 r13 1.0
    x13_71 c71 1.0
    x13_72 OBJ 3.0
    x13_72 r13 1.0
    x13_72 c72 1.0
    x13_73 OBJ 1.0
    x13_73 r13 1.0
    x13_73 c73 1.0
    x13_74 OBJ 1.0
    x13_74 r13 1.0
    x13_74 c74 1.0
    x13_75 OBJ 5.0
    x13_75 r13 1.0
    x13_75 c75 1.0
    x13_76 OBJ 5.0
    x13_76 r13 1.0
    x13_76 c76 1.0
    x13_77 OBJ 3.0
    x13_77 r13 1.0
    x13_77 c77 1.0
    x13_78 OBJ 2.0
    x13_78 r13 1.0
    x13_78 c78 1.0
    x13_79 OBJ 1.0
    x13_79 r13 1.0
    x13_79 c79 1.0
    x14_0 OBJ 3.0
    x14_0 r14 1.0
    x14_0 c0 1.0
    x14_1 OBJ 3.0
    x14_1 r14 1.0
    x14_1 c1 1.0
    x14_2 OBJ 2.0
    x14_2 r14 1.0
    x14_2 c2 1.0
    x14_3 OBJ 1.0
    x14_3 r14 1.0
    x14_3 c3 1.0
    x14_4 OBJ 2.0
    x14_4 r14 1.0
    x14_4 c4 1.0
    x14_5 OBJ 3.0
    x14_5 r14 1.0
    x14_5 c5 1.0
    x14_6 OBJ 1.0
    x14_6 r14 1.0
    x14_6 c6 1.0
    x14_7 OBJ 5.0
    x14_7 r14 1.0
    x14_7 c7 1.0
    x14_8 OBJ 2.0
    x14_8 r14 1.0
    x14_8 c8 1.0
    x14_9 OBJ 1.0
    x14_9 r14 1.0
    x14_9 c9 1.0
    x14_10 OBJ 3.0
    x14_10 r14 1.0
    x14_10 c10 1.0
    x14_11 OBJ 4.0
    x14_11 r14 1.0
    x14_11 c11 1.0
    x14_12 OBJ 3.0
    x14_12 r14 1.0
    x14_12 c12 1.0
    x14_13 OBJ 2.0
    x14_13 r14 1.0
    x14_13 c13 1.0
    x14_14 OBJ 5.0
    x14_14 r14 1.0
    x14_14 c14 1.0
    x14_15 OBJ 3.0
    x14_15 r14 1.0
    x14_15 c15 1.0
    x14_16 OBJ 1.0
    x14_16 r14 1.0
    x14_16 c16 1.0
    x14_17 OBJ 2.0
    x14_17 r14 1.0
    x14_17 c17 1.0
    x14_18 OBJ 1.0
    x14_18 r14 1.0
    x14_18 c18 1.0
    x14_19 OBJ 4.0
    x14_19 r14 1.0
    x14_19 c19 1.0
    x14_20 OBJ 5.0
    x14_20 r14 1.0
    x14_20 c20 1.0
    x14_21 OBJ 4.0
    x14_21 r14 1.0
    x14_21 c21 1.0
    x14_22 OBJ 1.0
    x14_22 r14 1.0
    x14_22 c22 1.0
    x14_23 OBJ 4.0
    x14_23 r14 1.0
    x14_23 c23 1.0
    x14_24 OBJ 1.0
    x14_24 r14 1.0
    x14_24 c24 1.0
    x14_25 OBJ 4.0
    x14_25 r14 1.0
    x14_25 c25 1.0
    x14_26 OBJ 5.0
    x14_26 r14 1.0
    x14_26 c26 1.0
    x14_27 OBJ 2.0
    x14_27 r14 1.0
    x14_27 c27 1.0
    x14_28 OBJ 5.0
    x14_28 r14 1.0
    x14_28 c28 1.0
    x14_29 OBJ 1.0
    x14_29 r14 1.0
    x14_29 c29 1.0
    x14_30 OBJ 2.0
    x14_30 r14 1.0
    x14_30 c30 1.0
    x14_31 OBJ 4.0
    x14_31 r14 1.0
    x14_31 c31 1.0
    x14_32 OBJ 3.0
    x14_32 r14 1.0
    x14_32 c32 1.0
    x14_33 OBJ 4.0
    x14_33 r14 1.0
    x14_33 c33 1.0
    x14_34 OBJ 3.0
    x14_34 r14 1.0
    x14_34 c34 1.0
    x14_35 OBJ 3.0
    x14_35 r14 1.0
    x14_35 c35 1.0
    x14_36 OBJ 4.0
    x14_36 r14 1.0
    x14_36 c36 1.0
    x14_37 OBJ 1.0
    x14_37 r14 1.0
    x14_37 c37 1.0
    x14_38 OBJ 3.0
    x14_38 r14 1.0
    x14_38 c38 1.0
    x14_39 OBJ 5.0
    x14_39 r14 1.0
    x14_39 c39 1.0
    x14_40 OBJ 3.0
    x14_40 r14 1.0
    x14_40 c40 1.0
    x14_41 OBJ 4.0
    x14_41 r14 1.0
    x14_41 c41 1.0
    x14_42 OBJ 4.0
    x14_42 r14 1.0
    x14_42 c42 1.0
    x14_43 OBJ 1.0
    x14_43 r14 1.0
    x14_43 c43 1.0
    x14_44 OBJ 3.0
    x14_44 r14 1.0
    x14_44 c44 1.0
    x14_45 OBJ 2.0
    x14_45 r14 1.0
    x14_45 c45 1.0
    x14_46 OBJ 4.0
    x14_46 r14 1.0
    x14_46 c46 1.0
    x14_47 OBJ 4.0
    x14_47 r14 1.0
    x14_47 c47 1.0
    x14_48 OBJ 2.0
    x14_48 r14 1.0
    x14_48 c48 1.0
    x14_49 OBJ 1.0
    x14_49 r14 1.0
    x14_49 c49 1.0
    x14_50 OBJ 4.0
    x14_50 r14 1.0
    x14_50 c50 1.0
    x14_51 OBJ 2.0
    x14_51 r14 1.0
    x14_51 c51 1.0
    x14_52 OBJ 4.0
    x14_52 r14 1.0
    x14_52 c52 1.0
    x14_53 OBJ 1.0
    x14_53 r14 1.0
    x14_53 c53 1.0
    x14_54 OBJ 1.0
    x14_54 r14 1.0
    x14_54 c54 1.0
    x14_55 OBJ 4.0
    x14_55 r14 1.0
    x14_55 c55 1.0
    x14_56 OBJ 5.0
    x14_56 r14 1.0
    x14_56 c56 1.0
    x14_57 OBJ 3.0
    x14_57 r14 1.0
    x14_57 c57 1.0
    x14_58 OBJ 4.0
    x14_58 r14 1.0
    x14_58 c58 1.0
    x14_59 OBJ 2.0
    x14_59 r14 1.0
    x14_59 c59 1.0
    x14_60 OBJ 2.0
    x14_60 r14 1.0
    x14_60 c60 1.0
    x14_61 OBJ 1.0
    x14_61 r14 1.0
    x14_61 c61 1.0
    x14_62 OBJ 1.0
    x14_62 r14 1.0
    x14_62 c62 1.0
    x14_63 OBJ 5.0
    x14_63 r14 1.0
    x14_63 c63 1.0
    x14_64 OBJ 2.0
    x14_64 r14 1.0
    x14_64 c64 1.0
    x14_65 OBJ 4.0
    x14_65 r14 1.0
    x14_65 c65 1.0
    x14_66 OBJ 1.0
    x14_66 r14 1.0
    x14_66 c66 1.0
    x14_67 OBJ 5.0
    x14_67 r14 1.0
    x14_67 c67 1.0
    x14_68 OBJ 5.0
    x14_68 r14 1.0
    x14_68 c68 1.0
    x14_69 OBJ 3.0
    x14_69 r14 1.0
    x14_69 c69 1.0
    x14_70 OBJ 5.0
    x14_70 r14 1.0
    x14_70 c70 1.0
    x14_71 OBJ 2.0
    x14_71 r14 1.0
    x14_71 c71 1.0
    x14_72 OBJ 2.0
    x14_72 r14 1.0
    x14_72 c72 1.0
    x14_73 OBJ 3.0
    x14_73 r14 1.0
    x14_73 c73 1.0
    x14_74 OBJ 3.0
    x14_74 r14 1.0
    x14_74 c74 1.0
    x14_75 OBJ 2.0
    x14_75 r14 1.0
    x14_75 c75 1.0
    x14_76 OBJ 5.0
    x14_76 r14 1.0
    x14_76 c76 1.0
    x14_77 OBJ 2.0
    x14_77 r14 1.0
    x14_77 c77 1.0
    x14_78 OBJ 1.0
    x14_78 r14 1.0
    x14_78 c78 1.0
    x14_79 OBJ 1.0
    x14_79 r14 1.0
    x14_79 c79 1.0
    x15_0 OBJ 4.0
    x15_0 r15 1.0
    x15_0 c0 1.0
    x15_1 OBJ 4.0
    x15_1 r15 1.0
    x15_1 c1 1.0
    x15_2 OBJ 2.0
    x15_2 r15 1.0
    x15_2 c2 1.0
    x15_3 OBJ 3.0
    x15_3 r15 1.0
    x15_3 c3 1.0
    x15_4 OBJ 2.0
    x15_4 r15 1.0
    x15_4 c4 1.0
    x15_5 OBJ 1.0
    x15_5 r15 1.0
    x15_5 c5 1.0
    x15_6 OBJ 4.0
    x15_6 r15 1.0
    x15_6 c6 1.0
    x15_7 OBJ 3.0
    x15_7 r15 1.0
    x15_7 c7 1.0
    x15_8 OBJ 1.0
    x15_8 r15 1.0
    x15_8 c8 1.0
    x15_9 OBJ 5.0
    x15_9 r15 1.0
    x15_9 c9 1.0
    x15_10 OBJ 4.0
    x15_10 r15 1.0
    x15_10 c10 1.0
    x15_11 OBJ 1.0
    x15_11 r15 1.0
    x15_11 c11 1.0
    x15_12 OBJ 5.0
    x15_12 r15 1.0
    x15_12 c12 1.0
    x15_13 OBJ 2.0
    x15_13 r15 1.0
    x15_13 c13 1.0
    x15_14 OBJ 2.0
    x15_14 r15 1.0
    x15_14 c14 1.0
    x15_15 OBJ 5.0
    x15_15 r15 1.0
    x15_15 c15 1.0
    x15_16 OBJ 4.0
    x15_16 r15 1.0
    x15_16 c16 1.0
    x15_17 OBJ 5.0
    x15_17 r15 1.0
    x15_17 c17 1.0
    x15_18 OBJ 2.0
    x15_18 r15 1.0
    x15_18 c18 1.0
    x15_19 OBJ 4.0
    x15_19 r15 1.0
    x15_19 c19 1.0
    x15_20 OBJ 2.0
    x15_20 r15 1.0
    x15_20 c20 1.0
    x15_21 OBJ 5.0
    x15_21 r15 1.0
    x15_21 c21 1.0
    x15_22 OBJ 2.0
    x15_22 r15 1.0
    x15_22 c22 1.0
    x15_23 OBJ 1.0
    x15_23 r15 1.0
    x15_23 c23 1.0
    x15_24 OBJ 4.0
    x15_24 r15 1.0
    x15_24 c24 1.0
    x15_25 OBJ 5.0
    x15_25 r15 1.0
    x15_25 c25 1.0
    x15_26 OBJ 2.0
    x15_26 r15 1.0
    x15_26 c26 1.0
    x15_27 OBJ 4.0
    x15_27 r15 1.0
    x15_27 c27 1.0
    x15_28 OBJ 3.0
    x15_28 r15 1.0
    x15_28 c28 1.0
    x15_29 OBJ 1.0
    x15_29 r15 1.0
    x15_29 c29 1.0
    x15_30 OBJ 2.0
    x15_30 r15 1.0
    x15_30 c30 1.0
    x15_31 OBJ 2.0
    x15_31 r15 1.0
    x15_31 c31 1.0
    x15_32 OBJ 2.0
    x15_32 r15 1.0
    x15_32 c32 1.0
    x15_33 OBJ 1.0
    x15_33 r15 1.0
    x15_33 c33 1.0
    x15_34 OBJ 5.0
    x15_34 r15 1.0
    x15_34 c34 1.0
    x15_35 OBJ 1.0
    x15_35 r15 1.0
    x15_35 c35 1.0
    x15_36 OBJ 3.0
    x15_36 r15 1.0
    x15_36 c36 1.0
    x15_37 OBJ 1.0
    x15_37 r15 1.0
    x15_37 c37 1.0
    x15_38 OBJ 4.0
    x15_38 r15 1.0
    x15_38 c38 1.0
    x15_39 OBJ 5.0
    x15_39 r15 1.0
    x15_39 c39 1.0
    x15_40 OBJ 4.0
    x15_40 r15 1.0
    x15_40 c40 1.0
    x15_41 OBJ 5.0
    x15_41 r15 1.0
    x15_41 c41 1.0
    x15_42 OBJ 3.0
    x15_42 r15 1.0
    x15_42 c42 1.0
    x15_43 OBJ 4.0
    x15_43 r15 1.0
    x15_43 c43 1.0
    x15_44 OBJ 3.0
    x15_44 r15 1.0
    x15_44 c44 1.0
    x15_45 OBJ 5.0
    x15_45 r15 1.0
    x15_45 c45 1.0
    x15_46 OBJ 2.0
    x15_46 r15 1.0
    x15_46 c46 1.0
    x15_47 OBJ 4.0
    x15_47 r15 1.0
    x15_47 c47 1.0
    x15_48 OBJ 4.0
    x15_48 r15 1.0
    x15_48 c48 1.0
    x15_49 OBJ 3.0
    x15_49 r15 1.0
    x15_49 c49 1.0
    x15_50 OBJ 4.0
    x15_50 r15 1.0
    x15_50 c50 1.0
    x15_51 OBJ 5.0
    x15_51 r15 1.0
    x15_51 c51 1.0
    x15_52 OBJ 4.0
    x15_52 r15 1.0
    x15_52 c52 1.0
    x15_53 OBJ 2.0
    x15_53 r15 1.0
    x15_53 c53 1.0
    x15_54 OBJ 1.0
    x15_54 r15 1.0
    x15_54 c54 1.0
    x15_55 OBJ 1.0
    x15_55 r15 1.0
    x15_55 c55 1.0
    x15_56 OBJ 5.0
    x15_56 r15 1.0
    x15_56 c56 1.0
    x15_57 OBJ 4.0
    x15_57 r15 1.0
    x15_57 c57 1.0
    x15_58 OBJ 4.0
    x15_58 r15 1.0
    x15_58 c58 1.0
    x15_59 OBJ 2.0
    x15_59 r15 1.0
    x15_59 c59 1.0
    x15_60 OBJ 4.0
    x15_60 r15 1.0
    x15_60 c60 1.0
    x15_61 OBJ 5.0
    x15_61 r15 1.0
    x15_61 c61 1.0
    x15_62 OBJ 4.0
    x15_62 r15 1.0
    x15_62 c62 1.0
    x15_63 OBJ 2.0
    x15_63 r15 1.0
    x15_63 c63 1.0
    x15_64 OBJ 4.0
    x15_64 r15 1.0
    x15_64 c64 1.0
    x15_65 OBJ 4.0
    x15_65 r15 1.0
    x15_65 c65 1.0
    x15_66 OBJ 1.0
    x15_66 r15 1.0
    x15_66 c66 1.0
    x15_67 OBJ 1.0
    x15_67 r15 1.0
    x15_67 c67 1.0
    x15_68 OBJ 2.0
    x15_68 r15 1.0
    x15_68 c68 1.0
    x15_69 OBJ 3.0
    x15_69 r15 1.0
    x15_69 c69 1.0
    x15_70 OBJ 4.0
    x15_70 r15 1.0
    x15_70 c70 1.0
    x15_71 OBJ 3.0
    x15_71 r15 1.0
    x15_71 c71 1.0
    x15_72 OBJ 1.0
    x15_72 r15 1.0
    x15_72 c72 1.0
    x15_73 OBJ 4.0
    x15_73 r15 1.0
    x15_73 c73 1.0
    x15_74 OBJ 5.0
    x15_74 r15 1.0
    x15_74 c74 1.0
    x15_75 OBJ 5.0
    x15_75 r15 1.0
    x15_75 c75 1.0
    x15_76 OBJ 1.0
    x15_76 r15 1.0
    x15_76 c76 1.0
    x15_77 OBJ 1.0
    x15_77 r15 1.0
    x15_77 c77 1.0
    x15_78 OBJ 2.0
    x15_78 r15 1.0
    x15_78 c78 1.0
    x15_79 OBJ 1.0
    x15_79 r15 1.0
    x15_79 c79 1.0
    x16_0 OBJ 3.0
    x16_0 r16 1.0
    x16_0 c0 1.0
    x16_1 OBJ 5.0
    x16_1 r16 1.0
    x16_1 c1 1.0
    x16_2 OBJ 1.0
    x16_2 r16 1.0
    x16_2 c2 1.0
    x16_3 OBJ 1.0
    x16_3 r16 1.0
    x16_3 c3 1.0
    x16_4 OBJ 5.0
    x16_4 r16 1.0
    x16_4 c4 1.0
    x16_5 OBJ 4.0
    x16_5 r16 1.0
    x16_5 c5 1.0
    x16_6 OBJ 2.0
    x16_6 r16 1.0
    x16_6 c6 1.0
    x16_7 OBJ 1.0
    x16_7 r16 1.0
    x16_7 c7 1.0
    x16_8 OBJ 1.0
    x16_8 r16 1.0
    x16_8 c8 1.0
    x16_9 OBJ 5.0
    x16_9 r16 1.0
    x16_9 c9 1.0
    x16_10 OBJ 1.0
    x16_10 r16 1.0
    x16_10 c10 1.0
    x16_11 OBJ 2.0
    x16_11 r16 1.0
    x16_11 c11 1.0
    x16_12 OBJ 2.0
    x16_12 r16 1.0
    x16_12 c12 1.0
    x16_13 OBJ 4.0
    x16_13 r16 1.0
    x16_13 c13 1.0
    x16_14 OBJ 3.0
    x16_14 r16 1.0
    x16_14 c14 1.0
    x16_15 OBJ 2.0
    x16_15 r16 1.0
    x16_15 c15 1.0
    x16_16 OBJ 2.0
    x16_16 r16 1.0
    x16_16 c16 1.0
    x16_17 OBJ 1.0
    x16_17 r16 1.0
    x16_17 c17 1.0
    x16_18 OBJ 3.0
    x16_18 r16 1.0
    x16_18 c18 1.0
    x16_19 OBJ 5.0
    x16_19 r16 1.0
    x16_19 c19 1.0
    x16_20 OBJ 3.0
    x16_20 r16 1.0
    x16_20 c20 1.0
    x16_21 OBJ 2.0
    x16_21 r16 1.0
    x16_21 c21 1.0
    x16_22 OBJ 3.0
    x16_22 r16 1.0
    x16_22 c22 1.0
    x16_23 OBJ 5.0
    x16_23 r16 1.0
    x16_23 c23 1.0
    x16_24 OBJ 3.0
    x16_24 r16 1.0
    x16_24 c24 1.0
    x16_25 OBJ 4.0
    x16_25 r16 1.0
    x16_25 c25 1.0
    x16_26 OBJ 2.0
    x16_26 r16 1.0
    x16_26 c26 1.0
    x16_27 OBJ 3.0
    x16_27 r16 1.0
    x16_27 c27 1.0
    x16_28 OBJ 5.0
    x16_28 r16 1.0
    x16_28 c28 1.0
    x16_29 OBJ 4.0
    x16_29 r16 1.0
    x16_29 c29 1.0
    x16_30 OBJ 2.0
    x16_30 r16 1.0
    x16_30 c30 1.0
    x16_31 OBJ 5.0
    x16_31 r16 1.0
    x16_31 c31 1.0
    x16_32 OBJ 3.0
    x16_32 r16 1.0
    x16_32 c32 1.0
    x16_33 OBJ 5.0
    x16_33 r16 1.0
    x16_33 c33 1.0
    x16_34 OBJ 5.0
    x16_34 r16 1.0
    x16_34 c34 1.0
    x16_35 OBJ 2.0
    x16_35 r16 1.0
    x16_35 c35 1.0
    x16_36 OBJ 3.0
    x16_36 r16 1.0
    x16_36 c36 1.0
    x16_37 OBJ 3.0
    x16_37 r16 1.0
    x16_37 c37 1.0
    x16_38 OBJ 1.0
    x16_38 r16 1.0
    x16_38 c38 1.0
    x16_39 OBJ 2.0
    x16_39 r16 1.0
    x16_39 c39 1.0
    x16_40 OBJ 2.0
    x16_40 r16 1.0
    x16_40 c40 1.0
    x16_41 OBJ 4.0
    x16_41 r16 1.0
    x16_41 c41 1.0
    x16_42 OBJ 2.0
    x16_42 r16 1.0
    x16_42 c42 1.0
    x16_43 OBJ 3.0
    x16_43 r16 1.0
    x16_43 c43 1.0
    x16_44 OBJ 3.0
    x16_44 r16 1.0
    x16_44 c44 1.0
    x16_45 OBJ 4.0
    x16_45 r16 1.0
    x16_45 c45 1.0
    x16_46 OBJ 2.0
    x16_46 r16 1.0
    x16_46 c46 1.0
    x16_47 OBJ 3.0
    x16_47 r16 1.0
    x16_47 c47 1.0
    x16_48 OBJ 1.0
    x16_48 r16 1.0
    x16_48 c48 1.0
    x16_49 OBJ 5.0
    x16_49 r16 1.0
    x16_49 c49 1.0
    x16_50 OBJ 1.0
    x16_50 r16 1.0
    x16_50 c50 1.0
    x16_51 OBJ 3.0
    x16_51 r16 1.0
    x16_51 c51 1.0
    x16_52 OBJ 4.0
    x16_52 r16 1.0
    x16_52 c52 1.0
    x16_53 OBJ 5.0
    x16_53 r16 1.0
    x16_53 c53 1.0
    x16_54 OBJ 5.0
    x16_54 r16 1.0
    x16_54 c54 1.0
    x16_55 OBJ 5.0
    x16_55 r16 1.0
    x16_55 c55 1.0
    x16_56 OBJ 1.0
    x16_56 r16 1.0
    x16_56 c56 1.0
    x16_57 OBJ 3.0
    x16_57 r16 1.0
    x16_57 c57 1.0
    x16_58 OBJ 5.0
    x16_58 r16 1.0
    x16_58 c58 1.0
    x16_59 OBJ 4.0
    x16_59 r16 1.0
    x16_59 c59 1.0
    x16_60 OBJ 3.0
    x16_60 r16 1.0
    x16_60 c60 1.0
    x16_61 OBJ 3.0
    x16_61 r16 1.0
    x16_61 c61 1.0
    x16_62 OBJ 4.0
    x16_62 r16 1.0
    x16_62 c62 1.0
    x16_63 OBJ 3.0
    x16_63 r16 1.0
    x16_63 c63 1.0
    x16_64 OBJ 5.0
    x16_64 r16 1.0
    x16_64 c64 1.0
    x16_65 OBJ 2.0
    x16_65 r16 1.0
    x16_65 c65 1.0
    x16_66 OBJ 3.0
    x16_66 r16 1.0
    x16_66 c66 1.0
    x16_67 OBJ 3.0
    x16_67 r16 1.0
    x16_67 c67 1.0
    x16_68 OBJ 1.0
    x16_68 r16 1.0
    x16_68 c68 1.0
    x16_69 OBJ 4.0
    x16_69 r16 1.0
    x16_69 c69 1.0
    x16_70 OBJ 2.0
    x16_70 r16 1.0
    x16_70 c70 1.0
    x16_71 OBJ 2.0
    x16_71 r16 1.0
    x16_71 c71 1.0
    x16_72 OBJ 5.0
    x16_72 r16 1.0
    x16_72 c72 1.0
    x16_73 OBJ 1.0
    x16_73 r16 1.0
    x16_73 c73 1.0
    x16_74 OBJ 3.0
    x16_74 r16 1.0
    x16_74 c74 1.0
    x16_75 OBJ 5.0
    x16_75 r16 1.0
    x16_75 c75 1.0
    x16_76 OBJ 3.0
    x16_76 r16 1.0
    x16_76 c76 1.0
    x16_77 OBJ 3.0
    x16_77 r16 1.0
    x16_77 c77 1.0
    x16_78 OBJ 5.0
    x16_78 r16 1.0
    x16_78 c78 1.0
    x16_79 OBJ 3.0
    x16_79 r16 1.0
    x16_79 c79 1.0
    x17_0 OBJ 1.0
    x17_0 r17 1.0
    x17_0 c0 1.0
    x17_1 OBJ 1.0
    x17_1 r17 1.0
    x17_1 c1 1.0
    x17_2 OBJ 2.0
    x17_2 r17 1.0
    x17_2 c2 1.0
    x17_3 OBJ 2.0
    x17_3 r17 1.0
    x17_3 c3 1.0
    x17_4 OBJ 3.0
    x17_4 r17 1.0
    x17_4 c4 1.0
    x17_5 OBJ 5.0
    x17_5 r17 1.0
    x17_5 c5 1.0
    x17_6 OBJ 4.0
    x17_6 r17 1.0
    x17_6 c6 1.0
    x17_7 OBJ 4.0
    x17_7 r17 1.0
    x17_7 c7 1.0
    x17_8 OBJ 5.0
    x17_8 r17 1.0
    x17_8 c8 1.0
    x17_9 OBJ 3.0
    x17_9 r17 1.0
    x17_9 c9 1.0
    x17_10 OBJ 1.0
    x17_10 r17 1.0
    x17_10 c10 1.0
    x17_11 OBJ 2.0
    x17_11 r17 1.0
    x17_11 c11 1.0
    x17_12 OBJ 4.0
    x17_12 r17 1.0
    x17_12 c12 1.0
    x17_13 OBJ 2.0
    x17_13 r17 1.0
    x17_13 c13 1.0
    x17_14 OBJ 5.0
    x17_14 r17 1.0
    x17_14 c14 1.0
    x17_15 OBJ 1.0
    x17_15 r17 1.0
    x17_15 c15 1.0
    x17_16 OBJ 1.0
    x17_16 r17 1.0
    x17_16 c16 1.0
    x17_17 OBJ 1.0
    x17_17 r17 1.0
    x17_17 c17 1.0
    x17_18 OBJ 1.0
    x17_18 r17 1.0
    x17_18 c18 1.0
    x17_19 OBJ 5.0
    x17_19 r17 1.0
    x17_19 c19 1.0
    x17_20 OBJ 3.0
    x17_20 r17 1.0
    x17_20 c20 1.0
    x17_21 OBJ 3.0
    x17_21 r17 1.0
    x17_21 c21 1.0
    x17_22 OBJ 1.0
    x17_22 r17 1.0
    x17_22 c22 1.0
    x17_23 OBJ 5.0
    x17_23 r17 1.0
    x17_23 c23 1.0
    x17_24 OBJ 3.0
    x17_24 r17 1.0
    x17_24 c24 1.0
    x17_25 OBJ 5.0
    x17_25 r17 1.0
    x17_25 c25 1.0
    x17_26 OBJ 2.0
    x17_26 r17 1.0
    x17_26 c26 1.0
    x17_27 OBJ 4.0
    x17_27 r17 1.0
    x17_27 c27 1.0
    x17_28 OBJ 5.0
    x17_28 r17 1.0
    x17_28 c28 1.0
    x17_29 OBJ 3.0
    x17_29 r17 1.0
    x17_29 c29 1.0
    x17_30 OBJ 5.0
    x17_30 r17 1.0
    x17_30 c30 1.0
    x17_31 OBJ 2.0
    x17_31 r17 1.0
    x17_31 c31 1.0
    x17_32 OBJ 2.0
    x17_32 r17 1.0
    x17_32 c32 1.0
    x17_33 OBJ 3.0
    x17_33 r17 1.0
    x17_33 c33 1.0
    x17_34 OBJ 5.0
    x17_34 r17 1.0
    x17_34 c34 1.0
    x17_35 OBJ 4.0
    x17_35 r17 1.0
    x17_35 c35 1.0
    x17_36 OBJ 2.0
    x17_36 r17 1.0
    x17_36 c36 1.0
    x17_37 OBJ 2.0
    x17_37 r17 1.0
    x17_37 c37 1.0
    x17_38 OBJ 1.0
    x17_38 r17 1.0
    x17_38 c38 1.0
    x17_39 OBJ 2.0
    x17_39 r17 1.0
    x17_39 c39 1.0
    x17_40 OBJ 2.0
    x17_40 r17 1.0
    x17_40 c40 1.0
    x17_41 OBJ 4.0
    x17_41 r17 1.0
    x17_41 c41 1.0
    x17_42 OBJ 1.0
    x17_42 r17 1.0
    x17_42 c42 1.0
    x17_43 OBJ 1.0
    x17_43 r17 1.0
    x17_43 c43 1.0
    x17_44 OBJ 2.0
    x17_44 r17 1.0
    x17_44 c44 1.0
    x17_45 OBJ 3.0
    x17_45 r17 1.0
    x17_45 c45 1.0
    x17_46 OBJ 4.0
    x17_46 r17 1.0
    x17_46 c46 1.0
    x17_47 OBJ 3.0
    x17_47 r17 1.0
    x17_47 c47 1.0
    x17_48 OBJ 1.0
    x17_48 r17 1.0
    x17_48 c48 1.0
    x17_49 OBJ 1.0
    x17_49 r17 1.0
    x17_49 c49 1.0
    x17_50 OBJ 5.0
    x17_50 r17 1.0
    x17_50 c50 1.0
    x17_51 OBJ 3.0
    x17_51 r17 1.0
    x17_51 c51 1.0
    x17_52 OBJ 5.0
    x17_52 r17 1.0
    x17_52 c52 1.0
    x17_53 OBJ 5.0
    x17_53 r17 1.0
    x17_53 c53 1.0
    x17_54 OBJ 4.0
    x17_54 r17 1.0
    x17_54 c54 1.0
    x17_55 OBJ 5.0
    x17_55 r17 1.0
    x17_55 c55 1.0
    x17_56 OBJ 5.0
    x17_56 r17 1.0
    x17_56 c56 1.0
    x17_57 OBJ 4.0
    x17_57 r17 1.0
    x17_57 c57 1.0
    x17_58 OBJ 2.0
    x17_58 r17 1.0
    x17_58 c58 1.0
    x17_59 OBJ 2.0
    x17_59 r17 1.0
    x17_59 c59 1.0
    x17_60 OBJ 1.0
    x17_60 r17 1.0
    x17_60 c60 1.0
    x17_61 OBJ 1.0
    x17_61 r17 1.0
    x17_61 c61 1.0
    x17_62 OBJ 1.0
    x17_62 r17 1.0
    x17_62 c62 1.0
    x17_63 OBJ 5.0
    x17_63 r17 1.0
    x17_63 c63 1.0
    x17_64 OBJ 1.0
    x17_64 r17 1.0
    x17_64 c64 1.0
    x17_65 OBJ 4.0
    x17_65 r17 1.0
    x17_65 c65 1.0
    x17_66 OBJ 2.0
    x17_66 r17 1.0
    x17_66 c66 1.0
    x17_67 OBJ 2.0
    x17_67 r17 1.0
    x17_67 c67 1.0
    x17_68 OBJ 2.0
    x17_68 r17 1.0
    x17_68 c68 1.0
    x17_69 OBJ 1.0
    x17_69 r17 1.0
    x17_69 c69 1.0
    x17_70 OBJ 1.0
    x17_70 r17 1.0
    x17_70 c70 1.0
    x17_71 OBJ 1.0
    x17_71 r17 1.0
    x17_71 c71 1.0
    x17_72 OBJ 5.0
    x17_72 r17 1.0
    x17_72 c72 1.0
    x17_73 OBJ 5.0
    x17_73 r17 1.0
    x17_73 c73 1.0
    x17_74 OBJ 2.0
    x17_74 r17 1.0
    x17_74 c74 1.0
    x17_75 OBJ 2.0
    x17_75 r17 1.0
    x17_75 c75 1.0
    x17_76 OBJ 4.0
    x17_76 r17 1.0
    x17_76 c76 1.0
    x17_77 OBJ 2.0
    x17_77 r17 1.0
    x17_77 c77 1.0
    x17_78 OBJ 5.0
    x17_78 r17 1.0
    x17_78 c78 1.0
    x17_79 OBJ 5.0
    x17_79 r17 1.0
    x17_79 c79 1.0
    x18_0 OBJ 5.0
    x18_0 r18 1.0
    x18_0 c0 1.0
    x18_1 OBJ 4.0
    x18_1 r18 1.0
    x18_1 c1 1.0
    x18_2 OBJ 5.0
    x18_2 r18 1.0
    x18_2 c2 1.0
    x18_3 OBJ 2.0
    x18_3 r18 1.0
    x18_3 c3 1.0
    x18_4 OBJ 5.0
    x18_4 r18 1.0
    x18_4 c4 1.0
    x18_5 OBJ 3.0
    x18_5 r18 1.0
    x18_5 c5 1.0
    x18_6 OBJ 1.0
    x18_6 r18 1.0
    x18_6 c6 1.0
    x18_7 OBJ 3.0
    x18_7 r18 1.0
    x18_7 c7 1.0
    x18_8 OBJ 1.0
    x18_8 r18 1.0
    x18_8 c8 1.0
    x18_9 OBJ 4.0
    x18_9 r18 1.0
    x18_9 c9 1.0
    x18_10 OBJ 5.0
    x18_10 r18 1.0
    x18_10 c10 1.0
    x18_11 OBJ 1.0
    x18_11 r18 1.0
    x18_11 c11 1.0
    x18_12 OBJ 4.0
    x18_12 r18 1.0
    x18_12 c12 1.0
    x18_13 OBJ 4.0
    x18_13 r18 1.0
    x18_13 c13 1.0
    x18_14 OBJ 4.0
    x18_14 r18 1.0
    x18_14 c14 1.0
    x18_15 OBJ 1.0
    x18_15 r18 1.0
    x18_15 c15 1.0
    x18_16 OBJ 4.0
    x18_16 r18 1.0
    x18_16 c16 1.0
    x18_17 OBJ 2.0
    x18_17 r18 1.0
    x18_17 c17 1.0
    x18_18 OBJ 2.0
    x18_18 r18 1.0
    x18_18 c18 1.0
    x18_19 OBJ 1.0
    x18_19 r18 1.0
    x18_19 c19 1.0
    x18_20 OBJ 3.0
    x18_20 r18 1.0
    x18_20 c20 1.0
    x18_21 OBJ 2.0
    x18_21 r18 1.0
    x18_21 c21 1.0
    x18_22 OBJ 1.0
    x18_22 r18 1.0
    x18_22 c22 1.0
    x18_23 OBJ 1.0
    x18_23 r18 1.0
    x18_23 c23 1.0
    x18_24 OBJ 3.0
    x18_24 r18 1.0
    x18_24 c24 1.0
    x18_25 OBJ 3.0
    x18_25 r18 1.0
    x18_25 c25 1.0
    x18_26 OBJ 1.0
    x18_26 r18 1.0
    x18_26 c26 1.0
    x18_27 OBJ 3.0
    x18_27 r18 1.0
    x18_27 c27 1.0
    x18_28 OBJ 5.0
    x18_28 r18 1.0
    x18_28 c28 1.0
    x18_29 OBJ 4.0
    x18_29 r18 1.0
    x18_29 c29 1.0
    x18_30 OBJ 5.0
    x18_30 r18 1.0
    x18_30 c30 1.0
    x18_31 OBJ 3.0
    x18_31 r18 1.0
    x18_31 c31 1.0
    x18_32 OBJ 3.0
    x18_32 r18 1.0
    x18_32 c32 1.0
    x18_33 OBJ 2.0
    x18_33 r18 1.0
    x18_33 c33 1.0
    x18_34 OBJ 1.0
    x18_34 r18 1.0
    x18_34 c34 1.0
    x18_35 OBJ 5.0
    x18_35 r18 1.0
    x18_35 c35 1.0
    x18_36 OBJ 1.0
    x18_36 r18 1.0
    x18_36 c36 1.0
    x18_37 OBJ 2.0
    x18_37 r18 1.0
    x18_37 c37 1.0
    x18_38 OBJ 3.0
    x18_38 r18 1.0
    x18_38 c38 1.0
    x18_39 OBJ 2.0
    x18_39 r18 1.0
    x18_39 c39 1.0
    x18_40 OBJ 2.0
    x18_40 r18 1.0
    x18_40 c40 1.0
    x18_41 OBJ 2.0
    x18_41 r18 1.0
    x18_41 c41 1.0
    x18_42 OBJ 3.0
    x18_42 r18 1.0
    x18_42 c42 1.0
    x18_43 OBJ 2.0
    x18_43 r18 1.0
    x18_43 c43 1.0
    x18_44 OBJ 4.0
    x18_44 r18 1.0
    x18_44 c44 1.0
    x18_45 OBJ 3.0
    x18_45 r18 1.0
    x18_45 c45 1.0
    x18_46 OBJ 5.0
    x18_46 r18 1.0
    x18_46 c46 1.0
    x18_47 OBJ 2.0
    x18_47 r18 1.0
    x18_47 c47 1.0
    x18_48 OBJ 4.0
    x18_48 r18 1.0
    x18_48 c48 1.0
    x18_49 OBJ 5.0
    x18_49 r18 1.0
    x18_49 c49 1.0
    x18_50 OBJ 4.0
    x18_50 r18 1.0
    x18_50 c50 1.0
    x18_51 OBJ 4.0
    x18_51 r18 1.0
    x18_51 c51 1.0
    x18_52 OBJ 5.0
    x18_52 r18 1.0
    x18_52 c52 1.0
    x18_53 OBJ 1.0
    x18_53 r18 1.0
    x18_53 c53 1.0
    x18_54 OBJ 1.0
    x18_54 r18 1.0
    x18_54 c54 1.0
    x18_55 OBJ 4.0
    x18_55 r18 1.0
    x18_55 c55 1.0
    x18_56 OBJ 2.0
    x18_56 r18 1.0
    x18_56 c56 1.0
    x18_57 OBJ 5.0
    x18_57 r18 1.0
    x18_57 c57 1.0
    x18_58 OBJ 3.0
    x18_58 r18 1.0
    x18_58 c58 1.0
    x18_59 OBJ 2.0
    x18_59 r18 1.0
    x18_59 c59 1.0
    x18_60 OBJ 4.0
    x18_60 r18 1.0
    x18_60 c60 1.0
    x18_61 OBJ 5.0
    x18_61 r18 1.0
    x18_61 c61 1.0
    x18_62 OBJ 5.0
    x18_62 r18 1.0
    x18_62 c62 1.0
    x18_63 OBJ 1.0
    x18_63 r18 1.0
    x18_63 c63 1.0
    x18_64 OBJ 5.0
    x18_64 r18 1.0
    x18_64 c64 1.0
    x18_65 OBJ 2.0
    x18_65 r18 1.0
    x18_65 c65 1.0
    x18_66 OBJ 2.0
    x18_66 r18 1.0
    x18_66 c66 1.0
    x18_67 OBJ 1.0
    x18_67 r18 1.0
    x18_67 c67 1.0
    x18_68 OBJ 1.0
    x18_68 r18 1.0
    x18_68 c68 1.0
    x18_69 OBJ 1.0
    x18_69 r18 1.0
    x18_69 c69 1.0
    x18_70 OBJ 1.0
    x18_70 r18 1.0
    x18_70 c70 1.0
    x18_71 OBJ 5.0
    x18_71 r18 1.0
    x18_71 c71 1.0
    x18_72 OBJ 2.0
    x18_72 r18 1.0
    x18_72 c72 1.0
    x18_73 OBJ 3.0
    x18_73 r18 1.0
    x18_73 c73 1.0
    x18_74 OBJ 2.0
    x18_74 r18 1.0
    x18_74 c74 1.0
    x18_75 OBJ 1.0
    x18_75 r18 1.0
    x18_75 c75 1.0
    x18_76 OBJ 1.0
    x18_76 r18 1.0
    x18_76 c76 1.0
    x18_77 OBJ 1.0
    x18_77 r18 1.0
    x18_77 c77 1.0
    x18_78 OBJ 2.0
    x18_78 r18 1.0
    x18_78 c78 1.0
    x18_79 OBJ 1.0
    x18_79 r18 1.0
    x18_79 c79 1.0
    x19_0 OBJ 1.0
    x19_0 r19 1.0
    x19_0 c0 1.0
    x19_1 OBJ 1.0
    x19_1 r19 1.0
    x19_1 c1 1.0
    x19_2 OBJ 1.0
    x19_2 r19 1.0
    x19_2 c2 1.0
    x19_3 OBJ 5.0
    x19_3 r19 1.0
    x19_3 c3 1.0
    x19_4 OBJ 3.0
    x19_4 r19 1.0
    x19_4 c4 1.0
    x19_5 OBJ 2.0
    x19_5 r19 1.0
    x19_5 c5 1.0
    x19_6 OBJ 5.0
    x19_6 r19 1.0
    x19_6 c6 1.0
    x19_7 OBJ 1.0
    x19_7 r19 1.0
    x19_7 c7 1.0
    x19_8 OBJ 4.0
    x19_8 r19 1.0
    x19_8 c8 1.0
    x19_9 OBJ 1.0
    x19_9 r19 1.0
    x19_9 c9 1.0
    x19_10 OBJ 2.0
    x19_10 r19 1.0
    x19_10 c10 1.0
    x19_11 OBJ 2.0
    x19_11 r19 1.0
    x19_11 c11 1.0
    x19_12 OBJ 2.0
    x19_12 r19 1.0
    x19_12 c12 1.0
    x19_13 OBJ 1.0
    x19_13 r19 1.0
    x19_13 c13 1.0
    x19_14 OBJ 1.0
    x19_14 r19 1.0
    x19_14 c14 1.0
    x19_15 OBJ 1.0
    x19_15 r19 1.0
    x19_15 c15 1.0
    x19_16 OBJ 1.0
    x19_16 r19 1.0
    x19_16 c16 1.0
    x19_17 OBJ 3.0
    x19_17 r19 1.0
    x19_17 c17 1.0
    x19_18 OBJ 4.0
    x19_18 r19 1.0
    x19_18 c18 1.0
    x19_19 OBJ 1.0
    x19_19 r19 1.0
    x19_19 c19 1.0
    x19_20 OBJ 2.0
    x19_20 r19 1.0
    x19_20 c20 1.0
    x19_21 OBJ 1.0
    x19_21 r19 1.0
    x19_21 c21 1.0
    x19_22 OBJ 2.0
    x19_22 r19 1.0
    x19_22 c22 1.0
    x19_23 OBJ 3.0
    x19_23 r19 1.0
    x19_23 c23 1.0
    x19_24 OBJ 3.0
    x19_24 r19 1.0
    x19_24 c24 1.0
    x19_25 OBJ 3.0
    x19_25 r19 1.0
    x19_25 c25 1.0
    x19_26 OBJ 4.0
    x19_26 r19 1.0
    x19_26 c26 1.0
    x19_27 OBJ 3.0
    x19_27 r19 1.0
    x19_27 c27 1.0
    x19_28 OBJ 1.0
    x19_28 r19 1.0
    x19_28 c28 1.0
    x19_29 OBJ 3.0
    x19_29 r19 1.0
    x19_29 c29 1.0
    x19_30 OBJ 3.0
    x19_30 r19 1.0
    x19_30 c30 1.0
    x19_31 OBJ 3.0
    x19_31 r19 1.0
    x19_31 c31 1.0
    x19_32 OBJ 1.0
    x19_32 r19 1.0
    x19_32 c32 1.0
    x19_33 OBJ 3.0
    x19_33 r19 1.0
    x19_33 c33 1.0
    x19_34 OBJ 3.0
    x19_34 r19 1.0
    x19_34 c34 1.0
    x19_35 OBJ 5.0
    x19_35 r19 1.0
    x19_35 c35 1.0
    x19_36 OBJ 5.0
    x19_36 r19 1.0
    x19_36 c36 1.0
    x19_37 OBJ 4.0
    x19_37 r19 1.0
    x19_37 c37 1.0
    x19_38 OBJ 3.0
    x19_38 r19 1.0
    x19_38 c38 1.0
    x19_39 OBJ 5.0
    x19_39 r19 1.0
    x19_39 c39 1.0
    x19_40 OBJ 1.0
    x19_40 r19 1.0
    x19_40 c40 1.0
    x19_41 OBJ 4.0
    x19_41 r19 1.0
    x19_41 c41 1.0
    x19_42 OBJ 1.0
    x19_42 r19 1.0
    x19_42 c42 1.0
    x19_43 OBJ 4.0
    x19_43 r19 1.0
    x19_43 c43 1.0
    x19_44 OBJ 5.0
    x19_44 r19 1.0
    x19_44 c44 1.0
    x19_45 OBJ 1.0
    x19_45 r19 1.0
    x19_45 c45 1.0
    x19_46 OBJ 3.0
    x19_46 r19 1.0
    x19_46 c46 1.0
    x19_47 OBJ 4.0
    x19_47 r19 1.0
    x19_47 c47 1.0
    x19_48 OBJ 1.0
    x19_48 r19 1.0
    x19_48 c48 1.0
    x19_49 OBJ 5.0
    x19_49 r19 1.0
    x19_49 c49 1.0
    x19_50 OBJ 5.0
    x19_50 r19 1.0
    x19_50 c50 1.0
    x19_51 OBJ 2.0
    x19_51 r19 1.0
    x19_51 c51 1.0
    x19_52 OBJ 1.0
    x19_52 r19 1.0
    x19_52 c52 1.0
    x19_53 OBJ 5.0
    x19_53 r19 1.0
    x19_53 c53 1.0
    x19_54 OBJ 3.0
    x19_54 r19 1.0
    x19_54 c54 1.0
    x19_55 OBJ 2.0
    x19_55 r19 1.0
    x19_55 c55 1.0
    x19_56 OBJ 4.0
    x19_56 r19 1.0
    x19_56 c56 1.0
    x19_57 OBJ 1.0
    x19_57 r19 1.0
    x19_57 c57 1.0
    x19_58 OBJ 5.0
    x19_58 r19 1.0
    x19_58 c58 1.0
    x19_59 OBJ 2.0
    x19_59 r19 1.0
    x19_59 c59 1.0
    x19_60 OBJ 3.0
    x19_60 r19 1.0
    x19_60 c60 1.0
    x19_61 OBJ 1.0
    x19_61 r19 1.0
    x19_61 c61 1.0
    x19_62 OBJ 1.0
    x19_62 r19 1.0
    x19_62 c62 1.0
    x19_63 OBJ 3.0
    x19_63 r19 1.0
    x19_63 c63 1.0
    x19_64 OBJ 4.0
    x19_64 r19 1.0
    x19_64 c64 1.0
    x19_65 OBJ 1.0
    x19_65 r19 1.0
    x19_65 c65 1.0
    x19_66 OBJ 4.0
    x19_66 r19 1.0
    x19_66 c66 1.0
    x19_67 OBJ 2.0
    x19_67 r19 1.0
    x19_67 c67 1.0
    x19_68 OBJ 4.0
    x19_68 r19 1.0
    x19_68 c68 1.0
    x19_69 OBJ 5.0
    x19_69 r19 1.0
    x19_69 c69 1.0
    x19_70 OBJ 3.0
    x19_70 r19 1.0
    x19_70 c70 1.0
    x19_71 OBJ 5.0
    x19_71 r19 1.0
    x19_71 c71 1.0
    x19_72 OBJ 3.0
    x19_72 r19 1.0
    x19_72 c72 1.0
    x19_73 OBJ 5.0
    x19_73 r19 1.0
    x19_73 c73 1.0
    x19_74 OBJ 2.0
    x19_74 r19 1.0
    x19_74 c74 1.0
    x19_75 OBJ 3.0
    x19_75 r19 1.0
    x19_75 c75 1.0
    x19_76 OBJ 2.0
    x19_76 r19 1.0
    x19_76 c76 1.0
    x19_77 OBJ 2.0
    x19_77 r19 1.0
    x19_77 c77 1.0
    x19_78 OBJ 4.0
    x19_78 r19 1.0
    x19_78 c78 1.0
    x19_79 OBJ 2.0
    x19_79 r19 1.0
    x19_79 c79 1.0
    x20_0 OBJ 1.0
    x20_0 r20 1.0
    x20_0 c0 1.0
    x20_1 OBJ 1.0
    x20_1 r20 1.0
    x20_1 c1 1.0
    x20_2 OBJ 4.0
    x20_2 r20 1.0
    x20_2 c2 1.0
    x20_3 OBJ 5.0
    x20_3 r20 1.0
    x20_3 c3 1.0
    x20_4 OBJ 1.0
    x20_4 r20 1.0
    x20_4 c4 1.0
    x20_5 OBJ 3.0
    x20_5 r20 1.0
    x20_5 c5 1.0
    x20_6 OBJ 3.0
    x20_6 r20 1.0
    x20_6 c6 1.0
    x20_7 OBJ 1.0
    x20_7 r20 1.0
    x20_7 c7 1.0
    x20_8 OBJ 4.0
    x20_8 r20 1.0
    x20_8 c8 1.0
    x20_9 OBJ 4.0
    x20_9 r20 1.0
    x20_9 c9 1.0
    x20_10 OBJ 1.0
    x20_10 r20 1.0
    x20_10 c10 1.0
    x20_11 OBJ 4.0
    x20_11 r20 1.0
    x20_11 c11 1.0
    x20_12 OBJ 1.0
    x20_12 r20 1.0
    x20_12 c12 1.0
    x20_13 OBJ 3.0
    x20_13 r20 1.0
    x20_13 c13 1.0
    x20_14 OBJ 2.0
    x20_14 r20 1.0
    x20_14 c14 1.0
    x20_15 OBJ 3.0
    x20_15 r20 1.0
    x20_15 c15 1.0
    x20_16 OBJ 3.0
    x20_16 r20 1.0
    x20_16 c16 1.0
    x20_17 OBJ 4.0
    x20_17 r20 1.0
    x20_17 c17 1.0
    x20_18 OBJ 5.0
    x20_18 r20 1.0
    x20_18 c18 1.0
    x20_19 OBJ 5.0
    x20_19 r20 1.0
    x20_19 c19 1.0
    x20_20 OBJ 2.0
    x20_20 r20 1.0
    x20_20 c20 1.0
    x20_21 OBJ 4.0
    x20_21 r20 1.0
    x20_21 c21 1.0
    x20_22 OBJ 2.0
    x20_22 r20 1.0
    x20_22 c22 1.0
    x20_23 OBJ 4.0
    x20_23 r20 1.0
    x20_23 c23 1.0
    x20_24 OBJ 2.0
    x20_24 r20 1.0
    x20_24 c24 1.0
    x20_25 OBJ 5.0
    x20_25 r20 1.0
    x20_25 c25 1.0
    x20_26 OBJ 5.0
    x20_26 r20 1.0
    x20_26 c26 1.0
    x20_27 OBJ 5.0
    x20_27 r20 1.0
    x20_27 c27 1.0
    x20_28 OBJ 1.0
    x20_28 r20 1.0
    x20_28 c28 1.0
    x20_29 OBJ 3.0
    x20_29 r20 1.0
    x20_29 c29 1.0
    x20_30 OBJ 5.0
    x20_30 r20 1.0
    x20_30 c30 1.0
    x20_31 OBJ 3.0
    x20_31 r20 1.0
    x20_31 c31 1.0
    x20_32 OBJ 5.0
    x20_32 r20 1.0
    x20_32 c32 1.0
    x20_33 OBJ 2.0
    x20_33 r20 1.0
    x20_33 c33 1.0
    x20_34 OBJ 4.0
    x20_34 r20 1.0
    x20_34 c34 1.0
    x20_35 OBJ 5.0
    x20_35 r20 1.0
    x20_35 c35 1.0
    x20_36 OBJ 3.0
    x20_36 r20 1.0
    x20_36 c36 1.0
    x20_37 OBJ 2.0
    x20_37 r20 1.0
    x20_37 c37 1.0
    x20_38 OBJ 4.0
    x20_38 r20 1.0
    x20_38 c38 1.0
    x20_39 OBJ 4.0
    x20_39 r20 1.0
    x20_39 c39 1.0
    x20_40 OBJ 3.0
    x20_40 r20 1.0
    x20_40 c40 1.0
    x20_41 OBJ 5.0
    x20_41 r20 1.0
    x20_41 c41 1.0
    x20_42 OBJ 2.0
    x20_42 r20 1.0
    x20_42 c42 1.0
    x20_43 OBJ 2.0
    x20_43 r20 1.0
    x20_43 c43 1.0
    x20_44 OBJ 3.0
    x20_44 r20 1.0
    x20_44 c44 1.0
    x20_45 OBJ 4.0
    x20_45 r20 1.0
    x20_45 c45 1.0
    x20_46 OBJ 2.0
    x20_46 r20 1.0
    x20_46 c46 1.0
    x20_47 OBJ 5.0
    x20_47 r20 1.0
    x20_47 c47 1.0
    x20_48 OBJ 2.0
    x20_48 r20 1.0
    x20_48 c48 1.0
    x20_49 OBJ 3.0
    x20_49 r20 1.0
    x20_49 c49 1.0
    x20_50 OBJ 3.0
    x20_50 r20 1.0
    x20_50 c50 1.0
    x20_51 OBJ 5.0
    x20_51 r20 1.0
    x20_51 c51 1.0
    x20_52 OBJ 2.0
    x20_52 r20 1.0
    x20_52 c52 1.0
    x20_53 OBJ 2.0
    x20_53 r20 1.0
    x20_53 c53 1.0
    x20_54 OBJ 2.0
    x20_54 r20 1.0
    x20_54 c54 1.0
    x20_55 OBJ 3.0
    x20_55 r20 1.0
    x20_55 c55 1.0
    x20_56 OBJ 5.0
    x20_56 r20 1.0
    x20_56 c56 1.0
    x20_57 OBJ 5.0
    x20_57 r20 1.0
    x20_57 c57 1.0
    x20_58 OBJ 3.0
    x20_58 r20 1.0
    x20_58 c58 1.0
    x20_59 OBJ 2.0
    x20_59 r20 1.0
    x20_59 c59 1.0
    x20_60 OBJ 2.0
    x20_60 r20 1.0
    x20_60 c60 1.0
    x20_61 OBJ 3.0
    x20_61 r20 1.0
    x20_61 c61 1.0
    x20_62 OBJ 2.0
    x20_62 r20 1.0
    x20_62 c62 1.0
    x20_63 OBJ 3.0
    x20_63 r20 1.0
    x20_63 c63 1.0
    x20_64 OBJ 1.0
    x20_64 r20 1.0
    x20_64 c64 1.0
    x20_65 OBJ 2.0
    x20_65 r20 1.0
    x20_65 c65 1.0
    x20_66 OBJ 1.0
    x20_66 r20 1.0
    x20_66 c66 1.0
    x20_67 OBJ 2.0
    x20_67 r20 1.0
    x20_67 c67 1.0
    x20_68 OBJ 4.0
    x20_68 r20 1.0
    x20_68 c68 1.0
    x20_69 OBJ 2.0
    x20_69 r20 1.0
    x20_69 c69 1.0
    x20_70 OBJ 2.0
    x20_70 r20 1.0
    x20_70 c70 1.0
    x20_71 OBJ 3.0
    x20_71 r20 1.0
    x20_71 c71 1.0
    x20_72 OBJ 3.0
    x20_72 r20 1.0
    x20_72 c72 1.0
    x20_73 OBJ 4.0
    x20_73 r20 1.0
    x20_73 c73 1.0
    x20_74 OBJ 3.0
    x20_74 r20 1.0
    x20_74 c74 1.0
    x20_75 OBJ 2.0
    x20_75 r20 1.0
    x20_75 c75 1.0
    x20_76 OBJ 1.0
    x20_76 r20 1.0
    x20_76 c76 1.0
    x20_77 OBJ 1.0
    x20_77 r20 1.0
    x20_77 c77 1.0
    x20_78 OBJ 3.0
    x20_78 r20 1.0
    x20_78 c78 1.0
    x20_79 OBJ 2.0
    x20_79 r20 1.0
    x20_79 c79 1.0
    x21_0 OBJ 4.0
    x21_0 r21 1.0
    x21_0 c0 1.0
    x21_1 OBJ 4.0
    x21_1 r21 1.0
    x21_1 c1 1.0
    x21_2 OBJ 1.0
    x21_2 r21 1.0
    x21_2 c2 1.0
    x21_3 OBJ 1.0
    x21_3 r21 1.0
    x21_3 c3 1.0
    x21_4 OBJ 4.0
    x21_4 r21 1.0
    x21_4 c4 1.0
    x21_5 OBJ 4.0
    x21_5 r21 1.0
    x21_5 c5 1.0
    x21_6 OBJ 2.0
    x21_6 r21 1.0
    x21_6 c6 1.0
    x21_7 OBJ 5.0
    x21_7 r21 1.0
    x21_7 c7 1.0
    x21_8 OBJ 3.0
    x21_8 r21 1.0
    x21_8 c8 1.0
    x21_9 OBJ 4.0
    x21_9 r21 1.0
    x21_9 c9 1.0
    x21_10 OBJ 1.0
    x21_10 r21 1.0
    x21_10 c10 1.0
    x21_11 OBJ 2.0
    x21_11 r21 1.0
    x21_11 c11 1.0
    x21_12 OBJ 3.0
    x21_12 r21 1.0
    x21_12 c12 1.0
    x21_13 OBJ 5.0
    x21_13 r21 1.0
    x21_13 c13 1.0
    x21_14 OBJ 4.0
    x21_14 r21 1.0
    x21_14 c14 1.0
    x21_15 OBJ 1.0
    x21_15 r21 1.0
    x21_15 c15 1.0
    x21_16 OBJ 2.0
    x21_16 r21 1.0
    x21_16 c16 1.0
    x21_17 OBJ 4.0
    x21_17 r21 1.0
    x21_17 c17 1.0
    x21_18 OBJ 5.0
    x21_18 r21 1.0
    x21_18 c18 1.0
    x21_19 OBJ 5.0
    x21_19 r21 1.0
    x21_19 c19 1.0
    x21_20 OBJ 4.0
    x21_20 r21 1.0
    x21_20 c20 1.0
    x21_21 OBJ 2.0
    x21_21 r21 1.0
    x21_21 c21 1.0
    x21_22 OBJ 5.0
    x21_22 r21 1.0
    x21_22 c22 1.0
    x21_23 OBJ 2.0
    x21_23 r21 1.0
    x21_23 c23 1.0
    x21_24 OBJ 2.0
    x21_24 r21 1.0
    x21_24 c24 1.0
    x21_25 OBJ 1.0
    x21_25 r21 1.0
    x21_25 c25 1.0
    x21_26 OBJ 4.0
    x21_26 r21 1.0
    x21_26 c26 1.0
    x21_27 OBJ 4.0
    x21_27 r21 1.0
    x21_27 c27 1.0
    x21_28 OBJ 3.0
    x21_28 r21 1.0
    x21_28 c28 1.0
    x21_29 OBJ 3.0
    x21_29 r21 1.0
    x21_29 c29 1.0
    x21_30 OBJ 1.0
    x21_30 r21 1.0
    x21_30 c30 1.0
    x21_31 OBJ 4.0
    x21_31 r21 1.0
    x21_31 c31 1.0
    x21_32 OBJ 2.0
    x21_32 r21 1.0
    x21_32 c32 1.0
    x21_33 OBJ 4.0
    x21_33 r21 1.0
    x21_33 c33 1.0
    x21_34 OBJ 2.0
    x21_34 r21 1.0
    x21_34 c34 1.0
    x21_35 OBJ 3.0
    x21_35 r21 1.0
    x21_35 c35 1.0
    x21_36 OBJ 4.0
    x21_36 r21 1.0
    x21_36 c36 1.0
    x21_37 OBJ 4.0
    x21_37 r21 1.0
    x21_37 c37 1.0
    x21_38 OBJ 4.0
    x21_38 r21 1.0
    x21_38 c38 1.0
    x21_39 OBJ 1.0
    x21_39 r21 1.0
    x21_39 c39 1.0
    x21_40 OBJ 5.0
    x21_40 r21 1.0
    x21_40 c40 1.0
    x21_41 OBJ 4.0
    x21_41 r21 1.0
    x21_41 c41 1.0
    x21_42 OBJ 5.0
    x21_42 r21 1.0
    x21_42 c42 1.0
    x21_43 OBJ 2.0
    x21_43 r21 1.0
    x21_43 c43 1.0
    x21_44 OBJ 3.0
    x21_44 r21 1.0
    x21_44 c44 1.0
    x21_45 OBJ 1.0
    x21_45 r21 1.0
    x21_45 c45 1.0
    x21_46 OBJ 4.0
    x21_46 r21 1.0
    x21_46 c46 1.0
    x21_47 OBJ 4.0
    x21_47 r21 1.0
    x21_47 c47 1.0
    x21_48 OBJ 1.0
    x21_48 r21 1.0
    x21_48 c48 1.0
    x21_49 OBJ 1.0
    x21_49 r21 1.0
    x21_49 c49 1.0
    x21_50 OBJ 3.0
    x21_50 r21 1.0
    x21_50 c50 1.0
    x21_51 OBJ 5.0
    x21_51 r21 1.0
    x21_51 c51 1.0
    x21_52 OBJ 2.0
    x21_52 r21 1.0
    x21_52 c52 1.0
    x21_53 OBJ 2.0
    x21_53 r21 1.0
    x21_53 c53 1.0
    x21_54 OBJ 2.0
    x21_54 r21 1.0
    x21_54 c54 1.0
    x21_55 OBJ 5.0
    x21_55 r21 1.0
    x21_55 c55 1.0
    x21_56 OBJ 3.0
    x21_56 r21 1.0
    x21_56 c56 1.0
    x21_57 OBJ 1.0
    x21_57 r21 1.0
    x21_57 c57 1.0
    x21_58 OBJ 5.0
    x21_58 r21 1.0
    x21_58 c58 1.0
    x21_59 OBJ 4.0
    x21_59 r21 1.0
    x21_59 c59 1.0
    x21_60 OBJ 5.0
    x21_60 r21 1.0
    x21_60 c60 1.0
    x21_61 OBJ 2.0
    x21_61 r21 1.0
    x21_61 c61 1.0
    x21_62 OBJ 4.0
    x21_62 r21 1.0
    x21_62 c62 1.0
    x21_63 OBJ 5.0
    x21_63 r21 1.0
    x21_63 c63 1.0
    x21_64 OBJ 1.0
    x21_64 r21 1.0
    x21_64 c64 1.0
    x21_65 OBJ 3.0
    x21_65 r21 1.0
    x21_65 c65 1.0
    x21_66 OBJ 5.0
    x21_66 r21 1.0
    x21_66 c66 1.0
    x21_67 OBJ 3.0
    x21_67 r21 1.0
    x21_67 c67 1.0
    x21_68 OBJ 4.0
    x21_68 r21 1.0
    x21_68 c68 1.0
    x21_69 OBJ 4.0
    x21_69 r21 1.0
    x21_69 c69 1.0
    x21_70 OBJ 2.0
    x21_70 r21 1.0
    x21_70 c70 1.0
    x21_71 OBJ 2.0
    x21_71 r21 1.0
    x21_71 c71 1.0
    x21_72 OBJ 4.0
    x21_72 r21 1.0
    x21_72 c72 1.0
    x21_73 OBJ 5.0
    x21_73 r21 1.0
    x21_73 c73 1.0
    x21_74 OBJ 1.0
    x21_74 r21 1.0
    x21_74 c74 1.0
    x21_75 OBJ 5.0
    x21_75 r21 1.0
    x21_75 c75 1.0
    x21_76 OBJ 3.0
    x21_76 r21 1.0
    x21_76 c76 1.0
    x21_77 OBJ 1.0
    x21_77 r21 1.0
    x21_77 c77 1.0
    x21_78 OBJ 3.0
    x21_78 r21 1.0
    x21_78 c78 1.0
    x21_79 OBJ 3.0
    x21_79 r21 1.0
    x21_79 c79 1.0
    x22_0 OBJ 4.0
    x22_0 r22 1.0
    x22_0 c0 1.0
    x22_1 OBJ 4.0
    x22_1 r22 1.0
    x22_1 c1 1.0
    x22_2 OBJ 1.0
    x22_2 r22 1.0
    x22_2 c2 1.0
    x22_3 OBJ 1.0
    x22_3 r22 1.0
    x22_3 c3 1.0
    x22_4 OBJ 1.0
    x22_4 r22 1.0
    x22_4 c4 1.0
    x22_5 OBJ 4.0
    x22_5 r22 1.0
    x22_5 c5 1.0
    x22_6 OBJ 4.0
    x22_6 r22 1.0
    x22_6 c6 1.0
    x22_7 OBJ 3.0
    x22_7 r22 1.0
    x22_7 c7 1.0
    x22_8 OBJ 5.0
    x22_8 r22 1.0
    x22_8 c8 1.0
    x22_9 OBJ 3.0
    x22_9 r22 1.0
    x22_9 c9 1.0
    x22_10 OBJ 1.0
    x22_10 r22 1.0
    x22_10 c10 1.0
    x22_11 OBJ 2.0
    x22_11 r22 1.0
    x22_11 c11 1.0
    x22_12 OBJ 3.0
    x22_12 r22 1.0
    x22_12 c12 1.0
    x22_13 OBJ 4.0
    x22_13 r22 1.0
    x22_13 c13 1.0
    x22_14 OBJ 5.0
    x22_14 r22 1.0
    x22_14 c14 1.0
    x22_15 OBJ 2.0
    x22_15 r22 1.0
    x22_15 c15 1.0
    x22_16 OBJ 4.0
    x22_16 r22 1.0
    x22_16 c16 1.0
    x22_17 OBJ 4.0
    x22_17 r22 1.0
    x22_17 c17 1.0
    x22_18 OBJ 2.0
    x22_18 r22 1.0
    x22_18 c18 1.0
    x22_19 OBJ 2.0
    x22_19 r22 1.0
    x22_19 c19 1.0
    x22_20 OBJ 2.0
    x22_20 r22 1.0
    x22_20 c20 1.0
    x22_21 OBJ 1.0
    x22_21 r22 1.0
    x22_21 c21 1.0
    x22_22 OBJ 2.0
    x22_22 r22 1.0
    x22_22 c22 1.0
    x22_23 OBJ 4.0
    x22_23 r22 1.0
    x22_23 c23 1.0
    x22_24 OBJ 5.0
    x22_24 r22 1.0
    x22_24 c24 1.0
    x22_25 OBJ 2.0
    x22_25 r22 1.0
    x22_25 c25 1.0
    x22_26 OBJ 2.0
    x22_26 r22 1.0
    x22_26 c26 1.0
    x22_27 OBJ 3.0
    x22_27 r22 1.0
    x22_27 c27 1.0
    x22_28 OBJ 4.0
    x22_28 r22 1.0
    x22_28 c28 1.0
    x22_29 OBJ 4.0
    x22_29 r22 1.0
    x22_29 c29 1.0
    x22_30 OBJ 3.0
    x22_30 r22 1.0
    x22_30 c30 1.0
    x22_31 OBJ 5.0
    x22_31 r22 1.0
    x22_31 c31 1.0
    x22_32 OBJ 2.0
    x22_32 r22 1.0
    x22_32 c32 1.0
    x22_33 OBJ 4.0
    x22_33 r22 1.0
    x22_33 c33 1.0
    x22_34 OBJ 3.0
    x22_34 r22 1.0
    x22_34 c34 1.0
    x22_35 OBJ 2.0
    x22_35 r22 1.0
    x22_35 c35 1.0
    x22_36 OBJ 3.0
    x22_36 r22 1.0
    x22_36 c36 1.0
    x22_37 OBJ 4.0
    x22_37 r22 1.0
    x22_37 c37 1.0
    x22_38 OBJ 3.0
    x22_38 r22 1.0
    x22_38 c38 1.0
    x22_39 OBJ 4.0
    x22_39 r22 1.0
    x22_39 c39 1.0
    x22_40 OBJ 2.0
    x22_40 r22 1.0
    x22_40 c40 1.0
    x22_41 OBJ 4.0
    x22_41 r22 1.0
    x22_41 c41 1.0
    x22_42 OBJ 1.0
    x22_42 r22 1.0
    x22_42 c42 1.0
    x22_43 OBJ 3.0
    x22_43 r22 1.0
    x22_43 c43 1.0
    x22_44 OBJ 3.0
    x22_44 r22 1.0
    x22_44 c44 1.0
    x22_45 OBJ 2.0
    x22_45 r22 1.0
    x22_45 c45 1.0
    x22_46 OBJ 3.0
    x22_46 r22 1.0
    x22_46 c46 1.0
    x22_47 OBJ 3.0
    x22_47 r22 1.0
    x22_47 c47 1.0
    x22_48 OBJ 4.0
    x22_48 r22 1.0
    x22_48 c48 1.0
    x22_49 OBJ 4.0
    x22_49 r22 1.0
    x22_49 c49 1.0
    x22_50 OBJ 4.0
    x22_50 r22 1.0
    x22_50 c50 1.0
    x22_51 OBJ 5.0
    x22_51 r22 1.0
    x22_51 c51 1.0
    x22_52 OBJ 1.0
    x22_52 r22 1.0
    x22_52 c52 1.0
    x22_53 OBJ 3.0
    x22_53 r22 1.0
    x22_53 c53 1.0
    x22_54 OBJ 2.0
    x22_54 r22 1.0
    x22_54 c54 1.0
    x22_55 OBJ 3.0
    x22_55 r22 1.0
    x22_55 c55 1.0
    x22_56 OBJ 4.0
    x22_56 r22 1.0
    x22_56 c56 1.0
    x22_57 OBJ 1.0
    x22_57 r22 1.0
    x22_57 c57 1.0
    x22_58 OBJ 1.0
    x22_58 r22 1.0
    x22_58 c58 1.0
    x22_59 OBJ 5.0
    x22_59 r22 1.0
    x22_59 c59 1.0
    x22_60 OBJ 3.0
    x22_60 r22 1.0
    x22_60 c60 1.0
    x22_61 OBJ 2.0
    x22_61 r22 1.0
    x22_61 c61 1.0
    x22_62 OBJ 5.0
    x22_62 r22 1.0
    x22_62 c62 1.0
    x22_63 OBJ 3.0
    x22_63 r22 1.0
    x22_63 c63 1.0
    x22_64 OBJ 5.0
    x22_64 r22 1.0
    x22_64 c64 1.0
    x22_65 OBJ 1.0
    x22_65 r22 1.0
    x22_65 c65 1.0
    x22_66 OBJ 1.0
    x22_66 r22 1.0
    x22_66 c66 1.0
    x22_67 OBJ 2.0
    x22_67 r22 1.0
    x22_67 c67 1.0
    x22_68 OBJ 1.0
    x22_68 r22 1.0
    x22_68 c68 1.0
    x22_69 OBJ 3.0
    x22_69 r22 1.0
    x22_69 c69 1.0
    x22_70 OBJ 3.0
    x22_70 r22 1.0
    x22_70 c70 1.0
    x22_71 OBJ 5.0
    x22_71 r22 1.0
    x22_71 c71 1.0
    x22_72 OBJ 1.0
    x22_72 r22 1.0
    x22_72 c72 1.0
    x22_73 OBJ 5.0
    x22_73 r22 1.0
    x22_73 c73 1.0
    x22_74 OBJ 2.0
    x22_74 r22 1.0
    x22_74 c74 1.0
    x22_75 OBJ 2.0
    x22_75 r22 1.0
    x22_75 c75 1.0
    x22_76 OBJ 2.0
    x22_76 r22 1.0
    x22_76 c76 1.0
    x22_77 OBJ 4.0
    x22_77 r22 1.0
    x22_77 c77 1.0
    x22_78 OBJ 3.0
    x22_78 r22 1.0
    x22_78 c78 1.0
    x22_79 OBJ 2.0
    x22_79 r22 1.0
    x22_79 c79 1.0
    x23_0 OBJ 2.0
    x23_0 r23 1.0
    x23_0 c0 1.0
    x23_1 OBJ 4.0
    x23_1 r23 1.0
    x23_1 c1 1.0
    x23_2 OBJ 5.0
    x23_2 r23 1.0
    x23_2 c2 1.0
    x23_3 OBJ 2.0
    x23_3 r23 1.0
    x23_3 c3 1.0
    x23_4 OBJ 5.0
    x23_4 r23 1.0
    x23_4 c4 1.0
    x23_5 OBJ 5.0
    x23_5 r23 1.0
    x23_5 c5 1.0
    x23_6 OBJ 1.0
    x23_6 r23 1.0
    x23_6 c6 1.0
    x23_7 OBJ 5.0
    x23_7 r23 1.0
    x23_7 c7 1.0
    x23_8 OBJ 3.0
    x23_8 r23 1.0
    x23_8 c8 1.0
    x23_9 OBJ 2.0
    x23_9 r23 1.0
    x23_9 c9 1.0
    x23_10 OBJ 4.0
    x23_10 r23 1.0
    x23_10 c10 1.0
    x23_11 OBJ 2.0
    x23_11 r23 1.0
    x23_11 c11 1.0
    x23_12 OBJ 5.0
    x23_12 r23 1.0
    x23_12 c12 1.0
    x23_13 OBJ 1.0
    x23_13 r23 1.0
    x23_13 c13 1.0
    x23_14 OBJ 4.0
    x23_14 r23 1.0
    x23_14 c14 1.0
    x23_15 OBJ 1.0
    x23_15 r23 1.0
    x23_15 c15 1.0
    x23_16 OBJ 5.0
    x23_16 r23 1.0
    x23_16 c16 1.0
    x23_17 OBJ 1.0
    x23_17 r23 1.0
    x23_17 c17 1.0
    x23_18 OBJ 3.0
    x23_18 r23 1.0
    x23_18 c18 1.0
    x23_19 OBJ 4.0
    x23_19 r23 1.0
    x23_19 c19 1.0
    x23_20 OBJ 2.0
    x23_20 r23 1.0
    x23_20 c20 1.0
    x23_21 OBJ 2.0
    x23_21 r23 1.0
    x23_21 c21 1.0
    x23_22 OBJ 4.0
    x23_22 r23 1.0
    x23_22 c22 1.0
    x23_23 OBJ 4.0
    x23_23 r23 1.0
    x23_23 c23 1.0
    x23_24 OBJ 5.0
    x23_24 r23 1.0
    x23_24 c24 1.0
    x23_25 OBJ 1.0
    x23_25 r23 1.0
    x23_25 c25 1.0
    x23_26 OBJ 4.0
    x23_26 r23 1.0
    x23_26 c26 1.0
    x23_27 OBJ 4.0
    x23_27 r23 1.0
    x23_27 c27 1.0
    x23_28 OBJ 2.0
    x23_28 r23 1.0
    x23_28 c28 1.0
    x23_29 OBJ 4.0
    x23_29 r23 1.0
    x23_29 c29 1.0
    x23_30 OBJ 2.0
    x23_30 r23 1.0
    x23_30 c30 1.0
    x23_31 OBJ 4.0
    x23_31 r23 1.0
    x23_31 c31 1.0
    x23_32 OBJ 2.0
    x23_32 r23 1.0
    x23_32 c32 1.0
    x23_33 OBJ 5.0
    x23_33 r23 1.0
    x23_33 c33 1.0
    x23_34 OBJ 5.0
    x23_34 r23 1.0
    x23_34 c34 1.0
    x23_35 OBJ 1.0
    x23_35 r23 1.0
    x23_35 c35 1.0
    x23_36 OBJ 2.0
    x23_36 r23 1.0
    x23_36 c36 1.0
    x23_37 OBJ 3.0
    x23_37 r23 1.0
    x23_37 c37 1.0
    x23_38 OBJ 4.0
    x23_38 r23 1.0
    x23_38 c38 1.0
    x23_39 OBJ 5.0
    x23_39 r23 1.0
    x23_39 c39 1.0
    x23_40 OBJ 4.0
    x23_40 r23 1.0
    x23_40 c40 1.0
    x23_41 OBJ 3.0
    x23_41 r23 1.0
    x23_41 c41 1.0
    x23_42 OBJ 4.0
    x23_42 r23 1.0
    x23_42 c42 1.0
    x23_43 OBJ 3.0
    x23_43 r23 1.0
    x23_43 c43 1.0
    x23_44 OBJ 4.0
    x23_44 r23 1.0
    x23_44 c44 1.0
    x23_45 OBJ 4.0
    x23_45 r23 1.0
    x23_45 c45 1.0
    x23_46 OBJ 1.0
    x23_46 r23 1.0
    x23_46 c46 1.0
    x23_47 OBJ 2.0
    x23_47 r23 1.0
    x23_47 c47 1.0
    x23_48 OBJ 3.0
    x23_48 r23 1.0
    x23_48 c48 1.0
    x23_49 OBJ 1.0
    x23_49 r23 1.0
    x23_49 c49 1.0
    x23_50 OBJ 1.0
    x23_50 r23 1.0
    x23_50 c50 1.0
    x23_51 OBJ 5.0
    x23_51 r23 1.0
    x23_51 c51 1.0
    x23_52 OBJ 1.0
    x23_52 r23 1.0
    x23_52 c52 1.0
    x23_53 OBJ 3.0
    x23_53 r23 1.0
    x23_53 c53 1.0
    x23_54 OBJ 1.0
    x23_54 r23 1.0
    x23_54 c54 1.0
    x23_55 OBJ 5.0
    x23_55 r23 1.0
    x23_55 c55 1.0
    x23_56 OBJ 4.0
    x23_56 r23 1.0
    x23_56 c56 1.0
    x23_57 OBJ 4.0
    x23_57 r23 1.0
    x23_57 c57 1.0
    x23_58 OBJ 2.0
    x23_58 r23 1.0
    x23_58 c58 1.0
    x23_59 OBJ 1.0
    x23_59 r23 1.0
    x23_59 c59 1.0
    x23_60 OBJ 2.0
    x23_60 r23 1.0
    x23_60 c60 1.0
    x23_61 OBJ 4.0
    x23_61 r23 1.0
    x23_61 c61 1.0
    x23_62 OBJ 2.0
    x23_62 r23 1.0
    x23_62 c62 1.0
    x23_63 OBJ 3.0
    x23_63 r23 1.0
    x23_63 c63 1.0
    x23_64 OBJ 1.0
    x23_64 r23 1.0
    x23_64 c64 1.0
    x23_65 OBJ 3.0
    x23_65 r23 1.0
    x23_65 c65 1.0
    x23_66 OBJ 3.0
    x23_66 r23 1.0
    x23_66 c66 1.0
    x23_67 OBJ 4.0
    x23_67 r23 1.0
    x23_67 c67 1.0
    x23_68 OBJ 5.0
    x23_68 r23 1.0
    x23_68 c68 1.0
    x23_69 OBJ 5.0
    x23_69 r23 1.0
    x23_69 c69 1.0
    x23_70 OBJ 2.0
    x23_70 r23 1.0
    x23_70 c70 1.0
    x23_71 OBJ 3.0
    x23_71 r23 1.0
    x23_71 c71 1.0
    x23_72 OBJ 4.0
    x23_72 r23 1.0
    x23_72 c72 1.0
    x23_73 OBJ 3.0
    x23_73 r23 1.0
    x23_73 c73 1.0
    x23_74 OBJ 4.0
    x23_74 r23 1.0
    x23_74 c74 1.0
    x23_75 OBJ 3.0
    x23_75 r23 1.0
    x23_75 c75 1.0
    x23_76 OBJ 5.0
    x23_76 r23 1.0
    x23_76 c76 1.0
    x23_77 OBJ 1.0
    x23_77 r23 1.0
    x23_77 c77 1.0
    x23_78 OBJ 3.0
    x23_78 r23 1.0
    x23_78 c78 1.0
    x23_79 OBJ 3.0
    x23_79 r23 1.0
    x23_79 c79 1.0
    x24_0 OBJ 3.0
    x24_0 r24 1.0
    x24_0 c0 1.0
    x24_1 OBJ 4.0
    x24_1 r24 1.0
    x24_1 c1 1.0
    x24_2 OBJ 4.0
    x24_2 r24 1.0
    x24_2 c2 1.0
    x24_3 OBJ 3.0
    x24_3 r24 1.0
    x24_3 c3 1.0
    x24_4 OBJ 5.0
    x24_4 r24 1.0
    x24_4 c4 1.0
    x24_5 OBJ 3.0
    x24_5 r24 1.0
    x24_5 c5 1.0
    x24_6 OBJ 5.0
    x24_6 r24 1.0
    x24_6 c6 1.0
    x24_7 OBJ 3.0
    x24_7 r24 1.0
    x24_7 c7 1.0
    x24_8 OBJ 2.0
    x24_8 r24 1.0
    x24_8 c8 1.0
    x24_9 OBJ 4.0
    x24_9 r24 1.0
    x24_9 c9 1.0
    x24_10 OBJ 1.0
    x24_10 r24 1.0
    x24_10 c10 1.0
    x24_11 OBJ 3.0
    x24_11 r24 1.0
    x24_11 c11 1.0
    x24_12 OBJ 2.0
    x24_12 r24 1.0
    x24_12 c12 1.0
    x24_13 OBJ 3.0
    x24_13 r24 1.0
    x24_13 c13 1.0
    x24_14 OBJ 3.0
    x24_14 r24 1.0
    x24_14 c14 1.0
    x24_15 OBJ 2.0
    x24_15 r24 1.0
    x24_15 c15 1.0
    x24_16 OBJ 5.0
    x24_16 r24 1.0
    x24_16 c16 1.0
    x24_17 OBJ 1.0
    x24_17 r24 1.0
    x24_17 c17 1.0
    x24_18 OBJ 1.0
    x24_18 r24 1.0
    x24_18 c18 1.0
    x24_19 OBJ 4.0
    x24_19 r24 1.0
    x24_19 c19 1.0
    x24_20 OBJ 5.0
    x24_20 r24 1.0
    x24_20 c20 1.0
    x24_21 OBJ 4.0
    x24_21 r24 1.0
    x24_21 c21 1.0
    x24_22 OBJ 5.0
    x24_22 r24 1.0
    x24_22 c22 1.0
    x24_23 OBJ 5.0
    x24_23 r24 1.0
    x24_23 c23 1.0
    x24_24 OBJ 1.0
    x24_24 r24 1.0
    x24_24 c24 1.0
    x24_25 OBJ 4.0
    x24_25 r24 1.0
    x24_25 c25 1.0
    x24_26 OBJ 3.0
    x24_26 r24 1.0
    x24_26 c26 1.0
    x24_27 OBJ 1.0
    x24_27 r24 1.0
    x24_27 c27 1.0
    x24_28 OBJ 1.0
    x24_28 r24 1.0
    x24_28 c28 1.0
    x24_29 OBJ 1.0
    x24_29 r24 1.0
    x24_29 c29 1.0
    x24_30 OBJ 2.0
    x24_30 r24 1.0
    x24_30 c30 1.0
    x24_31 OBJ 4.0
    x24_31 r24 1.0
    x24_31 c31 1.0
    x24_32 OBJ 5.0
    x24_32 r24 1.0
    x24_32 c32 1.0
    x24_33 OBJ 1.0
    x24_33 r24 1.0
    x24_33 c33 1.0
    x24_34 OBJ 5.0
    x24_34 r24 1.0
    x24_34 c34 1.0
    x24_35 OBJ 5.0
    x24_35 r24 1.0
    x24_35 c35 1.0
    x24_36 OBJ 5.0
    x24_36 r24 1.0
    x24_36 c36 1.0
    x24_37 OBJ 4.0
    x24_37 r24 1.0
    x24_37 c37 1.0
    x24_38 OBJ 5.0
    x24_38 r24 1.0
    x24_38 c38 1.0
    x24_39 OBJ 2.0
    x24_39 r24 1.0
    x24_39 c39 1.0
    x24_40 OBJ 5.0
    x24_40 r24 1.0
    x24_40 c40 1.0
    x24_41 OBJ 1.0
    x24_41 r24 1.0
    x24_41 c41 1.0
    x24_42 OBJ 2.0
    x24_42 r24 1.0
    x24_42 c42 1.0
    x24_43 OBJ 1.0
    x24_43 r24 1.0
    x24_43 c43 1.0
    x24_44 OBJ 4.0
    x24_44 r24 1.0
    x24_44 c44 1.0
    x24_45 OBJ 2.0
    x24_45 r24 1.0
    x24_45 c45 1.0
    x24_46 OBJ 1.0
    x24_46 r24 1.0
    x24_46 c46 1.0
    x24_47 OBJ 2.0
    x24_47 r24 1.0
    x24_47 c47 1.0
    x24_48 OBJ 1.0
    x24_48 r24 1.0
    x24_48 c48 1.0
    x24_49 OBJ 4.0
    x24_49 r24 1.0
    x24_49 c49 1.0
    x24_50 OBJ 1.0
    x24_50 r24 1.0
    x24_50 c50 1.0
    x24_51 OBJ 1.0
    x24_51 r24 1.0
    x24_51 c51 1.0
    x24_52 OBJ 3.0
    x24_52 r24 1.0
    x24_52 c52 1.0
    x24_53 OBJ 2.0
    x24_53 r24 1.0
    x24_53 c53 1.0
    x24_54 OBJ 3.0
    x24_54 r24 1.0
    x24_54 c54 1.0
    x24_55 OBJ 5.0
    x24_55 r24 1.0
    x24_55 c55 1.0
    x24_56 OBJ 3.0
    x24_56 r24 1.0
    x24_56 c56 1.0
    x24_57 OBJ 3.0
    x24_57 r24 1.0
    x24_57 c57 1.0
    x24_58 OBJ 2.0
    x24_58 r24 1.0
    x24_58 c58 1.0
    x24_59 OBJ 4.0
    x24_59 r24 1.0
    x24_59 c59 1.0
    x24_60 OBJ 1.0
    x24_60 r24 1.0
    x24_60 c60 1.0
    x24_61 OBJ 3.0
    x24_61 r24 1.0
    x24_61 c61 1.0
    x24_62 OBJ 1.0
    x24_62 r24 1.0
    x24_62 c62 1.0
    x24_63 OBJ 4.0
    x24_63 r24 1.0
    x24_63 c63 1.0
    x24_64 OBJ 5.0
    x24_64 r24 1.0
    x24_64 c64 1.0
    x24_65 OBJ 5.0
    x24_65 r24 1.0
    x24_65 c65 1.0
    x24_66 OBJ 1.0
    x24_66 r24 1.0
    x24_66 c66 1.0
    x24_67 OBJ 4.0
    x24_67 r24 1.0
    x24_67 c67 1.0
    x24_68 OBJ 5.0
    x24_68 r24 1.0
    x24_68 c68 1.0
    x24_69 OBJ 5.0
    x24_69 r24 1.0
    x24_69 c69 1.0
    x24_70 OBJ 1.0
    x24_70 r24 1.0
    x24_70 c70 1.0
    x24_71 OBJ 1.0
    x24_71 r24 1.0
    x24_71 c71 1.0
    x24_72 OBJ 4.0
    x24_72 r24 1.0
    x24_72 c72 1.0
    x24_73 OBJ 5.0
    x24_73 r24 1.0
    x24_73 c73 1.0
    x24_74 OBJ 4.0
    x24_74 r24 1.0
    x24_74 c74 1.0
    x24_75 OBJ 4.0
    x24_75 r24 1.0
    x24_75 c75 1.0
    x24_76 OBJ 1.0
    x24_76 r24 1.0
    x24_76 c76 1.0
    x24_77 OBJ 1.0
    x24_77 r24 1.0
    x24_77 c77 1.0
    x24_78 OBJ 4.0
    x24_78 r24 1.0
    x24_78 c78 1.0
    x24_79 OBJ 5.0
    x24_79 r24 1.0
    x24_79 c79 1.0
    x25_0 OBJ 5.0
    x25_0 r25 1.0
    x25_0 c0 1.0
    x25_1 OBJ 2.0
    x25_1 r25 1.0
    x25_1 c1 1.0
    x25_2 OBJ 4.0
    x25_2 r25 1.0
    x25_2 c2 1.0
    x25_3 OBJ 4.0
    x25_3 r25 1.0
    x25_3 c3 1.0
    x25_4 OBJ 5.0
    x25_4 r25 1.0
    x25_4 c4 1.0
    x25_5 OBJ 1.0
    x25_5 r25 1.0
    x25_5 c5 1.0
    x25_6 OBJ 1.0
    x25_6 r25 1.0
    x25_6 c6 1.0
    x25_7 OBJ 4.0
    x25_7 r25 1.0
    x25_7 c7 1.0
    x25_8 OBJ 2.0
    x25_8 r25 1.0
    x25_8 c8 1.0
    x25_9 OBJ 2.0
    x25_9 r25 1.0
    x25_9 c9 1.0
    x25_10 OBJ 1.0
    x25_10 r25 1.0
    x25_10 c10 1.0
    x25_11 OBJ 4.0
    x25_11 r25 1.0
    x25_11 c11 1.0
    x25_12 OBJ 1.0
    x25_12 r25 1.0
    x25_12 c12 1.0
    x25_13 OBJ 1.0
    x25_13 r25 1.0
    x25_13 c13 1.0
    x25_14 OBJ 1.0
    x25_14 r25 1.0
    x25_14 c14 1.0
    x25_15 OBJ 1.0
    x25_15 r25 1.0
    x25_15 c15 1.0
    x25_16 OBJ 2.0
    x25_16 r25 1.0
    x25_16 c16 1.0
    x25_17 OBJ 1.0
    x25_17 r25 1.0
    x25_17 c17 1.0
    x25_18 OBJ 2.0
    x25_18 r25 1.0
    x25_18 c18 1.0
    x25_19 OBJ 4.0
    x25_19 r25 1.0
    x25_19 c19 1.0
    x25_20 OBJ 1.0
    x25_20 r25 1.0
    x25_20 c20 1.0
    x25_21 OBJ 3.0
    x25_21 r25 1.0
    x25_21 c21 1.0
    x25_22 OBJ 5.0
    x25_22 r25 1.0
    x25_22 c22 1.0
    x25_23 OBJ 2.0
    x25_23 r25 1.0
    x25_23 c23 1.0
    x25_24 OBJ 4.0
    x25_24 r25 1.0
    x25_24 c24 1.0
    x25_25 OBJ 2.0
    x25_25 r25 1.0
    x25_25 c25 1.0
    x25_26 OBJ 1.0
    x25_26 r25 1.0
    x25_26 c26 1.0
    x25_27 OBJ 3.0
    x25_27 r25 1.0
    x25_27 c27 1.0
    x25_28 OBJ 2.0
    x25_28 r25 1.0
    x25_28 c28 1.0
    x25_29 OBJ 1.0
    x25_29 r25 1.0
    x25_29 c29 1.0
    x25_30 OBJ 3.0
    x25_30 r25 1.0
    x25_30 c30 1.0
    x25_31 OBJ 5.0
    x25_31 r25 1.0
    x25_31 c31 1.0
    x25_32 OBJ 4.0
    x25_32 r25 1.0
    x25_32 c32 1.0
    x25_33 OBJ 4.0
    x25_33 r25 1.0
    x25_33 c33 1.0
    x25_34 OBJ 3.0
    x25_34 r25 1.0
    x25_34 c34 1.0
    x25_35 OBJ 1.0
    x25_35 r25 1.0
    x25_35 c35 1.0
    x25_36 OBJ 1.0
    x25_36 r25 1.0
    x25_36 c36 1.0
    x25_37 OBJ 1.0
    x25_37 r25 1.0
    x25_37 c37 1.0
    x25_38 OBJ 1.0
    x25_38 r25 1.0
    x25_38 c38 1.0
    x25_39 OBJ 1.0
    x25_39 r25 1.0
    x25_39 c39 1.0
    x25_40 OBJ 5.0
    x25_40 r25 1.0
    x25_40 c40 1.0
    x25_41 OBJ 1.0
    x25_41 r25 1.0
    x25_41 c41 1.0
    x25_42 OBJ 4.0
    x25_42 r25 1.0
    x25_42 c42 1.0
    x25_43 OBJ 3.0
    x25_43 r25 1.0
    x25_43 c43 1.0
    x25_44 OBJ 3.0
    x25_44 r25 1.0
    x25_44 c44 1.0
    x25_45 OBJ 5.0
    x25_45 r25 1.0
    x25_45 c45 1.0
    x25_46 OBJ 2.0
    x25_46 r25 1.0
    x25_46 c46 1.0
    x25_47 OBJ 4.0
    x25_47 r25 1.0
    x25_47 c47 1.0
    x25_48 OBJ 5.0
    x25_48 r25 1.0
    x25_48 c48 1.0
    x25_49 OBJ 1.0
    x25_49 r25 1.0
    x25_49 c49 1.0
    x25_50 OBJ 3.0
    x25_50 r25 1.0
    x25_50 c50 1.0
    x25_51 OBJ 3.0
    x25_51 r25 1.0
    x25_51 c51 1.0
    x25_52 OBJ 5.0
    x25_52 r25 1.0
    x25_52 c52 1.0
    x25_53 OBJ 4.0
    x25_53 r25 1.0
    x25_53 c53 1.0
    x25_54 OBJ 4.0
    x25_54 r25 1.0
    x25_54 c54 1.0
    x25_55 OBJ 2.0
    x25_55 r25 1.0
    x25_55 c55 1.0
    x25_56 OBJ 2.0
    x25_56 r25 1.0
    x25_56 c56 1.0
    x25_57 OBJ 1.0
    x25_57 r25 1.0
    x25_57 c57 1.0
    x25_58 OBJ 3.0
    x25_58 r25 1.0
    x25_58 c58 1.0
    x25_59 OBJ 2.0
    x25_59 r25 1.0
    x25_59 c59 1.0
    x25_60 OBJ 4.0
    x25_60 r25 1.0
    x25_60 c60 1.0
    x25_61 OBJ 4.0
    x25_61 r25 1.0
    x25_61 c61 1.0
    x25_62 OBJ 4.0
    x25_62 r25 1.0
    x25_62 c62 1.0
    x25_63 OBJ 4.0
    x25_63 r25 1.0
    x25_63 c63 1.0
    x25_64 OBJ 3.0
    x25_64 r25 1.0
    x25_64 c64 1.0
    x25_65 OBJ 5.0
    x25_65 r25 1.0
    x25_65 c65 1.0
    x25_66 OBJ 3.0
    x25_66 r25 1.0
    x25_66 c66 1.0
    x25_67 OBJ 3.0
    x25_67 r25 1.0
    x25_67 c67 1.0
    x25_68 OBJ 3.0
    x25_68 r25 1.0
    x25_68 c68 1.0
    x25_69 OBJ 1.0
    x25_69 r25 1.0
    x25_69 c69 1.0
    x25_70 OBJ 5.0
    x25_70 r25 1.0
    x25_70 c70 1.0
    x25_71 OBJ 5.0
    x25_71 r25 1.0
    x25_71 c71 1.0
    x25_72 OBJ 3.0
    x25_72 r25 1.0
    x25_72 c72 1.0
    x25_73 OBJ 5.0
    x25_73 r25 1.0
    x25_73 c73 1.0
    x25_74 OBJ 1.0
    x25_74 r25 1.0
    x25_74 c74 1.0
    x25_75 OBJ 2.0
    x25_75 r25 1.0
    x25_75 c75 1.0
    x25_76 OBJ 5.0
    x25_76 r25 1.0
    x25_76 c76 1.0
    x25_77 OBJ 3.0
    x25_77 r25 1.0
    x25_77 c77 1.0
    x25_78 OBJ 5.0
    x25_78 r25 1.0
    x25_78 c78 1.0
    x25_79 OBJ 4.0
    x25_79 r25 1.0
    x25_79 c79 1.0
    x26_0 OBJ 2.0
    x26_0 r26 1.0
    x26_0 c0 1.0
    x26_1 OBJ 4.0
    x26_1 r26 1.0
    x26_1 c1 1.0
    x26_2 OBJ 4.0
    x26_2 r26 1.0
    x26_2 c2 1.0
    x26_3 OBJ 4.0
    x26_3 r26 1.0
    x26_3 c3 1.0
    x26_4 OBJ 5.0
    x26_4 r26 1.0
    x26_4 c4 1.0
    x26_5 OBJ 2.0
    x26_5 r26 1.0
    x26_5 c5 1.0
    x26_6 OBJ 4.0
    x26_6 r26 1.0
    x26_6 c6 1.0
    x26_7 OBJ 3.0
    x26_7 r26 1.0
    x26_7 c7 1.0
    x26_8 OBJ 1.0
    x26_8 r26 1.0
    x26_8 c8 1.0
    x26_9 OBJ 3.0
    x26_9 r26 1.0
    x26_9 c9 1.0
    x26_10 OBJ 3.0
    x26_10 r26 1.0
    x26_10 c10 1.0
    x26_11 OBJ 3.0
    x26_11 r26 1.0
    x26_11 c11 1.0
    x26_12 OBJ 4.0
    x26_12 r26 1.0
    x26_12 c12 1.0
    x26_13 OBJ 2.0
    x26_13 r26 1.0
    x26_13 c13 1.0
    x26_14 OBJ 5.0
    x26_14 r26 1.0
    x26_14 c14 1.0
    x26_15 OBJ 1.0
    x26_15 r26 1.0
    x26_15 c15 1.0
    x26_16 OBJ 3.0
    x26_16 r26 1.0
    x26_16 c16 1.0
    x26_17 OBJ 2.0
    x26_17 r26 1.0
    x26_17 c17 1.0
    x26_18 OBJ 5.0
    x26_18 r26 1.0
    x26_18 c18 1.0
    x26_19 OBJ 2.0
    x26_19 r26 1.0
    x26_19 c19 1.0
    x26_20 OBJ 3.0
    x26_20 r26 1.0
    x26_20 c20 1.0
    x26_21 OBJ 5.0
    x26_21 r26 1.0
    x26_21 c21 1.0
    x26_22 OBJ 4.0
    x26_22 r26 1.0
    x26_22 c22 1.0
    x26_23 OBJ 3.0
    x26_23 r26 1.0
    x26_23 c23 1.0
    x26_24 OBJ 5.0
    x26_24 r26 1.0
    x26_24 c24 1.0
    x26_25 OBJ 1.0
    x26_25 r26 1.0
    x26_25 c25 1.0
    x26_26 OBJ 5.0
    x26_26 r26 1.0
    x26_26 c26 1.0
    x26_27 OBJ 5.0
    x26_27 r26 1.0
    x26_27 c27 1.0
    x26_28 OBJ 4.0
    x26_28 r26 1.0
    x26_28 c28 1.0
    x26_29 OBJ 4.0
    x26_29 r26 1.0
    x26_29 c29 1.0
    x26_30 OBJ 2.0
    x26_30 r26 1.0
    x26_30 c30 1.0
    x26_31 OBJ 2.0
    x26_31 r26 1.0
    x26_31 c31 1.0
    x26_32 OBJ 3.0
    x26_32 r26 1.0
    x26_32 c32 1.0
    x26_33 OBJ 5.0
    x26_33 r26 1.0
    x26_33 c33 1.0
    x26_34 OBJ 1.0
    x26_34 r26 1.0
    x26_34 c34 1.0
    x26_35 OBJ 4.0
    x26_35 r26 1.0
    x26_35 c35 1.0
    x26_36 OBJ 4.0
    x26_36 r26 1.0
    x26_36 c36 1.0
    x26_37 OBJ 2.0
    x26_37 r26 1.0
    x26_37 c37 1.0
    x26_38 OBJ 3.0
    x26_38 r26 1.0
    x26_38 c38 1.0
    x26_39 OBJ 5.0
    x26_39 r26 1.0
    x26_39 c39 1.0
    x26_40 OBJ 1.0
    x26_40 r26 1.0
    x26_40 c40 1.0
    x26_41 OBJ 4.0
    x26_41 r26 1.0
    x26_41 c41 1.0
    x26_42 OBJ 4.0
    x26_42 r26 1.0
    x26_42 c42 1.0
    x26_43 OBJ 5.0
    x26_43 r26 1.0
    x26_43 c43 1.0
    x26_44 OBJ 1.0
    x26_44 r26 1.0
    x26_44 c44 1.0
    x26_45 OBJ 5.0
    x26_45 r26 1.0
    x26_45 c45 1.0
    x26_46 OBJ 3.0
    x26_46 r26 1.0
    x26_46 c46 1.0
    x26_47 OBJ 1.0
    x26_47 r26 1.0
    x26_47 c47 1.0
    x26_48 OBJ 2.0
    x26_48 r26 1.0
    x26_48 c48 1.0
    x26_49 OBJ 4.0
    x26_49 r26 1.0
    x26_49 c49 1.0
    x26_50 OBJ 5.0
    x26_50 r26 1.0
    x26_50 c50 1.0
    x26_51 OBJ 5.0
    x26_51 r26 1.0
    x26_51 c51 1.0
    x26_52 OBJ 3.0
    x26_52 r26 1.0
    x26_52 c52 1.0
    x26_53 OBJ 5.0
    x26_53 r26 1.0
    x26_53 c53 1.0
    x26_54 OBJ 3.0
    x26_54 r26 1.0
    x26_54 c54 1.0
    x26_55 OBJ 4.0
    x26_55 r26 1.0
    x26_55 c55 1.0
    x26_56 OBJ 5.0
    x26_56 r26 1.0
    x26_56 c56 1.0
    x26_57 OBJ 5.0
    x26_57 r26 1.0
    x26_57 c57 1.0
    x26_58 OBJ 2.0
    x26_58 r26 1.0
    x26_58 c58 1.0
    x26_59 OBJ 2.0
    x26_59 r26 1.0
    x26_59 c59 1.0
    x26_60 OBJ 2.0
    x26_60 r26 1.0
    x26_60 c60 1.0
    x26_61 OBJ 2.0
    x26_61 r26 1.0
    x26_61 c61 1.0
    x26_62 OBJ 1.0
    x26_62 r26 1.0
    x26_62 c62 1.0
    x26_63 OBJ 2.0
    x26_63 r26 1.0
    x26_63 c63 1.0
    x26_64 OBJ 3.0
    x26_64 r26 1.0
    x26_64 c64 1.0
    x26_65 OBJ 3.0
    x26_65 r26 1.0
    x26_65 c65 1.0
    x26_66 OBJ 5.0
    x26_66 r26 1.0
    x26_66 c66 1.0
    x26_67 OBJ 5.0
    x26_67 r26 1.0
    x26_67 c67 1.0
    x26_68 OBJ 3.0
    x26_68 r26 1.0
    x26_68 c68 1.0
    x26_69 OBJ 4.0
    x26_69 r26 1.0
    x26_69 c69 1.0
    x26_70 OBJ 5.0
    x26_70 r26 1.0
    x26_70 c70 1.0
    x26_71 OBJ 2.0
    x26_71 r26 1.0
    x26_71 c71 1.0
    x26_72 OBJ 2.0
    x26_72 r26 1.0
    x26_72 c72 1.0
    x26_73 OBJ 1.0
    x26_73 r26 1.0
    x26_73 c73 1.0
    x26_74 OBJ 4.0
    x26_74 r26 1.0
    x26_74 c74 1.0
    x26_75 OBJ 3.0
    x26_75 r26 1.0
    x26_75 c75 1.0
    x26_76 OBJ 1.0
    x26_76 r26 1.0
    x26_76 c76 1.0
    x26_77 OBJ 3.0
    x26_77 r26 1.0
    x26_77 c77 1.0
    x26_78 OBJ 4.0
    x26_78 r26 1.0
    x26_78 c78 1.0
    x26_79 OBJ 1.0
    x26_79 r26 1.0
    x26_79 c79 1.0
    x27_0 OBJ 2.0
    x27_0 r27 1.0
    x27_0 c0 1.0
    x27_1 OBJ 3.0
    x27_1 r27 1.0
    x27_1 c1 1.0
    x27_2 OBJ 5.0
    x27_2 r27 1.0
    x27_2 c2 1.0
    x27_3 OBJ 1.0
    x27_3 r27 1.0
    x27_3 c3 1.0
    x27_4 OBJ 3.0
    x27_4 r27 1.0
    x27_4 c4 1.0
    x27_5 OBJ 3.0
    x27_5 r27 1.0
    x27_5 c5 1.0
    x27_6 OBJ 5.0
    x27_6 r27 1.0
    x27_6 c6 1.0
    x27_7 OBJ 5.0
    x27_7 r27 1.0
    x27_7 c7 1.0
    x27_8 OBJ 1.0
    x27_8 r27 1.0
    x27_8 c8 1.0
    x27_9 OBJ 1.0
    x27_9 r27 1.0
    x27_9 c9 1.0
    x27_10 OBJ 1.0
    x27_10 r27 1.0
    x27_10 c10 1.0
    x27_11 OBJ 2.0
    x27_11 r27 1.0
    x27_11 c11 1.0
    x27_12 OBJ 5.0
    x27_12 r27 1.0
    x27_12 c12 1.0
    x27_13 OBJ 4.0
    x27_13 r27 1.0
    x27_13 c13 1.0
    x27_14 OBJ 5.0
    x27_14 r27 1.0
    x27_14 c14 1.0
    x27_15 OBJ 5.0
    x27_15 r27 1.0
    x27_15 c15 1.0
    x27_16 OBJ 2.0
    x27_16 r27 1.0
    x27_16 c16 1.0
    x27_17 OBJ 3.0
    x27_17 r27 1.0
    x27_17 c17 1.0
    x27_18 OBJ 3.0
    x27_18 r27 1.0
    x27_18 c18 1.0
    x27_19 OBJ 4.0
    x27_19 r27 1.0
    x27_19 c19 1.0
    x27_20 OBJ 1.0
    x27_20 r27 1.0
    x27_20 c20 1.0
    x27_21 OBJ 4.0
    x27_21 r27 1.0
    x27_21 c21 1.0
    x27_22 OBJ 5.0
    x27_22 r27 1.0
    x27_22 c22 1.0
    x27_23 OBJ 5.0
    x27_23 r27 1.0
    x27_23 c23 1.0
    x27_24 OBJ 2.0
    x27_24 r27 1.0
    x27_24 c24 1.0
    x27_25 OBJ 3.0
    x27_25 r27 1.0
    x27_25 c25 1.0
    x27_26 OBJ 1.0
    x27_26 r27 1.0
    x27_26 c26 1.0
    x27_27 OBJ 3.0
    x27_27 r27 1.0
    x27_27 c27 1.0
    x27_28 OBJ 2.0
    x27_28 r27 1.0
    x27_28 c28 1.0
    x27_29 OBJ 2.0
    x27_29 r27 1.0
    x27_29 c29 1.0
    x27_30 OBJ 4.0
    x27_30 r27 1.0
    x27_30 c30 1.0
    x27_31 OBJ 1.0
    x27_31 r27 1.0
    x27_31 c31 1.0
    x27_32 OBJ 1.0
    x27_32 r27 1.0
    x27_32 c32 1.0
    x27_33 OBJ 1.0
    x27_33 r27 1.0
    x27_33 c33 1.0
    x27_34 OBJ 1.0
    x27_34 r27 1.0
    x27_34 c34 1.0
    x27_35 OBJ 5.0
    x27_35 r27 1.0
    x27_35 c35 1.0
    x27_36 OBJ 3.0
    x27_36 r27 1.0
    x27_36 c36 1.0
    x27_37 OBJ 4.0
    x27_37 r27 1.0
    x27_37 c37 1.0
    x27_38 OBJ 4.0
    x27_38 r27 1.0
    x27_38 c38 1.0
    x27_39 OBJ 1.0
    x27_39 r27 1.0
    x27_39 c39 1.0
    x27_40 OBJ 5.0
    x27_40 r27 1.0
    x27_40 c40 1.0
    x27_41 OBJ 4.0
    x27_41 r27 1.0
    x27_41 c41 1.0
    x27_42 OBJ 1.0
    x27_42 r27 1.0
    x27_42 c42 1.0
    x27_43 OBJ 1.0
    x27_43 r27 1.0
    x27_43 c43 1.0
    x27_44 OBJ 3.0
    x27_44 r27 1.0
    x27_44 c44 1.0
    x27_45 OBJ 3.0
    x27_45 r27 1.0
    x27_45 c45 1.0
    x27_46 OBJ 5.0
    x27_46 r27 1.0
    x27_46 c46 1.0
    x27_47 OBJ 2.0
    x27_47 r27 1.0
    x27_47 c47 1.0
    x27_48 OBJ 1.0
    x27_48 r27 1.0
    x27_48 c48 1.0
    x27_49 OBJ 5.0
    x27_49 r27 1.0
    x27_49 c49 1.0
    x27_50 OBJ 4.0
    x27_50 r27 1.0
    x27_50 c50 1.0
    x27_51 OBJ 2.0
    x27_51 r27 1.0
    x27_51 c51 1.0
    x27_52 OBJ 4.0
    x27_52 r27 1.0
    x27_52 c52 1.0
    x27_53 OBJ 2.0
    x27_53 r27 1.0
    x27_53 c53 1.0
    x27_54 OBJ 3.0
    x27_54 r27 1.0
    x27_54 c54 1.0
    x27_55 OBJ 2.0
    x27_55 r27 1.0
    x27_55 c55 1.0
    x27_56 OBJ 2.0
    x27_56 r27 1.0
    x27_56 c56 1.0
    x27_57 OBJ 2.0
    x27_57 r27 1.0
    x27_57 c57 1.0
    x27_58 OBJ 1.0
    x27_58 r27 1.0
    x27_58 c58 1.0
    x27_59 OBJ 3.0
    x27_59 r27 1.0
    x27_59 c59 1.0
    x27_60 OBJ 3.0
    x27_60 r27 1.0
    x27_60 c60 1.0
    x27_61 OBJ 1.0
    x27_61 r27 1.0
    x27_61 c61 1.0
    x27_62 OBJ 5.0
    x27_62 r27 1.0
    x27_62 c62 1.0
    x27_63 OBJ 1.0
    x27_63 r27 1.0
    x27_63 c63 1.0
    x27_64 OBJ 1.0
    x27_64 r27 1.0
    x27_64 c64 1.0
    x27_65 OBJ 3.0
    x27_65 r27 1.0
    x27_65 c65 1.0
    x27_66 OBJ 5.0
    x27_66 r27 1.0
    x27_66 c66 1.0
    x27_67 OBJ 4.0
    x27_67 r27 1.0
    x27_67 c67 1.0
    x27_68 OBJ 1.0
    x27_68 r27 1.0
    x27_68 c68 1.0
    x27_69 OBJ 1.0
    x27_69 r27 1.0
    x27_69 c69 1.0
    x27_70 OBJ 2.0
    x27_70 r27 1.0
    x27_70 c70 1.0
    x27_71 OBJ 3.0
    x27_71 r27 1.0
    x27_71 c71 1.0
    x27_72 OBJ 1.0
    x27_72 r27 1.0
    x27_72 c72 1.0
    x27_73 OBJ 2.0
    x27_73 r27 1.0
    x27_73 c73 1.0
    x27_74 OBJ 3.0
    x27_74 r27 1.0
    x27_74 c74 1.0
    x27_75 OBJ 5.0
    x27_75 r27 1.0
    x27_75 c75 1.0
    x27_76 OBJ 5.0
    x27_76 r27 1.0
    x27_76 c76 1.0
    x27_77 OBJ 4.0
    x27_77 r27 1.0
    x27_77 c77 1.0
    x27_78 OBJ 1.0
    x27_78 r27 1.0
    x27_78 c78 1.0
    x27_79 OBJ 4.0
    x27_79 r27 1.0
    x27_79 c79 1.0
    x28_0 OBJ 3.0
    x28_0 r28 1.0
    x28_0 c0 1.0
    x28_1 OBJ 3.0
    x28_1 r28 1.0
    x28_1 c1 1.0
    x28_2 OBJ 3.0
    x28_2 r28 1.0
    x28_2 c2 1.0
    x28_3 OBJ 4.0
    x28_3 r28 1.0
    x28_3 c3 1.0
    x28_4 OBJ 1.0
    x28_4 r28 1.0
    x28_4 c4 1.0
    x28_5 OBJ 3.0
    x28_5 r28 1.0
    x28_5 c5 1.0
    x28_6 OBJ 4.0
    x28_6 r28 1.0
    x28_6 c6 1.0
    x28_7 OBJ 4.0
    x28_7 r28 1.0
    x28_7 c7 1.0
    x28_8 OBJ 2.0
    x28_8 r28 1.0
    x28_8 c8 1.0
    x28_9 OBJ 4.0
    x28_9 r28 1.0
    x28_9 c9 1.0
    x28_10 OBJ 2.0
    x28_10 r28 1.0
    x28_10 c10 1.0
    x28_11 OBJ 2.0
    x28_11 r28 1.0
    x28_11 c11 1.0
    x28_12 OBJ 1.0
    x28_12 r28 1.0
    x28_12 c12 1.0
    x28_13 OBJ 4.0
    x28_13 r28 1.0
    x28_13 c13 1.0
    x28_14 OBJ 2.0
    x28_14 r28 1.0
    x28_14 c14 1.0
    x28_15 OBJ 1.0
    x28_15 r28 1.0
    x28_15 c15 1.0
    x28_16 OBJ 2.0
    x28_16 r28 1.0
    x28_16 c16 1.0
    x28_17 OBJ 2.0
    x28_17 r28 1.0
    x28_17 c17 1.0
    x28_18 OBJ 1.0
    x28_18 r28 1.0
    x28_18 c18 1.0
    x28_19 OBJ 5.0
    x28_19 r28 1.0
    x28_19 c19 1.0
    x28_20 OBJ 3.0
    x28_20 r28 1.0
    x28_20 c20 1.0
    x28_21 OBJ 2.0
    x28_21 r28 1.0
    x28_21 c21 1.0
    x28_22 OBJ 4.0
    x28_22 r28 1.0
    x28_22 c22 1.0
    x28_23 OBJ 1.0
    x28_23 r28 1.0
    x28_23 c23 1.0
    x28_24 OBJ 4.0
    x28_24 r28 1.0
    x28_24 c24 1.0
    x28_25 OBJ 1.0
    x28_25 r28 1.0
    x28_25 c25 1.0
    x28_26 OBJ 1.0
    x28_26 r28 1.0
    x28_26 c26 1.0
    x28_27 OBJ 4.0
    x28_27 r28 1.0
    x28_27 c27 1.0
    x28_28 OBJ 3.0
    x28_28 r28 1.0
    x28_28 c28 1.0
    x28_29 OBJ 3.0
    x28_29 r28 1.0
    x28_29 c29 1.0
    x28_30 OBJ 2.0
    x28_30 r28 1.0
    x28_30 c30 1.0
    x28_31 OBJ 4.0
    x28_31 r28 1.0
    x28_31 c31 1.0
    x28_32 OBJ 1.0
    x28_32 r28 1.0
    x28_32 c32 1.0
    x28_33 OBJ 3.0
    x28_33 r28 1.0
    x28_33 c33 1.0
    x28_34 OBJ 2.0
    x28_34 r28 1.0
    x28_34 c34 1.0
    x28_35 OBJ 3.0
    x28_35 r28 1.0
    x28_35 c35 1.0
    x28_36 OBJ 2.0
    x28_36 r28 1.0
    x28_36 c36 1.0
    x28_37 OBJ 1.0
    x28_37 r28 1.0
    x28_37 c37 1.0
    x28_38 OBJ 2.0
    x28_38 r28 1.0
    x28_38 c38 1.0
    x28_39 OBJ 4.0
    x28_39 r28 1.0
    x28_39 c39 1.0
    x28_40 OBJ 5.0
    x28_40 r28 1.0
    x28_40 c40 1.0
    x28_41 OBJ 2.0
    x28_41 r28 1.0
    x28_41 c41 1.0
    x28_42 OBJ 4.0
    x28_42 r28 1.0
    x28_42 c42 1.0
    x28_43 OBJ 2.0
    x28_43 r28 1.0
    x28_43 c43 1.0
    x28_44 OBJ 3.0
    x28_44 r28 1.0
    x28_44 c44 1.0
    x28_45 OBJ 4.0
    x28_45 r28 1.0
    x28_45 c45 1.0
    x28_46 OBJ 4.0
    x28_46 r28 1.0
    x28_46 c46 1.0
    x28_47 OBJ 2.0
    x28_47 r28 1.0
    x28_47 c47 1.0
    x28_48 OBJ 2.0
    x28_48 r28 1.0
    x28_48 c48 1.0
    x28_49 OBJ 1.0
    x28_49 r28 1.0
    x28_49 c49 1.0
    x28_50 OBJ 3.0
    x28_50 r28 1.0
    x28_50 c50 1.0
    x28_51 OBJ 5.0
    x28_51 r28 1.0
    x28_51 c51 1.0
    x28_52 OBJ 3.0
    x28_52 r28 1.0
    x28_52 c52 1.0
    x28_53 OBJ 3.0
    x28_53 r28 1.0
    x28_53 c53 1.0
    x28_54 OBJ 2.0
    x28_54 r28 1.0
    x28_54 c54 1.0
    x28_55 OBJ 3.0
    x28_55 r28 1.0
    x28_55 c55 1.0
    x28_56 OBJ 4.0
    x28_56 r28 1.0
    x28_56 c56 1.0
    x28_57 OBJ 1.0
    x28_57 r28 1.0
    x28_57 c57 1.0
    x28_58 OBJ 3.0
    x28_58 r28 1.0
    x28_58 c58 1.0
    x28_59 OBJ 4.0
    x28_59 r28 1.0
    x28_59 c59 1.0
    x28_60 OBJ 4.0
    x28_60 r28 1.0
    x28_60 c60 1.0
    x28_61 OBJ 1.0
    x28_61 r28 1.0
    x28_61 c61 1.0
    x28_62 OBJ 2.0
    x28_62 r28 1.0
    x28_62 c62 1.0
    x28_63 OBJ 5.0
    x28_63 r28 1.0
    x28_63 c63 1.0
    x28_64 OBJ 1.0
    x28_64 r28 1.0
    x28_64 c64 1.0
    x28_65 OBJ 2.0
    x28_65 r28 1.0
    x28_65 c65 1.0
    x28_66 OBJ 5.0
    x28_66 r28 1.0
    x28_66 c66 1.0
    x28_67 OBJ 4.0
    x28_67 r28 1.0
    x28_67 c67 1.0
    x28_68 OBJ 3.0
    x28_68 r28 1.0
    x28_68 c68 1.0
    x28_69 OBJ 1.0
    x28_69 r28 1.0
    x28_69 c69 1.0
    x28_70 OBJ 3.0
    x28_70 r28 1.0
    x28_70 c70 1.0
    x28_71 OBJ 2.0
    x28_71 r28 1.0
    x28_71 c71 1.0
    x28_72 OBJ 3.0
    x28_72 r28 1.0
    x28_72 c72 1.0
    x28_73 OBJ 4.0
    x28_73 r28 1.0
    x28_73 c73 1.0
    x28_74 OBJ 3.0
    x28_74 r28 1.0
    x28_74 c74 1.0
    x28_75 OBJ 2.0
    x28_75 r28 1.0
    x28_75 c75 1.0
    x28_76 OBJ 2.0
    x28_76 r28 1.0
    x28_76 c76 1.0
    x28_77 OBJ 1.0
    x28_77 r28 1.0
    x28_77 c77 1.0
    x28_78 OBJ 4.0
    x28_78 r28 1.0
    x28_78 c78 1.0
    x28_79 OBJ 3.0
    x28_79 r28 1.0
    x28_79 c79 1.0
    x29_0 OBJ 4.0
    x29_0 r29 1.0
    x29_0 c0 1.0
    x29_1 OBJ 2.0
    x29_1 r29 1.0
    x29_1 c1 1.0
    x29_2 OBJ 1.0
    x29_2 r29 1.0
    x29_2 c2 1.0
    x29_3 OBJ 3.0
    x29_3 r29 1.0
    x29_3 c3 1.0
    x29_4 OBJ 2.0
    x29_4 r29 1.0
    x29_4 c4 1.0
    x29_5 OBJ 1.0
    x29_5 r29 1.0
    x29_5 c5 1.0
    x29_6 OBJ 4.0
    x29_6 r29 1.0
    x29_6 c6 1.0
    x29_7 OBJ 5.0
    x29_7 r29 1.0
    x29_7 c7 1.0
    x29_8 OBJ 3.0
    x29_8 r29 1.0
    x29_8 c8 1.0
    x29_9 OBJ 5.0
    x29_9 r29 1.0
    x29_9 c9 1.0
    x29_10 OBJ 2.0
    x29_10 r29 1.0
    x29_10 c10 1.0
    x29_11 OBJ 4.0
    x29_11 r29 1.0
    x29_11 c11 1.0
    x29_12 OBJ 1.0
    x29_12 r29 1.0
    x29_12 c12 1.0
    x29_13 OBJ 5.0
    x29_13 r29 1.0
    x29_13 c13 1.0
    x29_14 OBJ 3.0
    x29_14 r29 1.0
    x29_14 c14 1.0
    x29_15 OBJ 2.0
    x29_15 r29 1.0
    x29_15 c15 1.0
    x29_16 OBJ 3.0
    x29_16 r29 1.0
    x29_16 c16 1.0
    x29_17 OBJ 4.0
    x29_17 r29 1.0
    x29_17 c17 1.0
    x29_18 OBJ 1.0
    x29_18 r29 1.0
    x29_18 c18 1.0
    x29_19 OBJ 4.0
    x29_19 r29 1.0
    x29_19 c19 1.0
    x29_20 OBJ 2.0
    x29_20 r29 1.0
    x29_20 c20 1.0
    x29_21 OBJ 3.0
    x29_21 r29 1.0
    x29_21 c21 1.0
    x29_22 OBJ 5.0
    x29_22 r29 1.0
    x29_22 c22 1.0
    x29_23 OBJ 2.0
    x29_23 r29 1.0
    x29_23 c23 1.0
    x29_24 OBJ 2.0
    x29_24 r29 1.0
    x29_24 c24 1.0
    x29_25 OBJ 2.0
    x29_25 r29 1.0
    x29_25 c25 1.0
    x29_26 OBJ 5.0
    x29_26 r29 1.0
    x29_26 c26 1.0
    x29_27 OBJ 2.0
    x29_27 r29 1.0
    x29_27 c27 1.0
    x29_28 OBJ 2.0
    x29_28 r29 1.0
    x29_28 c28 1.0
    x29_29 OBJ 2.0
    x29_29 r29 1.0
    x29_29 c29 1.0
    x29_30 OBJ 5.0
    x29_30 r29 1.0
    x29_30 c30 1.0
    x29_31 OBJ 1.0
    x29_31 r29 1.0
    x29_31 c31 1.0
    x29_32 OBJ 1.0
    x29_32 r29 1.0
    x29_32 c32 1.0
    x29_33 OBJ 5.0
    x29_33 r29 1.0
    x29_33 c33 1.0
    x29_34 OBJ 4.0
    x29_34 r29 1.0
    x29_34 c34 1.0
    x29_35 OBJ 3.0
    x29_35 r29 1.0
    x29_35 c35 1.0
    x29_36 OBJ 2.0
    x29_36 r29 1.0
    x29_36 c36 1.0
    x29_37 OBJ 2.0
    x29_37 r29 1.0
    x29_37 c37 1.0
    x29_38 OBJ 2.0
    x29_38 r29 1.0
    x29_38 c38 1.0
    x29_39 OBJ 5.0
    x29_39 r29 1.0
    x29_39 c39 1.0
    x29_40 OBJ 2.0
    x29_40 r29 1.0
    x29_40 c40 1.0
    x29_41 OBJ 5.0
    x29_41 r29 1.0
    x29_41 c41 1.0
    x29_42 OBJ 3.0
    x29_42 r29 1.0
    x29_42 c42 1.0
    x29_43 OBJ 2.0
    x29_43 r29 1.0
    x29_43 c43 1.0
    x29_44 OBJ 1.0
    x29_44 r29 1.0
    x29_44 c44 1.0
    x29_45 OBJ 1.0
    x29_45 r29 1.0
    x29_45 c45 1.0
    x29_46 OBJ 5.0
    x29_46 r29 1.0
    x29_46 c46 1.0
    x29_47 OBJ 4.0
    x29_47 r29 1.0
    x29_47 c47 1.0
    x29_48 OBJ 1.0
    x29_48 r29 1.0
    x29_48 c48 1.0
    x29_49 OBJ 5.0
    x29_49 r29 1.0
    x29_49 c49 1.0
    x29_50 OBJ 3.0
    x29_50 r29 1.0
    x29_50 c50 1.0
    x29_51 OBJ 3.0
    x29_51 r29 1.0
    x29_51 c51 1.0
    x29_52 OBJ 3.0
    x29_52 r29 1.0
    x29_52 c52 1.0
    x29_53 OBJ 4.0
    x29_53 r29 1.0
    x29_53 c53 1.0
    x29_54 OBJ 1.0
    x29_54 r29 1.0
    x29_54 c54 1.0
    x29_55 OBJ 1.0
    x29_55 r29 1.0
    x29_55 c55 1.0
    x29_56 OBJ 4.0
    x29_56 r29 1.0
    x29_56 c56 1.0
    x29_57 OBJ 4.0
    x29_57 r29 1.0
    x29_57 c57 1.0
    x29_58 OBJ 2.0
    x29_58 r29 1.0
    x29_58 c58 1.0
    x29_59 OBJ 3.0
    x29_59 r29 1.0
    x29_59 c59 1.0
    x29_60 OBJ 2.0
    x29_60 r29 1.0
    x29_60 c60 1.0
    x29_61 OBJ 2.0
    x29_61 r29 1.0
    x29_61 c61 1.0
    x29_62 OBJ 5.0
    x29_62 r29 1.0
    x29_62 c62 1.0
    x29_63 OBJ 3.0
    x29_63 r29 1.0
    x29_63 c63 1.0
    x29_64 OBJ 1.0
    x29_64 r29 1.0
    x29_64 c64 1.0
    x29_65 OBJ 2.0
    x29_65 r29 1.0
    x29_65 c65 1.0
    x29_66 OBJ 3.0
    x29_66 r29 1.0
    x29_66 c66 1.0
    x29_67 OBJ 5.0
    x29_67 r29 1.0
    x29_67 c67 1.0
    x29_68 OBJ 5.0
    x29_68 r29 1.0
    x29_68 c68 1.0
    x29_69 OBJ 1.0
    x29_69 r29 1.0
    x29_69 c69 1.0
    x29_70 OBJ 3.0
    x29_70 r29 1.0
    x29_70 c70 1.0
    x29_71 OBJ 5.0
    x29_71 r29 1.0
    x29_71 c71 1.0
    x29_72 OBJ 4.0
    x29_72 r29 1.0
    x29_72 c72 1.0
    x29_73 OBJ 5.0
    x29_73 r29 1.0
    x29_73 c73 1.0
    x29_74 OBJ 1.0
    x29_74 r29 1.0
    x29_74 c74 1.0
    x29_75 OBJ 1.0
    x29_75 r29 1.0
    x29_75 c75 1.0
    x29_76 OBJ 3.0
    x29_76 r29 1.0
    x29_76 c76 1.0
    x29_77 OBJ 2.0
    x29_77 r29 1.0
    x29_77 c77 1.0
    x29_78 OBJ 3.0
    x29_78 r29 1.0
    x29_78 c78 1.0
    x29_79 OBJ 4.0
    x29_79 r29 1.0
    x29_79 c79 1.0
    x30_0 OBJ 5.0
    x30_0 r30 1.0
    x30_0 c0 1.0
    x30_1 OBJ 1.0
    x30_1 r30 1.0
    x30_1 c1 1.0
    x30_2 OBJ 3.0
    x30_2 r30 1.0
    x30_2 c2 1.0
    x30_3 OBJ 1.0
    x30_3 r30 1.0
    x30_3 c3 1.0
    x30_4 OBJ 4.0
    x30_4 r30 1.0
    x30_4 c4 1.0
    x30_5 OBJ 4.0
    x30_5 r30 1.0
    x30_5 c5 1.0
    x30_6 OBJ 5.0
    x30_6 r30 1.0
    x30_6 c6 1.0
    x30_7 OBJ 1.0
    x30_7 r30 1.0
    x30_7 c7 1.0
    x30_8 OBJ 5.0
    x30_8 r30 1.0
    x30_8 c8 1.0
    x30_9 OBJ 5.0
    x30_9 r30 1.0
    x30_9 c9 1.0
    x30_10 OBJ 2.0
    x30_10 r30 1.0
    x30_10 c10 1.0
    x30_11 OBJ 1.0
    x30_11 r30 1.0
    x30_11 c11 1.0
    x30_12 OBJ 2.0
    x30_12 r30 1.0
    x30_12 c12 1.0
    x30_13 OBJ 1.0
    x30_13 r30 1.0
    x30_13 c13 1.0
    x30_14 OBJ 2.0
    x30_14 r30 1.0
    x30_14 c14 1.0
    x30_15 OBJ 5.0
    x30_15 r30 1.0
    x30_15 c15 1.0
    x30_16 OBJ 2.0
    x30_16 r30 1.0
    x30_16 c16 1.0
    x30_17 OBJ 2.0
    x30_17 r30 1.0
    x30_17 c17 1.0
    x30_18 OBJ 1.0
    x30_18 r30 1.0
    x30_18 c18 1.0
    x30_19 OBJ 3.0
    x30_19 r30 1.0
    x30_19 c19 1.0
    x30_20 OBJ 3.0
    x30_20 r30 1.0
    x30_20 c20 1.0
    x30_21 OBJ 5.0
    x30_21 r30 1.0
    x30_21 c21 1.0
    x30_22 OBJ 1.0
    x30_22 r30 1.0
    x30_22 c22 1.0
    x30_23 OBJ 1.0
    x30_23 r30 1.0
    x30_23 c23 1.0
    x30_24 OBJ 1.0
    x30_24 r30 1.0
    x30_24 c24 1.0
    x30_25 OBJ 2.0
    x30_25 r30 1.0
    x30_25 c25 1.0
    x30_26 OBJ 3.0
    x30_26 r30 1.0
    x30_26 c26 1.0
    x30_27 OBJ 1.0
    x30_27 r30 1.0
    x30_27 c27 1.0
    x30_28 OBJ 5.0
    x30_28 r30 1.0
    x30_28 c28 1.0
    x30_29 OBJ 5.0
    x30_29 r30 1.0
    x30_29 c29 1.0
    x30_30 OBJ 4.0
    x30_30 r30 1.0
    x30_30 c30 1.0
    x30_31 OBJ 5.0
    x30_31 r30 1.0
    x30_31 c31 1.0
    x30_32 OBJ 2.0
    x30_32 r30 1.0
    x30_32 c32 1.0
    x30_33 OBJ 4.0
    x30_33 r30 1.0
    x30_33 c33 1.0
    x30_34 OBJ 1.0
    x30_34 r30 1.0
    x30_34 c34 1.0
    x30_35 OBJ 3.0
    x30_35 r30 1.0
    x30_35 c35 1.0
    x30_36 OBJ 1.0
    x30_36 r30 1.0
    x30_36 c36 1.0
    x30_37 OBJ 2.0
    x30_37 r30 1.0
    x30_37 c37 1.0
    x30_38 OBJ 1.0
    x30_38 r30 1.0
    x30_38 c38 1.0
    x30_39 OBJ 3.0
    x30_39 r30 1.0
    x30_39 c39 1.0
    x30_40 OBJ 1.0
    x30_40 r30 1.0
    x30_40 c40 1.0
    x30_41 OBJ 4.0
    x30_41 r30 1.0
    x30_41 c41 1.0
    x30_42 OBJ 4.0
    x30_42 r30 1.0
    x30_42 c42 1.0
    x30_43 OBJ 5.0
    x30_43 r30 1.0
    x30_43 c43 1.0
    x30_44 OBJ 5.0
    x30_44 r30 1.0
    x30_44 c44 1.0
    x30_45 OBJ 3.0
    x30_45 r30 1.0
    x30_45 c45 1.0
    x30_46 OBJ 1.0
    x30_46 r30 1.0
    x30_46 c46 1.0
    x30_47 OBJ 1.0
    x30_47 r30 1.0
    x30_47 c47 1.0
    x30_48 OBJ 1.0
    x30_48 r30 1.0
    x30_48 c48 1.0
    x30_49 OBJ 4.0
    x30_49 r30 1.0
    x30_49 c49 1.0
    x30_50 OBJ 2.0
    x30_50 r30 1.0
    x30_50 c50 1.0
    x30_51 OBJ 5.0
    x30_51 r30 1.0
    x30_51 c51 1.0
    x30_52 OBJ 5.0
    x30_52 r30 1.0
    x30_52 c52 1.0
    x30_53 OBJ 2.0
    x30_53 r30 1.0
    x30_53 c53 1.0
    x30_54 OBJ 2.0
    x30_54 r30 1.0
    x30_54 c54 1.0
    x30_55 OBJ 2.0
    x30_55 r30 1.0
    x30_55 c55 1.0
    x30_56 OBJ 5.0
    x30_56 r30 1.0
    x30_56 c56 1.0
    x30_57 OBJ 4.0
    x30_57 r30 1.0
    x30_57 c57 1.0
    x30_58 OBJ 4.0
    x30_58 r30 1.0
    x30_58 c58 1.0
    x30_59 OBJ 2.0
    x30_59 r30 1.0
    x30_59 c59 1.0
    x30_60 OBJ 1.0
    x30_60 r30 1.0
    x30_60 c60 1.0
    x30_61 OBJ 4.0
    x30_61 r30 1.0
    x30_61 c61 1.0
    x30_62 OBJ 4.0
    x30_62 r30 1.0
    x30_62 c62 1.0
    x30_63 OBJ 5.0
    x30_63 r30 1.0
    x30_63 c63 1.0
    x30_64 OBJ 5.0
    x30_64 r30 1.0
    x30_64 c64 1.0
    x30_65 OBJ 5.0
    x30_65 r30 1.0
    x30_65 c65 1.0
    x30_66 OBJ 1.0
    x30_66 r30 1.0
    x30_66 c66 1.0
    x30_67 OBJ 4.0
    x30_67 r30 1.0
    x30_67 c67 1.0
    x30_68 OBJ 1.0
    x30_68 r30 1.0
    x30_68 c68 1.0
    x30_69 OBJ 3.0
    x30_69 r30 1.0
    x30_69 c69 1.0
    x30_70 OBJ 3.0
    x30_70 r30 1.0
    x30_70 c70 1.0
    x30_71 OBJ 4.0
    x30_71 r30 1.0
    x30_71 c71 1.0
    x30_72 OBJ 2.0
    x30_72 r30 1.0
    x30_72 c72 1.0
    x30_73 OBJ 3.0
    x30_73 r30 1.0
    x30_73 c73 1.0
    x30_74 OBJ 4.0
    x30_74 r30 1.0
    x30_74 c74 1.0
    x30_75 OBJ 5.0
    x30_75 r30 1.0
    x30_75 c75 1.0
    x30_76 OBJ 3.0
    x30_76 r30 1.0
    x30_76 c76 1.0
    x30_77 OBJ 4.0
    x30_77 r30 1.0
    x30_77 c77 1.0
    x30_78 OBJ 5.0
    x30_78 r30 1.0
    x30_78 c78 1.0
    x30_79 OBJ 1.0
    x30_79 r30 1.0
    x30_79 c79 1.0
    x31_0 OBJ 3.0
    x31_0 r31 1.0
    x31_0 c0 1.0
    x31_1 OBJ 5.0
    x31_1 r31 1.0
    x31_1 c1 1.0
    x31_2 OBJ 2.0
    x31_2 r31 1.0
    x31_2 c2 1.0
    x31_3 OBJ 3.0
    x31_3 r31 1.0
    x31_3 c3 1.0
    x31_4 OBJ 2.0
    x31_4 r31 1.0
    x31_4 c4 1.0
    x31_5 OBJ 4.0
    x31_5 r31 1.0
    x31_5 c5 1.0
    x31_6 OBJ 1.0
    x31_6 r31 1.0
    x31_6 c6 1.0
    x31_7 OBJ 3.0
    x31_7 r31 1.0
    x31_7 c7 1.0
    x31_8 OBJ 1.0
    x31_8 r31 1.0
    x31_8 c8 1.0
    x31_9 OBJ 5.0
    x31_9 r31 1.0
    x31_9 c9 1.0
    x31_10 OBJ 2.0
    x31_10 r31 1.0
    x31_10 c10 1.0
    x31_11 OBJ 1.0
    x31_11 r31 1.0
    x31_11 c11 1.0
    x31_12 OBJ 3.0
    x31_12 r31 1.0
    x31_12 c12 1.0
    x31_13 OBJ 4.0
    x31_13 r31 1.0
    x31_13 c13 1.0
    x31_14 OBJ 2.0
    x31_14 r31 1.0
    x31_14 c14 1.0
    x31_15 OBJ 5.0
    x31_15 r31 1.0
    x31_15 c15 1.0
    x31_16 OBJ 1.0
    x31_16 r31 1.0
    x31_16 c16 1.0
    x31_17 OBJ 2.0
    x31_17 r31 1.0
    x31_17 c17 1.0
    x31_18 OBJ 2.0
    x31_18 r31 1.0
    x31_18 c18 1.0
    x31_19 OBJ 4.0
    x31_19 r31 1.0
    x31_19 c19 1.0
    x31_20 OBJ 4.0
    x31_20 r31 1.0
    x31_20 c20 1.0
    x31_21 OBJ 4.0
    x31_21 r31 1.0
    x31_21 c21 1.0
    x31_22 OBJ 1.0
    x31_22 r31 1.0
    x31_22 c22 1.0
    x31_23 OBJ 1.0
    x31_23 r31 1.0
    x31_23 c23 1.0
    x31_24 OBJ 1.0
    x31_24 r31 1.0
    x31_24 c24 1.0
    x31_25 OBJ 5.0
    x31_25 r31 1.0
    x31_25 c25 1.0
    x31_26 OBJ 3.0
    x31_26 r31 1.0
    x31_26 c26 1.0
    x31_27 OBJ 5.0
    x31_27 r31 1.0
    x31_27 c27 1.0
    x31_28 OBJ 3.0
    x31_28 r31 1.0
    x31_28 c28 1.0
    x31_29 OBJ 5.0
    x31_29 r31 1.0
    x31_29 c29 1.0
    x31_30 OBJ 1.0
    x31_30 r31 1.0
    x31_30 c30 1.0
    x31_31 OBJ 5.0
    x31_31 r31 1.0
    x31_31 c31 1.0
    x31_32 OBJ 1.0
    x31_32 r31 1.0
    x31_32 c32 1.0
    x31_33 OBJ 3.0
    x31_33 r31 1.0
    x31_33 c33 1.0
    x31_34 OBJ 1.0
    x31_34 r31 1.0
    x31_34 c34 1.0
    x31_35 OBJ 5.0
    x31_35 r31 1.0
    x31_35 c35 1.0
    x31_36 OBJ 1.0
    x31_36 r31 1.0
    x31_36 c36 1.0
    x31_37 OBJ 4.0
    x31_37 r31 1.0
    x31_37 c37 1.0
    x31_38 OBJ 2.0
    x31_38 r31 1.0
    x31_38 c38 1.0
    x31_39 OBJ 1.0
    x31_39 r31 1.0
    x31_39 c39 1.0
    x31_40 OBJ 3.0
    x31_40 r31 1.0
    x31_40 c40 1.0
    x31_41 OBJ 1.0
    x31_41 r31 1.0
    x31_41 c41 1.0
    x31_42 OBJ 3.0
    x31_42 r31 1.0
    x31_42 c42 1.0
    x31_43 OBJ 3.0
    x31_43 r31 1.0
    x31_43 c43 1.0
    x31_44 OBJ 2.0
    x31_44 r31 1.0
    x31_44 c44 1.0
    x31_45 OBJ 1.0
    x31_45 r31 1.0
    x31_45 c45 1.0
    x31_46 OBJ 1.0
    x31_46 r31 1.0
    x31_46 c46 1.0
    x31_47 OBJ 5.0
    x31_47 r31 1.0
    x31_47 c47 1.0
    x31_48 OBJ 5.0
    x31_48 r31 1.0
    x31_48 c48 1.0
    x31_49 OBJ 3.0
    x31_49 r31 1.0
    x31_49 c49 1.0
    x31_50 OBJ 1.0
    x31_50 r31 1.0
    x31_50 c50 1.0
    x31_51 OBJ 4.0
    x31_51 r31 1.0
    x31_51 c51 1.0
    x31_52 OBJ 5.0
    x31_52 r31 1.0
    x31_52 c52 1.0
    x31_53 OBJ 5.0
    x31_53 r31 1.0
    x31_53 c53 1.0
    x31_54 OBJ 2.0
    x31_54 r31 1.0
    x31_54 c54 1.0
    x31_55 OBJ 4.0
    x31_55 r31 1.0
    x31_55 c55 1.0
    x31_56 OBJ 1.0
    x31_56 r31 1.0
    x31_56 c56 1.0
    x31_57 OBJ 5.0
    x31_57 r31 1.0
    x31_57 c57 1.0
    x31_58 OBJ 2.0
    x31_58 r31 1.0
    x31_58 c58 1.0
    x31_59 OBJ 3.0
    x31_59 r31 1.0
    x31_59 c59 1.0
    x31_60 OBJ 4.0
    x31_60 r31 1.0
    x31_60 c60 1.0
    x31_61 OBJ 5.0
    x31_61 r31 1.0
    x31_61 c61 1.0
    x31_62 OBJ 3.0
    x31_62 r31 1.0
    x31_62 c62 1.0
    x31_63 OBJ 3.0
    x31_63 r31 1.0
    x31_63 c63 1.0
    x31_64 OBJ 2.0
    x31_64 r31 1.0
    x31_64 c64 1.0
    x31_65 OBJ 1.0
    x31_65 r31 1.0
    x31_65 c65 1.0
    x31_66 OBJ 5.0
    x31_66 r31 1.0
    x31_66 c66 1.0
    x31_67 OBJ 3.0
    x31_67 r31 1.0
    x31_67 c67 1.0
    x31_68 OBJ 4.0
    x31_68 r31 1.0
    x31_68 c68 1.0
    x31_69 OBJ 5.0
    x31_69 r31 1.0
    x31_69 c69 1.0
    x31_70 OBJ 5.0
    x31_70 r31 1.0
    x31_70 c70 1.0
    x31_71 OBJ 2.0
    x31_71 r31 1.0
    x31_71 c71 1.0
    x31_72 OBJ 4.0
    x31_72 r31 1.0
    x31_72 c72 1.0
    x31_73 OBJ 2.0
    x31_73 r31 1.0
    x31_73 c73 1.0
    x31_74 OBJ 5.0
    x31_74 r31 1.0
    x31_74 c74 1.0
    x31_75 OBJ 3.0
    x31_75 r31 1.0
    x31_75 c75 1.0
    x31_76 OBJ 4.0
    x31_76 r31 1.0
    x31_76 c76 1.0
    x31_77 OBJ 5.0
    x31_77 r31 1.0
    x31_77 c77 1.0
    x31_78 OBJ 3.0
    x31_78 r31 1.0
    x31_78 c78 1.0
    x31_79 OBJ 5.0
    x31_79 r31 1.0
    x31_79 c79 1.0
    x32_0 OBJ 4.0
    x32_0 r32 1.0
    x32_0 c0 1.0
    x32_1 OBJ 4.0
    x32_1 r32 1.0
    x32_1 c1 1.0
    x32_2 OBJ 3.0
    x32_2 r32 1.0
    x32_2 c2 1.0
    x32_3 OBJ 1.0
    x32_3 r32 1.0
    x32_3 c3 1.0
    x32_4 OBJ 2.0
    x32_4 r32 1.0
    x32_4 c4 1.0
    x32_5 OBJ 3.0
    x32_5 r32 1.0
    x32_5 c5 1.0
    x32_6 OBJ 2.0
    x32_6 r32 1.0
    x32_6 c6 1.0
    x32_7 OBJ 2.0
    x32_7 r32 1.0
    x32_7 c7 1.0
    x32_8 OBJ 5.0
    x32_8 r32 1.0
    x32_8 c8 1.0
    x32_9 OBJ 5.0
    x32_9 r32 1.0
    x32_9 c9 1.0
    x32_10 OBJ 4.0
    x32_10 r32 1.0
    x32_10 c10 1.0
    x32_11 OBJ 5.0
    x32_11 r32 1.0
    x32_11 c11 1.0
    x32_12 OBJ 4.0
    x32_12 r32 1.0
    x32_12 c12 1.0
    x32_13 OBJ 1.0
    x32_13 r32 1.0
    x32_13 c13 1.0
    x32_14 OBJ 3.0
    x32_14 r32 1.0
    x32_14 c14 1.0
    x32_15 OBJ 2.0
    x32_15 r32 1.0
    x32_15 c15 1.0
    x32_16 OBJ 2.0
    x32_16 r32 1.0
    x32_16 c16 1.0
    x32_17 OBJ 3.0
    x32_17 r32 1.0
    x32_17 c17 1.0
    x32_18 OBJ 5.0
    x32_18 r32 1.0
    x32_18 c18 1.0
    x32_19 OBJ 3.0
    x32_19 r32 1.0
    x32_19 c19 1.0
    x32_20 OBJ 4.0
    x32_20 r32 1.0
    x32_20 c20 1.0
    x32_21 OBJ 3.0
    x32_21 r32 1.0
    x32_21 c21 1.0
    x32_22 OBJ 3.0
    x32_22 r32 1.0
    x32_22 c22 1.0
    x32_23 OBJ 2.0
    x32_23 r32 1.0
    x32_23 c23 1.0
    x32_24 OBJ 3.0
    x32_24 r32 1.0
    x32_24 c24 1.0
    x32_25 OBJ 1.0
    x32_25 r32 1.0
    x32_25 c25 1.0
    x32_26 OBJ 1.0
    x32_26 r32 1.0
    x32_26 c26 1.0
    x32_27 OBJ 2.0
    x32_27 r32 1.0
    x32_27 c27 1.0
    x32_28 OBJ 5.0
    x32_28 r32 1.0
    x32_28 c28 1.0
    x32_29 OBJ 1.0
    x32_29 r32 1.0
    x32_29 c29 1.0
    x32_30 OBJ 5.0
    x32_30 r32 1.0
    x32_30 c30 1.0
    x32_31 OBJ 3.0
    x32_31 r32 1.0
    x32_31 c31 1.0
    x32_32 OBJ 4.0
    x32_32 r32 1.0
    x32_32 c32 1.0
    x32_33 OBJ 1.0
    x32_33 r32 1.0
    x32_33 c33 1.0
    x32_34 OBJ 5.0
    x32_34 r32 1.0
    x32_34 c34 1.0
    x32_35 OBJ 4.0
    x32_35 r32 1.0
    x32_35 c35 1.0
    x32_36 OBJ 4.0
    x32_36 r32 1.0
    x32_36 c36 1.0
    x32_37 OBJ 3.0
    x32_37 r32 1.0
    x32_37 c37 1.0
    x32_38 OBJ 1.0
    x32_38 r32 1.0
    x32_38 c38 1.0
    x32_39 OBJ 5.0
    x32_39 r32 1.0
    x32_39 c39 1.0
    x32_40 OBJ 2.0
    x32_40 r32 1.0
    x32_40 c40 1.0
    x32_41 OBJ 2.0
    x32_41 r32 1.0
    x32_41 c41 1.0
    x32_42 OBJ 4.0
    x32_42 r32 1.0
    x32_42 c42 1.0
    x32_43 OBJ 3.0
    x32_43 r32 1.0
    x32_43 c43 1.0
    x32_44 OBJ 3.0
    x32_44 r32 1.0
    x32_44 c44 1.0
    x32_45 OBJ 2.0
    x32_45 r32 1.0
    x32_45 c45 1.0
    x32_46 OBJ 2.0
    x32_46 r32 1.0
    x32_46 c46 1.0
    x32_47 OBJ 5.0
    x32_47 r32 1.0
    x32_47 c47 1.0
    x32_48 OBJ 5.0
    x32_48 r32 1.0
    x32_48 c48 1.0
    x32_49 OBJ 3.0
    x32_49 r32 1.0
    x32_49 c49 1.0
    x32_50 OBJ 5.0
    x32_50 r32 1.0
    x32_50 c50 1.0
    x32_51 OBJ 1.0
    x32_51 r32 1.0
    x32_51 c51 1.0
    x32_52 OBJ 4.0
    x32_52 r32 1.0
    x32_52 c52 1.0
    x32_53 OBJ 3.0
    x32_53 r32 1.0
    x32_53 c53 1.0
    x32_54 OBJ 2.0
    x32_54 r32 1.0
    x32_54 c54 1.0
    x32_55 OBJ 4.0
    x32_55 r32 1.0
    x32_55 c55 1.0
    x32_56 OBJ 1.0
    x32_56 r32 1.0
    x32_56 c56 1.0
    x32_57 OBJ 1.0
    x32_57 r32 1.0
    x32_57 c57 1.0
    x32_58 OBJ 4.0
    x32_58 r32 1.0
    x32_58 c58 1.0
    x32_59 OBJ 5.0
    x32_59 r32 1.0
    x32_59 c59 1.0
    x32_60 OBJ 5.0
    x32_60 r32 1.0
    x32_60 c60 1.0
    x32_61 OBJ 1.0
    x32_61 r32 1.0
    x32_61 c61 1.0
    x32_62 OBJ 4.0
    x32_62 r32 1.0
    x32_62 c62 1.0
    x32_63 OBJ 4.0
    x32_63 r32 1.0
    x32_63 c63 1.0
    x32_64 OBJ 5.0
    x32_64 r32 1.0
    x32_64 c64 1.0
    x32_65 OBJ 2.0
    x32_65 r32 1.0
    x32_65 c65 1.0
    x32_66 OBJ 4.0
    x32_66 r32 1.0
    x32_66 c66 1.0
    x32_67 OBJ 3.0
    x32_67 r32 1.0
    x32_67 c67 1.0
    x32_68 OBJ 5.0
    x32_68 r32 1.0
    x32_68 c68 1.0
    x32_69 OBJ 5.0
    x32_69 r32 1.0
    x32_69 c69 1.0
    x32_70 OBJ 1.0
    x32_70 r32 1.0
    x32_70 c70 1.0
    x32_71 OBJ 4.0
    x32_71 r32 1.0
    x32_71 c71 1.0
    x32_72 OBJ 4.0
    x32_72 r32 1.0
    x32_72 c72 1.0
    x32_73 OBJ 4.0
    x32_73 r32 1.0
    x32_73 c73 1.0
    x32_74 OBJ 3.0
    x32_74 r32 1.0
    x32_74 c74 1.0
    x32_75 OBJ 3.0
    x32_75 r32 1.0
    x32_75 c75 1.0
    x32_76 OBJ 3.0
    x32_76 r32 1.0
    x32_76 c76 1.0
    x32_77 OBJ 3.0
    x32_77 r32 1.0
    x32_77 c77 1.0
    x32_78 OBJ 4.0
    x32_78 r32 1.0
    x32_78 c78 1.0
    x32_79 OBJ 5.0
    x32_79 r32 1.0
    x32_79 c79 1.0
    x33_0 OBJ 5.0
    x33_0 r33 1.0
    x33_0 c0 1.0
    x33_1 OBJ 5.0
    x33_1 r33 1.0
    x33_1 c1 1.0
    x33_2 OBJ 4.0
    x33_2 r33 1.0
    x33_2 c2 1.0
    x33_3 OBJ 3.0
    x33_3 r33 1.0
    x33_3 c3 1.0
    x33_4 OBJ 1.0
    x33_4 r33 1.0
    x33_4 c4 1.0
    x33_5 OBJ 4.0
    x33_5 r33 1.0
    x33_5 c5 1.0
    x33_6 OBJ 4.0
    x33_6 r33 1.0
    x33_6 c6 1.0
    x33_7 OBJ 4.0
    x33_7 r33 1.0
    x33_7 c7 1.0
    x33_8 OBJ 3.0
    x33_8 r33 1.0
    x33_8 c8 1.0
    x33_9 OBJ 2.0
    x33_9 r33 1.0
    x33_9 c9 1.0
    x33_10 OBJ 5.0
    x33_10 r33 1.0
    x33_10 c10 1.0
    x33_11 OBJ 3.0
    x33_11 r33 1.0
    x33_11 c11 1.0
    x33_12 OBJ 2.0
    x33_12 r33 1.0
    x33_12 c12 1.0
    x33_13 OBJ 4.0
    x33_13 r33 1.0
    x33_13 c13 1.0
    x33_14 OBJ 5.0
    x33_14 r33 1.0
    x33_14 c14 1.0
    x33_15 OBJ 4.0
    x33_15 r33 1.0
    x33_15 c15 1.0
    x33_16 OBJ 5.0
    x33_16 r33 1.0
    x33_16 c16 1.0
    x33_17 OBJ 2.0
    x33_17 r33 1.0
    x33_17 c17 1.0
    x33_18 OBJ 1.0
    x33_18 r33 1.0
    x33_18 c18 1.0
    x33_19 OBJ 3.0
    x33_19 r33 1.0
    x33_19 c19 1.0
    x33_20 OBJ 3.0
    x33_20 r33 1.0
    x33_20 c20 1.0
    x33_21 OBJ 5.0
    x33_21 r33 1.0
    x33_21 c21 1.0
    x33_22 OBJ 2.0
    x33_22 r33 1.0
    x33_22 c22 1.0
    x33_23 OBJ 3.0
    x33_23 r33 1.0
    x33_23 c23 1.0
    x33_24 OBJ 2.0
    x33_24 r33 1.0
    x33_24 c24 1.0
    x33_25 OBJ 4.0
    x33_25 r33 1.0
    x33_25 c25 1.0
    x33_26 OBJ 1.0
    x33_26 r33 1.0
    x33_26 c26 1.0
    x33_27 OBJ 1.0
    x33_27 r33 1.0
    x33_27 c27 1.0
    x33_28 OBJ 1.0
    x33_28 r33 1.0
    x33_28 c28 1.0
    x33_29 OBJ 3.0
    x33_29 r33 1.0
    x33_29 c29 1.0
    x33_30 OBJ 5.0
    x33_30 r33 1.0
    x33_30 c30 1.0
    x33_31 OBJ 4.0
    x33_31 r33 1.0
    x33_31 c31 1.0
    x33_32 OBJ 3.0
    x33_32 r33 1.0
    x33_32 c32 1.0
    x33_33 OBJ 5.0
    x33_33 r33 1.0
    x33_33 c33 1.0
    x33_34 OBJ 3.0
    x33_34 r33 1.0
    x33_34 c34 1.0
    x33_35 OBJ 5.0
    x33_35 r33 1.0
    x33_35 c35 1.0
    x33_36 OBJ 5.0
    x33_36 r33 1.0
    x33_36 c36 1.0
    x33_37 OBJ 4.0
    x33_37 r33 1.0
    x33_37 c37 1.0
    x33_38 OBJ 5.0
    x33_38 r33 1.0
    x33_38 c38 1.0
    x33_39 OBJ 5.0
    x33_39 r33 1.0
    x33_39 c39 1.0
    x33_40 OBJ 4.0
    x33_40 r33 1.0
    x33_40 c40 1.0
    x33_41 OBJ 4.0
    x33_41 r33 1.0
    x33_41 c41 1.0
    x33_42 OBJ 4.0
    x33_42 r33 1.0
    x33_42 c42 1.0
    x33_43 OBJ 3.0
    x33_43 r33 1.0
    x33_43 c43 1.0
    x33_44 OBJ 1.0
    x33_44 r33 1.0
    x33_44 c44 1.0
    x33_45 OBJ 5.0
    x33_45 r33 1.0
    x33_45 c45 1.0
    x33_46 OBJ 3.0
    x33_46 r33 1.0
    x33_46 c46 1.0
    x33_47 OBJ 4.0
    x33_47 r33 1.0
    x33_47 c47 1.0
    x33_48 OBJ 1.0
    x33_48 r33 1.0
    x33_48 c48 1.0
    x33_49 OBJ 1.0
    x33_49 r33 1.0
    x33_49 c49 1.0
    x33_50 OBJ 5.0
    x33_50 r33 1.0
    x33_50 c50 1.0
    x33_51 OBJ 2.0
    x33_51 r33 1.0
    x33_51 c51 1.0
    x33_52 OBJ 1.0
    x33_52 r33 1.0
    x33_52 c52 1.0
    x33_53 OBJ 4.0
    x33_53 r33 1.0
    x33_53 c53 1.0
    x33_54 OBJ 3.0
    x33_54 r33 1.0
    x33_54 c54 1.0
    x33_55 OBJ 5.0
    x33_55 r33 1.0
    x33_55 c55 1.0
    x33_56 OBJ 4.0
    x33_56 r33 1.0
    x33_56 c56 1.0
    x33_57 OBJ 5.0
    x33_57 r33 1.0
    x33_57 c57 1.0
    x33_58 OBJ 5.0
    x33_58 r33 1.0
    x33_58 c58 1.0
    x33_59 OBJ 2.0
    x33_59 r33 1.0
    x33_59 c59 1.0
    x33_60 OBJ 2.0
    x33_60 r33 1.0
    x33_60 c60 1.0
    x33_61 OBJ 4.0
    x33_61 r33 1.0
    x33_61 c61 1.0
    x33_62 OBJ 4.0
    x33_62 r33 1.0
    x33_62 c62 1.0
    x33_63 OBJ 4.0
    x33_63 r33 1.0
    x33_63 c63 1.0
    x33_64 OBJ 4.0
    x33_64 r33 1.0
    x33_64 c64 1.0
    x33_65 OBJ 5.0
    x33_65 r33 1.0
    x33_65 c65 1.0
    x33_66 OBJ 5.0
    x33_66 r33 1.0
    x33_66 c66 1.0
    x33_67 OBJ 3.0
    x33_67 r33 1.0
    x33_67 c67 1.0
    x33_68 OBJ 5.0
    x33_68 r33 1.0
    x33_68 c68 1.0
    x33_69 OBJ 1.0
    x33_69 r33 1.0
    x33_69 c69 1.0
    x33_70 OBJ 2.0
    x33_70 r33 1.0
    x33_70 c70 1.0
    x33_71 OBJ 3.0
    x33_71 r33 1.0
    x33_71 c71 1.0
    x33_72 OBJ 3.0
    x33_72 r33 1.0
    x33_72 c72 1.0
    x33_73 OBJ 3.0
    x33_73 r33 1.0
    x33_73 c73 1.0
    x33_74 OBJ 1.0
    x33_74 r33 1.0
    x33_74 c74 1.0
    x33_75 OBJ 3.0
    x33_75 r33 1.0
    x33_75 c75 1.0
    x33_76 OBJ 5.0
    x33_76 r33 1.0
    x33_76 c76 1.0
    x33_77 OBJ 2.0
    x33_77 r33 1.0
    x33_77 c77 1.0
    x33_78 OBJ 1.0
    x33_78 r33 1.0
    x33_78 c78 1.0
    x33_79 OBJ 3.0
    x33_79 r33 1.0
    x33_79 c79 1.0
    x34_0 OBJ 3.0
    x34_0 r34 1.0
    x34_0 c0 1.0
    x34_1 OBJ 5.0
    x34_1 r34 1.0
    x34_1 c1 1.0
    x34_2 OBJ 4.0
    x34_2 r34 1.0
    x34_2 c2 1.0
    x34_3 OBJ 2.0
    x34_3 r34 1.0
    x34_3 c3 1.0
    x34_4 OBJ 5.0
    x34_4 r34 1.0
    x34_4 c4 1.0
    x34_5 OBJ 3.0
    x34_5 r34 1.0
    x34_5 c5 1.0
    x34_6 OBJ 5.0
    x34_6 r34 1.0
    x34_6 c6 1.0
    x34_7 OBJ 2.0
    x34_7 r34 1.0
    x34_7 c7 1.0
    x34_8 OBJ 5.0
    x34_8 r34 1.0
    x34_8 c8 1.0
    x34_9 OBJ 2.0
    x34_9 r34 1.0
    x34_9 c9 1.0
    x34_10 OBJ 4.0
    x34_10 r34 1.0
    x34_10 c10 1.0
    x34_11 OBJ 2.0
    x34_11 r34 1.0
    x34_11 c11 1.0
    x34_12 OBJ 1.0
    x34_12 r34 1.0
    x34_12 c12 1.0
    x34_13 OBJ 5.0
    x34_13 r34 1.0
    x34_13 c13 1.0
    x34_14 OBJ 5.0
    x34_14 r34 1.0
    x34_14 c14 1.0
    x34_15 OBJ 1.0
    x34_15 r34 1.0
    x34_15 c15 1.0
    x34_16 OBJ 3.0
    x34_16 r34 1.0
    x34_16 c16 1.0
    x34_17 OBJ 5.0
    x34_17 r34 1.0
    x34_17 c17 1.0
    x34_18 OBJ 1.0
    x34_18 r34 1.0
    x34_18 c18 1.0
    x34_19 OBJ 4.0
    x34_19 r34 1.0
    x34_19 c19 1.0
    x34_20 OBJ 1.0
    x34_20 r34 1.0
    x34_20 c20 1.0
    x34_21 OBJ 1.0
    x34_21 r34 1.0
    x34_21 c21 1.0
    x34_22 OBJ 3.0
    x34_22 r34 1.0
    x34_22 c22 1.0
    x34_23 OBJ 5.0
    x34_23 r34 1.0
    x34_23 c23 1.0
    x34_24 OBJ 1.0
    x34_24 r34 1.0
    x34_24 c24 1.0
    x34_25 OBJ 3.0
    x34_25 r34 1.0
    x34_25 c25 1.0
    x34_26 OBJ 4.0
    x34_26 r34 1.0
    x34_26 c26 1.0
    x34_27 OBJ 1.0
    x34_27 r34 1.0
    x34_27 c27 1.0
    x34_28 OBJ 5.0
    x34_28 r34 1.0
    x34_28 c28 1.0
    x34_29 OBJ 1.0
    x34_29 r34 1.0
    x34_29 c29 1.0
    x34_30 OBJ 1.0
    x34_30 r34 1.0
    x34_30 c30 1.0
    x34_31 OBJ 2.0
    x34_31 r34 1.0
    x34_31 c31 1.0
    x34_32 OBJ 2.0
    x34_32 r34 1.0
    x34_32 c32 1.0
    x34_33 OBJ 4.0
    x34_33 r34 1.0
    x34_33 c33 1.0
    x34_34 OBJ 5.0
    x34_34 r34 1.0
    x34_34 c34 1.0
    x34_35 OBJ 5.0
    x34_35 r34 1.0
    x34_35 c35 1.0
    x34_36 OBJ 3.0
    x34_36 r34 1.0
    x34_36 c36 1.0
    x34_37 OBJ 5.0
    x34_37 r34 1.0
    x34_37 c37 1.0
    x34_38 OBJ 5.0
    x34_38 r34 1.0
    x34_38 c38 1.0
    x34_39 OBJ 2.0
    x34_39 r34 1.0
    x34_39 c39 1.0
    x34_40 OBJ 5.0
    x34_40 r34 1.0
    x34_40 c40 1.0
    x34_41 OBJ 2.0
    x34_41 r34 1.0
    x34_41 c41 1.0
    x34_42 OBJ 4.0
    x34_42 r34 1.0
    x34_42 c42 1.0
    x34_43 OBJ 5.0
    x34_43 r34 1.0
    x34_43 c43 1.0
    x34_44 OBJ 1.0
    x34_44 r34 1.0
    x34_44 c44 1.0
    x34_45 OBJ 2.0
    x34_45 r34 1.0
    x34_45 c45 1.0
    x34_46 OBJ 2.0
    x34_46 r34 1.0
    x34_46 c46 1.0
    x34_47 OBJ 5.0
    x34_47 r34 1.0
    x34_47 c47 1.0
    x34_48 OBJ 5.0
    x34_48 r34 1.0
    x34_48 c48 1.0
    x34_49 OBJ 1.0
    x34_49 r34 1.0
    x34_49 c49 1.0
    x34_50 OBJ 1.0
    x34_50 r34 1.0
    x34_50 c50 1.0
    x34_51 OBJ 1.0
    x34_51 r34 1.0
    x34_51 c51 1.0
    x34_52 OBJ 1.0
    x34_52 r34 1.0
    x34_52 c52 1.0
    x34_53 OBJ 2.0
    x34_53 r34 1.0
    x34_53 c53 1.0
    x34_54 OBJ 5.0
    x34_54 r34 1.0
    x34_54 c54 1.0
    x34_55 OBJ 4.0
    x34_55 r34 1.0
    x34_55 c55 1.0
    x34_56 OBJ 4.0
    x34_56 r34 1.0
    x34_56 c56 1.0
    x34_57 OBJ 5.0
    x34_57 r34 1.0
    x34_57 c57 1.0
    x34_58 OBJ 4.0
    x34_58 r34 1.0
    x34_58 c58 1.0
    x34_59 OBJ 1.0
    x34_59 r34 1.0
    x34_59 c59 1.0
    x34_60 OBJ 1.0
    x34_60 r34 1.0
    x34_60 c60 1.0
    x34_61 OBJ 5.0
    x34_61 r34 1.0
    x34_61 c61 1.0
    x34_62 OBJ 3.0
    x34_62 r34 1.0
    x34_62 c62 1.0
    x34_63 OBJ 2.0
    x34_63 r34 1.0
    x34_63 c63 1.0
    x34_64 OBJ 2.0
    x34_64 r34 1.0
    x34_64 c64 1.0
    x34_65 OBJ 3.0
    x34_65 r34 1.0
    x34_65 c65 1.0
    x34_66 OBJ 3.0
    x34_66 r34 1.0
    x34_66 c66 1.0
    x34_67 OBJ 2.0
    x34_67 r34 1.0
    x34_67 c67 1.0
    x34_68 OBJ 1.0
    x34_68 r34 1.0
    x34_68 c68 1.0
    x34_69 OBJ 3.0
    x34_69 r34 1.0
    x34_69 c69 1.0
    x34_70 OBJ 1.0
    x34_70 r34 1.0
    x34_70 c70 1.0
    x34_71 OBJ 5.0
    x34_71 r34 1.0
    x34_71 c71 1.0
    x34_72 OBJ 1.0
    x34_72 r34 1.0
    x34_72 c72 1.0
    x34_73 OBJ 3.0
    x34_73 r34 1.0
    x34_73 c73 1.0
    x34_74 OBJ 2.0
    x34_74 r34 1.0
    x34_74 c74 1.0
    x34_75 OBJ 4.0
    x34_75 r34 1.0
    x34_75 c75 1.0
    x34_76 OBJ 5.0
    x34_76 r34 1.0
    x34_76 c76 1.0
    x34_77 OBJ 4.0
    x34_77 r34 1.0
    x34_77 c77 1.0
    x34_78 OBJ 1.0
    x34_78 r34 1.0
    x34_78 c78 1.0
    x34_79 OBJ 1.0
    x34_79 r34 1.0
    x34_79 c79 1.0
    x35_0 OBJ 2.0
    x35_0 r35 1.0
    x35_0 c0 1.0
    x35_1 OBJ 4.0
    x35_1 r35 1.0
    x35_1 c1 1.0
    x35_2 OBJ 5.0
    x35_2 r35 1.0
    x35_2 c2 1.0
    x35_3 OBJ 1.0
    x35_3 r35 1.0
    x35_3 c3 1.0
    x35_4 OBJ 4.0
    x35_4 r35 1.0
    x35_4 c4 1.0
    x35_5 OBJ 1.0
    x35_5 r35 1.0
    x35_5 c5 1.0
    x35_6 OBJ 5.0
    x35_6 r35 1.0
    x35_6 c6 1.0
    x35_7 OBJ 2.0
    x35_7 r35 1.0
    x35_7 c7 1.0
    x35_8 OBJ 2.0
    x35_8 r35 1.0
    x35_8 c8 1.0
    x35_9 OBJ 2.0
    x35_9 r35 1.0
    x35_9 c9 1.0
    x35_10 OBJ 1.0
    x35_10 r35 1.0
    x35_10 c10 1.0
    x35_11 OBJ 2.0
    x35_11 r35 1.0
    x35_11 c11 1.0
    x35_12 OBJ 5.0
    x35_12 r35 1.0
    x35_12 c12 1.0
    x35_13 OBJ 2.0
    x35_13 r35 1.0
    x35_13 c13 1.0
    x35_14 OBJ 3.0
    x35_14 r35 1.0
    x35_14 c14 1.0
    x35_15 OBJ 1.0
    x35_15 r35 1.0
    x35_15 c15 1.0
    x35_16 OBJ 4.0
    x35_16 r35 1.0
    x35_16 c16 1.0
    x35_17 OBJ 3.0
    x35_17 r35 1.0
    x35_17 c17 1.0
    x35_18 OBJ 4.0
    x35_18 r35 1.0
    x35_18 c18 1.0
    x35_19 OBJ 5.0
    x35_19 r35 1.0
    x35_19 c19 1.0
    x35_20 OBJ 3.0
    x35_20 r35 1.0
    x35_20 c20 1.0
    x35_21 OBJ 4.0
    x35_21 r35 1.0
    x35_21 c21 1.0
    x35_22 OBJ 1.0
    x35_22 r35 1.0
    x35_22 c22 1.0
    x35_23 OBJ 2.0
    x35_23 r35 1.0
    x35_23 c23 1.0
    x35_24 OBJ 4.0
    x35_24 r35 1.0
    x35_24 c24 1.0
    x35_25 OBJ 5.0
    x35_25 r35 1.0
    x35_25 c25 1.0
    x35_26 OBJ 2.0
    x35_26 r35 1.0
    x35_26 c26 1.0
    x35_27 OBJ 4.0
    x35_27 r35 1.0
    x35_27 c27 1.0
    x35_28 OBJ 3.0
    x35_28 r35 1.0
    x35_28 c28 1.0
    x35_29 OBJ 4.0
    x35_29 r35 1.0
    x35_29 c29 1.0
    x35_30 OBJ 4.0
    x35_30 r35 1.0
    x35_30 c30 1.0
    x35_31 OBJ 1.0
    x35_31 r35 1.0
    x35_31 c31 1.0
    x35_32 OBJ 2.0
    x35_32 r35 1.0
    x35_32 c32 1.0
    x35_33 OBJ 1.0
    x35_33 r35 1.0
    x35_33 c33 1.0
    x35_34 OBJ 2.0
    x35_34 r35 1.0
    x35_34 c34 1.0
    x35_35 OBJ 2.0
    x35_35 r35 1.0
    x35_35 c35 1.0
    x35_36 OBJ 3.0
    x35_36 r35 1.0
    x35_36 c36 1.0
    x35_37 OBJ 4.0
    x35_37 r35 1.0
    x35_37 c37 1.0
    x35_38 OBJ 2.0
    x35_38 r35 1.0
    x35_38 c38 1.0
    x35_39 OBJ 1.0
    x35_39 r35 1.0
    x35_39 c39 1.0
    x35_40 OBJ 3.0
    x35_40 r35 1.0
    x35_40 c40 1.0
    x35_41 OBJ 4.0
    x35_41 r35 1.0
    x35_41 c41 1.0
    x35_42 OBJ 5.0
    x35_42 r35 1.0
    x35_42 c42 1.0
    x35_43 OBJ 3.0
    x35_43 r35 1.0
    x35_43 c43 1.0
    x35_44 OBJ 1.0
    x35_44 r35 1.0
    x35_44 c44 1.0
    x35_45 OBJ 3.0
    x35_45 r35 1.0
    x35_45 c45 1.0
    x35_46 OBJ 5.0
    x35_46 r35 1.0
    x35_46 c46 1.0
    x35_47 OBJ 4.0
    x35_47 r35 1.0
    x35_47 c47 1.0
    x35_48 OBJ 3.0
    x35_48 r35 1.0
    x35_48 c48 1.0
    x35_49 OBJ 4.0
    x35_49 r35 1.0
    x35_49 c49 1.0
    x35_50 OBJ 1.0
    x35_50 r35 1.0
    x35_50 c50 1.0
    x35_51 OBJ 1.0
    x35_51 r35 1.0
    x35_51 c51 1.0
    x35_52 OBJ 4.0
    x35_52 r35 1.0
    x35_52 c52 1.0
    x35_53 OBJ 3.0
    x35_53 r35 1.0
    x35_53 c53 1.0
    x35_54 OBJ 5.0
    x35_54 r35 1.0
    x35_54 c54 1.0
    x35_55 OBJ 2.0
    x35_55 r35 1.0
    x35_55 c55 1.0
    x35_56 OBJ 4.0
    x35_56 r35 1.0
    x35_56 c56 1.0
    x35_57 OBJ 2.0
    x35_57 r35 1.0
    x35_57 c57 1.0
    x35_58 OBJ 4.0
    x35_58 r35 1.0
    x35_58 c58 1.0
    x35_59 OBJ 3.0
    x35_59 r35 1.0
    x35_59 c59 1.0
    x35_60 OBJ 3.0
    x35_60 r35 1.0
    x35_60 c60 1.0
    x35_61 OBJ 2.0
    x35_61 r35 1.0
    x35_61 c61 1.0
    x35_62 OBJ 4.0
    x35_62 r35 1.0
    x35_62 c62 1.0
    x35_63 OBJ 1.0
    x35_63 r35 1.0
    x35_63 c63 1.0
    x35_64 OBJ 3.0
    x35_64 r35 1.0
    x35_64 c64 1.0
    x35_65 OBJ 1.0
    x35_65 r35 1.0
    x35_65 c65 1.0
    x35_66 OBJ 3.0
    x35_66 r35 1.0
    x35_66 c66 1.0
    x35_67 OBJ 2.0
    x35_67 r35 1.0
    x35_67 c67 1.0
    x35_68 OBJ 2.0
    x35_68 r35 1.0
    x35_68 c68 1.0
    x35_69 OBJ 2.0
    x35_69 r35 1.0
    x35_69 c69 1.0
    x35_70 OBJ 1.0
    x35_70 r35 1.0
    x35_70 c70 1.0
    x35_71 OBJ 2.0
    x35_71 r35 1.0
    x35_71 c71 1.0
    x35_72 OBJ 3.0
    x35_72 r35 1.0
    x35_72 c72 1.0
    x35_73 OBJ 5.0
    x35_73 r35 1.0
    x35_73 c73 1.0
    x35_74 OBJ 2.0
    x35_74 r35 1.0
    x35_74 c74 1.0
    x35_75 OBJ 5.0
    x35_75 r35 1.0
    x35_75 c75 1.0
    x35_76 OBJ 4.0
    x35_76 r35 1.0
    x35_76 c76 1.0
    x35_77 OBJ 4.0
    x35_77 r35 1.0
    x35_77 c77 1.0
    x35_78 OBJ 2.0
    x35_78 r35 1.0
    x35_78 c78 1.0
    x35_79 OBJ 2.0
    x35_79 r35 1.0
    x35_79 c79 1.0
    x36_0 OBJ 3.0
    x36_0 r36 1.0
    x36_0 c0 1.0
    x36_1 OBJ 3.0
    x36_1 r36 1.0
    x36_1 c1 1.0
    x36_2 OBJ 2.0
    x36_2 r36 1.0
    x36_2 c2 1.0
    x36_3 OBJ 4.0
    x36_3 r36 1.0
    x36_3 c3 1.0
    x36_4 OBJ 4.0
    x36_4 r36 1.0
    x36_4 c4 1.0
    x36_5 OBJ 5.0
    x36_5 r36 1.0
    x36_5 c5 1.0
    x36_6 OBJ 2.0
    x36_6 r36 1.0
    x36_6 c6 1.0
    x36_7 OBJ 3.0
    x36_7 r36 1.0
    x36_7 c7 1.0
    x36_8 OBJ 4.0
    x36_8 r36 1.0
    x36_8 c8 1.0
    x36_9 OBJ 5.0
    x36_9 r36 1.0
    x36_9 c9 1.0
    x36_10 OBJ 2.0
    x36_10 r36 1.0
    x36_10 c10 1.0
    x36_11 OBJ 2.0
    x36_11 r36 1.0
    x36_11 c11 1.0
    x36_12 OBJ 4.0
    x36_12 r36 1.0
    x36_12 c12 1.0
    x36_13 OBJ 2.0
    x36_13 r36 1.0
    x36_13 c13 1.0
    x36_14 OBJ 3.0
    x36_14 r36 1.0
    x36_14 c14 1.0
    x36_15 OBJ 5.0
    x36_15 r36 1.0
    x36_15 c15 1.0
    x36_16 OBJ 4.0
    x36_16 r36 1.0
    x36_16 c16 1.0
    x36_17 OBJ 5.0
    x36_17 r36 1.0
    x36_17 c17 1.0
    x36_18 OBJ 3.0
    x36_18 r36 1.0
    x36_18 c18 1.0
    x36_19 OBJ 5.0
    x36_19 r36 1.0
    x36_19 c19 1.0
    x36_20 OBJ 2.0
    x36_20 r36 1.0
    x36_20 c20 1.0
    x36_21 OBJ 4.0
    x36_21 r36 1.0
    x36_21 c21 1.0
    x36_22 OBJ 5.0
    x36_22 r36 1.0
    x36_22 c22 1.0
    x36_23 OBJ 5.0
    x36_23 r36 1.0
    x36_23 c23 1.0
    x36_24 OBJ 2.0
    x36_24 r36 1.0
    x36_24 c24 1.0
    x36_25 OBJ 2.0
    x36_25 r36 1.0
    x36_25 c25 1.0
    x36_26 OBJ 1.0
    x36_26 r36 1.0
    x36_26 c26 1.0
    x36_27 OBJ 5.0
    x36_27 r36 1.0
    x36_27 c27 1.0
    x36_28 OBJ 1.0
    x36_28 r36 1.0
    x36_28 c28 1.0
    x36_29 OBJ 5.0
    x36_29 r36 1.0
    x36_29 c29 1.0
    x36_30 OBJ 3.0
    x36_30 r36 1.0
    x36_30 c30 1.0
    x36_31 OBJ 4.0
    x36_31 r36 1.0
    x36_31 c31 1.0
    x36_32 OBJ 1.0
    x36_32 r36 1.0
    x36_32 c32 1.0
    x36_33 OBJ 5.0
    x36_33 r36 1.0
    x36_33 c33 1.0
    x36_34 OBJ 2.0
    x36_34 r36 1.0
    x36_34 c34 1.0
    x36_35 OBJ 3.0
    x36_35 r36 1.0
    x36_35 c35 1.0
    x36_36 OBJ 1.0
    x36_36 r36 1.0
    x36_36 c36 1.0
    x36_37 OBJ 4.0
    x36_37 r36 1.0
    x36_37 c37 1.0
    x36_38 OBJ 1.0
    x36_38 r36 1.0
    x36_38 c38 1.0
    x36_39 OBJ 2.0
    x36_39 r36 1.0
    x36_39 c39 1.0
    x36_40 OBJ 2.0
    x36_40 r36 1.0
    x36_40 c40 1.0
    x36_41 OBJ 3.0
    x36_41 r36 1.0
    x36_41 c41 1.0
    x36_42 OBJ 2.0
    x36_42 r36 1.0
    x36_42 c42 1.0
    x36_43 OBJ 1.0
    x36_43 r36 1.0
    x36_43 c43 1.0
    x36_44 OBJ 1.0
    x36_44 r36 1.0
    x36_44 c44 1.0
    x36_45 OBJ 5.0
    x36_45 r36 1.0
    x36_45 c45 1.0
    x36_46 OBJ 3.0
    x36_46 r36 1.0
    x36_46 c46 1.0
    x36_47 OBJ 5.0
    x36_47 r36 1.0
    x36_47 c47 1.0
    x36_48 OBJ 3.0
    x36_48 r36 1.0
    x36_48 c48 1.0
    x36_49 OBJ 2.0
    x36_49 r36 1.0
    x36_49 c49 1.0
    x36_50 OBJ 1.0
    x36_50 r36 1.0
    x36_50 c50 1.0
    x36_51 OBJ 3.0
    x36_51 r36 1.0
    x36_51 c51 1.0
    x36_52 OBJ 1.0
    x36_52 r36 1.0
    x36_52 c52 1.0
    x36_53 OBJ 2.0
    x36_53 r36 1.0
    x36_53 c53 1.0
    x36_54 OBJ 3.0
    x36_54 r36 1.0
    x36_54 c54 1.0
    x36_55 OBJ 2.0
    x36_55 r36 1.0
    x36_55 c55 1.0
    x36_56 OBJ 4.0
    x36_56 r36 1.0
    x36_56 c56 1.0
    x36_57 OBJ 3.0
    x36_57 r36 1.0
    x36_57 c57 1.0
    x36_58 OBJ 3.0
    x36_58 r36 1.0
    x36_58 c58 1.0
    x36_59 OBJ 4.0
    x36_59 r36 1.0
    x36_59 c59 1.0
    x36_60 OBJ 4.0
    x36_60 r36 1.0
    x36_60 c60 1.0
    x36_61 OBJ 2.0
    x36_61 r36 1.0
    x36_61 c61 1.0
    x36_62 OBJ 3.0
    x36_62 r36 1.0
    x36_62 c62 1.0
    x36_63 OBJ 2.0
    x36_63 r36 1.0
    x36_63 c63 1.0
    x36_64 OBJ 1.0
    x36_64 r36 1.0
    x36_64 c64 1.0
    x36_65 OBJ 3.0
    x36_65 r36 1.0
    x36_65 c65 1.0
    x36_66 OBJ 3.0
    x36_66 r36 1.0
    x36_66 c66 1.0
    x36_67 OBJ 4.0
    x36_67 r36 1.0
    x36_67 c67 1.0
    x36_68 OBJ 1.0
    x36_68 r36 1.0
    x36_68 c68 1.0
    x36_69 OBJ 4.0
    x36_69 r36 1.0
    x36_69 c69 1.0
    x36_70 OBJ 2.0
    x36_70 r36 1.0
    x36_70 c70 1.0
    x36_71 OBJ 4.0
    x36_71 r36 1.0
    x36_71 c71 1.0
    x36_72 OBJ 3.0
    x36_72 r36 1.0
    x36_72 c72 1.0
    x36_73 OBJ 1.0
    x36_73 r36 1.0
    x36_73 c73 1.0
    x36_74 OBJ 2.0
    x36_74 r36 1.0
    x36_74 c74 1.0
    x36_75 OBJ 3.0
    x36_75 r36 1.0
    x36_75 c75 1.0
    x36_76 OBJ 1.0
    x36_76 r36 1.0
    x36_76 c76 1.0
    x36_77 OBJ 3.0
    x36_77 r36 1.0
    x36_77 c77 1.0
    x36_78 OBJ 5.0
    x36_78 r36 1.0
    x36_78 c78 1.0
    x36_79 OBJ 2.0
    x36_79 r36 1.0
    x36_79 c79 1.0
    x37_0 OBJ 1.0
    x37_0 r37 1.0
    x37_0 c0 1.0
    x37_1 OBJ 4.0
    x37_1 r37 1.0
    x37_1 c1 1.0
    x37_2 OBJ 1.0
    x37_2 r37 1.0
    x37_2 c2 1.0
    x37_3 OBJ 5.0
    x37_3 r37 1.0
    x37_3 c3 1.0
    x37_4 OBJ 2.0
    x37_4 r37 1.0
    x37_4 c4 1.0
    x37_5 OBJ 4.0
    x37_5 r37 1.0
    x37_5 c5 1.0
    x37_6 OBJ 2.0
    x37_6 r37 1.0
    x37_6 c6 1.0
    x37_7 OBJ 3.0
    x37_7 r37 1.0
    x37_7 c7 1.0
    x37_8 OBJ 2.0
    x37_8 r37 1.0
    x37_8 c8 1.0
    x37_9 OBJ 4.0
    x37_9 r37 1.0
    x37_9 c9 1.0
    x37_10 OBJ 1.0
    x37_10 r37 1.0
    x37_10 c10 1.0
    x37_11 OBJ 5.0
    x37_11 r37 1.0
    x37_11 c11 1.0
    x37_12 OBJ 3.0
    x37_12 r37 1.0
    x37_12 c12 1.0
    x37_13 OBJ 2.0
    x37_13 r37 1.0
    x37_13 c13 1.0
    x37_14 OBJ 5.0
    x37_14 r37 1.0
    x37_14 c14 1.0
    x37_15 OBJ 2.0
    x37_15 r37 1.0
    x37_15 c15 1.0
    x37_16 OBJ 5.0
    x37_16 r37 1.0
    x37_16 c16 1.0
    x37_17 OBJ 4.0
    x37_17 r37 1.0
    x37_17 c17 1.0
    x37_18 OBJ 5.0
    x37_18 r37 1.0
    x37_18 c18 1.0
    x37_19 OBJ 3.0
    x37_19 r37 1.0
    x37_19 c19 1.0
    x37_20 OBJ 4.0
    x37_20 r37 1.0
    x37_20 c20 1.0
    x37_21 OBJ 5.0
    x37_21 r37 1.0
    x37_21 c21 1.0
    x37_22 OBJ 3.0
    x37_22 r37 1.0
    x37_22 c22 1.0
    x37_23 OBJ 1.0
    x37_23 r37 1.0
    x37_23 c23 1.0
    x37_24 OBJ 1.0
    x37_24 r37 1.0
    x37_24 c24 1.0
    x37_25 OBJ 3.0
    x37_25 r37 1.0
    x37_25 c25 1.0
    x37_26 OBJ 1.0
    x37_26 r37 1.0
    x37_26 c26 1.0
    x37_27 OBJ 5.0
    x37_27 r37 1.0
    x37_27 c27 1.0
    x37_28 OBJ 5.0
    x37_28 r37 1.0
    x37_28 c28 1.0
    x37_29 OBJ 1.0
    x37_29 r37 1.0
    x37_29 c29 1.0
    x37_30 OBJ 2.0
    x37_30 r37 1.0
    x37_30 c30 1.0
    x37_31 OBJ 1.0
    x37_31 r37 1.0
    x37_31 c31 1.0
    x37_32 OBJ 1.0
    x37_32 r37 1.0
    x37_32 c32 1.0
    x37_33 OBJ 3.0
    x37_33 r37 1.0
    x37_33 c33 1.0
    x37_34 OBJ 2.0
    x37_34 r37 1.0
    x37_34 c34 1.0
    x37_35 OBJ 3.0
    x37_35 r37 1.0
    x37_35 c35 1.0
    x37_36 OBJ 1.0
    x37_36 r37 1.0
    x37_36 c36 1.0
    x37_37 OBJ 4.0
    x37_37 r37 1.0
    x37_37 c37 1.0
    x37_38 OBJ 4.0
    x37_38 r37 1.0
    x37_38 c38 1.0
    x37_39 OBJ 5.0
    x37_39 r37 1.0
    x37_39 c39 1.0
    x37_40 OBJ 2.0
    x37_40 r37 1.0
    x37_40 c40 1.0
    x37_41 OBJ 3.0
    x37_41 r37 1.0
    x37_41 c41 1.0
    x37_42 OBJ 5.0
    x37_42 r37 1.0
    x37_42 c42 1.0
    x37_43 OBJ 1.0
    x37_43 r37 1.0
    x37_43 c43 1.0
    x37_44 OBJ 3.0
    x37_44 r37 1.0
    x37_44 c44 1.0
    x37_45 OBJ 4.0
    x37_45 r37 1.0
    x37_45 c45 1.0
    x37_46 OBJ 4.0
    x37_46 r37 1.0
    x37_46 c46 1.0
    x37_47 OBJ 3.0
    x37_47 r37 1.0
    x37_47 c47 1.0
    x37_48 OBJ 5.0
    x37_48 r37 1.0
    x37_48 c48 1.0
    x37_49 OBJ 4.0
    x37_49 r37 1.0
    x37_49 c49 1.0
    x37_50 OBJ 5.0
    x37_50 r37 1.0
    x37_50 c50 1.0
    x37_51 OBJ 1.0
    x37_51 r37 1.0
    x37_51 c51 1.0
    x37_52 OBJ 2.0
    x37_52 r37 1.0
    x37_52 c52 1.0
    x37_53 OBJ 4.0
    x37_53 r37 1.0
    x37_53 c53 1.0
    x37_54 OBJ 5.0
    x37_54 r37 1.0
    x37_54 c54 1.0
    x37_55 OBJ 2.0
    x37_55 r37 1.0
    x37_55 c55 1.0
    x37_56 OBJ 4.0
    x37_56 r37 1.0
    x37_56 c56 1.0
    x37_57 OBJ 2.0
    x37_57 r37 1.0
    x37_57 c57 1.0
    x37_58 OBJ 1.0
    x37_58 r37 1.0
    x37_58 c58 1.0
    x37_59 OBJ 5.0
    x37_59 r37 1.0
    x37_59 c59 1.0
    x37_60 OBJ 3.0
    x37_60 r37 1.0
    x37_60 c60 1.0
    x37_61 OBJ 2.0
    x37_61 r37 1.0
    x37_61 c61 1.0
    x37_62 OBJ 5.0
    x37_62 r37 1.0
    x37_62 c62 1.0
    x37_63 OBJ 2.0
    x37_63 r37 1.0
    x37_63 c63 1.0
    x37_64 OBJ 2.0
    x37_64 r37 1.0
    x37_64 c64 1.0
    x37_65 OBJ 5.0
    x37_65 r37 1.0
    x37_65 c65 1.0
    x37_66 OBJ 3.0
    x37_66 r37 1.0
    x37_66 c66 1.0
    x37_67 OBJ 2.0
    x37_67 r37 1.0
    x37_67 c67 1.0
    x37_68 OBJ 1.0
    x37_68 r37 1.0
    x37_68 c68 1.0
    x37_69 OBJ 2.0
    x37_69 r37 1.0
    x37_69 c69 1.0
    x37_70 OBJ 3.0
    x37_70 r37 1.0
    x37_70 c70 1.0
    x37_71 OBJ 3.0
    x37_71 r37 1.0
    x37_71 c71 1.0
    x37_72 OBJ 4.0
    x37_72 r37 1.0
    x37_72 c72 1.0
    x37_73 OBJ 1.0
    x37_73 r37 1.0
    x37_73 c73 1.0
    x37_74 OBJ 2.0
    x37_74 r37 1.0
    x37_74 c74 1.0
    x37_75 OBJ 3.0
    x37_75 r37 1.0
    x37_75 c75 1.0
    x37_76 OBJ 2.0
    x37_76 r37 1.0
    x37_76 c76 1.0
    x37_77 OBJ 2.0
    x37_77 r37 1.0
    x37_77 c77 1.0
    x37_78 OBJ 4.0
    x37_78 r37 1.0
    x37_78 c78 1.0
    x37_79 OBJ 4.0
    x37_79 r37 1.0
    x37_79 c79 1.0
    x38_0 OBJ 2.0
    x38_0 r38 1.0
    x38_0 c0 1.0
    x38_1 OBJ 2.0
    x38_1 r38 1.0
    x38_1 c1 1.0
    x38_2 OBJ 1.0
    x38_2 r38 1.0
    x38_2 c2 1.0
    x38_3 OBJ 5.0
    x38_3 r38 1.0
    x38_3 c3 1.0
    x38_4 OBJ 4.0
    x38_4 r38 1.0
    x38_4 c4 1.0
    x38_5 OBJ 2.0
    x38_5 r38 1.0
    x38_5 c5 1.0
    x38_6 OBJ 3.0
    x38_6 r38 1.0
    x38_6 c6 1.0
    x38_7 OBJ 3.0
    x38_7 r38 1.0
    x38_7 c7 1.0
    x38_8 OBJ 2.0
    x38_8 r38 1.0
    x38_8 c8 1.0
    x38_9 OBJ 2.0
    x38_9 r38 1.0
    x38_9 c9 1.0
    x38_10 OBJ 5.0
    x38_10 r38 1.0
    x38_10 c10 1.0
    x38_11 OBJ 5.0
    x38_11 r38 1.0
    x38_11 c11 1.0
    x38_12 OBJ 2.0
    x38_12 r38 1.0
    x38_12 c12 1.0
    x38_13 OBJ 3.0
    x38_13 r38 1.0
    x38_13 c13 1.0
    x38_14 OBJ 1.0
    x38_14 r38 1.0
    x38_14 c14 1.0
    x38_15 OBJ 5.0
    x38_15 r38 1.0
    x38_15 c15 1.0
    x38_16 OBJ 4.0
    x38_16 r38 1.0
    x38_16 c16 1.0
    x38_17 OBJ 2.0
    x38_17 r38 1.0
    x38_17 c17 1.0
    x38_18 OBJ 2.0
    x38_18 r38 1.0
    x38_18 c18 1.0
    x38_19 OBJ 5.0
    x38_19 r38 1.0
    x38_19 c19 1.0
    x38_20 OBJ 4.0
    x38_20 r38 1.0
    x38_20 c20 1.0
    x38_21 OBJ 4.0
    x38_21 r38 1.0
    x38_21 c21 1.0
    x38_22 OBJ 2.0
    x38_22 r38 1.0
    x38_22 c22 1.0
    x38_23 OBJ 1.0
    x38_23 r38 1.0
    x38_23 c23 1.0
    x38_24 OBJ 3.0
    x38_24 r38 1.0
    x38_24 c24 1.0
    x38_25 OBJ 1.0
    x38_25 r38 1.0
    x38_25 c25 1.0
    x38_26 OBJ 3.0
    x38_26 r38 1.0
    x38_26 c26 1.0
    x38_27 OBJ 4.0
    x38_27 r38 1.0
    x38_27 c27 1.0
    x38_28 OBJ 2.0
    x38_28 r38 1.0
    x38_28 c28 1.0
    x38_29 OBJ 1.0
    x38_29 r38 1.0
    x38_29 c29 1.0
    x38_30 OBJ 1.0
    x38_30 r38 1.0
    x38_30 c30 1.0
    x38_31 OBJ 3.0
    x38_31 r38 1.0
    x38_31 c31 1.0
    x38_32 OBJ 3.0
    x38_32 r38 1.0
    x38_32 c32 1.0
    x38_33 OBJ 2.0
    x38_33 r38 1.0
    x38_33 c33 1.0
    x38_34 OBJ 1.0
    x38_34 r38 1.0
    x38_34 c34 1.0
    x38_35 OBJ 3.0
    x38_35 r38 1.0
    x38_35 c35 1.0
    x38_36 OBJ 4.0
    x38_36 r38 1.0
    x38_36 c36 1.0
    x38_37 OBJ 1.0
    x38_37 r38 1.0
    x38_37 c37 1.0
    x38_38 OBJ 2.0
    x38_38 r38 1.0
    x38_38 c38 1.0
    x38_39 OBJ 3.0
    x38_39 r38 1.0
    x38_39 c39 1.0
    x38_40 OBJ 4.0
    x38_40 r38 1.0
    x38_40 c40 1.0
    x38_41 OBJ 4.0
    x38_41 r38 1.0
    x38_41 c41 1.0
    x38_42 OBJ 5.0
    x38_42 r38 1.0
    x38_42 c42 1.0
    x38_43 OBJ 3.0
    x38_43 r38 1.0
    x38_43 c43 1.0
    x38_44 OBJ 3.0
    x38_44 r38 1.0
    x38_44 c44 1.0
    x38_45 OBJ 2.0
    x38_45 r38 1.0
    x38_45 c45 1.0
    x38_46 OBJ 5.0
    x38_46 r38 1.0
    x38_46 c46 1.0
    x38_47 OBJ 1.0
    x38_47 r38 1.0
    x38_47 c47 1.0
    x38_48 OBJ 1.0
    x38_48 r38 1.0
    x38_48 c48 1.0
    x38_49 OBJ 1.0
    x38_49 r38 1.0
    x38_49 c49 1.0
    x38_50 OBJ 4.0
    x38_50 r38 1.0
    x38_50 c50 1.0
    x38_51 OBJ 4.0
    x38_51 r38 1.0
    x38_51 c51 1.0
    x38_52 OBJ 1.0
    x38_52 r38 1.0
    x38_52 c52 1.0
    x38_53 OBJ 3.0
    x38_53 r38 1.0
    x38_53 c53 1.0
    x38_54 OBJ 5.0
    x38_54 r38 1.0
    x38_54 c54 1.0
    x38_55 OBJ 3.0
    x38_55 r38 1.0
    x38_55 c55 1.0
    x38_56 OBJ 1.0
    x38_56 r38 1.0
    x38_56 c56 1.0
    x38_57 OBJ 4.0
    x38_57 r38 1.0
    x38_57 c57 1.0
    x38_58 OBJ 4.0
    x38_58 r38 1.0
    x38_58 c58 1.0
    x38_59 OBJ 4.0
    x38_59 r38 1.0
    x38_59 c59 1.0
    x38_60 OBJ 2.0
    x38_60 r38 1.0
    x38_60 c60 1.0
    x38_61 OBJ 5.0
    x38_61 r38 1.0
    x38_61 c61 1.0
    x38_62 OBJ 3.0
    x38_62 r38 1.0
    x38_62 c62 1.0
    x38_63 OBJ 1.0
    x38_63 r38 1.0
    x38_63 c63 1.0
    x38_64 OBJ 3.0
    x38_64 r38 1.0
    x38_64 c64 1.0
    x38_65 OBJ 1.0
    x38_65 r38 1.0
    x38_65 c65 1.0
    x38_66 OBJ 3.0
    x38_66 r38 1.0
    x38_66 c66 1.0
    x38_67 OBJ 5.0
    x38_67 r38 1.0
    x38_67 c67 1.0
    x38_68 OBJ 3.0
    x38_68 r38 1.0
    x38_68 c68 1.0
    x38_69 OBJ 2.0
    x38_69 r38 1.0
    x38_69 c69 1.0
    x38_70 OBJ 1.0
    x38_70 r38 1.0
    x38_70 c70 1.0
    x38_71 OBJ 2.0
    x38_71 r38 1.0
    x38_71 c71 1.0
    x38_72 OBJ 1.0
    x38_72 r38 1.0
    x38_72 c72 1.0
    x38_73 OBJ 1.0
    x38_73 r38 1.0
    x38_73 c73 1.0
    x38_74 OBJ 4.0
    x38_74 r38 1.0
    x38_74 c74 1.0
    x38_75 OBJ 2.0
    x38_75 r38 1.0
    x38_75 c75 1.0
    x38_76 OBJ 3.0
    x38_76 r38 1.0
    x38_76 c76 1.0
    x38_77 OBJ 3.0
    x38_77 r38 1.0
    x38_77 c77 1.0
    x38_78 OBJ 2.0
    x38_78 r38 1.0
    x38_78 c78 1.0
    x38_79 OBJ 5.0
    x38_79 r38 1.0
    x38_79 c79 1.0
    x39_0 OBJ 2.0
    x39_0 r39 1.0
    x39_0 c0 1.0
    x39_1 OBJ 1.0
    x39_1 r39 1.0
    x39_1 c1 1.0
    x39_2 OBJ 3.0
    x39_2 r39 1.0
    x39_2 c2 1.0
    x39_3 OBJ 5.0
    x39_3 r39 1.0
    x39_3 c3 1.0
    x39_4 OBJ 3.0
    x39_4 r39 1.0
    x39_4 c4 1.0
    x39_5 OBJ 4.0
    x39_5 r39 1.0
    x39_5 c5 1.0
    x39_6 OBJ 2.0
    x39_6 r39 1.0
    x39_6 c6 1.0
    x39_7 OBJ 3.0
    x39_7 r39 1.0
    x39_7 c7 1.0
    x39_8 OBJ 3.0
    x39_8 r39 1.0
    x39_8 c8 1.0
    x39_9 OBJ 2.0
    x39_9 r39 1.0
    x39_9 c9 1.0
    x39_10 OBJ 3.0
    x39_10 r39 1.0
    x39_10 c10 1.0
    x39_11 OBJ 2.0
    x39_11 r39 1.0
    x39_11 c11 1.0
    x39_12 OBJ 5.0
    x39_12 r39 1.0
    x39_12 c12 1.0
    x39_13 OBJ 3.0
    x39_13 r39 1.0
    x39_13 c13 1.0
    x39_14 OBJ 3.0
    x39_14 r39 1.0
    x39_14 c14 1.0
    x39_15 OBJ 2.0
    x39_15 r39 1.0
    x39_15 c15 1.0
    x39_16 OBJ 1.0
    x39_16 r39 1.0
    x39_16 c16 1.0
    x39_17 OBJ 1.0
    x39_17 r39 1.0
    x39_17 c17 1.0
    x39_18 OBJ 1.0
    x39_18 r39 1.0
    x39_18 c18 1.0
    x39_19 OBJ 5.0
    x39_19 r39 1.0
    x39_19 c19 1.0
    x39_20 OBJ 4.0
    x39_20 r39 1.0
    x39_20 c20 1.0
    x39_21 OBJ 1.0
    x39_21 r39 1.0
    x39_21 c21 1.0
    x39_22 OBJ 2.0
    x39_22 r39 1.0
    x39_22 c22 1.0
    x39_23 OBJ 4.0
    x39_23 r39 1.0
    x39_23 c23 1.0
    x39_24 OBJ 4.0
    x39_24 r39 1.0
    x39_24 c24 1.0
    x39_25 OBJ 4.0
    x39_25 r39 1.0
    x39_25 c25 1.0
    x39_26 OBJ 2.0
    x39_26 r39 1.0
    x39_26 c26 1.0
    x39_27 OBJ 3.0
    x39_27 r39 1.0
    x39_27 c27 1.0
    x39_28 OBJ 5.0
    x39_28 r39 1.0
    x39_28 c28 1.0
    x39_29 OBJ 5.0
    x39_29 r39 1.0
    x39_29 c29 1.0
    x39_30 OBJ 1.0
    x39_30 r39 1.0
    x39_30 c30 1.0
    x39_31 OBJ 2.0
    x39_31 r39 1.0
    x39_31 c31 1.0
    x39_32 OBJ 2.0
    x39_32 r39 1.0
    x39_32 c32 1.0
    x39_33 OBJ 2.0
    x39_33 r39 1.0
    x39_33 c33 1.0
    x39_34 OBJ 2.0
    x39_34 r39 1.0
    x39_34 c34 1.0
    x39_35 OBJ 4.0
    x39_35 r39 1.0
    x39_35 c35 1.0
    x39_36 OBJ 4.0
    x39_36 r39 1.0
    x39_36 c36 1.0
    x39_37 OBJ 1.0
    x39_37 r39 1.0
    x39_37 c37 1.0
    x39_38 OBJ 1.0
    x39_38 r39 1.0
    x39_38 c38 1.0
    x39_39 OBJ 4.0
    x39_39 r39 1.0
    x39_39 c39 1.0
    x39_40 OBJ 4.0
    x39_40 r39 1.0
    x39_40 c40 1.0
    x39_41 OBJ 2.0
    x39_41 r39 1.0
    x39_41 c41 1.0
    x39_42 OBJ 2.0
    x39_42 r39 1.0
    x39_42 c42 1.0
    x39_43 OBJ 3.0
    x39_43 r39 1.0
    x39_43 c43 1.0
    x39_44 OBJ 1.0
    x39_44 r39 1.0
    x39_44 c44 1.0
    x39_45 OBJ 1.0
    x39_45 r39 1.0
    x39_45 c45 1.0
    x39_46 OBJ 5.0
    x39_46 r39 1.0
    x39_46 c46 1.0
    x39_47 OBJ 5.0
    x39_47 r39 1.0
    x39_47 c47 1.0
    x39_48 OBJ 4.0
    x39_48 r39 1.0
    x39_48 c48 1.0
    x39_49 OBJ 2.0
    x39_49 r39 1.0
    x39_49 c49 1.0
    x39_50 OBJ 3.0
    x39_50 r39 1.0
    x39_50 c50 1.0
    x39_51 OBJ 1.0
    x39_51 r39 1.0
    x39_51 c51 1.0
    x39_52 OBJ 1.0
    x39_52 r39 1.0
    x39_52 c52 1.0
    x39_53 OBJ 5.0
    x39_53 r39 1.0
    x39_53 c53 1.0
    x39_54 OBJ 4.0
    x39_54 r39 1.0
    x39_54 c54 1.0
    x39_55 OBJ 3.0
    x39_55 r39 1.0
    x39_55 c55 1.0
    x39_56 OBJ 1.0
    x39_56 r39 1.0
    x39_56 c56 1.0
    x39_57 OBJ 4.0
    x39_57 r39 1.0
    x39_57 c57 1.0
    x39_58 OBJ 1.0
    x39_58 r39 1.0
    x39_58 c58 1.0
    x39_59 OBJ 2.0
    x39_59 r39 1.0
    x39_59 c59 1.0
    x39_60 OBJ 2.0
    x39_60 r39 1.0
    x39_60 c60 1.0
    x39_61 OBJ 4.0
    x39_61 r39 1.0
    x39_61 c61 1.0
    x39_62 OBJ 3.0
    x39_62 r39 1.0
    x39_62 c62 1.0
    x39_63 OBJ 1.0
    x39_63 r39 1.0
    x39_63 c63 1.0
    x39_64 OBJ 4.0
    x39_64 r39 1.0
    x39_64 c64 1.0
    x39_65 OBJ 5.0
    x39_65 r39 1.0
    x39_65 c65 1.0
    x39_66 OBJ 3.0
    x39_66 r39 1.0
    x39_66 c66 1.0
    x39_67 OBJ 5.0
    x39_67 r39 1.0
    x39_67 c67 1.0
    x39_68 OBJ 2.0
    x39_68 r39 1.0
    x39_68 c68 1.0
    x39_69 OBJ 4.0
    x39_69 r39 1.0
    x39_69 c69 1.0
    x39_70 OBJ 1.0
    x39_70 r39 1.0
    x39_70 c70 1.0
    x39_71 OBJ 5.0
    x39_71 r39 1.0
    x39_71 c71 1.0
    x39_72 OBJ 3.0
    x39_72 r39 1.0
    x39_72 c72 1.0
    x39_73 OBJ 5.0
    x39_73 r39 1.0
    x39_73 c73 1.0
    x39_74 OBJ 4.0
    x39_74 r39 1.0
    x39_74 c74 1.0
    x39_75 OBJ 4.0
    x39_75 r39 1.0
    x39_75 c75 1.0
    x39_76 OBJ 5.0
    x39_76 r39 1.0
    x39_76 c76 1.0
    x39_77 OBJ 2.0
    x39_77 r39 1.0
    x39_77 c77 1.0
    x39_78 OBJ 4.0
    x39_78 r39 1.0
    x39_78 c78 1.0
    x39_79 OBJ 5.0
    x39_79 r39 1.0
    x39_79 c79 1.0
    x40_0 OBJ 5.0
    x40_0 r40 1.0
    x40_0 c0 1.0
    x40_1 OBJ 1.0
    x40_1 r40 1.0
    x40_1 c1 1.0
    x40_2 OBJ 1.0
    x40_2 r40 1.0
    x40_2 c2 1.0
    x40_3 OBJ 3.0
    x40_3 r40 1.0
    x40_3 c3 1.0
    x40_4 OBJ 5.0
    x40_4 r40 1.0
    x40_4 c4 1.0
    x40_5 OBJ 3.0
    x40_5 r40 1.0
    x40_5 c5 1.0
    x40_6 OBJ 5.0
    x40_6 r40 1.0
    x40_6 c6 1.0
    x40_7 OBJ 5.0
    x40_7 r40 1.0
    x40_7 c7 1.0
    x40_8 OBJ 4.0
    x40_8 r40 1.0
    x40_8 c8 1.0
    x40_9 OBJ 3.0
    x40_9 r40 1.0
    x40_9 c9 1.0
    x40_10 OBJ 4.0
    x40_10 r40 1.0
    x40_10 c10 1.0
    x40_11 OBJ 2.0
    x40_11 r40 1.0
    x40_11 c11 1.0
    x40_12 OBJ 3.0
    x40_12 r40 1.0
    x40_12 c12 1.0
    x40_13 OBJ 3.0
    x40_13 r40 1.0
    x40_13 c13 1.0
    x40_14 OBJ 5.0
    x40_14 r40 1.0
    x40_14 c14 1.0
    x40_15 OBJ 1.0
    x40_15 r40 1.0
    x40_15 c15 1.0
    x40_16 OBJ 2.0
    x40_16 r40 1.0
    x40_16 c16 1.0
    x40_17 OBJ 2.0
    x40_17 r40 1.0
    x40_17 c17 1.0
    x40_18 OBJ 4.0
    x40_18 r40 1.0
    x40_18 c18 1.0
    x40_19 OBJ 1.0
    x40_19 r40 1.0
    x40_19 c19 1.0
    x40_20 OBJ 2.0
    x40_20 r40 1.0
    x40_20 c20 1.0
    x40_21 OBJ 5.0
    x40_21 r40 1.0
    x40_21 c21 1.0
    x40_22 OBJ 3.0
    x40_22 r40 1.0
    x40_22 c22 1.0
    x40_23 OBJ 5.0
    x40_23 r40 1.0
    x40_23 c23 1.0
    x40_24 OBJ 5.0
    x40_24 r40 1.0
    x40_24 c24 1.0
    x40_25 OBJ 4.0
    x40_25 r40 1.0
    x40_25 c25 1.0
    x40_26 OBJ 3.0
    x40_26 r40 1.0
    x40_26 c26 1.0
    x40_27 OBJ 5.0
    x40_27 r40 1.0
    x40_27 c27 1.0
    x40_28 OBJ 2.0
    x40_28 r40 1.0
    x40_28 c28 1.0
    x40_29 OBJ 5.0
    x40_29 r40 1.0
    x40_29 c29 1.0
    x40_30 OBJ 4.0
    x40_30 r40 1.0
    x40_30 c30 1.0
    x40_31 OBJ 4.0
    x40_31 r40 1.0
    x40_31 c31 1.0
    x40_32 OBJ 3.0
    x40_32 r40 1.0
    x40_32 c32 1.0
    x40_33 OBJ 1.0
    x40_33 r40 1.0
    x40_33 c33 1.0
    x40_34 OBJ 2.0
    x40_34 r40 1.0
    x40_34 c34 1.0
    x40_35 OBJ 2.0
    x40_35 r40 1.0
    x40_35 c35 1.0
    x40_36 OBJ 2.0
    x40_36 r40 1.0
    x40_36 c36 1.0
    x40_37 OBJ 5.0
    x40_37 r40 1.0
    x40_37 c37 1.0
    x40_38 OBJ 1.0
    x40_38 r40 1.0
    x40_38 c38 1.0
    x40_39 OBJ 2.0
    x40_39 r40 1.0
    x40_39 c39 1.0
    x40_40 OBJ 3.0
    x40_40 r40 1.0
    x40_40 c40 1.0
    x40_41 OBJ 1.0
    x40_41 r40 1.0
    x40_41 c41 1.0
    x40_42 OBJ 2.0
    x40_42 r40 1.0
    x40_42 c42 1.0
    x40_43 OBJ 5.0
    x40_43 r40 1.0
    x40_43 c43 1.0
    x40_44 OBJ 3.0
    x40_44 r40 1.0
    x40_44 c44 1.0
    x40_45 OBJ 4.0
    x40_45 r40 1.0
    x40_45 c45 1.0
    x40_46 OBJ 2.0
    x40_46 r40 1.0
    x40_46 c46 1.0
    x40_47 OBJ 5.0
    x40_47 r40 1.0
    x40_47 c47 1.0
    x40_48 OBJ 4.0
    x40_48 r40 1.0
    x40_48 c48 1.0
    x40_49 OBJ 2.0
    x40_49 r40 1.0
    x40_49 c49 1.0
    x40_50 OBJ 5.0
    x40_50 r40 1.0
    x40_50 c50 1.0
    x40_51 OBJ 5.0
    x40_51 r40 1.0
    x40_51 c51 1.0
    x40_52 OBJ 1.0
    x40_52 r40 1.0
    x40_52 c52 1.0
    x40_53 OBJ 5.0
    x40_53 r40 1.0
    x40_53 c53 1.0
    x40_54 OBJ 5.0
    x40_54 r40 1.0
    x40_54 c54 1.0
    x40_55 OBJ 5.0
    x40_55 r40 1.0
    x40_55 c55 1.0
    x40_56 OBJ 1.0
    x40_56 r40 1.0
    x40_56 c56 1.0
    x40_57 OBJ 4.0
    x40_57 r40 1.0
    x40_57 c57 1.0
    x40_58 OBJ 1.0
    x40_58 r40 1.0
    x40_58 c58 1.0
    x40_59 OBJ 4.0
    x40_59 r40 1.0
    x40_59 c59 1.0
    x40_60 OBJ 2.0
    x40_60 r40 1.0
    x40_60 c60 1.0
    x40_61 OBJ 5.0
    x40_61 r40 1.0
    x40_61 c61 1.0
    x40_62 OBJ 5.0
    x40_62 r40 1.0
    x40_62 c62 1.0
    x40_63 OBJ 5.0
    x40_63 r40 1.0
    x40_63 c63 1.0
    x40_64 OBJ 1.0
    x40_64 r40 1.0
    x40_64 c64 1.0
    x40_65 OBJ 5.0
    x40_65 r40 1.0
    x40_65 c65 1.0
    x40_66 OBJ 1.0
    x40_66 r40 1.0
    x40_66 c66 1.0
    x40_67 OBJ 4.0
    x40_67 r40 1.0
    x40_67 c67 1.0
    x40_68 OBJ 4.0
    x40_68 r40 1.0
    x40_68 c68 1.0
    x40_69 OBJ 5.0
    x40_69 r40 1.0
    x40_69 c69 1.0
    x40_70 OBJ 2.0
    x40_70 r40 1.0
    x40_70 c70 1.0
    x40_71 OBJ 2.0
    x40_71 r40 1.0
    x40_71 c71 1.0
    x40_72 OBJ 5.0
    x40_72 r40 1.0
    x40_72 c72 1.0
    x40_73 OBJ 4.0
    x40_73 r40 1.0
    x40_73 c73 1.0
    x40_74 OBJ 1.0
    x40_74 r40 1.0
    x40_74 c74 1.0
    x40_75 OBJ 2.0
    x40_75 r40 1.0
    x40_75 c75 1.0
    x40_76 OBJ 3.0
    x40_76 r40 1.0
    x40_76 c76 1.0
    x40_77 OBJ 5.0
    x40_77 r40 1.0
    x40_77 c77 1.0
    x40_78 OBJ 1.0
    x40_78 r40 1.0
    x40_78 c78 1.0
    x40_79 OBJ 4.0
    x40_79 r40 1.0
    x40_79 c79 1.0
    x41_0 OBJ 2.0
    x41_0 r41 1.0
    x41_0 c0 1.0
    x41_1 OBJ 1.0
    x41_1 r41 1.0
    x41_1 c1 1.0
    x41_2 OBJ 3.0
    x41_2 r41 1.0
    x41_2 c2 1.0
    x41_3 OBJ 1.0
    x41_3 r41 1.0
    x41_3 c3 1.0
    x41_4 OBJ 1.0
    x41_4 r41 1.0
    x41_4 c4 1.0
    x41_5 OBJ 5.0
    x41_5 r41 1.0
    x41_5 c5 1.0
    x41_6 OBJ 2.0
    x41_6 r41 1.0
    x41_6 c6 1.0
    x41_7 OBJ 4.0
    x41_7 r41 1.0
    x41_7 c7 1.0
    x41_8 OBJ 3.0
    x41_8 r41 1.0
    x41_8 c8 1.0
    x41_9 OBJ 1.0
    x41_9 r41 1.0
    x41_9 c9 1.0
    x41_10 OBJ 2.0
    x41_10 r41 1.0
    x41_10 c10 1.0
    x41_11 OBJ 4.0
    x41_11 r41 1.0
    x41_11 c11 1.0
    x41_12 OBJ 1.0
    x41_12 r41 1.0
    x41_12 c12 1.0
    x41_13 OBJ 5.0
    x41_13 r41 1.0
    x41_13 c13 1.0
    x41_14 OBJ 2.0
    x41_14 r41 1.0
    x41_14 c14 1.0
    x41_15 OBJ 5.0
    x41_15 r41 1.0
    x41_15 c15 1.0
    x41_16 OBJ 1.0
    x41_16 r41 1.0
    x41_16 c16 1.0
    x41_17 OBJ 3.0
    x41_17 r41 1.0
    x41_17 c17 1.0
    x41_18 OBJ 2.0
    x41_18 r41 1.0
    x41_18 c18 1.0
    x41_19 OBJ 3.0
    x41_19 r41 1.0
    x41_19 c19 1.0
    x41_20 OBJ 3.0
    x41_20 r41 1.0
    x41_20 c20 1.0
    x41_21 OBJ 1.0
    x41_21 r41 1.0
    x41_21 c21 1.0
    x41_22 OBJ 3.0
    x41_22 r41 1.0
    x41_22 c22 1.0
    x41_23 OBJ 1.0
    x41_23 r41 1.0
    x41_23 c23 1.0
    x41_24 OBJ 2.0
    x41_24 r41 1.0
    x41_24 c24 1.0
    x41_25 OBJ 3.0
    x41_25 r41 1.0
    x41_25 c25 1.0
    x41_26 OBJ 5.0
    x41_26 r41 1.0
    x41_26 c26 1.0
    x41_27 OBJ 5.0
    x41_27 r41 1.0
    x41_27 c27 1.0
    x41_28 OBJ 3.0
    x41_28 r41 1.0
    x41_28 c28 1.0
    x41_29 OBJ 4.0
    x41_29 r41 1.0
    x41_29 c29 1.0
    x41_30 OBJ 1.0
    x41_30 r41 1.0
    x41_30 c30 1.0
    x41_31 OBJ 5.0
    x41_31 r41 1.0
    x41_31 c31 1.0
    x41_32 OBJ 3.0
    x41_32 r41 1.0
    x41_32 c32 1.0
    x41_33 OBJ 1.0
    x41_33 r41 1.0
    x41_33 c33 1.0
    x41_34 OBJ 3.0
    x41_34 r41 1.0
    x41_34 c34 1.0
    x41_35 OBJ 5.0
    x41_35 r41 1.0
    x41_35 c35 1.0
    x41_36 OBJ 3.0
    x41_36 r41 1.0
    x41_36 c36 1.0
    x41_37 OBJ 5.0
    x41_37 r41 1.0
    x41_37 c37 1.0
    x41_38 OBJ 1.0
    x41_38 r41 1.0
    x41_38 c38 1.0
    x41_39 OBJ 1.0
    x41_39 r41 1.0
    x41_39 c39 1.0
    x41_40 OBJ 2.0
    x41_40 r41 1.0
    x41_40 c40 1.0
    x41_41 OBJ 3.0
    x41_41 r41 1.0
    x41_41 c41 1.0
    x41_42 OBJ 3.0
    x41_42 r41 1.0
    x41_42 c42 1.0
    x41_43 OBJ 2.0
    x41_43 r41 1.0
    x41_43 c43 1.0
    x41_44 OBJ 4.0
    x41_44 r41 1.0
    x41_44 c44 1.0
    x41_45 OBJ 1.0
    x41_45 r41 1.0
    x41_45 c45 1.0
    x41_46 OBJ 5.0
    x41_46 r41 1.0
    x41_46 c46 1.0
    x41_47 OBJ 4.0
    x41_47 r41 1.0
    x41_47 c47 1.0
    x41_48 OBJ 1.0
    x41_48 r41 1.0
    x41_48 c48 1.0
    x41_49 OBJ 1.0
    x41_49 r41 1.0
    x41_49 c49 1.0
    x41_50 OBJ 4.0
    x41_50 r41 1.0
    x41_50 c50 1.0
    x41_51 OBJ 1.0
    x41_51 r41 1.0
    x41_51 c51 1.0
    x41_52 OBJ 1.0
    x41_52 r41 1.0
    x41_52 c52 1.0
    x41_53 OBJ 3.0
    x41_53 r41 1.0
    x41_53 c53 1.0
    x41_54 OBJ 2.0
    x41_54 r41 1.0
    x41_54 c54 1.0
    x41_55 OBJ 2.0
    x41_55 r41 1.0
    x41_55 c55 1.0
    x41_56 OBJ 5.0
    x41_56 r41 1.0
    x41_56 c56 1.0
    x41_57 OBJ 3.0
    x41_57 r41 1.0
    x41_57 c57 1.0
    x41_58 OBJ 4.0
    x41_58 r41 1.0
    x41_58 c58 1.0
    x41_59 OBJ 2.0
    x41_59 r41 1.0
    x41_59 c59 1.0
    x41_60 OBJ 5.0
    x41_60 r41 1.0
    x41_60 c60 1.0
    x41_61 OBJ 3.0
    x41_61 r41 1.0
    x41_61 c61 1.0
    x41_62 OBJ 5.0
    x41_62 r41 1.0
    x41_62 c62 1.0
    x41_63 OBJ 3.0
    x41_63 r41 1.0
    x41_63 c63 1.0
    x41_64 OBJ 4.0
    x41_64 r41 1.0
    x41_64 c64 1.0
    x41_65 OBJ 1.0
    x41_65 r41 1.0
    x41_65 c65 1.0
    x41_66 OBJ 1.0
    x41_66 r41 1.0
    x41_66 c66 1.0
    x41_67 OBJ 3.0
    x41_67 r41 1.0
    x41_67 c67 1.0
    x41_68 OBJ 2.0
    x41_68 r41 1.0
    x41_68 c68 1.0
    x41_69 OBJ 4.0
    x41_69 r41 1.0
    x41_69 c69 1.0
    x41_70 OBJ 5.0
    x41_70 r41 1.0
    x41_70 c70 1.0
    x41_71 OBJ 4.0
    x41_71 r41 1.0
    x41_71 c71 1.0
    x41_72 OBJ 1.0
    x41_72 r41 1.0
    x41_72 c72 1.0
    x41_73 OBJ 1.0
    x41_73 r41 1.0
    x41_73 c73 1.0
    x41_74 OBJ 1.0
    x41_74 r41 1.0
    x41_74 c74 1.0
    x41_75 OBJ 2.0
    x41_75 r41 1.0
    x41_75 c75 1.0
    x41_76 OBJ 5.0
    x41_76 r41 1.0
    x41_76 c76 1.0
    x41_77 OBJ 5.0
    x41_77 r41 1.0
    x41_77 c77 1.0
    x41_78 OBJ 4.0
    x41_78 r41 1.0
    x41_78 c78 1.0
    x41_79 OBJ 4.0
    x41_79 r41 1.0
    x41_79 c79 1.0
    x42_0 OBJ 2.0
    x42_0 r42 1.0
    x42_0 c0 1.0
    x42_1 OBJ 4.0
    x42_1 r42 1.0
    x42_1 c1 1.0
    x42_2 OBJ 4.0
    x42_2 r42 1.0
    x42_2 c2 1.0
    x42_3 OBJ 2.0
    x42_3 r42 1.0
    x42_3 c3 1.0
    x42_4 OBJ 5.0
    x42_4 r42 1.0
    x42_4 c4 1.0
    x42_5 OBJ 5.0
    x42_5 r42 1.0
    x42_5 c5 1.0
    x42_6 OBJ 1.0
    x42_6 r42 1.0
    x42_6 c6 1.0
    x42_7 OBJ 3.0
    x42_7 r42 1.0
    x42_7 c7 1.0
    x42_8 OBJ 3.0
    x42_8 r42 1.0
    x42_8 c8 1.0
    x42_9 OBJ 5.0
    x42_9 r42 1.0
    x42_9 c9 1.0
    x42_10 OBJ 2.0
    x42_10 r42 1.0
    x42_10 c10 1.0
    x42_11 OBJ 3.0
    x42_11 r42 1.0
    x42_11 c11 1.0
    x42_12 OBJ 2.0
    x42_12 r42 1.0
    x42_12 c12 1.0
    x42_13 OBJ 5.0
    x42_13 r42 1.0
    x42_13 c13 1.0
    x42_14 OBJ 5.0
    x42_14 r42 1.0
    x42_14 c14 1.0
    x42_15 OBJ 1.0
    x42_15 r42 1.0
    x42_15 c15 1.0
    x42_16 OBJ 2.0
    x42_16 r42 1.0
    x42_16 c16 1.0
    x42_17 OBJ 2.0
    x42_17 r42 1.0
    x42_17 c17 1.0
    x42_18 OBJ 3.0
    x42_18 r42 1.0
    x42_18 c18 1.0
    x42_19 OBJ 4.0
    x42_19 r42 1.0
    x42_19 c19 1.0
    x42_20 OBJ 3.0
    x42_20 r42 1.0
    x42_20 c20 1.0
    x42_21 OBJ 5.0
    x42_21 r42 1.0
    x42_21 c21 1.0
    x42_22 OBJ 4.0
    x42_22 r42 1.0
    x42_22 c22 1.0
    x42_23 OBJ 4.0
    x42_23 r42 1.0
    x42_23 c23 1.0
    x42_24 OBJ 3.0
    x42_24 r42 1.0
    x42_24 c24 1.0
    x42_25 OBJ 3.0
    x42_25 r42 1.0
    x42_25 c25 1.0
    x42_26 OBJ 1.0
    x42_26 r42 1.0
    x42_26 c26 1.0
    x42_27 OBJ 3.0
    x42_27 r42 1.0
    x42_27 c27 1.0
    x42_28 OBJ 5.0
    x42_28 r42 1.0
    x42_28 c28 1.0
    x42_29 OBJ 4.0
    x42_29 r42 1.0
    x42_29 c29 1.0
    x42_30 OBJ 3.0
    x42_30 r42 1.0
    x42_30 c30 1.0
    x42_31 OBJ 2.0
    x42_31 r42 1.0
    x42_31 c31 1.0
    x42_32 OBJ 1.0
    x42_32 r42 1.0
    x42_32 c32 1.0
    x42_33 OBJ 2.0
    x42_33 r42 1.0
    x42_33 c33 1.0
    x42_34 OBJ 4.0
    x42_34 r42 1.0
    x42_34 c34 1.0
    x42_35 OBJ 5.0
    x42_35 r42 1.0
    x42_35 c35 1.0
    x42_36 OBJ 1.0
    x42_36 r42 1.0
    x42_36 c36 1.0
    x42_37 OBJ 2.0
    x42_37 r42 1.0
    x42_37 c37 1.0
    x42_38 OBJ 2.0
    x42_38 r42 1.0
    x42_38 c38 1.0
    x42_39 OBJ 3.0
    x42_39 r42 1.0
    x42_39 c39 1.0
    x42_40 OBJ 4.0
    x42_40 r42 1.0
    x42_40 c40 1.0
    x42_41 OBJ 3.0
    x42_41 r42 1.0
    x42_41 c41 1.0
    x42_42 OBJ 1.0
    x42_42 r42 1.0
    x42_42 c42 1.0
    x42_43 OBJ 5.0
    x42_43 r42 1.0
    x42_43 c43 1.0
    x42_44 OBJ 3.0
    x42_44 r42 1.0
    x42_44 c44 1.0
    x42_45 OBJ 3.0
    x42_45 r42 1.0
    x42_45 c45 1.0
    x42_46 OBJ 5.0
    x42_46 r42 1.0
    x42_46 c46 1.0
    x42_47 OBJ 5.0
    x42_47 r42 1.0
    x42_47 c47 1.0
    x42_48 OBJ 5.0
    x42_48 r42 1.0
    x42_48 c48 1.0
    x42_49 OBJ 5.0
    x42_49 r42 1.0
    x42_49 c49 1.0
    x42_50 OBJ 2.0
    x42_50 r42 1.0
    x42_50 c50 1.0
    x42_51 OBJ 1.0
    x42_51 r42 1.0
    x42_51 c51 1.0
    x42_52 OBJ 5.0
    x42_52 r42 1.0
    x42_52 c52 1.0
    x42_53 OBJ 1.0
    x42_53 r42 1.0
    x42_53 c53 1.0
    x42_54 OBJ 2.0
    x42_54 r42 1.0
    x42_54 c54 1.0
    x42_55 OBJ 4.0
    x42_55 r42 1.0
    x42_55 c55 1.0
    x42_56 OBJ 5.0
    x42_56 r42 1.0
    x42_56 c56 1.0
    x42_57 OBJ 1.0
    x42_57 r42 1.0
    x42_57 c57 1.0
    x42_58 OBJ 3.0
    x42_58 r42 1.0
    x42_58 c58 1.0
    x42_59 OBJ 3.0
    x42_59 r42 1.0
    x42_59 c59 1.0
    x42_60 OBJ 2.0
    x42_60 r42 1.0
    x42_60 c60 1.0
    x42_61 OBJ 2.0
    x42_61 r42 1.0
    x42_61 c61 1.0
    x42_62 OBJ 1.0
    x42_62 r42 1.0
    x42_62 c62 1.0
    x42_63 OBJ 3.0
    x42_63 r42 1.0
    x42_63 c63 1.0
    x42_64 OBJ 3.0
    x42_64 r42 1.0
    x42_64 c64 1.0
    x42_65 OBJ 3.0
    x42_65 r42 1.0
    x42_65 c65 1.0
    x42_66 OBJ 5.0
    x42_66 r42 1.0
    x42_66 c66 1.0
    x42_67 OBJ 2.0
    x42_67 r42 1.0
    x42_67 c67 1.0
    x42_68 OBJ 3.0
    x42_68 r42 1.0
    x42_68 c68 1.0
    x42_69 OBJ 5.0
    x42_69 r42 1.0
    x42_69 c69 1.0
    x42_70 OBJ 4.0
    x42_70 r42 1.0
    x42_70 c70 1.0
    x42_71 OBJ 3.0
    x42_71 r42 1.0
    x42_71 c71 1.0
    x42_72 OBJ 1.0
    x42_72 r42 1.0
    x42_72 c72 1.0
    x42_73 OBJ 3.0
    x42_73 r42 1.0
    x42_73 c73 1.0
    x42_74 OBJ 3.0
    x42_74 r42 1.0
    x42_74 c74 1.0
    x42_75 OBJ 4.0
    x42_75 r42 1.0
    x42_75 c75 1.0
    x42_76 OBJ 5.0
    x42_76 r42 1.0
    x42_76 c76 1.0
    x42_77 OBJ 3.0
    x42_77 r42 1.0
    x42_77 c77 1.0
    x42_78 OBJ 2.0
    x42_78 r42 1.0
    x42_78 c78 1.0
    x42_79 OBJ 2.0
    x42_79 r42 1.0
    x42_79 c79 1.0
    x43_0 OBJ 3.0
    x43_0 r43 1.0
    x43_0 c0 1.0
    x43_1 OBJ 2.0
    x43_1 r43 1.0
    x43_1 c1 1.0
    x43_2 OBJ 2.0
    x43_2 r43 1.0
    x43_2 c2 1.0
    x43_3 OBJ 2.0
    x43_3 r43 1.0
    x43_3 c3 1.0
    x43_4 OBJ 1.0
    x43_4 r43 1.0
    x43_4 c4 1.0
    x43_5 OBJ 4.0
    x43_5 r43 1.0
    x43_5 c5 1.0
    x43_6 OBJ 4.0
    x43_6 r43 1.0
    x43_6 c6 1.0
    x43_7 OBJ 4.0
    x43_7 r43 1.0
    x43_7 c7 1.0
    x43_8 OBJ 4.0
    x43_8 r43 1.0
    x43_8 c8 1.0
    x43_9 OBJ 5.0
    x43_9 r43 1.0
    x43_9 c9 1.0
    x43_10 OBJ 3.0
    x43_10 r43 1.0
    x43_10 c10 1.0
    x43_11 OBJ 2.0
    x43_11 r43 1.0
    x43_11 c11 1.0
    x43_12 OBJ 5.0
    x43_12 r43 1.0
    x43_12 c12 1.0
    x43_13 OBJ 1.0
    x43_13 r43 1.0
    x43_13 c13 1.0
    x43_14 OBJ 2.0
    x43_14 r43 1.0
    x43_14 c14 1.0
    x43_15 OBJ 3.0
    x43_15 r43 1.0
    x43_15 c15 1.0
    x43_16 OBJ 3.0
    x43_16 r43 1.0
    x43_16 c16 1.0
    x43_17 OBJ 3.0
    x43_17 r43 1.0
    x43_17 c17 1.0
    x43_18 OBJ 5.0
    x43_18 r43 1.0
    x43_18 c18 1.0
    x43_19 OBJ 5.0
    x43_19 r43 1.0
    x43_19 c19 1.0
    x43_20 OBJ 3.0
    x43_20 r43 1.0
    x43_20 c20 1.0
    x43_21 OBJ 1.0
    x43_21 r43 1.0
    x43_21 c21 1.0
    x43_22 OBJ 2.0
    x43_22 r43 1.0
    x43_22 c22 1.0
    x43_23 OBJ 5.0
    x43_23 r43 1.0
    x43_23 c23 1.0
    x43_24 OBJ 1.0
    x43_24 r43 1.0
    x43_24 c24 1.0
    x43_25 OBJ 5.0
    x43_25 r43 1.0
    x43_25 c25 1.0
    x43_26 OBJ 2.0
    x43_26 r43 1.0
    x43_26 c26 1.0
    x43_27 OBJ 3.0
    x43_27 r43 1.0
    x43_27 c27 1.0
    x43_28 OBJ 5.0
    x43_28 r43 1.0
    x43_28 c28 1.0
    x43_29 OBJ 3.0
    x43_29 r43 1.0
    x43_29 c29 1.0
    x43_30 OBJ 4.0
    x43_30 r43 1.0
    x43_30 c30 1.0
    x43_31 OBJ 3.0
    x43_31 r43 1.0
    x43_31 c31 1.0
    x43_32 OBJ 4.0
    x43_32 r43 1.0
    x43_32 c32 1.0
    x43_33 OBJ 1.0
    x43_33 r43 1.0
    x43_33 c33 1.0
    x43_34 OBJ 4.0
    x43_34 r43 1.0
    x43_34 c34 1.0
    x43_35 OBJ 3.0
    x43_35 r43 1.0
    x43_35 c35 1.0
    x43_36 OBJ 2.0
    x43_36 r43 1.0
    x43_36 c36 1.0
    x43_37 OBJ 3.0
    x43_37 r43 1.0
    x43_37 c37 1.0
    x43_38 OBJ 3.0
    x43_38 r43 1.0
    x43_38 c38 1.0
    x43_39 OBJ 5.0
    x43_39 r43 1.0
    x43_39 c39 1.0
    x43_40 OBJ 1.0
    x43_40 r43 1.0
    x43_40 c40 1.0
    x43_41 OBJ 2.0
    x43_41 r43 1.0
    x43_41 c41 1.0
    x43_42 OBJ 3.0
    x43_42 r43 1.0
    x43_42 c42 1.0
    x43_43 OBJ 2.0
    x43_43 r43 1.0
    x43_43 c43 1.0
    x43_44 OBJ 1.0
    x43_44 r43 1.0
    x43_44 c44 1.0
    x43_45 OBJ 2.0
    x43_45 r43 1.0
    x43_45 c45 1.0
    x43_46 OBJ 1.0
    x43_46 r43 1.0
    x43_46 c46 1.0
    x43_47 OBJ 4.0
    x43_47 r43 1.0
    x43_47 c47 1.0
    x43_48 OBJ 4.0
    x43_48 r43 1.0
    x43_48 c48 1.0
    x43_49 OBJ 2.0
    x43_49 r43 1.0
    x43_49 c49 1.0
    x43_50 OBJ 5.0
    x43_50 r43 1.0
    x43_50 c50 1.0
    x43_51 OBJ 3.0
    x43_51 r43 1.0
    x43_51 c51 1.0
    x43_52 OBJ 5.0
    x43_52 r43 1.0
    x43_52 c52 1.0
    x43_53 OBJ 1.0
    x43_53 r43 1.0
    x43_53 c53 1.0
    x43_54 OBJ 2.0
    x43_54 r43 1.0
    x43_54 c54 1.0
    x43_55 OBJ 2.0
    x43_55 r43 1.0
    x43_55 c55 1.0
    x43_56 OBJ 1.0
    x43_56 r43 1.0
    x43_56 c56 1.0
    x43_57 OBJ 2.0
    x43_57 r43 1.0
    x43_57 c57 1.0
    x43_58 OBJ 5.0
    x43_58 r43 1.0
    x43_58 c58 1.0
    x43_59 OBJ 1.0
    x43_59 r43 1.0
    x43_59 c59 1.0
    x43_60 OBJ 1.0
    x43_60 r43 1.0
    x43_60 c60 1.0
    x43_61 OBJ 1.0
    x43_61 r43 1.0
    x43_61 c61 1.0
    x43_62 OBJ 5.0
    x43_62 r43 1.0
    x43_62 c62 1.0
    x43_63 OBJ 3.0
    x43_63 r43 1.0
    x43_63 c63 1.0
    x43_64 OBJ 2.0
    x43_64 r43 1.0
    x43_64 c64 1.0
    x43_65 OBJ 1.0
    x43_65 r43 1.0
    x43_65 c65 1.0
    x43_66 OBJ 2.0
    x43_66 r43 1.0
    x43_66 c66 1.0
    x43_67 OBJ 3.0
    x43_67 r43 1.0
    x43_67 c67 1.0
    x43_68 OBJ 5.0
    x43_68 r43 1.0
    x43_68 c68 1.0
    x43_69 OBJ 1.0
    x43_69 r43 1.0
    x43_69 c69 1.0
    x43_70 OBJ 3.0
    x43_70 r43 1.0
    x43_70 c70 1.0
    x43_71 OBJ 1.0
    x43_71 r43 1.0
    x43_71 c71 1.0
    x43_72 OBJ 2.0
    x43_72 r43 1.0
    x43_72 c72 1.0
    x43_73 OBJ 3.0
    x43_73 r43 1.0
    x43_73 c73 1.0
    x43_74 OBJ 3.0
    x43_74 r43 1.0
    x43_74 c74 1.0
    x43_75 OBJ 1.0
    x43_75 r43 1.0
    x43_75 c75 1.0
    x43_76 OBJ 4.0
    x43_76 r43 1.0
    x43_76 c76 1.0
    x43_77 OBJ 4.0
    x43_77 r43 1.0
    x43_77 c77 1.0
    x43_78 OBJ 5.0
    x43_78 r43 1.0
    x43_78 c78 1.0
    x43_79 OBJ 3.0
    x43_79 r43 1.0
    x43_79 c79 1.0
    x44_0 OBJ 2.0
    x44_0 r44 1.0
    x44_0 c0 1.0
    x44_1 OBJ 1.0
    x44_1 r44 1.0
    x44_1 c1 1.0
    x44_2 OBJ 4.0
    x44_2 r44 1.0
    x44_2 c2 1.0
    x44_3 OBJ 1.0
    x44_3 r44 1.0
    x44_3 c3 1.0
    x44_4 OBJ 1.0
    x44_4 r44 1.0
    x44_4 c4 1.0
    x44_5 OBJ 5.0
    x44_5 r44 1.0
    x44_5 c5 1.0
    x44_6 OBJ 3.0
    x44_6 r44 1.0
    x44_6 c6 1.0
    x44_7 OBJ 4.0
    x44_7 r44 1.0
    x44_7 c7 1.0
    x44_8 OBJ 5.0
    x44_8 r44 1.0
    x44_8 c8 1.0
    x44_9 OBJ 4.0
    x44_9 r44 1.0
    x44_9 c9 1.0
    x44_10 OBJ 3.0
    x44_10 r44 1.0
    x44_10 c10 1.0
    x44_11 OBJ 4.0
    x44_11 r44 1.0
    x44_11 c11 1.0
    x44_12 OBJ 1.0
    x44_12 r44 1.0
    x44_12 c12 1.0
    x44_13 OBJ 1.0
    x44_13 r44 1.0
    x44_13 c13 1.0
    x44_14 OBJ 3.0
    x44_14 r44 1.0
    x44_14 c14 1.0
    x44_15 OBJ 5.0
    x44_15 r44 1.0
    x44_15 c15 1.0
    x44_16 OBJ 3.0
    x44_16 r44 1.0
    x44_16 c16 1.0
    x44_17 OBJ 1.0
    x44_17 r44 1.0
    x44_17 c17 1.0
    x44_18 OBJ 4.0
    x44_18 r44 1.0
    x44_18 c18 1.0
    x44_19 OBJ 5.0
    x44_19 r44 1.0
    x44_19 c19 1.0
    x44_20 OBJ 3.0
    x44_20 r44 1.0
    x44_20 c20 1.0
    x44_21 OBJ 2.0
    x44_21 r44 1.0
    x44_21 c21 1.0
    x44_22 OBJ 1.0
    x44_22 r44 1.0
    x44_22 c22 1.0
    x44_23 OBJ 1.0
    x44_23 r44 1.0
    x44_23 c23 1.0
    x44_24 OBJ 2.0
    x44_24 r44 1.0
    x44_24 c24 1.0
    x44_25 OBJ 2.0
    x44_25 r44 1.0
    x44_25 c25 1.0
    x44_26 OBJ 2.0
    x44_26 r44 1.0
    x44_26 c26 1.0
    x44_27 OBJ 5.0
    x44_27 r44 1.0
    x44_27 c27 1.0
    x44_28 OBJ 1.0
    x44_28 r44 1.0
    x44_28 c28 1.0
    x44_29 OBJ 3.0
    x44_29 r44 1.0
    x44_29 c29 1.0
    x44_30 OBJ 3.0
    x44_30 r44 1.0
    x44_30 c30 1.0
    x44_31 OBJ 4.0
    x44_31 r44 1.0
    x44_31 c31 1.0
    x44_32 OBJ 3.0
    x44_32 r44 1.0
    x44_32 c32 1.0
    x44_33 OBJ 5.0
    x44_33 r44 1.0
    x44_33 c33 1.0
    x44_34 OBJ 5.0
    x44_34 r44 1.0
    x44_34 c34 1.0
    x44_35 OBJ 5.0
    x44_35 r44 1.0
    x44_35 c35 1.0
    x44_36 OBJ 2.0
    x44_36 r44 1.0
    x44_36 c36 1.0
    x44_37 OBJ 5.0
    x44_37 r44 1.0
    x44_37 c37 1.0
    x44_38 OBJ 5.0
    x44_38 r44 1.0
    x44_38 c38 1.0
    x44_39 OBJ 3.0
    x44_39 r44 1.0
    x44_39 c39 1.0
    x44_40 OBJ 2.0
    x44_40 r44 1.0
    x44_40 c40 1.0
    x44_41 OBJ 5.0
    x44_41 r44 1.0
    x44_41 c41 1.0
    x44_42 OBJ 3.0
    x44_42 r44 1.0
    x44_42 c42 1.0
    x44_43 OBJ 4.0
    x44_43 r44 1.0
    x44_43 c43 1.0
    x44_44 OBJ 1.0
    x44_44 r44 1.0
    x44_44 c44 1.0
    x44_45 OBJ 3.0
    x44_45 r44 1.0
    x44_45 c45 1.0
    x44_46 OBJ 5.0
    x44_46 r44 1.0
    x44_46 c46 1.0
    x44_47 OBJ 4.0
    x44_47 r44 1.0
    x44_47 c47 1.0
    x44_48 OBJ 5.0
    x44_48 r44 1.0
    x44_48 c48 1.0
    x44_49 OBJ 3.0
    x44_49 r44 1.0
    x44_49 c49 1.0
    x44_50 OBJ 3.0
    x44_50 r44 1.0
    x44_50 c50 1.0
    x44_51 OBJ 5.0
    x44_51 r44 1.0
    x44_51 c51 1.0
    x44_52 OBJ 5.0
    x44_52 r44 1.0
    x44_52 c52 1.0
    x44_53 OBJ 3.0
    x44_53 r44 1.0
    x44_53 c53 1.0
    x44_54 OBJ 2.0
    x44_54 r44 1.0
    x44_54 c54 1.0
    x44_55 OBJ 3.0
    x44_55 r44 1.0
    x44_55 c55 1.0
    x44_56 OBJ 1.0
    x44_56 r44 1.0
    x44_56 c56 1.0
    x44_57 OBJ 5.0
    x44_57 r44 1.0
    x44_57 c57 1.0
    x44_58 OBJ 4.0
    x44_58 r44 1.0
    x44_58 c58 1.0
    x44_59 OBJ 1.0
    x44_59 r44 1.0
    x44_59 c59 1.0
    x44_60 OBJ 3.0
    x44_60 r44 1.0
    x44_60 c60 1.0
    x44_61 OBJ 2.0
    x44_61 r44 1.0
    x44_61 c61 1.0
    x44_62 OBJ 2.0
    x44_62 r44 1.0
    x44_62 c62 1.0
    x44_63 OBJ 4.0
    x44_63 r44 1.0
    x44_63 c63 1.0
    x44_64 OBJ 1.0
    x44_64 r44 1.0
    x44_64 c64 1.0
    x44_65 OBJ 1.0
    x44_65 r44 1.0
    x44_65 c65 1.0
    x44_66 OBJ 5.0
    x44_66 r44 1.0
    x44_66 c66 1.0
    x44_67 OBJ 2.0
    x44_67 r44 1.0
    x44_67 c67 1.0
    x44_68 OBJ 1.0
    x44_68 r44 1.0
    x44_68 c68 1.0
    x44_69 OBJ 1.0
    x44_69 r44 1.0
    x44_69 c69 1.0
    x44_70 OBJ 5.0
    x44_70 r44 1.0
    x44_70 c70 1.0
    x44_71 OBJ 5.0
    x44_71 r44 1.0
    x44_71 c71 1.0
    x44_72 OBJ 2.0
    x44_72 r44 1.0
    x44_72 c72 1.0
    x44_73 OBJ 5.0
    x44_73 r44 1.0
    x44_73 c73 1.0
    x44_74 OBJ 2.0
    x44_74 r44 1.0
    x44_74 c74 1.0
    x44_75 OBJ 3.0
    x44_75 r44 1.0
    x44_75 c75 1.0
    x44_76 OBJ 5.0
    x44_76 r44 1.0
    x44_76 c76 1.0
    x44_77 OBJ 3.0
    x44_77 r44 1.0
    x44_77 c77 1.0
    x44_78 OBJ 2.0
    x44_78 r44 1.0
    x44_78 c78 1.0
    x44_79 OBJ 2.0
    x44_79 r44 1.0
    x44_79 c79 1.0
    x45_0 OBJ 2.0
    x45_0 r45 1.0
    x45_0 c0 1.0
    x45_1 OBJ 5.0
    x45_1 r45 1.0
    x45_1 c1 1.0
    x45_2 OBJ 1.0
    x45_2 r45 1.0
    x45_2 c2 1.0
    x45_3 OBJ 3.0
    x45_3 r45 1.0
    x45_3 c3 1.0
    x45_4 OBJ 2.0
    x45_4 r45 1.0
    x45_4 c4 1.0
    x45_5 OBJ 4.0
    x45_5 r45 1.0
    x45_5 c5 1.0
    x45_6 OBJ 4.0
    x45_6 r45 1.0
    x45_6 c6 1.0
    x45_7 OBJ 2.0
    x45_7 r45 1.0
    x45_7 c7 1.0
    x45_8 OBJ 3.0
    x45_8 r45 1.0
    x45_8 c8 1.0
    x45_9 OBJ 4.0
    x45_9 r45 1.0
    x45_9 c9 1.0
    x45_10 OBJ 4.0
    x45_10 r45 1.0
    x45_10 c10 1.0
    x45_11 OBJ 2.0
    x45_11 r45 1.0
    x45_11 c11 1.0
    x45_12 OBJ 3.0
    x45_12 r45 1.0
    x45_12 c12 1.0
    x45_13 OBJ 1.0
    x45_13 r45 1.0
    x45_13 c13 1.0
    x45_14 OBJ 1.0
    x45_14 r45 1.0
    x45_14 c14 1.0
    x45_15 OBJ 1.0
    x45_15 r45 1.0
    x45_15 c15 1.0
    x45_16 OBJ 1.0
    x45_16 r45 1.0
    x45_16 c16 1.0
    x45_17 OBJ 4.0
    x45_17 r45 1.0
    x45_17 c17 1.0
    x45_18 OBJ 3.0
    x45_18 r45 1.0
    x45_18 c18 1.0
    x45_19 OBJ 1.0
    x45_19 r45 1.0
    x45_19 c19 1.0
    x45_20 OBJ 2.0
    x45_20 r45 1.0
    x45_20 c20 1.0
    x45_21 OBJ 5.0
    x45_21 r45 1.0
    x45_21 c21 1.0
    x45_22 OBJ 4.0
    x45_22 r45 1.0
    x45_22 c22 1.0
    x45_23 OBJ 4.0
    x45_23 r45 1.0
    x45_23 c23 1.0
    x45_24 OBJ 4.0
    x45_24 r45 1.0
    x45_24 c24 1.0
    x45_25 OBJ 2.0
    x45_25 r45 1.0
    x45_25 c25 1.0
    x45_26 OBJ 1.0
    x45_26 r45 1.0
    x45_26 c26 1.0
    x45_27 OBJ 3.0
    x45_27 r45 1.0
    x45_27 c27 1.0
    x45_28 OBJ 1.0
    x45_28 r45 1.0
    x45_28 c28 1.0
    x45_29 OBJ 3.0
    x45_29 r45 1.0
    x45_29 c29 1.0
    x45_30 OBJ 4.0
    x45_30 r45 1.0
    x45_30 c30 1.0
    x45_31 OBJ 2.0
    x45_31 r45 1.0
    x45_31 c31 1.0
    x45_32 OBJ 2.0
    x45_32 r45 1.0
    x45_32 c32 1.0
    x45_33 OBJ 3.0
    x45_33 r45 1.0
    x45_33 c33 1.0
    x45_34 OBJ 2.0
    x45_34 r45 1.0
    x45_34 c34 1.0
    x45_35 OBJ 3.0
    x45_35 r45 1.0
    x45_35 c35 1.0
    x45_36 OBJ 4.0
    x45_36 r45 1.0
    x45_36 c36 1.0
    x45_37 OBJ 3.0
    x45_37 r45 1.0
    x45_37 c37 1.0
    x45_38 OBJ 3.0
    x45_38 r45 1.0
    x45_38 c38 1.0
    x45_39 OBJ 4.0
    x45_39 r45 1.0
    x45_39 c39 1.0
    x45_40 OBJ 2.0
    x45_40 r45 1.0
    x45_40 c40 1.0
    x45_41 OBJ 5.0
    x45_41 r45 1.0
    x45_41 c41 1.0
    x45_42 OBJ 2.0
    x45_42 r45 1.0
    x45_42 c42 1.0
    x45_43 OBJ 4.0
    x45_43 r45 1.0
    x45_43 c43 1.0
    x45_44 OBJ 3.0
    x45_44 r45 1.0
    x45_44 c44 1.0
    x45_45 OBJ 2.0
    x45_45 r45 1.0
    x45_45 c45 1.0
    x45_46 OBJ 3.0
    x45_46 r45 1.0
    x45_46 c46 1.0
    x45_47 OBJ 3.0
    x45_47 r45 1.0
    x45_47 c47 1.0
    x45_48 OBJ 1.0
    x45_48 r45 1.0
    x45_48 c48 1.0
    x45_49 OBJ 3.0
    x45_49 r45 1.0
    x45_49 c49 1.0
    x45_50 OBJ 1.0
    x45_50 r45 1.0
    x45_50 c50 1.0
    x45_51 OBJ 4.0
    x45_51 r45 1.0
    x45_51 c51 1.0
    x45_52 OBJ 2.0
    x45_52 r45 1.0
    x45_52 c52 1.0
    x45_53 OBJ 2.0
    x45_53 r45 1.0
    x45_53 c53 1.0
    x45_54 OBJ 3.0
    x45_54 r45 1.0
    x45_54 c54 1.0
    x45_55 OBJ 5.0
    x45_55 r45 1.0
    x45_55 c55 1.0
    x45_56 OBJ 5.0
    x45_56 r45 1.0
    x45_56 c56 1.0
    x45_57 OBJ 4.0
    x45_57 r45 1.0
    x45_57 c57 1.0
    x45_58 OBJ 2.0
    x45_58 r45 1.0
    x45_58 c58 1.0
    x45_59 OBJ 5.0
    x45_59 r45 1.0
    x45_59 c59 1.0
    x45_60 OBJ 1.0
    x45_60 r45 1.0
    x45_60 c60 1.0
    x45_61 OBJ 2.0
    x45_61 r45 1.0
    x45_61 c61 1.0
    x45_62 OBJ 3.0
    x45_62 r45 1.0
    x45_62 c62 1.0
    x45_63 OBJ 1.0
    x45_63 r45 1.0
    x45_63 c63 1.0
    x45_64 OBJ 4.0
    x45_64 r45 1.0
    x45_64 c64 1.0
    x45_65 OBJ 2.0
    x45_65 r45 1.0
    x45_65 c65 1.0
    x45_66 OBJ 4.0
    x45_66 r45 1.0
    x45_66 c66 1.0
    x45_67 OBJ 2.0
    x45_67 r45 1.0
    x45_67 c67 1.0
    x45_68 OBJ 3.0
    x45_68 r45 1.0
    x45_68 c68 1.0
    x45_69 OBJ 1.0
    x45_69 r45 1.0
    x45_69 c69 1.0
    x45_70 OBJ 1.0
    x45_70 r45 1.0
    x45_70 c70 1.0
    x45_71 OBJ 2.0
    x45_71 r45 1.0
    x45_71 c71 1.0
    x45_72 OBJ 1.0
    x45_72 r45 1.0
    x45_72 c72 1.0
    x45_73 OBJ 2.0
    x45_73 r45 1.0
    x45_73 c73 1.0
    x45_74 OBJ 3.0
    x45_74 r45 1.0
    x45_74 c74 1.0
    x45_75 OBJ 2.0
    x45_75 r45 1.0
    x45_75 c75 1.0
    x45_76 OBJ 5.0
    x45_76 r45 1.0
    x45_76 c76 1.0
    x45_77 OBJ 3.0
    x45_77 r45 1.0
    x45_77 c77 1.0
    x45_78 OBJ 1.0
    x45_78 r45 1.0
    x45_78 c78 1.0
    x45_79 OBJ 2.0
    x45_79 r45 1.0
    x45_79 c79 1.0
    x46_0 OBJ 4.0
    x46_0 r46 1.0
    x46_0 c0 1.0
    x46_1 OBJ 4.0
    x46_1 r46 1.0
    x46_1 c1 1.0
    x46_2 OBJ 1.0
    x46_2 r46 1.0
    x46_2 c2 1.0
    x46_3 OBJ 4.0
    x46_3 r46 1.0
    x46_3 c3 1.0
    x46_4 OBJ 3.0
    x46_4 r46 1.0
    x46_4 c4 1.0
    x46_5 OBJ 4.0
    x46_5 r46 1.0
    x46_5 c5 1.0
    x46_6 OBJ 3.0
    x46_6 r46 1.0
    x46_6 c6 1.0
    x46_7 OBJ 1.0
    x46_7 r46 1.0
    x46_7 c7 1.0
    x46_8 OBJ 5.0
    x46_8 r46 1.0
    x46_8 c8 1.0
    x46_9 OBJ 2.0
    x46_9 r46 1.0
    x46_9 c9 1.0
    x46_10 OBJ 2.0
    x46_10 r46 1.0
    x46_10 c10 1.0
    x46_11 OBJ 1.0
    x46_11 r46 1.0
    x46_11 c11 1.0
    x46_12 OBJ 1.0
    x46_12 r46 1.0
    x46_12 c12 1.0
    x46_13 OBJ 2.0
    x46_13 r46 1.0
    x46_13 c13 1.0
    x46_14 OBJ 5.0
    x46_14 r46 1.0
    x46_14 c14 1.0
    x46_15 OBJ 5.0
    x46_15 r46 1.0
    x46_15 c15 1.0
    x46_16 OBJ 2.0
    x46_16 r46 1.0
    x46_16 c16 1.0
    x46_17 OBJ 5.0
    x46_17 r46 1.0
    x46_17 c17 1.0
    x46_18 OBJ 4.0
    x46_18 r46 1.0
    x46_18 c18 1.0
    x46_19 OBJ 1.0
    x46_19 r46 1.0
    x46_19 c19 1.0
    x46_20 OBJ 1.0
    x46_20 r46 1.0
    x46_20 c20 1.0
    x46_21 OBJ 1.0
    x46_21 r46 1.0
    x46_21 c21 1.0
    x46_22 OBJ 3.0
    x46_22 r46 1.0
    x46_22 c22 1.0
    x46_23 OBJ 1.0
    x46_23 r46 1.0
    x46_23 c23 1.0
    x46_24 OBJ 1.0
    x46_24 r46 1.0
    x46_24 c24 1.0
    x46_25 OBJ 1.0
    x46_25 r46 1.0
    x46_25 c25 1.0
    x46_26 OBJ 4.0
    x46_26 r46 1.0
    x46_26 c26 1.0
    x46_27 OBJ 2.0
    x46_27 r46 1.0
    x46_27 c27 1.0
    x46_28 OBJ 5.0
    x46_28 r46 1.0
    x46_28 c28 1.0
    x46_29 OBJ 4.0
    x46_29 r46 1.0
    x46_29 c29 1.0
    x46_30 OBJ 1.0
    x46_30 r46 1.0
    x46_30 c30 1.0
    x46_31 OBJ 2.0
    x46_31 r46 1.0
    x46_31 c31 1.0
    x46_32 OBJ 2.0
    x46_32 r46 1.0
    x46_32 c32 1.0
    x46_33 OBJ 5.0
    x46_33 r46 1.0
    x46_33 c33 1.0
    x46_34 OBJ 2.0
    x46_34 r46 1.0
    x46_34 c34 1.0
    x46_35 OBJ 5.0
    x46_35 r46 1.0
    x46_35 c35 1.0
    x46_36 OBJ 5.0
    x46_36 r46 1.0
    x46_36 c36 1.0
    x46_37 OBJ 1.0
    x46_37 r46 1.0
    x46_37 c37 1.0
    x46_38 OBJ 5.0
    x46_38 r46 1.0
    x46_38 c38 1.0
    x46_39 OBJ 3.0
    x46_39 r46 1.0
    x46_39 c39 1.0
    x46_40 OBJ 4.0
    x46_40 r46 1.0
    x46_40 c40 1.0
    x46_41 OBJ 1.0
    x46_41 r46 1.0
    x46_41 c41 1.0
    x46_42 OBJ 3.0
    x46_42 r46 1.0
    x46_42 c42 1.0
    x46_43 OBJ 2.0
    x46_43 r46 1.0
    x46_43 c43 1.0
    x46_44 OBJ 2.0
    x46_44 r46 1.0
    x46_44 c44 1.0
    x46_45 OBJ 1.0
    x46_45 r46 1.0
    x46_45 c45 1.0
    x46_46 OBJ 3.0
    x46_46 r46 1.0
    x46_46 c46 1.0
    x46_47 OBJ 2.0
    x46_47 r46 1.0
    x46_47 c47 1.0
    x46_48 OBJ 1.0
    x46_48 r46 1.0
    x46_48 c48 1.0
    x46_49 OBJ 3.0
    x46_49 r46 1.0
    x46_49 c49 1.0
    x46_50 OBJ 3.0
    x46_50 r46 1.0
    x46_50 c50 1.0
    x46_51 OBJ 1.0
    x46_51 r46 1.0
    x46_51 c51 1.0
    x46_52 OBJ 1.0
    x46_52 r46 1.0
    x46_52 c52 1.0
    x46_53 OBJ 2.0
    x46_53 r46 1.0
    x46_53 c53 1.0
    x46_54 OBJ 5.0
    x46_54 r46 1.0
    x46_54 c54 1.0
    x46_55 OBJ 1.0
    x46_55 r46 1.0
    x46_55 c55 1.0
    x46_56 OBJ 4.0
    x46_56 r46 1.0
    x46_56 c56 1.0
    x46_57 OBJ 5.0
    x46_57 r46 1.0
    x46_57 c57 1.0
    x46_58 OBJ 3.0
    x46_58 r46 1.0
    x46_58 c58 1.0
    x46_59 OBJ 3.0
    x46_59 r46 1.0
    x46_59 c59 1.0
    x46_60 OBJ 1.0
    x46_60 r46 1.0
    x46_60 c60 1.0
    x46_61 OBJ 3.0
    x46_61 r46 1.0
    x46_61 c61 1.0
    x46_62 OBJ 1.0
    x46_62 r46 1.0
    x46_62 c62 1.0
    x46_63 OBJ 4.0
    x46_63 r46 1.0
    x46_63 c63 1.0
    x46_64 OBJ 5.0
    x46_64 r46 1.0
    x46_64 c64 1.0
    x46_65 OBJ 3.0
    x46_65 r46 1.0
    x46_65 c65 1.0
    x46_66 OBJ 5.0
    x46_66 r46 1.0
    x46_66 c66 1.0
    x46_67 OBJ 3.0
    x46_67 r46 1.0
    x46_67 c67 1.0
    x46_68 OBJ 4.0
    x46_68 r46 1.0
    x46_68 c68 1.0
    x46_69 OBJ 3.0
    x46_69 r46 1.0
    x46_69 c69 1.0
    x46_70 OBJ 4.0
    x46_70 r46 1.0
    x46_70 c70 1.0
    x46_71 OBJ 4.0
    x46_71 r46 1.0
    x46_71 c71 1.0
    x46_72 OBJ 3.0
    x46_72 r46 1.0
    x46_72 c72 1.0
    x46_73 OBJ 5.0
    x46_73 r46 1.0
    x46_73 c73 1.0
    x46_74 OBJ 4.0
    x46_74 r46 1.0
    x46_74 c74 1.0
    x46_75 OBJ 4.0
    x46_75 r46 1.0
    x46_75 c75 1.0
    x46_76 OBJ 2.0
    x46_76 r46 1.0
    x46_76 c76 1.0
    x46_77 OBJ 4.0
    x46_77 r46 1.0
    x46_77 c77 1.0
    x46_78 OBJ 4.0
    x46_78 r46 1.0
    x46_78 c78 1.0
    x46_79 OBJ 4.0
    x46_79 r46 1.0
    x46_79 c79 1.0
    x47_0 OBJ 2.0
    x47_0 r47 1.0
    x47_0 c0 1.0
    x47_1 OBJ 1.0
    x47_1 r47 1.0
    x47_1 c1 1.0
    x47_2 OBJ 2.0
    x47_2 r47 1.0
    x47_2 c2 1.0
    x47_3 OBJ 5.0
    x47_3 r47 1.0
    x47_3 c3 1.0
    x47_4 OBJ 5.0
    x47_4 r47 1.0
    x47_4 c4 1.0
    x47_5 OBJ 3.0
    x47_5 r47 1.0
    x47_5 c5 1.0
    x47_6 OBJ 5.0
    x47_6 r47 1.0
    x47_6 c6 1.0
    x47_7 OBJ 4.0
    x47_7 r47 1.0
    x47_7 c7 1.0
    x47_8 OBJ 2.0
    x47_8 r47 1.0
    x47_8 c8 1.0
    x47_9 OBJ 2.0
    x47_9 r47 1.0
    x47_9 c9 1.0
    x47_10 OBJ 1.0
    x47_10 r47 1.0
    x47_10 c10 1.0
    x47_11 OBJ 1.0
    x47_11 r47 1.0
    x47_11 c11 1.0
    x47_12 OBJ 5.0
    x47_12 r47 1.0
    x47_12 c12 1.0
    x47_13 OBJ 1.0
    x47_13 r47 1.0
    x47_13 c13 1.0
    x47_14 OBJ 1.0
    x47_14 r47 1.0
    x47_14 c14 1.0
    x47_15 OBJ 4.0
    x47_15 r47 1.0
    x47_15 c15 1.0
    x47_16 OBJ 5.0
    x47_16 r47 1.0
    x47_16 c16 1.0
    x47_17 OBJ 3.0
    x47_17 r47 1.0
    x47_17 c17 1.0
    x47_18 OBJ 4.0
    x47_18 r47 1.0
    x47_18 c18 1.0
    x47_19 OBJ 5.0
    x47_19 r47 1.0
    x47_19 c19 1.0
    x47_20 OBJ 3.0
    x47_20 r47 1.0
    x47_20 c20 1.0
    x47_21 OBJ 4.0
    x47_21 r47 1.0
    x47_21 c21 1.0
    x47_22 OBJ 5.0
    x47_22 r47 1.0
    x47_22 c22 1.0
    x47_23 OBJ 1.0
    x47_23 r47 1.0
    x47_23 c23 1.0
    x47_24 OBJ 4.0
    x47_24 r47 1.0
    x47_24 c24 1.0
    x47_25 OBJ 4.0
    x47_25 r47 1.0
    x47_25 c25 1.0
    x47_26 OBJ 5.0
    x47_26 r47 1.0
    x47_26 c26 1.0
    x47_27 OBJ 3.0
    x47_27 r47 1.0
    x47_27 c27 1.0
    x47_28 OBJ 5.0
    x47_28 r47 1.0
    x47_28 c28 1.0
    x47_29 OBJ 5.0
    x47_29 r47 1.0
    x47_29 c29 1.0
    x47_30 OBJ 4.0
    x47_30 r47 1.0
    x47_30 c30 1.0
    x47_31 OBJ 2.0
    x47_31 r47 1.0
    x47_31 c31 1.0
    x47_32 OBJ 4.0
    x47_32 r47 1.0
    x47_32 c32 1.0
    x47_33 OBJ 3.0
    x47_33 r47 1.0
    x47_33 c33 1.0
    x47_34 OBJ 1.0
    x47_34 r47 1.0
    x47_34 c34 1.0
    x47_35 OBJ 4.0
    x47_35 r47 1.0
    x47_35 c35 1.0
    x47_36 OBJ 5.0
    x47_36 r47 1.0
    x47_36 c36 1.0
    x47_37 OBJ 3.0
    x47_37 r47 1.0
    x47_37 c37 1.0
    x47_38 OBJ 5.0
    x47_38 r47 1.0
    x47_38 c38 1.0
    x47_39 OBJ 3.0
    x47_39 r47 1.0
    x47_39 c39 1.0
    x47_40 OBJ 1.0
    x47_40 r47 1.0
    x47_40 c40 1.0
    x47_41 OBJ 5.0
    x47_41 r47 1.0
    x47_41 c41 1.0
    x47_42 OBJ 2.0
    x47_42 r47 1.0
    x47_42 c42 1.0
    x47_43 OBJ 5.0
    x47_43 r47 1.0
    x47_43 c43 1.0
    x47_44 OBJ 3.0
    x47_44 r47 1.0
    x47_44 c44 1.0
    x47_45 OBJ 3.0
    x47_45 r47 1.0
    x47_45 c45 1.0
    x47_46 OBJ 4.0
    x47_46 r47 1.0
    x47_46 c46 1.0
    x47_47 OBJ 3.0
    x47_47 r47 1.0
    x47_47 c47 1.0
    x47_48 OBJ 5.0
    x47_48 r47 1.0
    x47_48 c48 1.0
    x47_49 OBJ 5.0
    x47_49 r47 1.0
    x47_49 c49 1.0
    x47_50 OBJ 4.0
    x47_50 r47 1.0
    x47_50 c50 1.0
    x47_51 OBJ 5.0
    x47_51 r47 1.0
    x47_51 c51 1.0
    x47_52 OBJ 2.0
    x47_52 r47 1.0
    x47_52 c52 1.0
    x47_53 OBJ 2.0
    x47_53 r47 1.0
    x47_53 c53 1.0
    x47_54 OBJ 1.0
    x47_54 r47 1.0
    x47_54 c54 1.0
    x47_55 OBJ 5.0
    x47_55 r47 1.0
    x47_55 c55 1.0
    x47_56 OBJ 3.0
    x47_56 r47 1.0
    x47_56 c56 1.0
    x47_57 OBJ 5.0
    x47_57 r47 1.0
    x47_57 c57 1.0
    x47_58 OBJ 2.0
    x47_58 r47 1.0
    x47_58 c58 1.0
    x47_59 OBJ 5.0
    x47_59 r47 1.0
    x47_59 c59 1.0
    x47_60 OBJ 2.0
    x47_60 r47 1.0
    x47_60 c60 1.0
    x47_61 OBJ 3.0
    x47_61 r47 1.0
    x47_61 c61 1.0
    x47_62 OBJ 2.0
    x47_62 r47 1.0
    x47_62 c62 1.0
    x47_63 OBJ 2.0
    x47_63 r47 1.0
    x47_63 c63 1.0
    x47_64 OBJ 2.0
    x47_64 r47 1.0
    x47_64 c64 1.0
    x47_65 OBJ 4.0
    x47_65 r47 1.0
    x47_65 c65 1.0
    x47_66 OBJ 2.0
    x47_66 r47 1.0
    x47_66 c66 1.0
    x47_67 OBJ 1.0
    x47_67 r47 1.0
    x47_67 c67 1.0
    x47_68 OBJ 3.0
    x47_68 r47 1.0
    x47_68 c68 1.0
    x47_69 OBJ 4.0
    x47_69 r47 1.0
    x47_69 c69 1.0
    x47_70 OBJ 3.0
    x47_70 r47 1.0
    x47_70 c70 1.0
    x47_71 OBJ 4.0
    x47_71 r47 1.0
    x47_71 c71 1.0
    x47_72 OBJ 1.0
    x47_72 r47 1.0
    x47_72 c72 1.0
    x47_73 OBJ 4.0
    x47_73 r47 1.0
    x47_73 c73 1.0
    x47_74 OBJ 2.0
    x47_74 r47 1.0
    x47_74 c74 1.0
    x47_75 OBJ 3.0
    x47_75 r47 1.0
    x47_75 c75 1.0
    x47_76 OBJ 4.0
    x47_76 r47 1.0
    x47_76 c76 1.0
    x47_77 OBJ 1.0
    x47_77 r47 1.0
    x47_77 c77 1.0
    x47_78 OBJ 3.0
    x47_78 r47 1.0
    x47_78 c78 1.0
    x47_79 OBJ 3.0
    x47_79 r47 1.0
    x47_79 c79 1.0
    x48_0 OBJ 5.0
    x48_0 r48 1.0
    x48_0 c0 1.0
    x48_1 OBJ 5.0
    x48_1 r48 1.0
    x48_1 c1 1.0
    x48_2 OBJ 3.0
    x48_2 r48 1.0
    x48_2 c2 1.0
    x48_3 OBJ 4.0
    x48_3 r48 1.0
    x48_3 c3 1.0
    x48_4 OBJ 1.0
    x48_4 r48 1.0
    x48_4 c4 1.0
    x48_5 OBJ 3.0
    x48_5 r48 1.0
    x48_5 c5 1.0
    x48_6 OBJ 4.0
    x48_6 r48 1.0
    x48_6 c6 1.0
    x48_7 OBJ 3.0
    x48_7 r48 1.0
    x48_7 c7 1.0
    x48_8 OBJ 4.0
    x48_8 r48 1.0
    x48_8 c8 1.0
    x48_9 OBJ 1.0
    x48_9 r48 1.0
    x48_9 c9 1.0
    x48_10 OBJ 4.0
    x48_10 r48 1.0
    x48_10 c10 1.0
    x48_11 OBJ 4.0
    x48_11 r48 1.0
    x48_11 c11 1.0
    x48_12 OBJ 2.0
    x48_12 r48 1.0
    x48_12 c12 1.0
    x48_13 OBJ 5.0
    x48_13 r48 1.0
    x48_13 c13 1.0
    x48_14 OBJ 2.0
    x48_14 r48 1.0
    x48_14 c14 1.0
    x48_15 OBJ 1.0
    x48_15 r48 1.0
    x48_15 c15 1.0
    x48_16 OBJ 2.0
    x48_16 r48 1.0
    x48_16 c16 1.0
    x48_17 OBJ 3.0
    x48_17 r48 1.0
    x48_17 c17 1.0
    x48_18 OBJ 4.0
    x48_18 r48 1.0
    x48_18 c18 1.0
    x48_19 OBJ 5.0
    x48_19 r48 1.0
    x48_19 c19 1.0
    x48_20 OBJ 2.0
    x48_20 r48 1.0
    x48_20 c20 1.0
    x48_21 OBJ 5.0
    x48_21 r48 1.0
    x48_21 c21 1.0
    x48_22 OBJ 3.0
    x48_22 r48 1.0
    x48_22 c22 1.0
    x48_23 OBJ 5.0
    x48_23 r48 1.0
    x48_23 c23 1.0
    x48_24 OBJ 3.0
    x48_24 r48 1.0
    x48_24 c24 1.0
    x48_25 OBJ 4.0
    x48_25 r48 1.0
    x48_25 c25 1.0
    x48_26 OBJ 3.0
    x48_26 r48 1.0
    x48_26 c26 1.0
    x48_27 OBJ 1.0
    x48_27 r48 1.0
    x48_27 c27 1.0
    x48_28 OBJ 5.0
    x48_28 r48 1.0
    x48_28 c28 1.0
    x48_29 OBJ 2.0
    x48_29 r48 1.0
    x48_29 c29 1.0
    x48_30 OBJ 1.0
    x48_30 r48 1.0
    x48_30 c30 1.0
    x48_31 OBJ 5.0
    x48_31 r48 1.0
    x48_31 c31 1.0
    x48_32 OBJ 3.0
    x48_32 r48 1.0
    x48_32 c32 1.0
    x48_33 OBJ 1.0
    x48_33 r48 1.0
    x48_33 c33 1.0
    x48_34 OBJ 5.0
    x48_34 r48 1.0
    x48_34 c34 1.0
    x48_35 OBJ 2.0
    x48_35 r48 1.0
    x48_35 c35 1.0
    x48_36 OBJ 3.0
    x48_36 r48 1.0
    x48_36 c36 1.0
    x48_37 OBJ 5.0
    x48_37 r48 1.0
    x48_37 c37 1.0
    x48_38 OBJ 3.0
    x48_38 r48 1.0
    x48_38 c38 1.0
    x48_39 OBJ 3.0
    x48_39 r48 1.0
    x48_39 c39 1.0
    x48_40 OBJ 3.0
    x48_40 r48 1.0
    x48_40 c40 1.0
    x48_41 OBJ 2.0
    x48_41 r48 1.0
    x48_41 c41 1.0
    x48_42 OBJ 3.0
    x48_42 r48 1.0
    x48_42 c42 1.0
    x48_43 OBJ 4.0
    x48_43 r48 1.0
    x48_43 c43 1.0
    x48_44 OBJ 1.0
    x48_44 r48 1.0
    x48_44 c44 1.0
    x48_45 OBJ 5.0
    x48_45 r48 1.0
    x48_45 c45 1.0
    x48_46 OBJ 4.0
    x48_46 r48 1.0
    x48_46 c46 1.0
    x48_47 OBJ 1.0
    x48_47 r48 1.0
    x48_47 c47 1.0
    x48_48 OBJ 2.0
    x48_48 r48 1.0
    x48_48 c48 1.0
    x48_49 OBJ 2.0
    x48_49 r48 1.0
    x48_49 c49 1.0
    x48_50 OBJ 4.0
    x48_50 r48 1.0
    x48_50 c50 1.0
    x48_51 OBJ 3.0
    x48_51 r48 1.0
    x48_51 c51 1.0
    x48_52 OBJ 5.0
    x48_52 r48 1.0
    x48_52 c52 1.0
    x48_53 OBJ 3.0
    x48_53 r48 1.0
    x48_53 c53 1.0
    x48_54 OBJ 1.0
    x48_54 r48 1.0
    x48_54 c54 1.0
    x48_55 OBJ 4.0
    x48_55 r48 1.0
    x48_55 c55 1.0
    x48_56 OBJ 4.0
    x48_56 r48 1.0
    x48_56 c56 1.0
    x48_57 OBJ 3.0
    x48_57 r48 1.0
    x48_57 c57 1.0
    x48_58 OBJ 1.0
    x48_58 r48 1.0
    x48_58 c58 1.0
    x48_59 OBJ 3.0
    x48_59 r48 1.0
    x48_59 c59 1.0
    x48_60 OBJ 4.0
    x48_60 r48 1.0
    x48_60 c60 1.0
    x48_61 OBJ 4.0
    x48_61 r48 1.0
    x48_61 c61 1.0
    x48_62 OBJ 5.0
    x48_62 r48 1.0
    x48_62 c62 1.0
    x48_63 OBJ 3.0
    x48_63 r48 1.0
    x48_63 c63 1.0
    x48_64 OBJ 3.0
    x48_64 r48 1.0
    x48_64 c64 1.0
    x48_65 OBJ 2.0
    x48_65 r48 1.0
    x48_65 c65 1.0
    x48_66 OBJ 4.0
    x48_66 r48 1.0
    x48_66 c66 1.0
    x48_67 OBJ 5.0
    x48_67 r48 1.0
    x48_67 c67 1.0
    x48_68 OBJ 2.0
    x48_68 r48 1.0
    x48_68 c68 1.0
    x48_69 OBJ 5.0
    x48_69 r48 1.0
    x48_69 c69 1.0
    x48_70 OBJ 2.0
    x48_70 r48 1.0
    x48_70 c70 1.0
    x48_71 OBJ 5.0
    x48_71 r48 1.0
    x48_71 c71 1.0
    x48_72 OBJ 3.0
    x48_72 r48 1.0
    x48_72 c72 1.0
    x48_73 OBJ 1.0
    x48_73 r48 1.0
    x48_73 c73 1.0
    x48_74 OBJ 2.0
    x48_74 r48 1.0
    x48_74 c74 1.0
    x48_75 OBJ 3.0
    x48_75 r48 1.0
    x48_75 c75 1.0
    x48_76 OBJ 1.0
    x48_76 r48 1.0
    x48_76 c76 1.0
    x48_77 OBJ 1.0
    x48_77 r48 1.0
    x48_77 c77 1.0
    x48_78 OBJ 4.0
    x48_78 r48 1.0
    x48_78 c78 1.0
    x48_79 OBJ 4.0
    x48_79 r48 1.0
    x48_79 c79 1.0
    x49_0 OBJ 4.0
    x49_0 r49 1.0
    x49_0 c0 1.0
    x49_1 OBJ 5.0
    x49_1 r49 1.0
    x49_1 c1 1.0
    x49_2 OBJ 4.0
    x49_2 r49 1.0
    x49_2 c2 1.0
    x49_3 OBJ 4.0
    x49_3 r49 1.0
    x49_3 c3 1.0
    x49_4 OBJ 1.0
    x49_4 r49 1.0
    x49_4 c4 1.0
    x49_5 OBJ 1.0
    x49_5 r49 1.0
    x49_5 c5 1.0
    x49_6 OBJ 5.0
    x49_6 r49 1.0
    x49_6 c6 1.0
    x49_7 OBJ 5.0
    x49_7 r49 1.0
    x49_7 c7 1.0
    x49_8 OBJ 4.0
    x49_8 r49 1.0
    x49_8 c8 1.0
    x49_9 OBJ 4.0
    x49_9 r49 1.0
    x49_9 c9 1.0
    x49_10 OBJ 4.0
    x49_10 r49 1.0
    x49_10 c10 1.0
    x49_11 OBJ 4.0
    x49_11 r49 1.0
    x49_11 c11 1.0
    x49_12 OBJ 4.0
    x49_12 r49 1.0
    x49_12 c12 1.0
    x49_13 OBJ 2.0
    x49_13 r49 1.0
    x49_13 c13 1.0
    x49_14 OBJ 1.0
    x49_14 r49 1.0
    x49_14 c14 1.0
    x49_15 OBJ 4.0
    x49_15 r49 1.0
    x49_15 c15 1.0
    x49_16 OBJ 4.0
    x49_16 r49 1.0
    x49_16 c16 1.0
    x49_17 OBJ 4.0
    x49_17 r49 1.0
    x49_17 c17 1.0
    x49_18 OBJ 2.0
    x49_18 r49 1.0
    x49_18 c18 1.0
    x49_19 OBJ 5.0
    x49_19 r49 1.0
    x49_19 c19 1.0
    x49_20 OBJ 1.0
    x49_20 r49 1.0
    x49_20 c20 1.0
    x49_21 OBJ 2.0
    x49_21 r49 1.0
    x49_21 c21 1.0
    x49_22 OBJ 2.0
    x49_22 r49 1.0
    x49_22 c22 1.0
    x49_23 OBJ 4.0
    x49_23 r49 1.0
    x49_23 c23 1.0
    x49_24 OBJ 5.0
    x49_24 r49 1.0
    x49_24 c24 1.0
    x49_25 OBJ 1.0
    x49_25 r49 1.0
    x49_25 c25 1.0
    x49_26 OBJ 3.0
    x49_26 r49 1.0
    x49_26 c26 1.0
    x49_27 OBJ 5.0
    x49_27 r49 1.0
    x49_27 c27 1.0
    x49_28 OBJ 3.0
    x49_28 r49 1.0
    x49_28 c28 1.0
    x49_29 OBJ 4.0
    x49_29 r49 1.0
    x49_29 c29 1.0
    x49_30 OBJ 4.0
    x49_30 r49 1.0
    x49_30 c30 1.0
    x49_31 OBJ 1.0
    x49_31 r49 1.0
    x49_31 c31 1.0
    x49_32 OBJ 1.0
    x49_32 r49 1.0
    x49_32 c32 1.0
    x49_33 OBJ 2.0
    x49_33 r49 1.0
    x49_33 c33 1.0
    x49_34 OBJ 1.0
    x49_34 r49 1.0
    x49_34 c34 1.0
    x49_35 OBJ 5.0
    x49_35 r49 1.0
    x49_35 c35 1.0
    x49_36 OBJ 1.0
    x49_36 r49 1.0
    x49_36 c36 1.0
    x49_37 OBJ 1.0
    x49_37 r49 1.0
    x49_37 c37 1.0
    x49_38 OBJ 4.0
    x49_38 r49 1.0
    x49_38 c38 1.0
    x49_39 OBJ 1.0
    x49_39 r49 1.0
    x49_39 c39 1.0
    x49_40 OBJ 2.0
    x49_40 r49 1.0
    x49_40 c40 1.0
    x49_41 OBJ 5.0
    x49_41 r49 1.0
    x49_41 c41 1.0
    x49_42 OBJ 4.0
    x49_42 r49 1.0
    x49_42 c42 1.0
    x49_43 OBJ 1.0
    x49_43 r49 1.0
    x49_43 c43 1.0
    x49_44 OBJ 2.0
    x49_44 r49 1.0
    x49_44 c44 1.0
    x49_45 OBJ 3.0
    x49_45 r49 1.0
    x49_45 c45 1.0
    x49_46 OBJ 4.0
    x49_46 r49 1.0
    x49_46 c46 1.0
    x49_47 OBJ 1.0
    x49_47 r49 1.0
    x49_47 c47 1.0
    x49_48 OBJ 5.0
    x49_48 r49 1.0
    x49_48 c48 1.0
    x49_49 OBJ 4.0
    x49_49 r49 1.0
    x49_49 c49 1.0
    x49_50 OBJ 5.0
    x49_50 r49 1.0
    x49_50 c50 1.0
    x49_51 OBJ 2.0
    x49_51 r49 1.0
    x49_51 c51 1.0
    x49_52 OBJ 4.0
    x49_52 r49 1.0
    x49_52 c52 1.0
    x49_53 OBJ 1.0
    x49_53 r49 1.0
    x49_53 c53 1.0
    x49_54 OBJ 2.0
    x49_54 r49 1.0
    x49_54 c54 1.0
    x49_55 OBJ 3.0
    x49_55 r49 1.0
    x49_55 c55 1.0
    x49_56 OBJ 3.0
    x49_56 r49 1.0
    x49_56 c56 1.0
    x49_57 OBJ 2.0
    x49_57 r49 1.0
    x49_57 c57 1.0
    x49_58 OBJ 5.0
    x49_58 r49 1.0
    x49_58 c58 1.0
    x49_59 OBJ 1.0
    x49_59 r49 1.0
    x49_59 c59 1.0
    x49_60 OBJ 2.0
    x49_60 r49 1.0
    x49_60 c60 1.0
    x49_61 OBJ 5.0
    x49_61 r49 1.0
    x49_61 c61 1.0
    x49_62 OBJ 3.0
    x49_62 r49 1.0
    x49_62 c62 1.0
    x49_63 OBJ 5.0
    x49_63 r49 1.0
    x49_63 c63 1.0
    x49_64 OBJ 3.0
    x49_64 r49 1.0
    x49_64 c64 1.0
    x49_65 OBJ 1.0
    x49_65 r49 1.0
    x49_65 c65 1.0
    x49_66 OBJ 3.0
    x49_66 r49 1.0
    x49_66 c66 1.0
    x49_67 OBJ 4.0
    x49_67 r49 1.0
    x49_67 c67 1.0
    x49_68 OBJ 3.0
    x49_68 r49 1.0
    x49_68 c68 1.0
    x49_69 OBJ 3.0
    x49_69 r49 1.0
    x49_69 c69 1.0
    x49_70 OBJ 5.0
    x49_70 r49 1.0
    x49_70 c70 1.0
    x49_71 OBJ 4.0
    x49_71 r49 1.0
    x49_71 c71 1.0
    x49_72 OBJ 5.0
    x49_72 r49 1.0
    x49_72 c72 1.0
    x49_73 OBJ 4.0
    x49_73 r49 1.0
    x49_73 c73 1.0
    x49_74 OBJ 1.0
    x49_74 r49 1.0
    x49_74 c74 1.0
    x49_75 OBJ 3.0
    x49_75 r49 1.0
    x49_75 c75 1.0
    x49_76 OBJ 3.0
    x49_76 r49 1.0
    x49_76 c76 1.0
    x49_77 OBJ 2.0
    x49_77 r49 1.0
    x49_77 c77 1.0
    x49_78 OBJ 4.0
    x49_78 r49 1.0
    x49_78 c78 1.0
    x49_79 OBJ 4.0
    x49_79 r49 1.0
    x49_79 c79 1.0
    x50_0 OBJ 5.0
    x50_0 r50 1.0
    x50_0 c0 1.0
    x50_1 OBJ 3.0
    x50_1 r50 1.0
    x50_1 c1 1.0
    x50_2 OBJ 3.0
    x50_2 r50 1.0
    x50_2 c2 1.0
    x50_3 OBJ 2.0
    x50_3 r50 1.0
    x50_3 c3 1.0
    x50_4 OBJ 2.0
    x50_4 r50 1.0
    x50_4 c4 1.0
    x50_5 OBJ 1.0
    x50_5 r50 1.0
    x50_5 c5 1.0
    x50_6 OBJ 2.0
    x50_6 r50 1.0
    x50_6 c6 1.0
    x50_7 OBJ 5.0
    x50_7 r50 1.0
    x50_7 c7 1.0
    x50_8 OBJ 3.0
    x50_8 r50 1.0
    x50_8 c8 1.0
    x50_9 OBJ 4.0
    x50_9 r50 1.0
    x50_9 c9 1.0
    x50_10 OBJ 4.0
    x50_10 r50 1.0
    x50_10 c10 1.0
    x50_11 OBJ 5.0
    x50_11 r50 1.0
    x50_11 c11 1.0
    x50_12 OBJ 2.0
    x50_12 r50 1.0
    x50_12 c12 1.0
    x50_13 OBJ 3.0
    x50_13 r50 1.0
    x50_13 c13 1.0
    x50_14 OBJ 3.0
    x50_14 r50 1.0
    x50_14 c14 1.0
    x50_15 OBJ 2.0
    x50_15 r50 1.0
    x50_15 c15 1.0
    x50_16 OBJ 4.0
    x50_16 r50 1.0
    x50_16 c16 1.0
    x50_17 OBJ 5.0
    x50_17 r50 1.0
    x50_17 c17 1.0
    x50_18 OBJ 1.0
    x50_18 r50 1.0
    x50_18 c18 1.0
    x50_19 OBJ 3.0
    x50_19 r50 1.0
    x50_19 c19 1.0
    x50_20 OBJ 1.0
    x50_20 r50 1.0
    x50_20 c20 1.0
    x50_21 OBJ 5.0
    x50_21 r50 1.0
    x50_21 c21 1.0
    x50_22 OBJ 1.0
    x50_22 r50 1.0
    x50_22 c22 1.0
    x50_23 OBJ 4.0
    x50_23 r50 1.0
    x50_23 c23 1.0
    x50_24 OBJ 5.0
    x50_24 r50 1.0
    x50_24 c24 1.0
    x50_25 OBJ 3.0
    x50_25 r50 1.0
    x50_25 c25 1.0
    x50_26 OBJ 1.0
    x50_26 r50 1.0
    x50_26 c26 1.0
    x50_27 OBJ 3.0
    x50_27 r50 1.0
    x50_27 c27 1.0
    x50_28 OBJ 2.0
    x50_28 r50 1.0
    x50_28 c28 1.0
    x50_29 OBJ 4.0
    x50_29 r50 1.0
    x50_29 c29 1.0
    x50_30 OBJ 3.0
    x50_30 r50 1.0
    x50_30 c30 1.0
    x50_31 OBJ 2.0
    x50_31 r50 1.0
    x50_31 c31 1.0
    x50_32 OBJ 2.0
    x50_32 r50 1.0
    x50_32 c32 1.0
    x50_33 OBJ 5.0
    x50_33 r50 1.0
    x50_33 c33 1.0
    x50_34 OBJ 5.0
    x50_34 r50 1.0
    x50_34 c34 1.0
    x50_35 OBJ 4.0
    x50_35 r50 1.0
    x50_35 c35 1.0
    x50_36 OBJ 4.0
    x50_36 r50 1.0
    x50_36 c36 1.0
    x50_37 OBJ 4.0
    x50_37 r50 1.0
    x50_37 c37 1.0
    x50_38 OBJ 2.0
    x50_38 r50 1.0
    x50_38 c38 1.0
    x50_39 OBJ 2.0
    x50_39 r50 1.0
    x50_39 c39 1.0
    x50_40 OBJ 1.0
    x50_40 r50 1.0
    x50_40 c40 1.0
    x50_41 OBJ 2.0
    x50_41 r50 1.0
    x50_41 c41 1.0
    x50_42 OBJ 4.0
    x50_42 r50 1.0
    x50_42 c42 1.0
    x50_43 OBJ 1.0
    x50_43 r50 1.0
    x50_43 c43 1.0
    x50_44 OBJ 1.0
    x50_44 r50 1.0
    x50_44 c44 1.0
    x50_45 OBJ 2.0
    x50_45 r50 1.0
    x50_45 c45 1.0
    x50_46 OBJ 1.0
    x50_46 r50 1.0
    x50_46 c46 1.0
    x50_47 OBJ 5.0
    x50_47 r50 1.0
    x50_47 c47 1.0
    x50_48 OBJ 4.0
    x50_48 r50 1.0
    x50_48 c48 1.0
    x50_49 OBJ 2.0
    x50_49 r50 1.0
    x50_49 c49 1.0
    x50_50 OBJ 1.0
    x50_50 r50 1.0
    x50_50 c50 1.0
    x50_51 OBJ 5.0
    x50_51 r50 1.0
    x50_51 c51 1.0
    x50_52 OBJ 2.0
    x50_52 r50 1.0
    x50_52 c52 1.0
    x50_53 OBJ 4.0
    x50_53 r50 1.0
    x50_53 c53 1.0
    x50_54 OBJ 2.0
    x50_54 r50 1.0
    x50_54 c54 1.0
    x50_55 OBJ 3.0
    x50_55 r50 1.0
    x50_55 c55 1.0
    x50_56 OBJ 2.0
    x50_56 r50 1.0
    x50_56 c56 1.0
    x50_57 OBJ 5.0
    x50_57 r50 1.0
    x50_57 c57 1.0
    x50_58 OBJ 2.0
    x50_58 r50 1.0
    x50_58 c58 1.0
    x50_59 OBJ 2.0
    x50_59 r50 1.0
    x50_59 c59 1.0
    x50_60 OBJ 2.0
    x50_60 r50 1.0
    x50_60 c60 1.0
    x50_61 OBJ 5.0
    x50_61 r50 1.0
    x50_61 c61 1.0
    x50_62 OBJ 1.0
    x50_62 r50 1.0
    x50_62 c62 1.0
    x50_63 OBJ 4.0
    x50_63 r50 1.0
    x50_63 c63 1.0
    x50_64 OBJ 1.0
    x50_64 r50 1.0
    x50_64 c64 1.0
    x50_65 OBJ 2.0
    x50_65 r50 1.0
    x50_65 c65 1.0
    x50_66 OBJ 1.0
    x50_66 r50 1.0
    x50_66 c66 1.0
    x50_67 OBJ 1.0
    x50_67 r50 1.0
    x50_67 c67 1.0
    x50_68 OBJ 4.0
    x50_68 r50 1.0
    x50_68 c68 1.0
    x50_69 OBJ 2.0
    x50_69 r50 1.0
    x50_69 c69 1.0
    x50_70 OBJ 3.0
    x50_70 r50 1.0
    x50_70 c70 1.0
    x50_71 OBJ 4.0
    x50_71 r50 1.0
    x50_71 c71 1.0
    x50_72 OBJ 4.0
    x50_72 r50 1.0
    x50_72 c72 1.0
    x50_73 OBJ 2.0
    x50_73 r50 1.0
    x50_73 c73 1.0
    x50_74 OBJ 1.0
    x50_74 r50 1.0
    x50_74 c74 1.0
    x50_75 OBJ 2.0
    x50_75 r50 1.0
    x50_75 c75 1.0
    x50_76 OBJ 1.0
    x50_76 r50 1.0
    x50_76 c76 1.0
    x50_77 OBJ 2.0
    x50_77 r50 1.0
    x50_77 c77 1.0
    x50_78 OBJ 4.0
    x50_78 r50 1.0
    x50_78 c78 1.0
    x50_79 OBJ 3.0
    x50_79 r50 1.0
    x50_79 c79 1.0
    x51_0 OBJ 2.0
    x51_0 r51 1.0
    x51_0 c0 1.0
    x51_1 OBJ 5.0
    x51_1 r51 1.0
    x51_1 c1 1.0
    x51_2 OBJ 3.0
    x51_2 r51 1.0
    x51_2 c2 1.0
    x51_3 OBJ 5.0
    x51_3 r51 1.0
    x51_3 c3 1.0
    x51_4 OBJ 2.0
    x51_4 r51 1.0
    x51_4 c4 1.0
    x51_5 OBJ 3.0
    x51_5 r51 1.0
    x51_5 c5 1.0
    x51_6 OBJ 3.0
    x51_6 r51 1.0
    x51_6 c6 1.0
    x51_7 OBJ 3.0
    x51_7 r51 1.0
    x51_7 c7 1.0
    x51_8 OBJ 5.0
    x51_8 r51 1.0
    x51_8 c8 1.0
    x51_9 OBJ 2.0
    x51_9 r51 1.0
    x51_9 c9 1.0
    x51_10 OBJ 2.0
    x51_10 r51 1.0
    x51_10 c10 1.0
    x51_11 OBJ 2.0
    x51_11 r51 1.0
    x51_11 c11 1.0
    x51_12 OBJ 4.0
    x51_12 r51 1.0
    x51_12 c12 1.0
    x51_13 OBJ 1.0
    x51_13 r51 1.0
    x51_13 c13 1.0
    x51_14 OBJ 3.0
    x51_14 r51 1.0
    x51_14 c14 1.0
    x51_15 OBJ 4.0
    x51_15 r51 1.0
    x51_15 c15 1.0
    x51_16 OBJ 2.0
    x51_16 r51 1.0
    x51_16 c16 1.0
    x51_17 OBJ 3.0
    x51_17 r51 1.0
    x51_17 c17 1.0
    x51_18 OBJ 2.0
    x51_18 r51 1.0
    x51_18 c18 1.0
    x51_19 OBJ 5.0
    x51_19 r51 1.0
    x51_19 c19 1.0
    x51_20 OBJ 1.0
    x51_20 r51 1.0
    x51_20 c20 1.0
    x51_21 OBJ 2.0
    x51_21 r51 1.0
    x51_21 c21 1.0
    x51_22 OBJ 4.0
    x51_22 r51 1.0
    x51_22 c22 1.0
    x51_23 OBJ 2.0
    x51_23 r51 1.0
    x51_23 c23 1.0
    x51_24 OBJ 2.0
    x51_24 r51 1.0
    x51_24 c24 1.0
    x51_25 OBJ 4.0
    x51_25 r51 1.0
    x51_25 c25 1.0
    x51_26 OBJ 3.0
    x51_26 r51 1.0
    x51_26 c26 1.0
    x51_27 OBJ 4.0
    x51_27 r51 1.0
    x51_27 c27 1.0
    x51_28 OBJ 1.0
    x51_28 r51 1.0
    x51_28 c28 1.0
    x51_29 OBJ 1.0
    x51_29 r51 1.0
    x51_29 c29 1.0
    x51_30 OBJ 3.0
    x51_30 r51 1.0
    x51_30 c30 1.0
    x51_31 OBJ 1.0
    x51_31 r51 1.0
    x51_31 c31 1.0
    x51_32 OBJ 2.0
    x51_32 r51 1.0
    x51_32 c32 1.0
    x51_33 OBJ 5.0
    x51_33 r51 1.0
    x51_33 c33 1.0
    x51_34 OBJ 5.0
    x51_34 r51 1.0
    x51_34 c34 1.0
    x51_35 OBJ 1.0
    x51_35 r51 1.0
    x51_35 c35 1.0
    x51_36 OBJ 3.0
    x51_36 r51 1.0
    x51_36 c36 1.0
    x51_37 OBJ 4.0
    x51_37 r51 1.0
    x51_37 c37 1.0
    x51_38 OBJ 3.0
    x51_38 r51 1.0
    x51_38 c38 1.0
    x51_39 OBJ 1.0
    x51_39 r51 1.0
    x51_39 c39 1.0
    x51_40 OBJ 4.0
    x51_40 r51 1.0
    x51_40 c40 1.0
    x51_41 OBJ 1.0
    x51_41 r51 1.0
    x51_41 c41 1.0
    x51_42 OBJ 2.0
    x51_42 r51 1.0
    x51_42 c42 1.0
    x51_43 OBJ 4.0
    x51_43 r51 1.0
    x51_43 c43 1.0
    x51_44 OBJ 3.0
    x51_44 r51 1.0
    x51_44 c44 1.0
    x51_45 OBJ 3.0
    x51_45 r51 1.0
    x51_45 c45 1.0
    x51_46 OBJ 5.0
    x51_46 r51 1.0
    x51_46 c46 1.0
    x51_47 OBJ 5.0
    x51_47 r51 1.0
    x51_47 c47 1.0
    x51_48 OBJ 5.0
    x51_48 r51 1.0
    x51_48 c48 1.0
    x51_49 OBJ 1.0
    x51_49 r51 1.0
    x51_49 c49 1.0
    x51_50 OBJ 2.0
    x51_50 r51 1.0
    x51_50 c50 1.0
    x51_51 OBJ 2.0
    x51_51 r51 1.0
    x51_51 c51 1.0
    x51_52 OBJ 4.0
    x51_52 r51 1.0
    x51_52 c52 1.0
    x51_53 OBJ 3.0
    x51_53 r51 1.0
    x51_53 c53 1.0
    x51_54 OBJ 2.0
    x51_54 r51 1.0
    x51_54 c54 1.0
    x51_55 OBJ 5.0
    x51_55 r51 1.0
    x51_55 c55 1.0
    x51_56 OBJ 3.0
    x51_56 r51 1.0
    x51_56 c56 1.0
    x51_57 OBJ 1.0
    x51_57 r51 1.0
    x51_57 c57 1.0
    x51_58 OBJ 5.0
    x51_58 r51 1.0
    x51_58 c58 1.0
    x51_59 OBJ 5.0
    x51_59 r51 1.0
    x51_59 c59 1.0
    x51_60 OBJ 1.0
    x51_60 r51 1.0
    x51_60 c60 1.0
    x51_61 OBJ 1.0
    x51_61 r51 1.0
    x51_61 c61 1.0
    x51_62 OBJ 3.0
    x51_62 r51 1.0
    x51_62 c62 1.0
    x51_63 OBJ 2.0
    x51_63 r51 1.0
    x51_63 c63 1.0
    x51_64 OBJ 2.0
    x51_64 r51 1.0
    x51_64 c64 1.0
    x51_65 OBJ 3.0
    x51_65 r51 1.0
    x51_65 c65 1.0
    x51_66 OBJ 1.0
    x51_66 r51 1.0
    x51_66 c66 1.0
    x51_67 OBJ 2.0
    x51_67 r51 1.0
    x51_67 c67 1.0
    x51_68 OBJ 3.0
    x51_68 r51 1.0
    x51_68 c68 1.0
    x51_69 OBJ 3.0
    x51_69 r51 1.0
    x51_69 c69 1.0
    x51_70 OBJ 4.0
    x51_70 r51 1.0
    x51_70 c70 1.0
    x51_71 OBJ 4.0
    x51_71 r51 1.0
    x51_71 c71 1.0
    x51_72 OBJ 2.0
    x51_72 r51 1.0
    x51_72 c72 1.0
    x51_73 OBJ 3.0
    x51_73 r51 1.0
    x51_73 c73 1.0
    x51_74 OBJ 3.0
    x51_74 r51 1.0
    x51_74 c74 1.0
    x51_75 OBJ 2.0
    x51_75 r51 1.0
    x51_75 c75 1.0
    x51_76 OBJ 1.0
    x51_76 r51 1.0
    x51_76 c76 1.0
    x51_77 OBJ 3.0
    x51_77 r51 1.0
    x51_77 c77 1.0
    x51_78 OBJ 1.0
    x51_78 r51 1.0
    x51_78 c78 1.0
    x51_79 OBJ 5.0
    x51_79 r51 1.0
    x51_79 c79 1.0
    x52_0 OBJ 4.0
    x52_0 r52 1.0
    x52_0 c0 1.0
    x52_1 OBJ 1.0
    x52_1 r52 1.0
    x52_1 c1 1.0
    x52_2 OBJ 5.0
    x52_2 r52 1.0
    x52_2 c2 1.0
    x52_3 OBJ 1.0
    x52_3 r52 1.0
    x52_3 c3 1.0
    x52_4 OBJ 2.0
    x52_4 r52 1.0
    x52_4 c4 1.0
    x52_5 OBJ 5.0
    x52_5 r52 1.0
    x52_5 c5 1.0
    x52_6 OBJ 4.0
    x52_6 r52 1.0
    x52_6 c6 1.0
    x52_7 OBJ 4.0
    x52_7 r52 1.0
    x52_7 c7 1.0
    x52_8 OBJ 1.0
    x52_8 r52 1.0
    x52_8 c8 1.0
    x52_9 OBJ 1.0
    x52_9 r52 1.0
    x52_9 c9 1.0
    x52_10 OBJ 1.0
    x52_10 r52 1.0
    x52_10 c10 1.0
    x52_11 OBJ 5.0
    x52_11 r52 1.0
    x52_11 c11 1.0
    x52_12 OBJ 5.0
    x52_12 r52 1.0
    x52_12 c12 1.0
    x52_13 OBJ 1.0
    x52_13 r52 1.0
    x52_13 c13 1.0
    x52_14 OBJ 4.0
    x52_14 r52 1.0
    x52_14 c14 1.0
    x52_15 OBJ 2.0
    x52_15 r52 1.0
    x52_15 c15 1.0
    x52_16 OBJ 4.0
    x52_16 r52 1.0
    x52_16 c16 1.0
    x52_17 OBJ 5.0
    x52_17 r52 1.0
    x52_17 c17 1.0
    x52_18 OBJ 3.0
    x52_18 r52 1.0
    x52_18 c18 1.0
    x52_19 OBJ 1.0
    x52_19 r52 1.0
    x52_19 c19 1.0
    x52_20 OBJ 3.0
    x52_20 r52 1.0
    x52_20 c20 1.0
    x52_21 OBJ 2.0
    x52_21 r52 1.0
    x52_21 c21 1.0
    x52_22 OBJ 3.0
    x52_22 r52 1.0
    x52_22 c22 1.0
    x52_23 OBJ 2.0
    x52_23 r52 1.0
    x52_23 c23 1.0
    x52_24 OBJ 1.0
    x52_24 r52 1.0
    x52_24 c24 1.0
    x52_25 OBJ 3.0
    x52_25 r52 1.0
    x52_25 c25 1.0
    x52_26 OBJ 1.0
    x52_26 r52 1.0
    x52_26 c26 1.0
    x52_27 OBJ 4.0
    x52_27 r52 1.0
    x52_27 c27 1.0
    x52_28 OBJ 3.0
    x52_28 r52 1.0
    x52_28 c28 1.0
    x52_29 OBJ 2.0
    x52_29 r52 1.0
    x52_29 c29 1.0
    x52_30 OBJ 3.0
    x52_30 r52 1.0
    x52_30 c30 1.0
    x52_31 OBJ 1.0
    x52_31 r52 1.0
    x52_31 c31 1.0
    x52_32 OBJ 1.0
    x52_32 r52 1.0
    x52_32 c32 1.0
    x52_33 OBJ 2.0
    x52_33 r52 1.0
    x52_33 c33 1.0
    x52_34 OBJ 1.0
    x52_34 r52 1.0
    x52_34 c34 1.0
    x52_35 OBJ 2.0
    x52_35 r52 1.0
    x52_35 c35 1.0
    x52_36 OBJ 4.0
    x52_36 r52 1.0
    x52_36 c36 1.0
    x52_37 OBJ 3.0
    x52_37 r52 1.0
    x52_37 c37 1.0
    x52_38 OBJ 5.0
    x52_38 r52 1.0
    x52_38 c38 1.0
    x52_39 OBJ 5.0
    x52_39 r52 1.0
    x52_39 c39 1.0
    x52_40 OBJ 1.0
    x52_40 r52 1.0
    x52_40 c40 1.0
    x52_41 OBJ 3.0
    x52_41 r52 1.0
    x52_41 c41 1.0
    x52_42 OBJ 4.0
    x52_42 r52 1.0
    x52_42 c42 1.0
    x52_43 OBJ 2.0
    x52_43 r52 1.0
    x52_43 c43 1.0
    x52_44 OBJ 2.0
    x52_44 r52 1.0
    x52_44 c44 1.0
    x52_45 OBJ 5.0
    x52_45 r52 1.0
    x52_45 c45 1.0
    x52_46 OBJ 5.0
    x52_46 r52 1.0
    x52_46 c46 1.0
    x52_47 OBJ 1.0
    x52_47 r52 1.0
    x52_47 c47 1.0
    x52_48 OBJ 5.0
    x52_48 r52 1.0
    x52_48 c48 1.0
    x52_49 OBJ 3.0
    x52_49 r52 1.0
    x52_49 c49 1.0
    x52_50 OBJ 3.0
    x52_50 r52 1.0
    x52_50 c50 1.0
    x52_51 OBJ 2.0
    x52_51 r52 1.0
    x52_51 c51 1.0
    x52_52 OBJ 3.0
    x52_52 r52 1.0
    x52_52 c52 1.0
    x52_53 OBJ 4.0
    x52_53 r52 1.0
    x52_53 c53 1.0
    x52_54 OBJ 5.0
    x52_54 r52 1.0
    x52_54 c54 1.0
    x52_55 OBJ 2.0
    x52_55 r52 1.0
    x52_55 c55 1.0
    x52_56 OBJ 2.0
    x52_56 r52 1.0
    x52_56 c56 1.0
    x52_57 OBJ 2.0
    x52_57 r52 1.0
    x52_57 c57 1.0
    x52_58 OBJ 5.0
    x52_58 r52 1.0
    x52_58 c58 1.0
    x52_59 OBJ 5.0
    x52_59 r52 1.0
    x52_59 c59 1.0
    x52_60 OBJ 2.0
    x52_60 r52 1.0
    x52_60 c60 1.0
    x52_61 OBJ 1.0
    x52_61 r52 1.0
    x52_61 c61 1.0
    x52_62 OBJ 1.0
    x52_62 r52 1.0
    x52_62 c62 1.0
    x52_63 OBJ 1.0
    x52_63 r52 1.0
    x52_63 c63 1.0
    x52_64 OBJ 1.0
    x52_64 r52 1.0
    x52_64 c64 1.0
    x52_65 OBJ 4.0
    x52_65 r52 1.0
    x52_65 c65 1.0
    x52_66 OBJ 5.0
    x52_66 r52 1.0
    x52_66 c66 1.0
    x52_67 OBJ 2.0
    x52_67 r52 1.0
    x52_67 c67 1.0
    x52_68 OBJ 2.0
    x52_68 r52 1.0
    x52_68 c68 1.0
    x52_69 OBJ 1.0
    x52_69 r52 1.0
    x52_69 c69 1.0
    x52_70 OBJ 2.0
    x52_70 r52 1.0
    x52_70 c70 1.0
    x52_71 OBJ 2.0
    x52_71 r52 1.0
    x52_71 c71 1.0
    x52_72 OBJ 3.0
    x52_72 r52 1.0
    x52_72 c72 1.0
    x52_73 OBJ 1.0
    x52_73 r52 1.0
    x52_73 c73 1.0
    x52_74 OBJ 4.0
    x52_74 r52 1.0
    x52_74 c74 1.0
    x52_75 OBJ 4.0
    x52_75 r52 1.0
    x52_75 c75 1.0
    x52_76 OBJ 5.0
    x52_76 r52 1.0
    x52_76 c76 1.0
    x52_77 OBJ 5.0
    x52_77 r52 1.0
    x52_77 c77 1.0
    x52_78 OBJ 1.0
    x52_78 r52 1.0
    x52_78 c78 1.0
    x52_79 OBJ 3.0
    x52_79 r52 1.0
    x52_79 c79 1.0
    x53_0 OBJ 5.0
    x53_0 r53 1.0
    x53_0 c0 1.0
    x53_1 OBJ 1.0
    x53_1 r53 1.0
    x53_1 c1 1.0
    x53_2 OBJ 1.0
    x53_2 r53 1.0
    x53_2 c2 1.0
    x53_3 OBJ 5.0
    x53_3 r53 1.0
    x53_3 c3 1.0
    x53_4 OBJ 2.0
    x53_4 r53 1.0
    x53_4 c4 1.0
    x53_5 OBJ 2.0
    x53_5 r53 1.0
    x53_5 c5 1.0
    x53_6 OBJ 2.0
    x53_6 r53 1.0
    x53_6 c6 1.0
    x53_7 OBJ 5.0
    x53_7 r53 1.0
    x53_7 c7 1.0
    x53_8 OBJ 5.0
    x53_8 r53 1.0
    x53_8 c8 1.0
    x53_9 OBJ 1.0
    x53_9 r53 1.0
    x53_9 c9 1.0
    x53_10 OBJ 2.0
    x53_10 r53 1.0
    x53_10 c10 1.0
    x53_11 OBJ 1.0
    x53_11 r53 1.0
    x53_11 c11 1.0
    x53_12 OBJ 5.0
    x53_12 r53 1.0
    x53_12 c12 1.0
    x53_13 OBJ 3.0
    x53_13 r53 1.0
    x53_13 c13 1.0
    x53_14 OBJ 1.0
    x53_14 r53 1.0
    x53_14 c14 1.0
    x53_15 OBJ 1.0
    x53_15 r53 1.0
    x53_15 c15 1.0
    x53_16 OBJ 2.0
    x53_16 r53 1.0
    x53_16 c16 1.0
    x53_17 OBJ 5.0
    x53_17 r53 1.0
    x53_17 c17 1.0
    x53_18 OBJ 2.0
    x53_18 r53 1.0
    x53_18 c18 1.0
    x53_19 OBJ 3.0
    x53_19 r53 1.0
    x53_19 c19 1.0
    x53_20 OBJ 3.0
    x53_20 r53 1.0
    x53_20 c20 1.0
    x53_21 OBJ 1.0
    x53_21 r53 1.0
    x53_21 c21 1.0
    x53_22 OBJ 4.0
    x53_22 r53 1.0
    x53_22 c22 1.0
    x53_23 OBJ 5.0
    x53_23 r53 1.0
    x53_23 c23 1.0
    x53_24 OBJ 2.0
    x53_24 r53 1.0
    x53_24 c24 1.0
    x53_25 OBJ 1.0
    x53_25 r53 1.0
    x53_25 c25 1.0
    x53_26 OBJ 3.0
    x53_26 r53 1.0
    x53_26 c26 1.0
    x53_27 OBJ 4.0
    x53_27 r53 1.0
    x53_27 c27 1.0
    x53_28 OBJ 4.0
    x53_28 r53 1.0
    x53_28 c28 1.0
    x53_29 OBJ 1.0
    x53_29 r53 1.0
    x53_29 c29 1.0
    x53_30 OBJ 1.0
    x53_30 r53 1.0
    x53_30 c30 1.0
    x53_31 OBJ 2.0
    x53_31 r53 1.0
    x53_31 c31 1.0
    x53_32 OBJ 2.0
    x53_32 r53 1.0
    x53_32 c32 1.0
    x53_33 OBJ 5.0
    x53_33 r53 1.0
    x53_33 c33 1.0
    x53_34 OBJ 2.0
    x53_34 r53 1.0
    x53_34 c34 1.0
    x53_35 OBJ 2.0
    x53_35 r53 1.0
    x53_35 c35 1.0
    x53_36 OBJ 3.0
    x53_36 r53 1.0
    x53_36 c36 1.0
    x53_37 OBJ 2.0
    x53_37 r53 1.0
    x53_37 c37 1.0
    x53_38 OBJ 2.0
    x53_38 r53 1.0
    x53_38 c38 1.0
    x53_39 OBJ 2.0
    x53_39 r53 1.0
    x53_39 c39 1.0
    x53_40 OBJ 2.0
    x53_40 r53 1.0
    x53_40 c40 1.0
    x53_41 OBJ 3.0
    x53_41 r53 1.0
    x53_41 c41 1.0
    x53_42 OBJ 1.0
    x53_42 r53 1.0
    x53_42 c42 1.0
    x53_43 OBJ 1.0
    x53_43 r53 1.0
    x53_43 c43 1.0
    x53_44 OBJ 4.0
    x53_44 r53 1.0
    x53_44 c44 1.0
    x53_45 OBJ 1.0
    x53_45 r53 1.0
    x53_45 c45 1.0
    x53_46 OBJ 4.0
    x53_46 r53 1.0
    x53_46 c46 1.0
    x53_47 OBJ 5.0
    x53_47 r53 1.0
    x53_47 c47 1.0
    x53_48 OBJ 3.0
    x53_48 r53 1.0
    x53_48 c48 1.0
    x53_49 OBJ 1.0
    x53_49 r53 1.0
    x53_49 c49 1.0
    x53_50 OBJ 5.0
    x53_50 r53 1.0
    x53_50 c50 1.0
    x53_51 OBJ 1.0
    x53_51 r53 1.0
    x53_51 c51 1.0
    x53_52 OBJ 2.0
    x53_52 r53 1.0
    x53_52 c52 1.0
    x53_53 OBJ 1.0
    x53_53 r53 1.0
    x53_53 c53 1.0
    x53_54 OBJ 3.0
    x53_54 r53 1.0
    x53_54 c54 1.0
    x53_55 OBJ 4.0
    x53_55 r53 1.0
    x53_55 c55 1.0
    x53_56 OBJ 1.0
    x53_56 r53 1.0
    x53_56 c56 1.0
    x53_57 OBJ 3.0
    x53_57 r53 1.0
    x53_57 c57 1.0
    x53_58 OBJ 5.0
    x53_58 r53 1.0
    x53_58 c58 1.0
    x53_59 OBJ 2.0
    x53_59 r53 1.0
    x53_59 c59 1.0
    x53_60 OBJ 4.0
    x53_60 r53 1.0
    x53_60 c60 1.0
    x53_61 OBJ 4.0
    x53_61 r53 1.0
    x53_61 c61 1.0
    x53_62 OBJ 2.0
    x53_62 r53 1.0
    x53_62 c62 1.0
    x53_63 OBJ 3.0
    x53_63 r53 1.0
    x53_63 c63 1.0
    x53_64 OBJ 3.0
    x53_64 r53 1.0
    x53_64 c64 1.0
    x53_65 OBJ 1.0
    x53_65 r53 1.0
    x53_65 c65 1.0
    x53_66 OBJ 4.0
    x53_66 r53 1.0
    x53_66 c66 1.0
    x53_67 OBJ 5.0
    x53_67 r53 1.0
    x53_67 c67 1.0
    x53_68 OBJ 2.0
    x53_68 r53 1.0
    x53_68 c68 1.0
    x53_69 OBJ 4.0
    x53_69 r53 1.0
    x53_69 c69 1.0
    x53_70 OBJ 4.0
    x53_70 r53 1.0
    x53_70 c70 1.0
    x53_71 OBJ 5.0
    x53_71 r53 1.0
    x53_71 c71 1.0
    x53_72 OBJ 3.0
    x53_72 r53 1.0
    x53_72 c72 1.0
    x53_73 OBJ 5.0
    x53_73 r53 1.0
    x53_73 c73 1.0
    x53_74 OBJ 5.0
    x53_74 r53 1.0
    x53_74 c74 1.0
    x53_75 OBJ 1.0
    x53_75 r53 1.0
    x53_75 c75 1.0
    x53_76 OBJ 1.0
    x53_76 r53 1.0
    x53_76 c76 1.0
    x53_77 OBJ 3.0
    x53_77 r53 1.0
    x53_77 c77 1.0
    x53_78 OBJ 2.0
    x53_78 r53 1.0
    x53_78 c78 1.0
    x53_79 OBJ 2.0
    x53_79 r53 1.0
    x53_79 c79 1.0
    x54_0 OBJ 2.0
    x54_0 r54 1.0
    x54_0 c0 1.0
    x54_1 OBJ 5.0
    x54_1 r54 1.0
    x54_1 c1 1.0
    x54_2 OBJ 4.0
    x54_2 r54 1.0
    x54_2 c2 1.0
    x54_3 OBJ 5.0
    x54_3 r54 1.0
    x54_3 c3 1.0
    x54_4 OBJ 2.0
    x54_4 r54 1.0
    x54_4 c4 1.0
    x54_5 OBJ 4.0
    x54_5 r54 1.0
    x54_5 c5 1.0
    x54_6 OBJ 5.0
    x54_6 r54 1.0
    x54_6 c6 1.0
    x54_7 OBJ 1.0
    x54_7 r54 1.0
    x54_7 c7 1.0
    x54_8 OBJ 4.0
    x54_8 r54 1.0
    x54_8 c8 1.0
    x54_9 OBJ 4.0
    x54_9 r54 1.0
    x54_9 c9 1.0
    x54_10 OBJ 3.0
    x54_10 r54 1.0
    x54_10 c10 1.0
    x54_11 OBJ 4.0
    x54_11 r54 1.0
    x54_11 c11 1.0
    x54_12 OBJ 4.0
    x54_12 r54 1.0
    x54_12 c12 1.0
    x54_13 OBJ 1.0
    x54_13 r54 1.0
    x54_13 c13 1.0
    x54_14 OBJ 2.0
    x54_14 r54 1.0
    x54_14 c14 1.0
    x54_15 OBJ 3.0
    x54_15 r54 1.0
    x54_15 c15 1.0
    x54_16 OBJ 5.0
    x54_16 r54 1.0
    x54_16 c16 1.0
    x54_17 OBJ 4.0
    x54_17 r54 1.0
    x54_17 c17 1.0
    x54_18 OBJ 3.0
    x54_18 r54 1.0
    x54_18 c18 1.0
    x54_19 OBJ 1.0
    x54_19 r54 1.0
    x54_19 c19 1.0
    x54_20 OBJ 3.0
    x54_20 r54 1.0
    x54_20 c20 1.0
    x54_21 OBJ 4.0
    x54_21 r54 1.0
    x54_21 c21 1.0
    x54_22 OBJ 5.0
    x54_22 r54 1.0
    x54_22 c22 1.0
    x54_23 OBJ 1.0
    x54_23 r54 1.0
    x54_23 c23 1.0
    x54_24 OBJ 1.0
    x54_24 r54 1.0
    x54_24 c24 1.0
    x54_25 OBJ 4.0
    x54_25 r54 1.0
    x54_25 c25 1.0
    x54_26 OBJ 4.0
    x54_26 r54 1.0
    x54_26 c26 1.0
    x54_27 OBJ 4.0
    x54_27 r54 1.0
    x54_27 c27 1.0
    x54_28 OBJ 5.0
    x54_28 r54 1.0
    x54_28 c28 1.0
    x54_29 OBJ 3.0
    x54_29 r54 1.0
    x54_29 c29 1.0
    x54_30 OBJ 4.0
    x54_30 r54 1.0
    x54_30 c30 1.0
    x54_31 OBJ 2.0
    x54_31 r54 1.0
    x54_31 c31 1.0
    x54_32 OBJ 3.0
    x54_32 r54 1.0
    x54_32 c32 1.0
    x54_33 OBJ 5.0
    x54_33 r54 1.0
    x54_33 c33 1.0
    x54_34 OBJ 2.0
    x54_34 r54 1.0
    x54_34 c34 1.0
    x54_35 OBJ 1.0
    x54_35 r54 1.0
    x54_35 c35 1.0
    x54_36 OBJ 3.0
    x54_36 r54 1.0
    x54_36 c36 1.0
    x54_37 OBJ 4.0
    x54_37 r54 1.0
    x54_37 c37 1.0
    x54_38 OBJ 4.0
    x54_38 r54 1.0
    x54_38 c38 1.0
    x54_39 OBJ 5.0
    x54_39 r54 1.0
    x54_39 c39 1.0
    x54_40 OBJ 1.0
    x54_40 r54 1.0
    x54_40 c40 1.0
    x54_41 OBJ 3.0
    x54_41 r54 1.0
    x54_41 c41 1.0
    x54_42 OBJ 3.0
    x54_42 r54 1.0
    x54_42 c42 1.0
    x54_43 OBJ 1.0
    x54_43 r54 1.0
    x54_43 c43 1.0
    x54_44 OBJ 3.0
    x54_44 r54 1.0
    x54_44 c44 1.0
    x54_45 OBJ 2.0
    x54_45 r54 1.0
    x54_45 c45 1.0
    x54_46 OBJ 4.0
    x54_46 r54 1.0
    x54_46 c46 1.0
    x54_47 OBJ 4.0
    x54_47 r54 1.0
    x54_47 c47 1.0
    x54_48 OBJ 5.0
    x54_48 r54 1.0
    x54_48 c48 1.0
    x54_49 OBJ 2.0
    x54_49 r54 1.0
    x54_49 c49 1.0
    x54_50 OBJ 1.0
    x54_50 r54 1.0
    x54_50 c50 1.0
    x54_51 OBJ 2.0
    x54_51 r54 1.0
    x54_51 c51 1.0
    x54_52 OBJ 1.0
    x54_52 r54 1.0
    x54_52 c52 1.0
    x54_53 OBJ 4.0
    x54_53 r54 1.0
    x54_53 c53 1.0
    x54_54 OBJ 2.0
    x54_54 r54 1.0
    x54_54 c54 1.0
    x54_55 OBJ 4.0
    x54_55 r54 1.0
    x54_55 c55 1.0
    x54_56 OBJ 3.0
    x54_56 r54 1.0
    x54_56 c56 1.0
    x54_57 OBJ 3.0
    x54_57 r54 1.0
    x54_57 c57 1.0
    x54_58 OBJ 2.0
    x54_58 r54 1.0
    x54_58 c58 1.0
    x54_59 OBJ 3.0
    x54_59 r54 1.0
    x54_59 c59 1.0
    x54_60 OBJ 2.0
    x54_60 r54 1.0
    x54_60 c60 1.0
    x54_61 OBJ 2.0
    x54_61 r54 1.0
    x54_61 c61 1.0
    x54_62 OBJ 3.0
    x54_62 r54 1.0
    x54_62 c62 1.0
    x54_63 OBJ 5.0
    x54_63 r54 1.0
    x54_63 c63 1.0
    x54_64 OBJ 4.0
    x54_64 r54 1.0
    x54_64 c64 1.0
    x54_65 OBJ 3.0
    x54_65 r54 1.0
    x54_65 c65 1.0
    x54_66 OBJ 4.0
    x54_66 r54 1.0
    x54_66 c66 1.0
    x54_67 OBJ 3.0
    x54_67 r54 1.0
    x54_67 c67 1.0
    x54_68 OBJ 5.0
    x54_68 r54 1.0
    x54_68 c68 1.0
    x54_69 OBJ 5.0
    x54_69 r54 1.0
    x54_69 c69 1.0
    x54_70 OBJ 2.0
    x54_70 r54 1.0
    x54_70 c70 1.0
    x54_71 OBJ 2.0
    x54_71 r54 1.0
    x54_71 c71 1.0
    x54_72 OBJ 4.0
    x54_72 r54 1.0
    x54_72 c72 1.0
    x54_73 OBJ 5.0
    x54_73 r54 1.0
    x54_73 c73 1.0
    x54_74 OBJ 1.0
    x54_74 r54 1.0
    x54_74 c74 1.0
    x54_75 OBJ 1.0
    x54_75 r54 1.0
    x54_75 c75 1.0
    x54_76 OBJ 2.0
    x54_76 r54 1.0
    x54_76 c76 1.0
    x54_77 OBJ 1.0
    x54_77 r54 1.0
    x54_77 c77 1.0
    x54_78 OBJ 2.0
    x54_78 r54 1.0
    x54_78 c78 1.0
    x54_79 OBJ 4.0
    x54_79 r54 1.0
    x54_79 c79 1.0
    x55_0 OBJ 5.0
    x55_0 r55 1.0
    x55_0 c0 1.0
    x55_1 OBJ 3.0
    x55_1 r55 1.0
    x55_1 c1 1.0
    x55_2 OBJ 3.0
    x55_2 r55 1.0
    x55_2 c2 1.0
    x55_3 OBJ 1.0
    x55_3 r55 1.0
    x55_3 c3 1.0
    x55_4 OBJ 5.0
    x55_4 r55 1.0
    x55_4 c4 1.0
    x55_5 OBJ 5.0
    x55_5 r55 1.0
    x55_5 c5 1.0
    x55_6 OBJ 4.0
    x55_6 r55 1.0
    x55_6 c6 1.0
    x55_7 OBJ 2.0
    x55_7 r55 1.0
    x55_7 c7 1.0
    x55_8 OBJ 3.0
    x55_8 r55 1.0
    x55_8 c8 1.0
    x55_9 OBJ 4.0
    x55_9 r55 1.0
    x55_9 c9 1.0
    x55_10 OBJ 1.0
    x55_10 r55 1.0
    x55_10 c10 1.0
    x55_11 OBJ 5.0
    x55_11 r55 1.0
    x55_11 c11 1.0
    x55_12 OBJ 5.0
    x55_12 r55 1.0
    x55_12 c12 1.0
    x55_13 OBJ 3.0
    x55_13 r55 1.0
    x55_13 c13 1.0
    x55_14 OBJ 4.0
    x55_14 r55 1.0
    x55_14 c14 1.0
    x55_15 OBJ 3.0
    x55_15 r55 1.0
    x55_15 c15 1.0
    x55_16 OBJ 3.0
    x55_16 r55 1.0
    x55_16 c16 1.0
    x55_17 OBJ 3.0
    x55_17 r55 1.0
    x55_17 c17 1.0
    x55_18 OBJ 3.0
    x55_18 r55 1.0
    x55_18 c18 1.0
    x55_19 OBJ 4.0
    x55_19 r55 1.0
    x55_19 c19 1.0
    x55_20 OBJ 5.0
    x55_20 r55 1.0
    x55_20 c20 1.0
    x55_21 OBJ 1.0
    x55_21 r55 1.0
    x55_21 c21 1.0
    x55_22 OBJ 4.0
    x55_22 r55 1.0
    x55_22 c22 1.0
    x55_23 OBJ 4.0
    x55_23 r55 1.0
    x55_23 c23 1.0
    x55_24 OBJ 3.0
    x55_24 r55 1.0
    x55_24 c24 1.0
    x55_25 OBJ 1.0
    x55_25 r55 1.0
    x55_25 c25 1.0
    x55_26 OBJ 1.0
    x55_26 r55 1.0
    x55_26 c26 1.0
    x55_27 OBJ 1.0
    x55_27 r55 1.0
    x55_27 c27 1.0
    x55_28 OBJ 5.0
    x55_28 r55 1.0
    x55_28 c28 1.0
    x55_29 OBJ 4.0
    x55_29 r55 1.0
    x55_29 c29 1.0
    x55_30 OBJ 4.0
    x55_30 r55 1.0
    x55_30 c30 1.0
    x55_31 OBJ 3.0
    x55_31 r55 1.0
    x55_31 c31 1.0
    x55_32 OBJ 5.0
    x55_32 r55 1.0
    x55_32 c32 1.0
    x55_33 OBJ 2.0
    x55_33 r55 1.0
    x55_33 c33 1.0
    x55_34 OBJ 5.0
    x55_34 r55 1.0
    x55_34 c34 1.0
    x55_35 OBJ 4.0
    x55_35 r55 1.0
    x55_35 c35 1.0
    x55_36 OBJ 1.0
    x55_36 r55 1.0
    x55_36 c36 1.0
    x55_37 OBJ 3.0
    x55_37 r55 1.0
    x55_37 c37 1.0
    x55_38 OBJ 4.0
    x55_38 r55 1.0
    x55_38 c38 1.0
    x55_39 OBJ 2.0
    x55_39 r55 1.0
    x55_39 c39 1.0
    x55_40 OBJ 1.0
    x55_40 r55 1.0
    x55_40 c40 1.0
    x55_41 OBJ 3.0
    x55_41 r55 1.0
    x55_41 c41 1.0
    x55_42 OBJ 2.0
    x55_42 r55 1.0
    x55_42 c42 1.0
    x55_43 OBJ 2.0
    x55_43 r55 1.0
    x55_43 c43 1.0
    x55_44 OBJ 5.0
    x55_44 r55 1.0
    x55_44 c44 1.0
    x55_45 OBJ 5.0
    x55_45 r55 1.0
    x55_45 c45 1.0
    x55_46 OBJ 5.0
    x55_46 r55 1.0
    x55_46 c46 1.0
    x55_47 OBJ 1.0
    x55_47 r55 1.0
    x55_47 c47 1.0
    x55_48 OBJ 4.0
    x55_48 r55 1.0
    x55_48 c48 1.0
    x55_49 OBJ 2.0
    x55_49 r55 1.0
    x55_49 c49 1.0
    x55_50 OBJ 5.0
    x55_50 r55 1.0
    x55_50 c50 1.0
    x55_51 OBJ 3.0
    x55_51 r55 1.0
    x55_51 c51 1.0
    x55_52 OBJ 2.0
    x55_52 r55 1.0
    x55_52 c52 1.0
    x55_53 OBJ 3.0
    x55_53 r55 1.0
    x55_53 c53 1.0
    x55_54 OBJ 5.0
    x55_54 r55 1.0
    x55_54 c54 1.0
    x55_55 OBJ 1.0
    x55_55 r55 1.0
    x55_55 c55 1.0
    x55_56 OBJ 4.0
    x55_56 r55 1.0
    x55_56 c56 1.0
    x55_57 OBJ 5.0
    x55_57 r55 1.0
    x55_57 c57 1.0
    x55_58 OBJ 4.0
    x55_58 r55 1.0
    x55_58 c58 1.0
    x55_59 OBJ 1.0
    x55_59 r55 1.0
    x55_59 c59 1.0
    x55_60 OBJ 4.0
    x55_60 r55 1.0
    x55_60 c60 1.0
    x55_61 OBJ 4.0
    x55_61 r55 1.0
    x55_61 c61 1.0
    x55_62 OBJ 3.0
    x55_62 r55 1.0
    x55_62 c62 1.0
    x55_63 OBJ 3.0
    x55_63 r55 1.0
    x55_63 c63 1.0
    x55_64 OBJ 3.0
    x55_64 r55 1.0
    x55_64 c64 1.0
    x55_65 OBJ 2.0
    x55_65 r55 1.0
    x55_65 c65 1.0
    x55_66 OBJ 5.0
    x55_66 r55 1.0
    x55_66 c66 1.0
    x55_67 OBJ 4.0
    x55_67 r55 1.0
    x55_67 c67 1.0
    x55_68 OBJ 1.0
    x55_68 r55 1.0
    x55_68 c68 1.0
    x55_69 OBJ 5.0
    x55_69 r55 1.0
    x55_69 c69 1.0
    x55_70 OBJ 3.0
    x55_70 r55 1.0
    x55_70 c70 1.0
    x55_71 OBJ 2.0
    x55_71 r55 1.0
    x55_71 c71 1.0
    x55_72 OBJ 2.0
    x55_72 r55 1.0
    x55_72 c72 1.0
    x55_73 OBJ 5.0
    x55_73 r55 1.0
    x55_73 c73 1.0
    x55_74 OBJ 1.0
    x55_74 r55 1.0
    x55_74 c74 1.0
    x55_75 OBJ 2.0
    x55_75 r55 1.0
    x55_75 c75 1.0
    x55_76 OBJ 3.0
    x55_76 r55 1.0
    x55_76 c76 1.0
    x55_77 OBJ 5.0
    x55_77 r55 1.0
    x55_77 c77 1.0
    x55_78 OBJ 2.0
    x55_78 r55 1.0
    x55_78 c78 1.0
    x55_79 OBJ 3.0
    x55_79 r55 1.0
    x55_79 c79 1.0
    x56_0 OBJ 1.0
    x56_0 r56 1.0
    x56_0 c0 1.0
    x56_1 OBJ 5.0
    x56_1 r56 1.0
    x56_1 c1 1.0
    x56_2 OBJ 3.0
    x56_2 r56 1.0
    x56_2 c2 1.0
    x56_3 OBJ 4.0
    x56_3 r56 1.0
    x56_3 c3 1.0
    x56_4 OBJ 3.0
    x56_4 r56 1.0
    x56_4 c4 1.0
    x56_5 OBJ 2.0
    x56_5 r56 1.0
    x56_5 c5 1.0
    x56_6 OBJ 3.0
    x56_6 r56 1.0
    x56_6 c6 1.0
    x56_7 OBJ 3.0
    x56_7 r56 1.0
    x56_7 c7 1.0
    x56_8 OBJ 4.0
    x56_8 r56 1.0
    x56_8 c8 1.0
    x56_9 OBJ 2.0
    x56_9 r56 1.0
    x56_9 c9 1.0
    x56_10 OBJ 5.0
    x56_10 r56 1.0
    x56_10 c10 1.0
    x56_11 OBJ 3.0
    x56_11 r56 1.0
    x56_11 c11 1.0
    x56_12 OBJ 4.0
    x56_12 r56 1.0
    x56_12 c12 1.0
    x56_13 OBJ 4.0
    x56_13 r56 1.0
    x56_13 c13 1.0
    x56_14 OBJ 1.0
    x56_14 r56 1.0
    x56_14 c14 1.0
    x56_15 OBJ 3.0
    x56_15 r56 1.0
    x56_15 c15 1.0
    x56_16 OBJ 3.0
    x56_16 r56 1.0
    x56_16 c16 1.0
    x56_17 OBJ 4.0
    x56_17 r56 1.0
    x56_17 c17 1.0
    x56_18 OBJ 3.0
    x56_18 r56 1.0
    x56_18 c18 1.0
    x56_19 OBJ 4.0
    x56_19 r56 1.0
    x56_19 c19 1.0
    x56_20 OBJ 4.0
    x56_20 r56 1.0
    x56_20 c20 1.0
    x56_21 OBJ 3.0
    x56_21 r56 1.0
    x56_21 c21 1.0
    x56_22 OBJ 1.0
    x56_22 r56 1.0
    x56_22 c22 1.0
    x56_23 OBJ 2.0
    x56_23 r56 1.0
    x56_23 c23 1.0
    x56_24 OBJ 5.0
    x56_24 r56 1.0
    x56_24 c24 1.0
    x56_25 OBJ 4.0
    x56_25 r56 1.0
    x56_25 c25 1.0
    x56_26 OBJ 5.0
    x56_26 r56 1.0
    x56_26 c26 1.0
    x56_27 OBJ 4.0
    x56_27 r56 1.0
    x56_27 c27 1.0
    x56_28 OBJ 2.0
    x56_28 r56 1.0
    x56_28 c28 1.0
    x56_29 OBJ 3.0
    x56_29 r56 1.0
    x56_29 c29 1.0
    x56_30 OBJ 1.0
    x56_30 r56 1.0
    x56_30 c30 1.0
    x56_31 OBJ 2.0
    x56_31 r56 1.0
    x56_31 c31 1.0
    x56_32 OBJ 3.0
    x56_32 r56 1.0
    x56_32 c32 1.0
    x56_33 OBJ 5.0
    x56_33 r56 1.0
    x56_33 c33 1.0
    x56_34 OBJ 4.0
    x56_34 r56 1.0
    x56_34 c34 1.0
    x56_35 OBJ 5.0
    x56_35 r56 1.0
    x56_35 c35 1.0
    x56_36 OBJ 4.0
    x56_36 r56 1.0
    x56_36 c36 1.0
    x56_37 OBJ 1.0
    x56_37 r56 1.0
    x56_37 c37 1.0
    x56_38 OBJ 3.0
    x56_38 r56 1.0
    x56_38 c38 1.0
    x56_39 OBJ 4.0
    x56_39 r56 1.0
    x56_39 c39 1.0
    x56_40 OBJ 3.0
    x56_40 r56 1.0
    x56_40 c40 1.0
    x56_41 OBJ 4.0
    x56_41 r56 1.0
    x56_41 c41 1.0
    x56_42 OBJ 5.0
    x56_42 r56 1.0
    x56_42 c42 1.0
    x56_43 OBJ 3.0
    x56_43 r56 1.0
    x56_43 c43 1.0
    x56_44 OBJ 1.0
    x56_44 r56 1.0
    x56_44 c44 1.0
    x56_45 OBJ 3.0
    x56_45 r56 1.0
    x56_45 c45 1.0
    x56_46 OBJ 4.0
    x56_46 r56 1.0
    x56_46 c46 1.0
    x56_47 OBJ 1.0
    x56_47 r56 1.0
    x56_47 c47 1.0
    x56_48 OBJ 1.0
    x56_48 r56 1.0
    x56_48 c48 1.0
    x56_49 OBJ 5.0
    x56_49 r56 1.0
    x56_49 c49 1.0
    x56_50 OBJ 5.0
    x56_50 r56 1.0
    x56_50 c50 1.0
    x56_51 OBJ 3.0
    x56_51 r56 1.0
    x56_51 c51 1.0
    x56_52 OBJ 3.0
    x56_52 r56 1.0
    x56_52 c52 1.0
    x56_53 OBJ 5.0
    x56_53 r56 1.0
    x56_53 c53 1.0
    x56_54 OBJ 3.0
    x56_54 r56 1.0
    x56_54 c54 1.0
    x56_55 OBJ 3.0
    x56_55 r56 1.0
    x56_55 c55 1.0
    x56_56 OBJ 2.0
    x56_56 r56 1.0
    x56_56 c56 1.0
    x56_57 OBJ 1.0
    x56_57 r56 1.0
    x56_57 c57 1.0
    x56_58 OBJ 5.0
    x56_58 r56 1.0
    x56_58 c58 1.0
    x56_59 OBJ 1.0
    x56_59 r56 1.0
    x56_59 c59 1.0
    x56_60 OBJ 5.0
    x56_60 r56 1.0
    x56_60 c60 1.0
    x56_61 OBJ 4.0
    x56_61 r56 1.0
    x56_61 c61 1.0
    x56_62 OBJ 1.0
    x56_62 r56 1.0
    x56_62 c62 1.0
    x56_63 OBJ 3.0
    x56_63 r56 1.0
    x56_63 c63 1.0
    x56_64 OBJ 2.0
    x56_64 r56 1.0
    x56_64 c64 1.0
    x56_65 OBJ 2.0
    x56_65 r56 1.0
    x56_65 c65 1.0
    x56_66 OBJ 1.0
    x56_66 r56 1.0
    x56_66 c66 1.0
    x56_67 OBJ 4.0
    x56_67 r56 1.0
    x56_67 c67 1.0
    x56_68 OBJ 4.0
    x56_68 r56 1.0
    x56_68 c68 1.0
    x56_69 OBJ 3.0
    x56_69 r56 1.0
    x56_69 c69 1.0
    x56_70 OBJ 4.0
    x56_70 r56 1.0
    x56_70 c70 1.0
    x56_71 OBJ 4.0
    x56_71 r56 1.0
    x56_71 c71 1.0
    x56_72 OBJ 4.0
    x56_72 r56 1.0
    x56_72 c72 1.0
    x56_73 OBJ 3.0
    x56_73 r56 1.0
    x56_73 c73 1.0
    x56_74 OBJ 3.0
    x56_74 r56 1.0
    x56_74 c74 1.0
    x56_75 OBJ 2.0
    x56_75 r56 1.0
    x56_75 c75 1.0
    x56_76 OBJ 2.0
    x56_76 r56 1.0
    x56_76 c76 1.0
    x56_77 OBJ 5.0
    x56_77 r56 1.0
    x56_77 c77 1.0
    x56_78 OBJ 5.0
    x56_78 r56 1.0
    x56_78 c78 1.0
    x56_79 OBJ 4.0
    x56_79 r56 1.0
    x56_79 c79 1.0
    x57_0 OBJ 3.0
    x57_0 r57 1.0
    x57_0 c0 1.0
    x57_1 OBJ 2.0
    x57_1 r57 1.0
    x57_1 c1 1.0
    x57_2 OBJ 2.0
    x57_2 r57 1.0
    x57_2 c2 1.0
    x57_3 OBJ 3.0
    x57_3 r57 1.0
    x57_3 c3 1.0
    x57_4 OBJ 1.0
    x57_4 r57 1.0
    x57_4 c4 1.0
    x57_5 OBJ 4.0
    x57_5 r57 1.0
    x57_5 c5 1.0
    x57_6 OBJ 1.0
    x57_6 r57 1.0
    x57_6 c6 1.0
    x57_7 OBJ 5.0
    x57_7 r57 1.0
    x57_7 c7 1.0
    x57_8 OBJ 1.0
    x57_8 r57 1.0
    x57_8 c8 1.0
    x57_9 OBJ 5.0
    x57_9 r57 1.0
    x57_9 c9 1.0
    x57_10 OBJ 2.0
    x57_10 r57 1.0
    x57_10 c10 1.0
    x57_11 OBJ 5.0
    x57_11 r57 1.0
    x57_11 c11 1.0
    x57_12 OBJ 4.0
    x57_12 r57 1.0
    x57_12 c12 1.0
    x57_13 OBJ 4.0
    x57_13 r57 1.0
    x57_13 c13 1.0
    x57_14 OBJ 2.0
    x57_14 r57 1.0
    x57_14 c14 1.0
    x57_15 OBJ 5.0
    x57_15 r57 1.0
    x57_15 c15 1.0
    x57_16 OBJ 3.0
    x57_16 r57 1.0
    x57_16 c16 1.0
    x57_17 OBJ 2.0
    x57_17 r57 1.0
    x57_17 c17 1.0
    x57_18 OBJ 2.0
    x57_18 r57 1.0
    x57_18 c18 1.0
    x57_19 OBJ 2.0
    x57_19 r57 1.0
    x57_19 c19 1.0
    x57_20 OBJ 2.0
    x57_20 r57 1.0
    x57_20 c20 1.0
    x57_21 OBJ 5.0
    x57_21 r57 1.0
    x57_21 c21 1.0
    x57_22 OBJ 1.0
    x57_22 r57 1.0
    x57_22 c22 1.0
    x57_23 OBJ 3.0
    x57_23 r57 1.0
    x57_23 c23 1.0
    x57_24 OBJ 1.0
    x57_24 r57 1.0
    x57_24 c24 1.0
    x57_25 OBJ 4.0
    x57_25 r57 1.0
    x57_25 c25 1.0
    x57_26 OBJ 3.0
    x57_26 r57 1.0
    x57_26 c26 1.0
    x57_27 OBJ 2.0
    x57_27 r57 1.0
    x57_27 c27 1.0
    x57_28 OBJ 4.0
    x57_28 r57 1.0
    x57_28 c28 1.0
    x57_29 OBJ 5.0
    x57_29 r57 1.0
    x57_29 c29 1.0
    x57_30 OBJ 3.0
    x57_30 r57 1.0
    x57_30 c30 1.0
    x57_31 OBJ 1.0
    x57_31 r57 1.0
    x57_31 c31 1.0
    x57_32 OBJ 5.0
    x57_32 r57 1.0
    x57_32 c32 1.0
    x57_33 OBJ 5.0
    x57_33 r57 1.0
    x57_33 c33 1.0
    x57_34 OBJ 5.0
    x57_34 r57 1.0
    x57_34 c34 1.0
    x57_35 OBJ 3.0
    x57_35 r57 1.0
    x57_35 c35 1.0
    x57_36 OBJ 5.0
    x57_36 r57 1.0
    x57_36 c36 1.0
    x57_37 OBJ 2.0
    x57_37 r57 1.0
    x57_37 c37 1.0
    x57_38 OBJ 2.0
    x57_38 r57 1.0
    x57_38 c38 1.0
    x57_39 OBJ 3.0
    x57_39 r57 1.0
    x57_39 c39 1.0
    x57_40 OBJ 1.0
    x57_40 r57 1.0
    x57_40 c40 1.0
    x57_41 OBJ 3.0
    x57_41 r57 1.0
    x57_41 c41 1.0
    x57_42 OBJ 5.0
    x57_42 r57 1.0
    x57_42 c42 1.0
    x57_43 OBJ 1.0
    x57_43 r57 1.0
    x57_43 c43 1.0
    x57_44 OBJ 3.0
    x57_44 r57 1.0
    x57_44 c44 1.0
    x57_45 OBJ 1.0
    x57_45 r57 1.0
    x57_45 c45 1.0
    x57_46 OBJ 5.0
    x57_46 r57 1.0
    x57_46 c46 1.0
    x57_47 OBJ 1.0
    x57_47 r57 1.0
    x57_47 c47 1.0
    x57_48 OBJ 1.0
    x57_48 r57 1.0
    x57_48 c48 1.0
    x57_49 OBJ 3.0
    x57_49 r57 1.0
    x57_49 c49 1.0
    x57_50 OBJ 2.0
    x57_50 r57 1.0
    x57_50 c50 1.0
    x57_51 OBJ 1.0
    x57_51 r57 1.0
    x57_51 c51 1.0
    x57_52 OBJ 4.0
    x57_52 r57 1.0
    x57_52 c52 1.0
    x57_53 OBJ 2.0
    x57_53 r57 1.0
    x57_53 c53 1.0
    x57_54 OBJ 4.0
    x57_54 r57 1.0
    x57_54 c54 1.0
    x57_55 OBJ 3.0
    x57_55 r57 1.0
    x57_55 c55 1.0
    x57_56 OBJ 5.0
    x57_56 r57 1.0
    x57_56 c56 1.0
    x57_57 OBJ 1.0
    x57_57 r57 1.0
    x57_57 c57 1.0
    x57_58 OBJ 4.0
    x57_58 r57 1.0
    x57_58 c58 1.0
    x57_59 OBJ 5.0
    x57_59 r57 1.0
    x57_59 c59 1.0
    x57_60 OBJ 5.0
    x57_60 r57 1.0
    x57_60 c60 1.0
    x57_61 OBJ 5.0
    x57_61 r57 1.0
    x57_61 c61 1.0
    x57_62 OBJ 1.0
    x57_62 r57 1.0
    x57_62 c62 1.0
    x57_63 OBJ 1.0
    x57_63 r57 1.0
    x57_63 c63 1.0
    x57_64 OBJ 5.0
    x57_64 r57 1.0
    x57_64 c64 1.0
    x57_65 OBJ 4.0
    x57_65 r57 1.0
    x57_65 c65 1.0
    x57_66 OBJ 1.0
    x57_66 r57 1.0
    x57_66 c66 1.0
    x57_67 OBJ 4.0
    x57_67 r57 1.0
    x57_67 c67 1.0
    x57_68 OBJ 2.0
    x57_68 r57 1.0
    x57_68 c68 1.0
    x57_69 OBJ 3.0
    x57_69 r57 1.0
    x57_69 c69 1.0
    x57_70 OBJ 3.0
    x57_70 r57 1.0
    x57_70 c70 1.0
    x57_71 OBJ 3.0
    x57_71 r57 1.0
    x57_71 c71 1.0
    x57_72 OBJ 5.0
    x57_72 r57 1.0
    x57_72 c72 1.0
    x57_73 OBJ 5.0
    x57_73 r57 1.0
    x57_73 c73 1.0
    x57_74 OBJ 2.0
    x57_74 r57 1.0
    x57_74 c74 1.0
    x57_75 OBJ 2.0
    x57_75 r57 1.0
    x57_75 c75 1.0
    x57_76 OBJ 5.0
    x57_76 r57 1.0
    x57_76 c76 1.0
    x57_77 OBJ 2.0
    x57_77 r57 1.0
    x57_77 c77 1.0
    x57_78 OBJ 3.0
    x57_78 r57 1.0
    x57_78 c78 1.0
    x57_79 OBJ 5.0
    x57_79 r57 1.0
    x57_79 c79 1.0
    x58_0 OBJ 5.0
    x58_0 r58 1.0
    x58_0 c0 1.0
    x58_1 OBJ 1.0
    x58_1 r58 1.0
    x58_1 c1 1.0
    x58_2 OBJ 2.0
    x58_2 r58 1.0
    x58_2 c2 1.0
    x58_3 OBJ 2.0
    x58_3 r58 1.0
    x58_3 c3 1.0
    x58_4 OBJ 1.0
    x58_4 r58 1.0
    x58_4 c4 1.0
    x58_5 OBJ 5.0
    x58_5 r58 1.0
    x58_5 c5 1.0
    x58_6 OBJ 3.0
    x58_6 r58 1.0
    x58_6 c6 1.0
    x58_7 OBJ 4.0
    x58_7 r58 1.0
    x58_7 c7 1.0
    x58_8 OBJ 3.0
    x58_8 r58 1.0
    x58_8 c8 1.0
    x58_9 OBJ 1.0
    x58_9 r58 1.0
    x58_9 c9 1.0
    x58_10 OBJ 3.0
    x58_10 r58 1.0
    x58_10 c10 1.0
    x58_11 OBJ 1.0
    x58_11 r58 1.0
    x58_11 c11 1.0
    x58_12 OBJ 5.0
    x58_12 r58 1.0
    x58_12 c12 1.0
    x58_13 OBJ 1.0
    x58_13 r58 1.0
    x58_13 c13 1.0
    x58_14 OBJ 4.0
    x58_14 r58 1.0
    x58_14 c14 1.0
    x58_15 OBJ 4.0
    x58_15 r58 1.0
    x58_15 c15 1.0
    x58_16 OBJ 5.0
    x58_16 r58 1.0
    x58_16 c16 1.0
    x58_17 OBJ 5.0
    x58_17 r58 1.0
    x58_17 c17 1.0
    x58_18 OBJ 4.0
    x58_18 r58 1.0
    x58_18 c18 1.0
    x58_19 OBJ 2.0
    x58_19 r58 1.0
    x58_19 c19 1.0
    x58_20 OBJ 1.0
    x58_20 r58 1.0
    x58_20 c20 1.0
    x58_21 OBJ 3.0
    x58_21 r58 1.0
    x58_21 c21 1.0
    x58_22 OBJ 5.0
    x58_22 r58 1.0
    x58_22 c22 1.0
    x58_23 OBJ 3.0
    x58_23 r58 1.0
    x58_23 c23 1.0
    x58_24 OBJ 3.0
    x58_24 r58 1.0
    x58_24 c24 1.0
    x58_25 OBJ 1.0
    x58_25 r58 1.0
    x58_25 c25 1.0
    x58_26 OBJ 4.0
    x58_26 r58 1.0
    x58_26 c26 1.0
    x58_27 OBJ 5.0
    x58_27 r58 1.0
    x58_27 c27 1.0
    x58_28 OBJ 2.0
    x58_28 r58 1.0
    x58_28 c28 1.0
    x58_29 OBJ 4.0
    x58_29 r58 1.0
    x58_29 c29 1.0
    x58_30 OBJ 4.0
    x58_30 r58 1.0
    x58_30 c30 1.0
    x58_31 OBJ 5.0
    x58_31 r58 1.0
    x58_31 c31 1.0
    x58_32 OBJ 4.0
    x58_32 r58 1.0
    x58_32 c32 1.0
    x58_33 OBJ 2.0
    x58_33 r58 1.0
    x58_33 c33 1.0
    x58_34 OBJ 3.0
    x58_34 r58 1.0
    x58_34 c34 1.0
    x58_35 OBJ 5.0
    x58_35 r58 1.0
    x58_35 c35 1.0
    x58_36 OBJ 2.0
    x58_36 r58 1.0
    x58_36 c36 1.0
    x58_37 OBJ 1.0
    x58_37 r58 1.0
    x58_37 c37 1.0
    x58_38 OBJ 4.0
    x58_38 r58 1.0
    x58_38 c38 1.0
    x58_39 OBJ 2.0
    x58_39 r58 1.0
    x58_39 c39 1.0
    x58_40 OBJ 3.0
    x58_40 r58 1.0
    x58_40 c40 1.0
    x58_41 OBJ 2.0
    x58_41 r58 1.0
    x58_41 c41 1.0
    x58_42 OBJ 1.0
    x58_42 r58 1.0
    x58_42 c42 1.0
    x58_43 OBJ 5.0
    x58_43 r58 1.0
    x58_43 c43 1.0
    x58_44 OBJ 1.0
    x58_44 r58 1.0
    x58_44 c44 1.0
    x58_45 OBJ 4.0
    x58_45 r58 1.0
    x58_45 c45 1.0
    x58_46 OBJ 2.0
    x58_46 r58 1.0
    x58_46 c46 1.0
    x58_47 OBJ 2.0
    x58_47 r58 1.0
    x58_47 c47 1.0
    x58_48 OBJ 3.0
    x58_48 r58 1.0
    x58_48 c48 1.0
    x58_49 OBJ 2.0
    x58_49 r58 1.0
    x58_49 c49 1.0
    x58_50 OBJ 5.0
    x58_50 r58 1.0
    x58_50 c50 1.0
    x58_51 OBJ 3.0
    x58_51 r58 1.0
    x58_51 c51 1.0
    x58_52 OBJ 1.0
    x58_52 r58 1.0
    x58_52 c52 1.0
    x58_53 OBJ 5.0
    x58_53 r58 1.0
    x58_53 c53 1.0
    x58_54 OBJ 1.0
    x58_54 r58 1.0
    x58_54 c54 1.0
    x58_55 OBJ 1.0
    x58_55 r58 1.0
    x58_55 c55 1.0
    x58_56 OBJ 3.0
    x58_56 r58 1.0
    x58_56 c56 1.0
    x58_57 OBJ 2.0
    x58_57 r58 1.0
    x58_57 c57 1.0
    x58_58 OBJ 4.0
    x58_58 r58 1.0
    x58_58 c58 1.0
    x58_59 OBJ 1.0
    x58_59 r58 1.0
    x58_59 c59 1.0
    x58_60 OBJ 5.0
    x58_60 r58 1.0
    x58_60 c60 1.0
    x58_61 OBJ 3.0
    x58_61 r58 1.0
    x58_61 c61 1.0
    x58_62 OBJ 5.0
    x58_62 r58 1.0
    x58_62 c62 1.0
    x58_63 OBJ 3.0
    x58_63 r58 1.0
    x58_63 c63 1.0
    x58_64 OBJ 2.0
    x58_64 r58 1.0
    x58_64 c64 1.0
    x58_65 OBJ 5.0
    x58_65 r58 1.0
    x58_65 c65 1.0
    x58_66 OBJ 3.0
    x58_66 r58 1.0
    x58_66 c66 1.0
    x58_67 OBJ 3.0
    x58_67 r58 1.0
    x58_67 c67 1.0
    x58_68 OBJ 3.0
    x58_68 r58 1.0
    x58_68 c68 1.0
    x58_69 OBJ 1.0
    x58_69 r58 1.0
    x58_69 c69 1.0
    x58_70 OBJ 1.0
    x58_70 r58 1.0
    x58_70 c70 1.0
    x58_71 OBJ 2.0
    x58_71 r58 1.0
    x58_71 c71 1.0
    x58_72 OBJ 3.0
    x58_72 r58 1.0
    x58_72 c72 1.0
    x58_73 OBJ 4.0
    x58_73 r58 1.0
    x58_73 c73 1.0
    x58_74 OBJ 1.0
    x58_74 r58 1.0
    x58_74 c74 1.0
    x58_75 OBJ 4.0
    x58_75 r58 1.0
    x58_75 c75 1.0
    x58_76 OBJ 1.0
    x58_76 r58 1.0
    x58_76 c76 1.0
    x58_77 OBJ 3.0
    x58_77 r58 1.0
    x58_77 c77 1.0
    x58_78 OBJ 1.0
    x58_78 r58 1.0
    x58_78 c78 1.0
    x58_79 OBJ 2.0
    x58_79 r58 1.0
    x58_79 c79 1.0
    x59_0 OBJ 3.0
    x59_0 r59 1.0
    x59_0 c0 1.0
    x59_1 OBJ 4.0
    x59_1 r59 1.0
    x59_1 c1 1.0
    x59_2 OBJ 4.0
    x59_2 r59 1.0
    x59_2 c2 1.0
    x59_3 OBJ 1.0
    x59_3 r59 1.0
    x59_3 c3 1.0
    x59_4 OBJ 3.0
    x59_4 r59 1.0
    x59_4 c4 1.0
    x59_5 OBJ 3.0
    x59_5 r59 1.0
    x59_5 c5 1.0
    x59_6 OBJ 4.0
    x59_6 r59 1.0
    x59_6 c6 1.0
    x59_7 OBJ 2.0
    x59_7 r59 1.0
    x59_7 c7 1.0
    x59_8 OBJ 1.0
    x59_8 r59 1.0
    x59_8 c8 1.0
    x59_9 OBJ 5.0
    x59_9 r59 1.0
    x59_9 c9 1.0
    x59_10 OBJ 5.0
    x59_10 r59 1.0
    x59_10 c10 1.0
    x59_11 OBJ 3.0
    x59_11 r59 1.0
    x59_11 c11 1.0
    x59_12 OBJ 5.0
    x59_12 r59 1.0
    x59_12 c12 1.0
    x59_13 OBJ 4.0
    x59_13 r59 1.0
    x59_13 c13 1.0
    x59_14 OBJ 2.0
    x59_14 r59 1.0
    x59_14 c14 1.0
    x59_15 OBJ 3.0
    x59_15 r59 1.0
    x59_15 c15 1.0
    x59_16 OBJ 3.0
    x59_16 r59 1.0
    x59_16 c16 1.0
    x59_17 OBJ 1.0
    x59_17 r59 1.0
    x59_17 c17 1.0
    x59_18 OBJ 2.0
    x59_18 r59 1.0
    x59_18 c18 1.0
    x59_19 OBJ 3.0
    x59_19 r59 1.0
    x59_19 c19 1.0
    x59_20 OBJ 5.0
    x59_20 r59 1.0
    x59_20 c20 1.0
    x59_21 OBJ 4.0
    x59_21 r59 1.0
    x59_21 c21 1.0
    x59_22 OBJ 4.0
    x59_22 r59 1.0
    x59_22 c22 1.0
    x59_23 OBJ 2.0
    x59_23 r59 1.0
    x59_23 c23 1.0
    x59_24 OBJ 4.0
    x59_24 r59 1.0
    x59_24 c24 1.0
    x59_25 OBJ 2.0
    x59_25 r59 1.0
    x59_25 c25 1.0
    x59_26 OBJ 2.0
    x59_26 r59 1.0
    x59_26 c26 1.0
    x59_27 OBJ 1.0
    x59_27 r59 1.0
    x59_27 c27 1.0
    x59_28 OBJ 1.0
    x59_28 r59 1.0
    x59_28 c28 1.0
    x59_29 OBJ 2.0
    x59_29 r59 1.0
    x59_29 c29 1.0
    x59_30 OBJ 5.0
    x59_30 r59 1.0
    x59_30 c30 1.0
    x59_31 OBJ 5.0
    x59_31 r59 1.0
    x59_31 c31 1.0
    x59_32 OBJ 4.0
    x59_32 r59 1.0
    x59_32 c32 1.0
    x59_33 OBJ 1.0
    x59_33 r59 1.0
    x59_33 c33 1.0
    x59_34 OBJ 1.0
    x59_34 r59 1.0
    x59_34 c34 1.0
    x59_35 OBJ 1.0
    x59_35 r59 1.0
    x59_35 c35 1.0
    x59_36 OBJ 4.0
    x59_36 r59 1.0
    x59_36 c36 1.0
    x59_37 OBJ 1.0
    x59_37 r59 1.0
    x59_37 c37 1.0
    x59_38 OBJ 2.0
    x59_38 r59 1.0
    x59_38 c38 1.0
    x59_39 OBJ 5.0
    x59_39 r59 1.0
    x59_39 c39 1.0
    x59_40 OBJ 5.0
    x59_40 r59 1.0
    x59_40 c40 1.0
    x59_41 OBJ 1.0
    x59_41 r59 1.0
    x59_41 c41 1.0
    x59_42 OBJ 3.0
    x59_42 r59 1.0
    x59_42 c42 1.0
    x59_43 OBJ 3.0
    x59_43 r59 1.0
    x59_43 c43 1.0
    x59_44 OBJ 5.0
    x59_44 r59 1.0
    x59_44 c44 1.0
    x59_45 OBJ 5.0
    x59_45 r59 1.0
    x59_45 c45 1.0
    x59_46 OBJ 4.0
    x59_46 r59 1.0
    x59_46 c46 1.0
    x59_47 OBJ 4.0
    x59_47 r59 1.0
    x59_47 c47 1.0
    x59_48 OBJ 2.0
    x59_48 r59 1.0
    x59_48 c48 1.0
    x59_49 OBJ 1.0
    x59_49 r59 1.0
    x59_49 c49 1.0
    x59_50 OBJ 2.0
    x59_50 r59 1.0
    x59_50 c50 1.0
    x59_51 OBJ 2.0
    x59_51 r59 1.0
    x59_51 c51 1.0
    x59_52 OBJ 3.0
    x59_52 r59 1.0
    x59_52 c52 1.0
    x59_53 OBJ 4.0
    x59_53 r59 1.0
    x59_53 c53 1.0
    x59_54 OBJ 1.0
    x59_54 r59 1.0
    x59_54 c54 1.0
    x59_55 OBJ 1.0
    x59_55 r59 1.0
    x59_55 c55 1.0
    x59_56 OBJ 5.0
    x59_56 r59 1.0
    x59_56 c56 1.0
    x59_57 OBJ 2.0
    x59_57 r59 1.0
    x59_57 c57 1.0
    x59_58 OBJ 2.0
    x59_58 r59 1.0
    x59_58 c58 1.0
    x59_59 OBJ 4.0
    x59_59 r59 1.0
    x59_59 c59 1.0
    x59_60 OBJ 4.0
    x59_60 r59 1.0
    x59_60 c60 1.0
    x59_61 OBJ 5.0
    x59_61 r59 1.0
    x59_61 c61 1.0
    x59_62 OBJ 5.0
    x59_62 r59 1.0
    x59_62 c62 1.0
    x59_63 OBJ 4.0
    x59_63 r59 1.0
    x59_63 c63 1.0
    x59_64 OBJ 1.0
    x59_64 r59 1.0
    x59_64 c64 1.0
    x59_65 OBJ 5.0
    x59_65 r59 1.0
    x59_65 c65 1.0
    x59_66 OBJ 1.0
    x59_66 r59 1.0
    x59_66 c66 1.0
    x59_67 OBJ 4.0
    x59_67 r59 1.0
    x59_67 c67 1.0
    x59_68 OBJ 2.0
    x59_68 r59 1.0
    x59_68 c68 1.0
    x59_69 OBJ 4.0
    x59_69 r59 1.0
    x59_69 c69 1.0
    x59_70 OBJ 2.0
    x59_70 r59 1.0
    x59_70 c70 1.0
    x59_71 OBJ 4.0
    x59_71 r59 1.0
    x59_71 c71 1.0
    x59_72 OBJ 4.0
    x59_72 r59 1.0
    x59_72 c72 1.0
    x59_73 OBJ 5.0
    x59_73 r59 1.0
    x59_73 c73 1.0
    x59_74 OBJ 2.0
    x59_74 r59 1.0
    x59_74 c74 1.0
    x59_75 OBJ 1.0
    x59_75 r59 1.0
    x59_75 c75 1.0
    x59_76 OBJ 4.0
    x59_76 r59 1.0
    x59_76 c76 1.0
    x59_77 OBJ 5.0
    x59_77 r59 1.0
    x59_77 c77 1.0
    x59_78 OBJ 4.0
    x59_78 r59 1.0
    x59_78 c78 1.0
    x59_79 OBJ 1.0
    x59_79 r59 1.0
    x59_79 c79 1.0
    x60_0 OBJ 2.0
    x60_0 r60 1.0
    x60_0 c0 1.0
    x60_1 OBJ 2.0
    x60_1 r60 1.0
    x60_1 c1 1.0
    x60_2 OBJ 1.0
    x60_2 r60 1.0
    x60_2 c2 1.0
    x60_3 OBJ 4.0
    x60_3 r60 1.0
    x60_3 c3 1.0
    x60_4 OBJ 5.0
    x60_4 r60 1.0
    x60_4 c4 1.0
    x60_5 OBJ 2.0
    x60_5 r60 1.0
    x60_5 c5 1.0
    x60_6 OBJ 1.0
    x60_6 r60 1.0
    x60_6 c6 1.0
    x60_7 OBJ 2.0
    x60_7 r60 1.0
    x60_7 c7 1.0
    x60_8 OBJ 1.0
    x60_8 r60 1.0
    x60_8 c8 1.0
    x60_9 OBJ 2.0
    x60_9 r60 1.0
    x60_9 c9 1.0
    x60_10 OBJ 1.0
    x60_10 r60 1.0
    x60_10 c10 1.0
    x60_11 OBJ 1.0
    x60_11 r60 1.0
    x60_11 c11 1.0
    x60_12 OBJ 4.0
    x60_12 r60 1.0
    x60_12 c12 1.0
    x60_13 OBJ 1.0
    x60_13 r60 1.0
    x60_13 c13 1.0
    x60_14 OBJ 4.0
    x60_14 r60 1.0
    x60_14 c14 1.0
    x60_15 OBJ 2.0
    x60_15 r60 1.0
    x60_15 c15 1.0
    x60_16 OBJ 2.0
    x60_16 r60 1.0
    x60_16 c16 1.0
    x60_17 OBJ 1.0
    x60_17 r60 1.0
    x60_17 c17 1.0
    x60_18 OBJ 5.0
    x60_18 r60 1.0
    x60_18 c18 1.0
    x60_19 OBJ 5.0
    x60_19 r60 1.0
    x60_19 c19 1.0
    x60_20 OBJ 4.0
    x60_20 r60 1.0
    x60_20 c20 1.0
    x60_21 OBJ 3.0
    x60_21 r60 1.0
    x60_21 c21 1.0
    x60_22 OBJ 1.0
    x60_22 r60 1.0
    x60_22 c22 1.0
    x60_23 OBJ 2.0
    x60_23 r60 1.0
    x60_23 c23 1.0
    x60_24 OBJ 4.0
    x60_24 r60 1.0
    x60_24 c24 1.0
    x60_25 OBJ 1.0
    x60_25 r60 1.0
    x60_25 c25 1.0
    x60_26 OBJ 4.0
    x60_26 r60 1.0
    x60_26 c26 1.0
    x60_27 OBJ 1.0
    x60_27 r60 1.0
    x60_27 c27 1.0
    x60_28 OBJ 1.0
    x60_28 r60 1.0
    x60_28 c28 1.0
    x60_29 OBJ 2.0
    x60_29 r60 1.0
    x60_29 c29 1.0
    x60_30 OBJ 2.0
    x60_30 r60 1.0
    x60_30 c30 1.0
    x60_31 OBJ 5.0
    x60_31 r60 1.0
    x60_31 c31 1.0
    x60_32 OBJ 2.0
    x60_32 r60 1.0
    x60_32 c32 1.0
    x60_33 OBJ 5.0
    x60_33 r60 1.0
    x60_33 c33 1.0
    x60_34 OBJ 5.0
    x60_34 r60 1.0
    x60_34 c34 1.0
    x60_35 OBJ 3.0
    x60_35 r60 1.0
    x60_35 c35 1.0
    x60_36 OBJ 1.0
    x60_36 r60 1.0
    x60_36 c36 1.0
    x60_37 OBJ 5.0
    x60_37 r60 1.0
    x60_37 c37 1.0
    x60_38 OBJ 4.0
    x60_38 r60 1.0
    x60_38 c38 1.0
    x60_39 OBJ 1.0
    x60_39 r60 1.0
    x60_39 c39 1.0
    x60_40 OBJ 1.0
    x60_40 r60 1.0
    x60_40 c40 1.0
    x60_41 OBJ 1.0
    x60_41 r60 1.0
    x60_41 c41 1.0
    x60_42 OBJ 5.0
    x60_42 r60 1.0
    x60_42 c42 1.0
    x60_43 OBJ 1.0
    x60_43 r60 1.0
    x60_43 c43 1.0
    x60_44 OBJ 5.0
    x60_44 r60 1.0
    x60_44 c44 1.0
    x60_45 OBJ 5.0
    x60_45 r60 1.0
    x60_45 c45 1.0
    x60_46 OBJ 5.0
    x60_46 r60 1.0
    x60_46 c46 1.0
    x60_47 OBJ 5.0
    x60_47 r60 1.0
    x60_47 c47 1.0
    x60_48 OBJ 5.0
    x60_48 r60 1.0
    x60_48 c48 1.0
    x60_49 OBJ 5.0
    x60_49 r60 1.0
    x60_49 c49 1.0
    x60_50 OBJ 1.0
    x60_50 r60 1.0
    x60_50 c50 1.0
    x60_51 OBJ 1.0
    x60_51 r60 1.0
    x60_51 c51 1.0
    x60_52 OBJ 5.0
    x60_52 r60 1.0
    x60_52 c52 1.0
    x60_53 OBJ 5.0
    x60_53 r60 1.0
    x60_53 c53 1.0
    x60_54 OBJ 3.0
    x60_54 r60 1.0
    x60_54 c54 1.0
    x60_55 OBJ 4.0
    x60_55 r60 1.0
    x60_55 c55 1.0
    x60_56 OBJ 4.0
    x60_56 r60 1.0
    x60_56 c56 1.0
    x60_57 OBJ 1.0
    x60_57 r60 1.0
    x60_57 c57 1.0
    x60_58 OBJ 5.0
    x60_58 r60 1.0
    x60_58 c58 1.0
    x60_59 OBJ 2.0
    x60_59 r60 1.0
    x60_59 c59 1.0
    x60_60 OBJ 1.0
    x60_60 r60 1.0
    x60_60 c60 1.0
    x60_61 OBJ 2.0
    x60_61 r60 1.0
    x60_61 c61 1.0
    x60_62 OBJ 5.0
    x60_62 r60 1.0
    x60_62 c62 1.0
    x60_63 OBJ 4.0
    x60_63 r60 1.0
    x60_63 c63 1.0
    x60_64 OBJ 2.0
    x60_64 r60 1.0
    x60_64 c64 1.0
    x60_65 OBJ 1.0
    x60_65 r60 1.0
    x60_65 c65 1.0
    x60_66 OBJ 2.0
    x60_66 r60 1.0
    x60_66 c66 1.0
    x60_67 OBJ 4.0
    x60_67 r60 1.0
    x60_67 c67 1.0
    x60_68 OBJ 1.0
    x60_68 r60 1.0
    x60_68 c68 1.0
    x60_69 OBJ 5.0
    x60_69 r60 1.0
    x60_69 c69 1.0
    x60_70 OBJ 1.0
    x60_70 r60 1.0
    x60_70 c70 1.0
    x60_71 OBJ 5.0
    x60_71 r60 1.0
    x60_71 c71 1.0
    x60_72 OBJ 5.0
    x60_72 r60 1.0
    x60_72 c72 1.0
    x60_73 OBJ 3.0
    x60_73 r60 1.0
    x60_73 c73 1.0
    x60_74 OBJ 1.0
    x60_74 r60 1.0
    x60_74 c74 1.0
    x60_75 OBJ 1.0
    x60_75 r60 1.0
    x60_75 c75 1.0
    x60_76 OBJ 2.0
    x60_76 r60 1.0
    x60_76 c76 1.0
    x60_77 OBJ 1.0
    x60_77 r60 1.0
    x60_77 c77 1.0
    x60_78 OBJ 1.0
    x60_78 r60 1.0
    x60_78 c78 1.0
    x60_79 OBJ 3.0
    x60_79 r60 1.0
    x60_79 c79 1.0
    x61_0 OBJ 3.0
    x61_0 r61 1.0
    x61_0 c0 1.0
    x61_1 OBJ 3.0
    x61_1 r61 1.0
    x61_1 c1 1.0
    x61_2 OBJ 3.0
    x61_2 r61 1.0
    x61_2 c2 1.0
    x61_3 OBJ 3.0
    x61_3 r61 1.0
    x61_3 c3 1.0
    x61_4 OBJ 2.0
    x61_4 r61 1.0
    x61_4 c4 1.0
    x61_5 OBJ 4.0
    x61_5 r61 1.0
    x61_5 c5 1.0
    x61_6 OBJ 5.0
    x61_6 r61 1.0
    x61_6 c6 1.0
    x61_7 OBJ 5.0
    x61_7 r61 1.0
    x61_7 c7 1.0
    x61_8 OBJ 3.0
    x61_8 r61 1.0
    x61_8 c8 1.0
    x61_9 OBJ 2.0
    x61_9 r61 1.0
    x61_9 c9 1.0
    x61_10 OBJ 1.0
    x61_10 r61 1.0
    x61_10 c10 1.0
    x61_11 OBJ 1.0
    x61_11 r61 1.0
    x61_11 c11 1.0
    x61_12 OBJ 1.0
    x61_12 r61 1.0
    x61_12 c12 1.0
    x61_13 OBJ 1.0
    x61_13 r61 1.0
    x61_13 c13 1.0
    x61_14 OBJ 1.0
    x61_14 r61 1.0
    x61_14 c14 1.0
    x61_15 OBJ 5.0
    x61_15 r61 1.0
    x61_15 c15 1.0
    x61_16 OBJ 2.0
    x61_16 r61 1.0
    x61_16 c16 1.0
    x61_17 OBJ 5.0
    x61_17 r61 1.0
    x61_17 c17 1.0
    x61_18 OBJ 4.0
    x61_18 r61 1.0
    x61_18 c18 1.0
    x61_19 OBJ 4.0
    x61_19 r61 1.0
    x61_19 c19 1.0
    x61_20 OBJ 4.0
    x61_20 r61 1.0
    x61_20 c20 1.0
    x61_21 OBJ 5.0
    x61_21 r61 1.0
    x61_21 c21 1.0
    x61_22 OBJ 5.0
    x61_22 r61 1.0
    x61_22 c22 1.0
    x61_23 OBJ 2.0
    x61_23 r61 1.0
    x61_23 c23 1.0
    x61_24 OBJ 1.0
    x61_24 r61 1.0
    x61_24 c24 1.0
    x61_25 OBJ 1.0
    x61_25 r61 1.0
    x61_25 c25 1.0
    x61_26 OBJ 1.0
    x61_26 r61 1.0
    x61_26 c26 1.0
    x61_27 OBJ 1.0
    x61_27 r61 1.0
    x61_27 c27 1.0
    x61_28 OBJ 2.0
    x61_28 r61 1.0
    x61_28 c28 1.0
    x61_29 OBJ 4.0
    x61_29 r61 1.0
    x61_29 c29 1.0
    x61_30 OBJ 1.0
    x61_30 r61 1.0
    x61_30 c30 1.0
    x61_31 OBJ 2.0
    x61_31 r61 1.0
    x61_31 c31 1.0
    x61_32 OBJ 5.0
    x61_32 r61 1.0
    x61_32 c32 1.0
    x61_33 OBJ 3.0
    x61_33 r61 1.0
    x61_33 c33 1.0
    x61_34 OBJ 4.0
    x61_34 r61 1.0
    x61_34 c34 1.0
    x61_35 OBJ 3.0
    x61_35 r61 1.0
    x61_35 c35 1.0
    x61_36 OBJ 2.0
    x61_36 r61 1.0
    x61_36 c36 1.0
    x61_37 OBJ 3.0
    x61_37 r61 1.0
    x61_37 c37 1.0
    x61_38 OBJ 3.0
    x61_38 r61 1.0
    x61_38 c38 1.0
    x61_39 OBJ 3.0
    x61_39 r61 1.0
    x61_39 c39 1.0
    x61_40 OBJ 1.0
    x61_40 r61 1.0
    x61_40 c40 1.0
    x61_41 OBJ 3.0
    x61_41 r61 1.0
    x61_41 c41 1.0
    x61_42 OBJ 4.0
    x61_42 r61 1.0
    x61_42 c42 1.0
    x61_43 OBJ 1.0
    x61_43 r61 1.0
    x61_43 c43 1.0
    x61_44 OBJ 2.0
    x61_44 r61 1.0
    x61_44 c44 1.0
    x61_45 OBJ 4.0
    x61_45 r61 1.0
    x61_45 c45 1.0
    x61_46 OBJ 2.0
    x61_46 r61 1.0
    x61_46 c46 1.0
    x61_47 OBJ 4.0
    x61_47 r61 1.0
    x61_47 c47 1.0
    x61_48 OBJ 5.0
    x61_48 r61 1.0
    x61_48 c48 1.0
    x61_49 OBJ 3.0
    x61_49 r61 1.0
    x61_49 c49 1.0
    x61_50 OBJ 3.0
    x61_50 r61 1.0
    x61_50 c50 1.0
    x61_51 OBJ 2.0
    x61_51 r61 1.0
    x61_51 c51 1.0
    x61_52 OBJ 1.0
    x61_52 r61 1.0
    x61_52 c52 1.0
    x61_53 OBJ 4.0
    x61_53 r61 1.0
    x61_53 c53 1.0
    x61_54 OBJ 5.0
    x61_54 r61 1.0
    x61_54 c54 1.0
    x61_55 OBJ 1.0
    x61_55 r61 1.0
    x61_55 c55 1.0
    x61_56 OBJ 3.0
    x61_56 r61 1.0
    x61_56 c56 1.0
    x61_57 OBJ 2.0
    x61_57 r61 1.0
    x61_57 c57 1.0
    x61_58 OBJ 5.0
    x61_58 r61 1.0
    x61_58 c58 1.0
    x61_59 OBJ 3.0
    x61_59 r61 1.0
    x61_59 c59 1.0
    x61_60 OBJ 3.0
    x61_60 r61 1.0
    x61_60 c60 1.0
    x61_61 OBJ 1.0
    x61_61 r61 1.0
    x61_61 c61 1.0
    x61_62 OBJ 2.0
    x61_62 r61 1.0
    x61_62 c62 1.0
    x61_63 OBJ 3.0
    x61_63 r61 1.0
    x61_63 c63 1.0
    x61_64 OBJ 1.0
    x61_64 r61 1.0
    x61_64 c64 1.0
    x61_65 OBJ 5.0
    x61_65 r61 1.0
    x61_65 c65 1.0
    x61_66 OBJ 2.0
    x61_66 r61 1.0
    x61_66 c66 1.0
    x61_67 OBJ 1.0
    x61_67 r61 1.0
    x61_67 c67 1.0
    x61_68 OBJ 1.0
    x61_68 r61 1.0
    x61_68 c68 1.0
    x61_69 OBJ 3.0
    x61_69 r61 1.0
    x61_69 c69 1.0
    x61_70 OBJ 4.0
    x61_70 r61 1.0
    x61_70 c70 1.0
    x61_71 OBJ 3.0
    x61_71 r61 1.0
    x61_71 c71 1.0
    x61_72 OBJ 3.0
    x61_72 r61 1.0
    x61_72 c72 1.0
    x61_73 OBJ 1.0
    x61_73 r61 1.0
    x61_73 c73 1.0
    x61_74 OBJ 5.0
    x61_74 r61 1.0
    x61_74 c74 1.0
    x61_75 OBJ 1.0
    x61_75 r61 1.0
    x61_75 c75 1.0
    x61_76 OBJ 4.0
    x61_76 r61 1.0
    x61_76 c76 1.0
    x61_77 OBJ 2.0
    x61_77 r61 1.0
    x61_77 c77 1.0
    x61_78 OBJ 2.0
    x61_78 r61 1.0
    x61_78 c78 1.0
    x61_79 OBJ 5.0
    x61_79 r61 1.0
    x61_79 c79 1.0
    x62_0 OBJ 1.0
    x62_0 r62 1.0
    x62_0 c0 1.0
    x62_1 OBJ 5.0
    x62_1 r62 1.0
    x62_1 c1 1.0
    x62_2 OBJ 2.0
    x62_2 r62 1.0
    x62_2 c2 1.0
    x62_3 OBJ 4.0
    x62_3 r62 1.0
    x62_3 c3 1.0
    x62_4 OBJ 5.0
    x62_4 r62 1.0
    x62_4 c4 1.0
    x62_5 OBJ 1.0
    x62_5 r62 1.0
    x62_5 c5 1.0
    x62_6 OBJ 2.0
    x62_6 r62 1.0
    x62_6 c6 1.0
    x62_7 OBJ 2.0
    x62_7 r62 1.0
    x62_7 c7 1.0
    x62_8 OBJ 3.0
    x62_8 r62 1.0
    x62_8 c8 1.0
    x62_9 OBJ 1.0
    x62_9 r62 1.0
    x62_9 c9 1.0
    x62_10 OBJ 3.0
    x62_10 r62 1.0
    x62_10 c10 1.0
    x62_11 OBJ 4.0
    x62_11 r62 1.0
    x62_11 c11 1.0
    x62_12 OBJ 1.0
    x62_12 r62 1.0
    x62_12 c12 1.0
    x62_13 OBJ 2.0
    x62_13 r62 1.0
    x62_13 c13 1.0
    x62_14 OBJ 5.0
    x62_14 r62 1.0
    x62_14 c14 1.0
    x62_15 OBJ 4.0
    x62_15 r62 1.0
    x62_15 c15 1.0
    x62_16 OBJ 5.0
    x62_16 r62 1.0
    x62_16 c16 1.0
    x62_17 OBJ 2.0
    x62_17 r62 1.0
    x62_17 c17 1.0
    x62_18 OBJ 3.0
    x62_18 r62 1.0
    x62_18 c18 1.0
    x62_19 OBJ 4.0
    x62_19 r62 1.0
    x62_19 c19 1.0
    x62_20 OBJ 2.0
    x62_20 r62 1.0
    x62_20 c20 1.0
    x62_21 OBJ 3.0
    x62_21 r62 1.0
    x62_21 c21 1.0
    x62_22 OBJ 3.0
    x62_22 r62 1.0
    x62_22 c22 1.0
    x62_23 OBJ 1.0
    x62_23 r62 1.0
    x62_23 c23 1.0
    x62_24 OBJ 1.0
    x62_24 r62 1.0
    x62_24 c24 1.0
    x62_25 OBJ 2.0
    x62_25 r62 1.0
    x62_25 c25 1.0
    x62_26 OBJ 3.0
    x62_26 r62 1.0
    x62_26 c26 1.0
    x62_27 OBJ 5.0
    x62_27 r62 1.0
    x62_27 c27 1.0
    x62_28 OBJ 5.0
    x62_28 r62 1.0
    x62_28 c28 1.0
    x62_29 OBJ 2.0
    x62_29 r62 1.0
    x62_29 c29 1.0
    x62_30 OBJ 1.0
    x62_30 r62 1.0
    x62_30 c30 1.0
    x62_31 OBJ 5.0
    x62_31 r62 1.0
    x62_31 c31 1.0
    x62_32 OBJ 1.0
    x62_32 r62 1.0
    x62_32 c32 1.0
    x62_33 OBJ 4.0
    x62_33 r62 1.0
    x62_33 c33 1.0
    x62_34 OBJ 3.0
    x62_34 r62 1.0
    x62_34 c34 1.0
    x62_35 OBJ 1.0
    x62_35 r62 1.0
    x62_35 c35 1.0
    x62_36 OBJ 1.0
    x62_36 r62 1.0
    x62_36 c36 1.0
    x62_37 OBJ 1.0
    x62_37 r62 1.0
    x62_37 c37 1.0
    x62_38 OBJ 5.0
    x62_38 r62 1.0
    x62_38 c38 1.0
    x62_39 OBJ 1.0
    x62_39 r62 1.0
    x62_39 c39 1.0
    x62_40 OBJ 1.0
    x62_40 r62 1.0
    x62_40 c40 1.0
    x62_41 OBJ 3.0
    x62_41 r62 1.0
    x62_41 c41 1.0
    x62_42 OBJ 1.0
    x62_42 r62 1.0
    x62_42 c42 1.0
    x62_43 OBJ 2.0
    x62_43 r62 1.0
    x62_43 c43 1.0
    x62_44 OBJ 5.0
    x62_44 r62 1.0
    x62_44 c44 1.0
    x62_45 OBJ 1.0
    x62_45 r62 1.0
    x62_45 c45 1.0
    x62_46 OBJ 4.0
    x62_46 r62 1.0
    x62_46 c46 1.0
    x62_47 OBJ 5.0
    x62_47 r62 1.0
    x62_47 c47 1.0
    x62_48 OBJ 3.0
    x62_48 r62 1.0
    x62_48 c48 1.0
    x62_49 OBJ 4.0
    x62_49 r62 1.0
    x62_49 c49 1.0
    x62_50 OBJ 2.0
    x62_50 r62 1.0
    x62_50 c50 1.0
    x62_51 OBJ 1.0
    x62_51 r62 1.0
    x62_51 c51 1.0
    x62_52 OBJ 3.0
    x62_52 r62 1.0
    x62_52 c52 1.0
    x62_53 OBJ 3.0
    x62_53 r62 1.0
    x62_53 c53 1.0
    x62_54 OBJ 4.0
    x62_54 r62 1.0
    x62_54 c54 1.0
    x62_55 OBJ 4.0
    x62_55 r62 1.0
    x62_55 c55 1.0
    x62_56 OBJ 2.0
    x62_56 r62 1.0
    x62_56 c56 1.0
    x62_57 OBJ 4.0
    x62_57 r62 1.0
    x62_57 c57 1.0
    x62_58 OBJ 1.0
    x62_58 r62 1.0
    x62_58 c58 1.0
    x62_59 OBJ 4.0
    x62_59 r62 1.0
    x62_59 c59 1.0
    x62_60 OBJ 3.0
    x62_60 r62 1.0
    x62_60 c60 1.0
    x62_61 OBJ 3.0
    x62_61 r62 1.0
    x62_61 c61 1.0
    x62_62 OBJ 2.0
    x62_62 r62 1.0
    x62_62 c62 1.0
    x62_63 OBJ 1.0
    x62_63 r62 1.0
    x62_63 c63 1.0
    x62_64 OBJ 4.0
    x62_64 r62 1.0
    x62_64 c64 1.0
    x62_65 OBJ 2.0
    x62_65 r62 1.0
    x62_65 c65 1.0
    x62_66 OBJ 1.0
    x62_66 r62 1.0
    x62_66 c66 1.0
    x62_67 OBJ 2.0
    x62_67 r62 1.0
    x62_67 c67 1.0
    x62_68 OBJ 3.0
    x62_68 r62 1.0
    x62_68 c68 1.0
    x62_69 OBJ 3.0
    x62_69 r62 1.0
    x62_69 c69 1.0
    x62_70 OBJ 3.0
    x62_70 r62 1.0
    x62_70 c70 1.0
    x62_71 OBJ 5.0
    x62_71 r62 1.0
    x62_71 c71 1.0
    x62_72 OBJ 1.0
    x62_72 r62 1.0
    x62_72 c72 1.0
    x62_73 OBJ 2.0
    x62_73 r62 1.0
    x62_73 c73 1.0
    x62_74 OBJ 1.0
    x62_74 r62 1.0
    x62_74 c74 1.0
    x62_75 OBJ 1.0
    x62_75 r62 1.0
    x62_75 c75 1.0
    x62_76 OBJ 2.0
    x62_76 r62 1.0
    x62_76 c76 1.0
    x62_77 OBJ 5.0
    x62_77 r62 1.0
    x62_77 c77 1.0
    x62_78 OBJ 3.0
    x62_78 r62 1.0
    x62_78 c78 1.0
    x62_79 OBJ 3.0
    x62_79 r62 1.0
    x62_79 c79 1.0
    x63_0 OBJ 2.0
    x63_0 r63 1.0
    x63_0 c0 1.0
    x63_1 OBJ 1.0
    x63_1 r63 1.0
    x63_1 c1 1.0
    x63_2 OBJ 2.0
    x63_2 r63 1.0
    x63_2 c2 1.0
    x63_3 OBJ 4.0
    x63_3 r63 1.0
    x63_3 c3 1.0
    x63_4 OBJ 1.0
    x63_4 r63 1.0
    x63_4 c4 1.0
    x63_5 OBJ 1.0
    x63_5 r63 1.0
    x63_5 c5 1.0
    x63_6 OBJ 4.0
    x63_6 r63 1.0
    x63_6 c6 1.0
    x63_7 OBJ 3.0
    x63_7 r63 1.0
    x63_7 c7 1.0
    x63_8 OBJ 1.0
    x63_8 r63 1.0
    x63_8 c8 1.0
    x63_9 OBJ 5.0
    x63_9 r63 1.0
    x63_9 c9 1.0
    x63_10 OBJ 5.0
    x63_10 r63 1.0
    x63_10 c10 1.0
    x63_11 OBJ 2.0
    x63_11 r63 1.0
    x63_11 c11 1.0
    x63_12 OBJ 1.0
    x63_12 r63 1.0
    x63_12 c12 1.0
    x63_13 OBJ 1.0
    x63_13 r63 1.0
    x63_13 c13 1.0
    x63_14 OBJ 3.0
    x63_14 r63 1.0
    x63_14 c14 1.0
    x63_15 OBJ 1.0
    x63_15 r63 1.0
    x63_15 c15 1.0
    x63_16 OBJ 3.0
    x63_16 r63 1.0
    x63_16 c16 1.0
    x63_17 OBJ 2.0
    x63_17 r63 1.0
    x63_17 c17 1.0
    x63_18 OBJ 3.0
    x63_18 r63 1.0
    x63_18 c18 1.0
    x63_19 OBJ 3.0
    x63_19 r63 1.0
    x63_19 c19 1.0
    x63_20 OBJ 5.0
    x63_20 r63 1.0
    x63_20 c20 1.0
    x63_21 OBJ 2.0
    x63_21 r63 1.0
    x63_21 c21 1.0
    x63_22 OBJ 2.0
    x63_22 r63 1.0
    x63_22 c22 1.0
    x63_23 OBJ 3.0
    x63_23 r63 1.0
    x63_23 c23 1.0
    x63_24 OBJ 3.0
    x63_24 r63 1.0
    x63_24 c24 1.0
    x63_25 OBJ 3.0
    x63_25 r63 1.0
    x63_25 c25 1.0
    x63_26 OBJ 3.0
    x63_26 r63 1.0
    x63_26 c26 1.0
    x63_27 OBJ 2.0
    x63_27 r63 1.0
    x63_27 c27 1.0
    x63_28 OBJ 5.0
    x63_28 r63 1.0
    x63_28 c28 1.0
    x63_29 OBJ 1.0
    x63_29 r63 1.0
    x63_29 c29 1.0
    x63_30 OBJ 2.0
    x63_30 r63 1.0
    x63_30 c30 1.0
    x63_31 OBJ 2.0
    x63_31 r63 1.0
    x63_31 c31 1.0
    x63_32 OBJ 3.0
    x63_32 r63 1.0
    x63_32 c32 1.0
    x63_33 OBJ 4.0
    x63_33 r63 1.0
    x63_33 c33 1.0
    x63_34 OBJ 1.0
    x63_34 r63 1.0
    x63_34 c34 1.0
    x63_35 OBJ 2.0
    x63_35 r63 1.0
    x63_35 c35 1.0
    x63_36 OBJ 2.0
    x63_36 r63 1.0
    x63_36 c36 1.0
    x63_37 OBJ 2.0
    x63_37 r63 1.0
    x63_37 c37 1.0
    x63_38 OBJ 4.0
    x63_38 r63 1.0
    x63_38 c38 1.0
    x63_39 OBJ 3.0
    x63_39 r63 1.0
    x63_39 c39 1.0
    x63_40 OBJ 2.0
    x63_40 r63 1.0
    x63_40 c40 1.0
    x63_41 OBJ 4.0
    x63_41 r63 1.0
    x63_41 c41 1.0
    x63_42 OBJ 3.0
    x63_42 r63 1.0
    x63_42 c42 1.0
    x63_43 OBJ 1.0
    x63_43 r63 1.0
    x63_43 c43 1.0
    x63_44 OBJ 1.0
    x63_44 r63 1.0
    x63_44 c44 1.0
    x63_45 OBJ 1.0
    x63_45 r63 1.0
    x63_45 c45 1.0
    x63_46 OBJ 4.0
    x63_46 r63 1.0
    x63_46 c46 1.0
    x63_47 OBJ 3.0
    x63_47 r63 1.0
    x63_47 c47 1.0
    x63_48 OBJ 2.0
    x63_48 r63 1.0
    x63_48 c48 1.0
    x63_49 OBJ 3.0
    x63_49 r63 1.0
    x63_49 c49 1.0
    x63_50 OBJ 1.0
    x63_50 r63 1.0
    x63_50 c50 1.0
    x63_51 OBJ 4.0
    x63_51 r63 1.0
    x63_51 c51 1.0
    x63_52 OBJ 4.0
    x63_52 r63 1.0
    x63_52 c52 1.0
    x63_53 OBJ 4.0
    x63_53 r63 1.0
    x63_53 c53 1.0
    x63_54 OBJ 1.0
    x63_54 r63 1.0
    x63_54 c54 1.0
    x63_55 OBJ 1.0
    x63_55 r63 1.0
    x63_55 c55 1.0
    x63_56 OBJ 4.0
    x63_56 r63 1.0
    x63_56 c56 1.0
    x63_57 OBJ 5.0
    x63_57 r63 1.0
    x63_57 c57 1.0
    x63_58 OBJ 4.0
    x63_58 r63 1.0
    x63_58 c58 1.0
    x63_59 OBJ 1.0
    x63_59 r63 1.0
    x63_59 c59 1.0
    x63_60 OBJ 4.0
    x63_60 r63 1.0
    x63_60 c60 1.0
    x63_61 OBJ 1.0
    x63_61 r63 1.0
    x63_61 c61 1.0
    x63_62 OBJ 4.0
    x63_62 r63 1.0
    x63_62 c62 1.0
    x63_63 OBJ 4.0
    x63_63 r63 1.0
    x63_63 c63 1.0
    x63_64 OBJ 2.0
    x63_64 r63 1.0
    x63_64 c64 1.0
    x63_65 OBJ 2.0
    x63_65 r63 1.0
    x63_65 c65 1.0
    x63_66 OBJ 4.0
    x63_66 r63 1.0
    x63_66 c66 1.0
    x63_67 OBJ 4.0
    x63_67 r63 1.0
    x63_67 c67 1.0
    x63_68 OBJ 1.0
    x63_68 r63 1.0
    x63_68 c68 1.0
    x63_69 OBJ 1.0
    x63_69 r63 1.0
    x63_69 c69 1.0
    x63_70 OBJ 2.0
    x63_70 r63 1.0
    x63_70 c70 1.0
    x63_71 OBJ 1.0
    x63_71 r63 1.0
    x63_71 c71 1.0
    x63_72 OBJ 3.0
    x63_72 r63 1.0
    x63_72 c72 1.0
    x63_73 OBJ 3.0
    x63_73 r63 1.0
    x63_73 c73 1.0
    x63_74 OBJ 4.0
    x63_74 r63 1.0
    x63_74 c74 1.0
    x63_75 OBJ 4.0
    x63_75 r63 1.0
    x63_75 c75 1.0
    x63_76 OBJ 2.0
    x63_76 r63 1.0
    x63_76 c76 1.0
    x63_77 OBJ 3.0
    x63_77 r63 1.0
    x63_77 c77 1.0
    x63_78 OBJ 5.0
    x63_78 r63 1.0
    x63_78 c78 1.0
    x63_79 OBJ 1.0
    x63_79 r63 1.0
    x63_79 c79 1.0
    x64_0 OBJ 1.0
    x64_0 r64 1.0
    x64_0 c0 1.0
    x64_1 OBJ 5.0
    x64_1 r64 1.0
    x64_1 c1 1.0
    x64_2 OBJ 2.0
    x64_2 r64 1.0
    x64_2 c2 1.0
    x64_3 OBJ 4.0
    x64_3 r64 1.0
    x64_3 c3 1.0
    x64_4 OBJ 2.0
    x64_4 r64 1.0
    x64_4 c4 1.0
    x64_5 OBJ 5.0
    x64_5 r64 1.0
    x64_5 c5 1.0
    x64_6 OBJ 5.0
    x64_6 r64 1.0
    x64_6 c6 1.0
    x64_7 OBJ 4.0
    x64_7 r64 1.0
    x64_7 c7 1.0
    x64_8 OBJ 1.0
    x64_8 r64 1.0
    x64_8 c8 1.0
    x64_9 OBJ 1.0
    x64_9 r64 1.0
    x64_9 c9 1.0
    x64_10 OBJ 4.0
    x64_10 r64 1.0
    x64_10 c10 1.0
    x64_11 OBJ 5.0
    x64_11 r64 1.0
    x64_11 c11 1.0
    x64_12 OBJ 1.0
    x64_12 r64 1.0
    x64_12 c12 1.0
    x64_13 OBJ 2.0
    x64_13 r64 1.0
    x64_13 c13 1.0
    x64_14 OBJ 5.0
    x64_14 r64 1.0
    x64_14 c14 1.0
    x64_15 OBJ 2.0
    x64_15 r64 1.0
    x64_15 c15 1.0
    x64_16 OBJ 5.0
    x64_16 r64 1.0
    x64_16 c16 1.0
    x64_17 OBJ 3.0
    x64_17 r64 1.0
    x64_17 c17 1.0
    x64_18 OBJ 2.0
    x64_18 r64 1.0
    x64_18 c18 1.0
    x64_19 OBJ 1.0
    x64_19 r64 1.0
    x64_19 c19 1.0
    x64_20 OBJ 1.0
    x64_20 r64 1.0
    x64_20 c20 1.0
    x64_21 OBJ 4.0
    x64_21 r64 1.0
    x64_21 c21 1.0
    x64_22 OBJ 3.0
    x64_22 r64 1.0
    x64_22 c22 1.0
    x64_23 OBJ 4.0
    x64_23 r64 1.0
    x64_23 c23 1.0
    x64_24 OBJ 4.0
    x64_24 r64 1.0
    x64_24 c24 1.0
    x64_25 OBJ 2.0
    x64_25 r64 1.0
    x64_25 c25 1.0
    x64_26 OBJ 1.0
    x64_26 r64 1.0
    x64_26 c26 1.0
    x64_27 OBJ 4.0
    x64_27 r64 1.0
    x64_27 c27 1.0
    x64_28 OBJ 3.0
    x64_28 r64 1.0
    x64_28 c28 1.0
    x64_29 OBJ 1.0
    x64_29 r64 1.0
    x64_29 c29 1.0
    x64_30 OBJ 2.0
    x64_30 r64 1.0
    x64_30 c30 1.0
    x64_31 OBJ 3.0
    x64_31 r64 1.0
    x64_31 c31 1.0
    x64_32 OBJ 3.0
    x64_32 r64 1.0
    x64_32 c32 1.0
    x64_33 OBJ 1.0
    x64_33 r64 1.0
    x64_33 c33 1.0
    x64_34 OBJ 1.0
    x64_34 r64 1.0
    x64_34 c34 1.0
    x64_35 OBJ 4.0
    x64_35 r64 1.0
    x64_35 c35 1.0
    x64_36 OBJ 4.0
    x64_36 r64 1.0
    x64_36 c36 1.0
    x64_37 OBJ 3.0
    x64_37 r64 1.0
    x64_37 c37 1.0
    x64_38 OBJ 2.0
    x64_38 r64 1.0
    x64_38 c38 1.0
    x64_39 OBJ 5.0
    x64_39 r64 1.0
    x64_39 c39 1.0
    x64_40 OBJ 1.0
    x64_40 r64 1.0
    x64_40 c40 1.0
    x64_41 OBJ 5.0
    x64_41 r64 1.0
    x64_41 c41 1.0
    x64_42 OBJ 1.0
    x64_42 r64 1.0
    x64_42 c42 1.0
    x64_43 OBJ 4.0
    x64_43 r64 1.0
    x64_43 c43 1.0
    x64_44 OBJ 1.0
    x64_44 r64 1.0
    x64_44 c44 1.0
    x64_45 OBJ 5.0
    x64_45 r64 1.0
    x64_45 c45 1.0
    x64_46 OBJ 2.0
    x64_46 r64 1.0
    x64_46 c46 1.0
    x64_47 OBJ 4.0
    x64_47 r64 1.0
    x64_47 c47 1.0
    x64_48 OBJ 5.0
    x64_48 r64 1.0
    x64_48 c48 1.0
    x64_49 OBJ 2.0
    x64_49 r64 1.0
    x64_49 c49 1.0
    x64_50 OBJ 3.0
    x64_50 r64 1.0
    x64_50 c50 1.0
    x64_51 OBJ 2.0
    x64_51 r64 1.0
    x64_51 c51 1.0
    x64_52 OBJ 4.0
    x64_52 r64 1.0
    x64_52 c52 1.0
    x64_53 OBJ 3.0
    x64_53 r64 1.0
    x64_53 c53 1.0
    x64_54 OBJ 1.0
    x64_54 r64 1.0
    x64_54 c54 1.0
    x64_55 OBJ 3.0
    x64_55 r64 1.0
    x64_55 c55 1.0
    x64_56 OBJ 2.0
    x64_56 r64 1.0
    x64_56 c56 1.0
    x64_57 OBJ 2.0
    x64_57 r64 1.0
    x64_57 c57 1.0
    x64_58 OBJ 1.0
    x64_58 r64 1.0
    x64_58 c58 1.0
    x64_59 OBJ 5.0
    x64_59 r64 1.0
    x64_59 c59 1.0
    x64_60 OBJ 4.0
    x64_60 r64 1.0
    x64_60 c60 1.0
    x64_61 OBJ 1.0
    x64_61 r64 1.0
    x64_61 c61 1.0
    x64_62 OBJ 4.0
    x64_62 r64 1.0
    x64_62 c62 1.0
    x64_63 OBJ 2.0
    x64_63 r64 1.0
    x64_63 c63 1.0
    x64_64 OBJ 1.0
    x64_64 r64 1.0
    x64_64 c64 1.0
    x64_65 OBJ 3.0
    x64_65 r64 1.0
    x64_65 c65 1.0
    x64_66 OBJ 4.0
    x64_66 r64 1.0
    x64_66 c66 1.0
    x64_67 OBJ 2.0
    x64_67 r64 1.0
    x64_67 c67 1.0
    x64_68 OBJ 2.0
    x64_68 r64 1.0
    x64_68 c68 1.0
    x64_69 OBJ 3.0
    x64_69 r64 1.0
    x64_69 c69 1.0
    x64_70 OBJ 3.0
    x64_70 r64 1.0
    x64_70 c70 1.0
    x64_71 OBJ 5.0
    x64_71 r64 1.0
    x64_71 c71 1.0
    x64_72 OBJ 2.0
    x64_72 r64 1.0
    x64_72 c72 1.0
    x64_73 OBJ 1.0
    x64_73 r64 1.0
    x64_73 c73 1.0
    x64_74 OBJ 4.0
    x64_74 r64 1.0
    x64_74 c74 1.0
    x64_75 OBJ 1.0
    x64_75 r64 1.0
    x64_75 c75 1.0
    x64_76 OBJ 2.0
    x64_76 r64 1.0
    x64_76 c76 1.0
    x64_77 OBJ 1.0
    x64_77 r64 1.0
    x64_77 c77 1.0
    x64_78 OBJ 3.0
    x64_78 r64 1.0
    x64_78 c78 1.0
    x64_79 OBJ 4.0
    x64_79 r64 1.0
    x64_79 c79 1.0
    x65_0 OBJ 2.0
    x65_0 r65 1.0
    x65_0 c0 1.0
    x65_1 OBJ 1.0
    x65_1 r65 1.0
    x65_1 c1 1.0
    x65_2 OBJ 4.0
    x65_2 r65 1.0
    x65_2 c2 1.0
    x65_3 OBJ 3.0
    x65_3 r65 1.0
    x65_3 c3 1.0
    x65_4 OBJ 5.0
    x65_4 r65 1.0
    x65_4 c4 1.0
    x65_5 OBJ 4.0
    x65_5 r65 1.0
    x65_5 c5 1.0
    x65_6 OBJ 2.0
    x65_6 r65 1.0
    x65_6 c6 1.0
    x65_7 OBJ 5.0
    x65_7 r65 1.0
    x65_7 c7 1.0
    x65_8 OBJ 2.0
    x65_8 r65 1.0
    x65_8 c8 1.0
    x65_9 OBJ 2.0
    x65_9 r65 1.0
    x65_9 c9 1.0
    x65_10 OBJ 4.0
    x65_10 r65 1.0
    x65_10 c10 1.0
    x65_11 OBJ 2.0
    x65_11 r65 1.0
    x65_11 c11 1.0
    x65_12 OBJ 3.0
    x65_12 r65 1.0
    x65_12 c12 1.0
    x65_13 OBJ 4.0
    x65_13 r65 1.0
    x65_13 c13 1.0
    x65_14 OBJ 3.0
    x65_14 r65 1.0
    x65_14 c14 1.0
    x65_15 OBJ 2.0
    x65_15 r65 1.0
    x65_15 c15 1.0
    x65_16 OBJ 3.0
    x65_16 r65 1.0
    x65_16 c16 1.0
    x65_17 OBJ 1.0
    x65_17 r65 1.0
    x65_17 c17 1.0
    x65_18 OBJ 4.0
    x65_18 r65 1.0
    x65_18 c18 1.0
    x65_19 OBJ 2.0
    x65_19 r65 1.0
    x65_19 c19 1.0
    x65_20 OBJ 3.0
    x65_20 r65 1.0
    x65_20 c20 1.0
    x65_21 OBJ 4.0
    x65_21 r65 1.0
    x65_21 c21 1.0
    x65_22 OBJ 1.0
    x65_22 r65 1.0
    x65_22 c22 1.0
    x65_23 OBJ 5.0
    x65_23 r65 1.0
    x65_23 c23 1.0
    x65_24 OBJ 3.0
    x65_24 r65 1.0
    x65_24 c24 1.0
    x65_25 OBJ 2.0
    x65_25 r65 1.0
    x65_25 c25 1.0
    x65_26 OBJ 2.0
    x65_26 r65 1.0
    x65_26 c26 1.0
    x65_27 OBJ 1.0
    x65_27 r65 1.0
    x65_27 c27 1.0
    x65_28 OBJ 2.0
    x65_28 r65 1.0
    x65_28 c28 1.0
    x65_29 OBJ 5.0
    x65_29 r65 1.0
    x65_29 c29 1.0
    x65_30 OBJ 3.0
    x65_30 r65 1.0
    x65_30 c30 1.0
    x65_31 OBJ 5.0
    x65_31 r65 1.0
    x65_31 c31 1.0
    x65_32 OBJ 4.0
    x65_32 r65 1.0
    x65_32 c32 1.0
    x65_33 OBJ 4.0
    x65_33 r65 1.0
    x65_33 c33 1.0
    x65_34 OBJ 5.0
    x65_34 r65 1.0
    x65_34 c34 1.0
    x65_35 OBJ 5.0
    x65_35 r65 1.0
    x65_35 c35 1.0
    x65_36 OBJ 4.0
    x65_36 r65 1.0
    x65_36 c36 1.0
    x65_37 OBJ 2.0
    x65_37 r65 1.0
    x65_37 c37 1.0
    x65_38 OBJ 3.0
    x65_38 r65 1.0
    x65_38 c38 1.0
    x65_39 OBJ 2.0
    x65_39 r65 1.0
    x65_39 c39 1.0
    x65_40 OBJ 5.0
    x65_40 r65 1.0
    x65_40 c40 1.0
    x65_41 OBJ 1.0
    x65_41 r65 1.0
    x65_41 c41 1.0
    x65_42 OBJ 3.0
    x65_42 r65 1.0
    x65_42 c42 1.0
    x65_43 OBJ 4.0
    x65_43 r65 1.0
    x65_43 c43 1.0
    x65_44 OBJ 2.0
    x65_44 r65 1.0
    x65_44 c44 1.0
    x65_45 OBJ 2.0
    x65_45 r65 1.0
    x65_45 c45 1.0
    x65_46 OBJ 5.0
    x65_46 r65 1.0
    x65_46 c46 1.0
    x65_47 OBJ 2.0
    x65_47 r65 1.0
    x65_47 c47 1.0
    x65_48 OBJ 5.0
    x65_48 r65 1.0
    x65_48 c48 1.0
    x65_49 OBJ 3.0
    x65_49 r65 1.0
    x65_49 c49 1.0
    x65_50 OBJ 1.0
    x65_50 r65 1.0
    x65_50 c50 1.0
    x65_51 OBJ 2.0
    x65_51 r65 1.0
    x65_51 c51 1.0
    x65_52 OBJ 2.0
    x65_52 r65 1.0
    x65_52 c52 1.0
    x65_53 OBJ 4.0
    x65_53 r65 1.0
    x65_53 c53 1.0
    x65_54 OBJ 2.0
    x65_54 r65 1.0
    x65_54 c54 1.0
    x65_55 OBJ 1.0
    x65_55 r65 1.0
    x65_55 c55 1.0
    x65_56 OBJ 5.0
    x65_56 r65 1.0
    x65_56 c56 1.0
    x65_57 OBJ 4.0
    x65_57 r65 1.0
    x65_57 c57 1.0
    x65_58 OBJ 4.0
    x65_58 r65 1.0
    x65_58 c58 1.0
    x65_59 OBJ 3.0
    x65_59 r65 1.0
    x65_59 c59 1.0
    x65_60 OBJ 5.0
    x65_60 r65 1.0
    x65_60 c60 1.0
    x65_61 OBJ 2.0
    x65_61 r65 1.0
    x65_61 c61 1.0
    x65_62 OBJ 2.0
    x65_62 r65 1.0
    x65_62 c62 1.0
    x65_63 OBJ 3.0
    x65_63 r65 1.0
    x65_63 c63 1.0
    x65_64 OBJ 4.0
    x65_64 r65 1.0
    x65_64 c64 1.0
    x65_65 OBJ 1.0
    x65_65 r65 1.0
    x65_65 c65 1.0
    x65_66 OBJ 1.0
    x65_66 r65 1.0
    x65_66 c66 1.0
    x65_67 OBJ 4.0
    x65_67 r65 1.0
    x65_67 c67 1.0
    x65_68 OBJ 1.0
    x65_68 r65 1.0
    x65_68 c68 1.0
    x65_69 OBJ 1.0
    x65_69 r65 1.0
    x65_69 c69 1.0
    x65_70 OBJ 3.0
    x65_70 r65 1.0
    x65_70 c70 1.0
    x65_71 OBJ 1.0
    x65_71 r65 1.0
    x65_71 c71 1.0
    x65_72 OBJ 3.0
    x65_72 r65 1.0
    x65_72 c72 1.0
    x65_73 OBJ 2.0
    x65_73 r65 1.0
    x65_73 c73 1.0
    x65_74 OBJ 2.0
    x65_74 r65 1.0
    x65_74 c74 1.0
    x65_75 OBJ 4.0
    x65_75 r65 1.0
    x65_75 c75 1.0
    x65_76 OBJ 1.0
    x65_76 r65 1.0
    x65_76 c76 1.0
    x65_77 OBJ 5.0
    x65_77 r65 1.0
    x65_77 c77 1.0
    x65_78 OBJ 4.0
    x65_78 r65 1.0
    x65_78 c78 1.0
    x65_79 OBJ 3.0
    x65_79 r65 1.0
    x65_79 c79 1.0
    x66_0 OBJ 5.0
    x66_0 r66 1.0
    x66_0 c0 1.0
    x66_1 OBJ 5.0
    x66_1 r66 1.0
    x66_1 c1 1.0
    x66_2 OBJ 1.0
    x66_2 r66 1.0
    x66_2 c2 1.0
    x66_3 OBJ 4.0
    x66_3 r66 1.0
    x66_3 c3 1.0
    x66_4 OBJ 2.0
    x66_4 r66 1.0
    x66_4 c4 1.0
    x66_5 OBJ 4.0
    x66_5 r66 1.0
    x66_5 c5 1.0
    x66_6 OBJ 5.0
    x66_6 r66 1.0
    x66_6 c6 1.0
    x66_7 OBJ 5.0
    x66_7 r66 1.0
    x66_7 c7 1.0
    x66_8 OBJ 3.0
    x66_8 r66 1.0
    x66_8 c8 1.0
    x66_9 OBJ 5.0
    x66_9 r66 1.0
    x66_9 c9 1.0
    x66_10 OBJ 5.0
    x66_10 r66 1.0
    x66_10 c10 1.0
    x66_11 OBJ 2.0
    x66_11 r66 1.0
    x66_11 c11 1.0
    x66_12 OBJ 4.0
    x66_12 r66 1.0
    x66_12 c12 1.0
    x66_13 OBJ 1.0
    x66_13 r66 1.0
    x66_13 c13 1.0
    x66_14 OBJ 5.0
    x66_14 r66 1.0
    x66_14 c14 1.0
    x66_15 OBJ 3.0
    x66_15 r66 1.0
    x66_15 c15 1.0
    x66_16 OBJ 5.0
    x66_16 r66 1.0
    x66_16 c16 1.0
    x66_17 OBJ 4.0
    x66_17 r66 1.0
    x66_17 c17 1.0
    x66_18 OBJ 2.0
    x66_18 r66 1.0
    x66_18 c18 1.0
    x66_19 OBJ 3.0
    x66_19 r66 1.0
    x66_19 c19 1.0
    x66_20 OBJ 2.0
    x66_20 r66 1.0
    x66_20 c20 1.0
    x66_21 OBJ 4.0
    x66_21 r66 1.0
    x66_21 c21 1.0
    x66_22 OBJ 3.0
    x66_22 r66 1.0
    x66_22 c22 1.0
    x66_23 OBJ 5.0
    x66_23 r66 1.0
    x66_23 c23 1.0
    x66_24 OBJ 3.0
    x66_24 r66 1.0
    x66_24 c24 1.0
    x66_25 OBJ 1.0
    x66_25 r66 1.0
    x66_25 c25 1.0
    x66_26 OBJ 1.0
    x66_26 r66 1.0
    x66_26 c26 1.0
    x66_27 OBJ 5.0
    x66_27 r66 1.0
    x66_27 c27 1.0
    x66_28 OBJ 4.0
    x66_28 r66 1.0
    x66_28 c28 1.0
    x66_29 OBJ 2.0
    x66_29 r66 1.0
    x66_29 c29 1.0
    x66_30 OBJ 3.0
    x66_30 r66 1.0
    x66_30 c30 1.0
    x66_31 OBJ 1.0
    x66_31 r66 1.0
    x66_31 c31 1.0
    x66_32 OBJ 4.0
    x66_32 r66 1.0
    x66_32 c32 1.0
    x66_33 OBJ 4.0
    x66_33 r66 1.0
    x66_33 c33 1.0
    x66_34 OBJ 3.0
    x66_34 r66 1.0
    x66_34 c34 1.0
    x66_35 OBJ 2.0
    x66_35 r66 1.0
    x66_35 c35 1.0
    x66_36 OBJ 4.0
    x66_36 r66 1.0
    x66_36 c36 1.0
    x66_37 OBJ 3.0
    x66_37 r66 1.0
    x66_37 c37 1.0
    x66_38 OBJ 2.0
    x66_38 r66 1.0
    x66_38 c38 1.0
    x66_39 OBJ 4.0
    x66_39 r66 1.0
    x66_39 c39 1.0
    x66_40 OBJ 1.0
    x66_40 r66 1.0
    x66_40 c40 1.0
    x66_41 OBJ 2.0
    x66_41 r66 1.0
    x66_41 c41 1.0
    x66_42 OBJ 5.0
    x66_42 r66 1.0
    x66_42 c42 1.0
    x66_43 OBJ 4.0
    x66_43 r66 1.0
    x66_43 c43 1.0
    x66_44 OBJ 4.0
    x66_44 r66 1.0
    x66_44 c44 1.0
    x66_45 OBJ 2.0
    x66_45 r66 1.0
    x66_45 c45 1.0
    x66_46 OBJ 2.0
    x66_46 r66 1.0
    x66_46 c46 1.0
    x66_47 OBJ 3.0
    x66_47 r66 1.0
    x66_47 c47 1.0
    x66_48 OBJ 3.0
    x66_48 r66 1.0
    x66_48 c48 1.0
    x66_49 OBJ 4.0
    x66_49 r66 1.0
    x66_49 c49 1.0
    x66_50 OBJ 4.0
    x66_50 r66 1.0
    x66_50 c50 1.0
    x66_51 OBJ 3.0
    x66_51 r66 1.0
    x66_51 c51 1.0
    x66_52 OBJ 2.0
    x66_52 r66 1.0
    x66_52 c52 1.0
    x66_53 OBJ 2.0
    x66_53 r66 1.0
    x66_53 c53 1.0
    x66_54 OBJ 2.0
    x66_54 r66 1.0
    x66_54 c54 1.0
    x66_55 OBJ 3.0
    x66_55 r66 1.0
    x66_55 c55 1.0
    x66_56 OBJ 1.0
    x66_56 r66 1.0
    x66_56 c56 1.0
    x66_57 OBJ 1.0
    x66_57 r66 1.0
    x66_57 c57 1.0
    x66_58 OBJ 5.0
    x66_58 r66 1.0
    x66_58 c58 1.0
    x66_59 OBJ 2.0
    x66_59 r66 1.0
    x66_59 c59 1.0
    x66_60 OBJ 4.0
    x66_60 r66 1.0
    x66_60 c60 1.0
    x66_61 OBJ 5.0
    x66_61 r66 1.0
    x66_61 c61 1.0
    x66_62 OBJ 4.0
    x66_62 r66 1.0
    x66_62 c62 1.0
    x66_63 OBJ 1.0
    x66_63 r66 1.0
    x66_63 c63 1.0
    x66_64 OBJ 4.0
    x66_64 r66 1.0
    x66_64 c64 1.0
    x66_65 OBJ 5.0
    x66_65 r66 1.0
    x66_65 c65 1.0
    x66_66 OBJ 4.0
    x66_66 r66 1.0
    x66_66 c66 1.0
    x66_67 OBJ 3.0
    x66_67 r66 1.0
    x66_67 c67 1.0
    x66_68 OBJ 5.0
    x66_68 r66 1.0
    x66_68 c68 1.0
    x66_69 OBJ 5.0
    x66_69 r66 1.0
    x66_69 c69 1.0
    x66_70 OBJ 3.0
    x66_70 r66 1.0
    x66_70 c70 1.0
    x66_71 OBJ 3.0
    x66_71 r66 1.0
    x66_71 c71 1.0
    x66_72 OBJ 4.0
    x66_72 r66 1.0
    x66_72 c72 1.0
    x66_73 OBJ 3.0
    x66_73 r66 1.0
    x66_73 c73 1.0
    x66_74 OBJ 2.0
    x66_74 r66 1.0
    x66_74 c74 1.0
    x66_75 OBJ 4.0
    x66_75 r66 1.0
    x66_75 c75 1.0
    x66_76 OBJ 1.0
    x66_76 r66 1.0
    x66_76 c76 1.0
    x66_77 OBJ 2.0
    x66_77 r66 1.0
    x66_77 c77 1.0
    x66_78 OBJ 4.0
    x66_78 r66 1.0
    x66_78 c78 1.0
    x66_79 OBJ 3.0
    x66_79 r66 1.0
    x66_79 c79 1.0
    x67_0 OBJ 1.0
    x67_0 r67 1.0
    x67_0 c0 1.0
    x67_1 OBJ 3.0
    x67_1 r67 1.0
    x67_1 c1 1.0
    x67_2 OBJ 5.0
    x67_2 r67 1.0
    x67_2 c2 1.0
    x67_3 OBJ 2.0
    x67_3 r67 1.0
    x67_3 c3 1.0
    x67_4 OBJ 2.0
    x67_4 r67 1.0
    x67_4 c4 1.0
    x67_5 OBJ 5.0
    x67_5 r67 1.0
    x67_5 c5 1.0
    x67_6 OBJ 2.0
    x67_6 r67 1.0
    x67_6 c6 1.0
    x67_7 OBJ 3.0
    x67_7 r67 1.0
    x67_7 c7 1.0
    x67_8 OBJ 3.0
    x67_8 r67 1.0
    x67_8 c8 1.0
    x67_9 OBJ 3.0
    x67_9 r67 1.0
    x67_9 c9 1.0
    x67_10 OBJ 2.0
    x67_10 r67 1.0
    x67_10 c10 1.0
    x67_11 OBJ 1.0
    x67_11 r67 1.0
    x67_11 c11 1.0
    x67_12 OBJ 5.0
    x67_12 r67 1.0
    x67_12 c12 1.0
    x67_13 OBJ 4.0
    x67_13 r67 1.0
    x67_13 c13 1.0
    x67_14 OBJ 5.0
    x67_14 r67 1.0
    x67_14 c14 1.0
    x67_15 OBJ 1.0
    x67_15 r67 1.0
    x67_15 c15 1.0
    x67_16 OBJ 2.0
    x67_16 r67 1.0
    x67_16 c16 1.0
    x67_17 OBJ 1.0
    x67_17 r67 1.0
    x67_17 c17 1.0
    x67_18 OBJ 5.0
    x67_18 r67 1.0
    x67_18 c18 1.0
    x67_19 OBJ 5.0
    x67_19 r67 1.0
    x67_19 c19 1.0
    x67_20 OBJ 4.0
    x67_20 r67 1.0
    x67_20 c20 1.0
    x67_21 OBJ 5.0
    x67_21 r67 1.0
    x67_21 c21 1.0
    x67_22 OBJ 3.0
    x67_22 r67 1.0
    x67_22 c22 1.0
    x67_23 OBJ 1.0
    x67_23 r67 1.0
    x67_23 c23 1.0
    x67_24 OBJ 1.0
    x67_24 r67 1.0
    x67_24 c24 1.0
    x67_25 OBJ 1.0
    x67_25 r67 1.0
    x67_25 c25 1.0
    x67_26 OBJ 2.0
    x67_26 r67 1.0
    x67_26 c26 1.0
    x67_27 OBJ 1.0
    x67_27 r67 1.0
    x67_27 c27 1.0
    x67_28 OBJ 2.0
    x67_28 r67 1.0
    x67_28 c28 1.0
    x67_29 OBJ 1.0
    x67_29 r67 1.0
    x67_29 c29 1.0
    x67_30 OBJ 2.0
    x67_30 r67 1.0
    x67_30 c30 1.0
    x67_31 OBJ 2.0
    x67_31 r67 1.0
    x67_31 c31 1.0
    x67_32 OBJ 2.0
    x67_32 r67 1.0
    x67_32 c32 1.0
    x67_33 OBJ 3.0
    x67_33 r67 1.0
    x67_33 c33 1.0
    x67_34 OBJ 2.0
    x67_34 r67 1.0
    x67_34 c34 1.0
    x67_35 OBJ 1.0
    x67_35 r67 1.0
    x67_35 c35 1.0
    x67_36 OBJ 1.0
    x67_36 r67 1.0
    x67_36 c36 1.0
    x67_37 OBJ 1.0
    x67_37 r67 1.0
    x67_37 c37 1.0
    x67_38 OBJ 1.0
    x67_38 r67 1.0
    x67_38 c38 1.0
    x67_39 OBJ 1.0
    x67_39 r67 1.0
    x67_39 c39 1.0
    x67_40 OBJ 2.0
    x67_40 r67 1.0
    x67_40 c40 1.0
    x67_41 OBJ 2.0
    x67_41 r67 1.0
    x67_41 c41 1.0
    x67_42 OBJ 4.0
    x67_42 r67 1.0
    x67_42 c42 1.0
    x67_43 OBJ 3.0
    x67_43 r67 1.0
    x67_43 c43 1.0
    x67_44 OBJ 1.0
    x67_44 r67 1.0
    x67_44 c44 1.0
    x67_45 OBJ 5.0
    x67_45 r67 1.0
    x67_45 c45 1.0
    x67_46 OBJ 3.0
    x67_46 r67 1.0
    x67_46 c46 1.0
    x67_47 OBJ 3.0
    x67_47 r67 1.0
    x67_47 c47 1.0
    x67_48 OBJ 3.0
    x67_48 r67 1.0
    x67_48 c48 1.0
    x67_49 OBJ 4.0
    x67_49 r67 1.0
    x67_49 c49 1.0
    x67_50 OBJ 4.0
    x67_50 r67 1.0
    x67_50 c50 1.0
    x67_51 OBJ 3.0
    x67_51 r67 1.0
    x67_51 c51 1.0
    x67_52 OBJ 3.0
    x67_52 r67 1.0
    x67_52 c52 1.0
    x67_53 OBJ 1.0
    x67_53 r67 1.0
    x67_53 c53 1.0
    x67_54 OBJ 1.0
    x67_54 r67 1.0
    x67_54 c54 1.0
    x67_55 OBJ 3.0
    x67_55 r67 1.0
    x67_55 c55 1.0
    x67_56 OBJ 2.0
    x67_56 r67 1.0
    x67_56 c56 1.0
    x67_57 OBJ 3.0
    x67_57 r67 1.0
    x67_57 c57 1.0
    x67_58 OBJ 1.0
    x67_58 r67 1.0
    x67_58 c58 1.0
    x67_59 OBJ 1.0
    x67_59 r67 1.0
    x67_59 c59 1.0
    x67_60 OBJ 5.0
    x67_60 r67 1.0
    x67_60 c60 1.0
    x67_61 OBJ 1.0
    x67_61 r67 1.0
    x67_61 c61 1.0
    x67_62 OBJ 3.0
    x67_62 r67 1.0
    x67_62 c62 1.0
    x67_63 OBJ 2.0
    x67_63 r67 1.0
    x67_63 c63 1.0
    x67_64 OBJ 3.0
    x67_64 r67 1.0
    x67_64 c64 1.0
    x67_65 OBJ 3.0
    x67_65 r67 1.0
    x67_65 c65 1.0
    x67_66 OBJ 5.0
    x67_66 r67 1.0
    x67_66 c66 1.0
    x67_67 OBJ 4.0
    x67_67 r67 1.0
    x67_67 c67 1.0
    x67_68 OBJ 2.0
    x67_68 r67 1.0
    x67_68 c68 1.0
    x67_69 OBJ 2.0
    x67_69 r67 1.0
    x67_69 c69 1.0
    x67_70 OBJ 5.0
    x67_70 r67 1.0
    x67_70 c70 1.0
    x67_71 OBJ 5.0
    x67_71 r67 1.0
    x67_71 c71 1.0
    x67_72 OBJ 1.0
    x67_72 r67 1.0
    x67_72 c72 1.0
    x67_73 OBJ 2.0
    x67_73 r67 1.0
    x67_73 c73 1.0
    x67_74 OBJ 4.0
    x67_74 r67 1.0
    x67_74 c74 1.0
    x67_75 OBJ 4.0
    x67_75 r67 1.0
    x67_75 c75 1.0
    x67_76 OBJ 3.0
    x67_76 r67 1.0
    x67_76 c76 1.0
    x67_77 OBJ 1.0
    x67_77 r67 1.0
    x67_77 c77 1.0
    x67_78 OBJ 2.0
    x67_78 r67 1.0
    x67_78 c78 1.0
    x67_79 OBJ 3.0
    x67_79 r67 1.0
    x67_79 c79 1.0
    x68_0 OBJ 1.0
    x68_0 r68 1.0
    x68_0 c0 1.0
    x68_1 OBJ 4.0
    x68_1 r68 1.0
    x68_1 c1 1.0
    x68_2 OBJ 1.0
    x68_2 r68 1.0
    x68_2 c2 1.0
    x68_3 OBJ 1.0
    x68_3 r68 1.0
    x68_3 c3 1.0
    x68_4 OBJ 5.0
    x68_4 r68 1.0
    x68_4 c4 1.0
    x68_5 OBJ 2.0
    x68_5 r68 1.0
    x68_5 c5 1.0
    x68_6 OBJ 2.0
    x68_6 r68 1.0
    x68_6 c6 1.0
    x68_7 OBJ 4.0
    x68_7 r68 1.0
    x68_7 c7 1.0
    x68_8 OBJ 4.0
    x68_8 r68 1.0
    x68_8 c8 1.0
    x68_9 OBJ 2.0
    x68_9 r68 1.0
    x68_9 c9 1.0
    x68_10 OBJ 5.0
    x68_10 r68 1.0
    x68_10 c10 1.0
    x68_11 OBJ 1.0
    x68_11 r68 1.0
    x68_11 c11 1.0
    x68_12 OBJ 4.0
    x68_12 r68 1.0
    x68_12 c12 1.0
    x68_13 OBJ 5.0
    x68_13 r68 1.0
    x68_13 c13 1.0
    x68_14 OBJ 4.0
    x68_14 r68 1.0
    x68_14 c14 1.0
    x68_15 OBJ 2.0
    x68_15 r68 1.0
    x68_15 c15 1.0
    x68_16 OBJ 1.0
    x68_16 r68 1.0
    x68_16 c16 1.0
    x68_17 OBJ 2.0
    x68_17 r68 1.0
    x68_17 c17 1.0
    x68_18 OBJ 5.0
    x68_18 r68 1.0
    x68_18 c18 1.0
    x68_19 OBJ 2.0
    x68_19 r68 1.0
    x68_19 c19 1.0
    x68_20 OBJ 1.0
    x68_20 r68 1.0
    x68_20 c20 1.0
    x68_21 OBJ 4.0
    x68_21 r68 1.0
    x68_21 c21 1.0
    x68_22 OBJ 2.0
    x68_22 r68 1.0
    x68_22 c22 1.0
    x68_23 OBJ 3.0
    x68_23 r68 1.0
    x68_23 c23 1.0
    x68_24 OBJ 5.0
    x68_24 r68 1.0
    x68_24 c24 1.0
    x68_25 OBJ 4.0
    x68_25 r68 1.0
    x68_25 c25 1.0
    x68_26 OBJ 5.0
    x68_26 r68 1.0
    x68_26 c26 1.0
    x68_27 OBJ 5.0
    x68_27 r68 1.0
    x68_27 c27 1.0
    x68_28 OBJ 3.0
    x68_28 r68 1.0
    x68_28 c28 1.0
    x68_29 OBJ 1.0
    x68_29 r68 1.0
    x68_29 c29 1.0
    x68_30 OBJ 1.0
    x68_30 r68 1.0
    x68_30 c30 1.0
    x68_31 OBJ 2.0
    x68_31 r68 1.0
    x68_31 c31 1.0
    x68_32 OBJ 1.0
    x68_32 r68 1.0
    x68_32 c32 1.0
    x68_33 OBJ 2.0
    x68_33 r68 1.0
    x68_33 c33 1.0
    x68_34 OBJ 5.0
    x68_34 r68 1.0
    x68_34 c34 1.0
    x68_35 OBJ 3.0
    x68_35 r68 1.0
    x68_35 c35 1.0
    x68_36 OBJ 2.0
    x68_36 r68 1.0
    x68_36 c36 1.0
    x68_37 OBJ 4.0
    x68_37 r68 1.0
    x68_37 c37 1.0
    x68_38 OBJ 5.0
    x68_38 r68 1.0
    x68_38 c38 1.0
    x68_39 OBJ 2.0
    x68_39 r68 1.0
    x68_39 c39 1.0
    x68_40 OBJ 2.0
    x68_40 r68 1.0
    x68_40 c40 1.0
    x68_41 OBJ 2.0
    x68_41 r68 1.0
    x68_41 c41 1.0
    x68_42 OBJ 3.0
    x68_42 r68 1.0
    x68_42 c42 1.0
    x68_43 OBJ 3.0
    x68_43 r68 1.0
    x68_43 c43 1.0
    x68_44 OBJ 2.0
    x68_44 r68 1.0
    x68_44 c44 1.0
    x68_45 OBJ 2.0
    x68_45 r68 1.0
    x68_45 c45 1.0
    x68_46 OBJ 1.0
    x68_46 r68 1.0
    x68_46 c46 1.0
    x68_47 OBJ 2.0
    x68_47 r68 1.0
    x68_47 c47 1.0
    x68_48 OBJ 4.0
    x68_48 r68 1.0
    x68_48 c48 1.0
    x68_49 OBJ 3.0
    x68_49 r68 1.0
    x68_49 c49 1.0
    x68_50 OBJ 3.0
    x68_50 r68 1.0
    x68_50 c50 1.0
    x68_51 OBJ 4.0
    x68_51 r68 1.0
    x68_51 c51 1.0
    x68_52 OBJ 3.0
    x68_52 r68 1.0
    x68_52 c52 1.0
    x68_53 OBJ 5.0
    x68_53 r68 1.0
    x68_53 c53 1.0
    x68_54 OBJ 3.0
    x68_54 r68 1.0
    x68_54 c54 1.0
    x68_55 OBJ 1.0
    x68_55 r68 1.0
    x68_55 c55 1.0
    x68_56 OBJ 5.0
    x68_56 r68 1.0
    x68_56 c56 1.0
    x68_57 OBJ 3.0
    x68_57 r68 1.0
    x68_57 c57 1.0
    x68_58 OBJ 1.0
    x68_58 r68 1.0
    x68_58 c58 1.0
    x68_59 OBJ 3.0
    x68_59 r68 1.0
    x68_59 c59 1.0
    x68_60 OBJ 1.0
    x68_60 r68 1.0
    x68_60 c60 1.0
    x68_61 OBJ 3.0
    x68_61 r68 1.0
    x68_61 c61 1.0
    x68_62 OBJ 5.0
    x68_62 r68 1.0
    x68_62 c62 1.0
    x68_63 OBJ 2.0
    x68_63 r68 1.0
    x68_63 c63 1.0
    x68_64 OBJ 2.0
    x68_64 r68 1.0
    x68_64 c64 1.0
    x68_65 OBJ 2.0
    x68_65 r68 1.0
    x68_65 c65 1.0
    x68_66 OBJ 2.0
    x68_66 r68 1.0
    x68_66 c66 1.0
    x68_67 OBJ 4.0
    x68_67 r68 1.0
    x68_67 c67 1.0
    x68_68 OBJ 1.0
    x68_68 r68 1.0
    x68_68 c68 1.0
    x68_69 OBJ 2.0
    x68_69 r68 1.0
    x68_69 c69 1.0
    x68_70 OBJ 3.0
    x68_70 r68 1.0
    x68_70 c70 1.0
    x68_71 OBJ 1.0
    x68_71 r68 1.0
    x68_71 c71 1.0
    x68_72 OBJ 5.0
    x68_72 r68 1.0
    x68_72 c72 1.0
    x68_73 OBJ 5.0
    x68_73 r68 1.0
    x68_73 c73 1.0
    x68_74 OBJ 3.0
    x68_74 r68 1.0
    x68_74 c74 1.0
    x68_75 OBJ 4.0
    x68_75 r68 1.0
    x68_75 c75 1.0
    x68_76 OBJ 5.0
    x68_76 r68 1.0
    x68_76 c76 1.0
    x68_77 OBJ 3.0
    x68_77 r68 1.0
    x68_77 c77 1.0
    x68_78 OBJ 1.0
    x68_78 r68 1.0
    x68_78 c78 1.0
    x68_79 OBJ 1.0
    x68_79 r68 1.0
    x68_79 c79 1.0
    x69_0 OBJ 1.0
    x69_0 r69 1.0
    x69_0 c0 1.0
    x69_1 OBJ 5.0
    x69_1 r69 1.0
    x69_1 c1 1.0
    x69_2 OBJ 4.0
    x69_2 r69 1.0
    x69_2 c2 1.0
    x69_3 OBJ 4.0
    x69_3 r69 1.0
    x69_3 c3 1.0
    x69_4 OBJ 4.0
    x69_4 r69 1.0
    x69_4 c4 1.0
    x69_5 OBJ 1.0
    x69_5 r69 1.0
    x69_5 c5 1.0
    x69_6 OBJ 3.0
    x69_6 r69 1.0
    x69_6 c6 1.0
    x69_7 OBJ 5.0
    x69_7 r69 1.0
    x69_7 c7 1.0
    x69_8 OBJ 2.0
    x69_8 r69 1.0
    x69_8 c8 1.0
    x69_9 OBJ 4.0
    x69_9 r69 1.0
    x69_9 c9 1.0
    x69_10 OBJ 3.0
    x69_10 r69 1.0
    x69_10 c10 1.0
    x69_11 OBJ 4.0
    x69_11 r69 1.0
    x69_11 c11 1.0
    x69_12 OBJ 4.0
    x69_12 r69 1.0
    x69_12 c12 1.0
    x69_13 OBJ 3.0
    x69_13 r69 1.0
    x69_13 c13 1.0
    x69_14 OBJ 5.0
    x69_14 r69 1.0
    x69_14 c14 1.0
    x69_15 OBJ 4.0
    x69_15 r69 1.0
    x69_15 c15 1.0
    x69_16 OBJ 3.0
    x69_16 r69 1.0
    x69_16 c16 1.0
    x69_17 OBJ 5.0
    x69_17 r69 1.0
    x69_17 c17 1.0
    x69_18 OBJ 1.0
    x69_18 r69 1.0
    x69_18 c18 1.0
    x69_19 OBJ 1.0
    x69_19 r69 1.0
    x69_19 c19 1.0
    x69_20 OBJ 4.0
    x69_20 r69 1.0
    x69_20 c20 1.0
    x69_21 OBJ 1.0
    x69_21 r69 1.0
    x69_21 c21 1.0
    x69_22 OBJ 3.0
    x69_22 r69 1.0
    x69_22 c22 1.0
    x69_23 OBJ 2.0
    x69_23 r69 1.0
    x69_23 c23 1.0
    x69_24 OBJ 1.0
    x69_24 r69 1.0
    x69_24 c24 1.0
    x69_25 OBJ 5.0
    x69_25 r69 1.0
    x69_25 c25 1.0
    x69_26 OBJ 2.0
    x69_26 r69 1.0
    x69_26 c26 1.0
    x69_27 OBJ 1.0
    x69_27 r69 1.0
    x69_27 c27 1.0
    x69_28 OBJ 4.0
    x69_28 r69 1.0
    x69_28 c28 1.0
    x69_29 OBJ 5.0
    x69_29 r69 1.0
    x69_29 c29 1.0
    x69_30 OBJ 1.0
    x69_30 r69 1.0
    x69_30 c30 1.0
    x69_31 OBJ 3.0
    x69_31 r69 1.0
    x69_31 c31 1.0
    x69_32 OBJ 1.0
    x69_32 r69 1.0
    x69_32 c32 1.0
    x69_33 OBJ 3.0
    x69_33 r69 1.0
    x69_33 c33 1.0
    x69_34 OBJ 4.0
    x69_34 r69 1.0
    x69_34 c34 1.0
    x69_35 OBJ 5.0
    x69_35 r69 1.0
    x69_35 c35 1.0
    x69_36 OBJ 1.0
    x69_36 r69 1.0
    x69_36 c36 1.0
    x69_37 OBJ 2.0
    x69_37 r69 1.0
    x69_37 c37 1.0
    x69_38 OBJ 4.0
    x69_38 r69 1.0
    x69_38 c38 1.0
    x69_39 OBJ 1.0
    x69_39 r69 1.0
    x69_39 c39 1.0
    x69_40 OBJ 1.0
    x69_40 r69 1.0
    x69_40 c40 1.0
    x69_41 OBJ 1.0
    x69_41 r69 1.0
    x69_41 c41 1.0
    x69_42 OBJ 3.0
    x69_42 r69 1.0
    x69_42 c42 1.0
    x69_43 OBJ 2.0
    x69_43 r69 1.0
    x69_43 c43 1.0
    x69_44 OBJ 5.0
    x69_44 r69 1.0
    x69_44 c44 1.0
    x69_45 OBJ 1.0
    x69_45 r69 1.0
    x69_45 c45 1.0
    x69_46 OBJ 1.0
    x69_46 r69 1.0
    x69_46 c46 1.0
    x69_47 OBJ 3.0
    x69_47 r69 1.0
    x69_47 c47 1.0
    x69_48 OBJ 2.0
    x69_48 r69 1.0
    x69_48 c48 1.0
    x69_49 OBJ 5.0
    x69_49 r69 1.0
    x69_49 c49 1.0
    x69_50 OBJ 5.0
    x69_50 r69 1.0
    x69_50 c50 1.0
    x69_51 OBJ 4.0
    x69_51 r69 1.0
    x69_51 c51 1.0
    x69_52 OBJ 2.0
    x69_52 r69 1.0
    x69_52 c52 1.0
    x69_53 OBJ 2.0
    x69_53 r69 1.0
    x69_53 c53 1.0
    x69_54 OBJ 2.0
    x69_54 r69 1.0
    x69_54 c54 1.0
    x69_55 OBJ 4.0
    x69_55 r69 1.0
    x69_55 c55 1.0
    x69_56 OBJ 4.0
    x69_56 r69 1.0
    x69_56 c56 1.0
    x69_57 OBJ 3.0
    x69_57 r69 1.0
    x69_57 c57 1.0
    x69_58 OBJ 3.0
    x69_58 r69 1.0
    x69_58 c58 1.0
    x69_59 OBJ 1.0
    x69_59 r69 1.0
    x69_59 c59 1.0
    x69_60 OBJ 2.0
    x69_60 r69 1.0
    x69_60 c60 1.0
    x69_61 OBJ 4.0
    x69_61 r69 1.0
    x69_61 c61 1.0
    x69_62 OBJ 5.0
    x69_62 r69 1.0
    x69_62 c62 1.0
    x69_63 OBJ 1.0
    x69_63 r69 1.0
    x69_63 c63 1.0
    x69_64 OBJ 1.0
    x69_64 r69 1.0
    x69_64 c64 1.0
    x69_65 OBJ 3.0
    x69_65 r69 1.0
    x69_65 c65 1.0
    x69_66 OBJ 4.0
    x69_66 r69 1.0
    x69_66 c66 1.0
    x69_67 OBJ 4.0
    x69_67 r69 1.0
    x69_67 c67 1.0
    x69_68 OBJ 2.0
    x69_68 r69 1.0
    x69_68 c68 1.0
    x69_69 OBJ 2.0
    x69_69 r69 1.0
    x69_69 c69 1.0
    x69_70 OBJ 5.0
    x69_70 r69 1.0
    x69_70 c70 1.0
    x69_71 OBJ 3.0
    x69_71 r69 1.0
    x69_71 c71 1.0
    x69_72 OBJ 4.0
    x69_72 r69 1.0
    x69_72 c72 1.0
    x69_73 OBJ 4.0
    x69_73 r69 1.0
    x69_73 c73 1.0
    x69_74 OBJ 2.0
    x69_74 r69 1.0
    x69_74 c74 1.0
    x69_75 OBJ 2.0
    x69_75 r69 1.0
    x69_75 c75 1.0
    x69_76 OBJ 2.0
    x69_76 r69 1.0
    x69_76 c76 1.0
    x69_77 OBJ 4.0
    x69_77 r69 1.0
    x69_77 c77 1.0
    x69_78 OBJ 1.0
    x69_78 r69 1.0
    x69_78 c78 1.0
    x69_79 OBJ 5.0
    x69_79 r69 1.0
    x69_79 c79 1.0
    x70_0 OBJ 3.0
    x70_0 r70 1.0
    x70_0 c0 1.0
    x70_1 OBJ 2.0
    x70_1 r70 1.0
    x70_1 c1 1.0
    x70_2 OBJ 1.0
    x70_2 r70 1.0
    x70_2 c2 1.0
    x70_3 OBJ 3.0
    x70_3 r70 1.0
    x70_3 c3 1.0
    x70_4 OBJ 5.0
    x70_4 r70 1.0
    x70_4 c4 1.0
    x70_5 OBJ 4.0
    x70_5 r70 1.0
    x70_5 c5 1.0
    x70_6 OBJ 2.0
    x70_6 r70 1.0
    x70_6 c6 1.0
    x70_7 OBJ 5.0
    x70_7 r70 1.0
    x70_7 c7 1.0
    x70_8 OBJ 3.0
    x70_8 r70 1.0
    x70_8 c8 1.0
    x70_9 OBJ 3.0
    x70_9 r70 1.0
    x70_9 c9 1.0
    x70_10 OBJ 2.0
    x70_10 r70 1.0
    x70_10 c10 1.0
    x70_11 OBJ 3.0
    x70_11 r70 1.0
    x70_11 c11 1.0
    x70_12 OBJ 2.0
    x70_12 r70 1.0
    x70_12 c12 1.0
    x70_13 OBJ 4.0
    x70_13 r70 1.0
    x70_13 c13 1.0
    x70_14 OBJ 1.0
    x70_14 r70 1.0
    x70_14 c14 1.0
    x70_15 OBJ 1.0
    x70_15 r70 1.0
    x70_15 c15 1.0
    x70_16 OBJ 2.0
    x70_16 r70 1.0
    x70_16 c16 1.0
    x70_17 OBJ 5.0
    x70_17 r70 1.0
    x70_17 c17 1.0
    x70_18 OBJ 3.0
    x70_18 r70 1.0
    x70_18 c18 1.0
    x70_19 OBJ 1.0
    x70_19 r70 1.0
    x70_19 c19 1.0
    x70_20 OBJ 3.0
    x70_20 r70 1.0
    x70_20 c20 1.0
    x70_21 OBJ 5.0
    x70_21 r70 1.0
    x70_21 c21 1.0
    x70_22 OBJ 1.0
    x70_22 r70 1.0
    x70_22 c22 1.0
    x70_23 OBJ 1.0
    x70_23 r70 1.0
    x70_23 c23 1.0
    x70_24 OBJ 3.0
    x70_24 r70 1.0
    x70_24 c24 1.0
    x70_25 OBJ 2.0
    x70_25 r70 1.0
    x70_25 c25 1.0
    x70_26 OBJ 3.0
    x70_26 r70 1.0
    x70_26 c26 1.0
    x70_27 OBJ 3.0
    x70_27 r70 1.0
    x70_27 c27 1.0
    x70_28 OBJ 3.0
    x70_28 r70 1.0
    x70_28 c28 1.0
    x70_29 OBJ 3.0
    x70_29 r70 1.0
    x70_29 c29 1.0
    x70_30 OBJ 3.0
    x70_30 r70 1.0
    x70_30 c30 1.0
    x70_31 OBJ 5.0
    x70_31 r70 1.0
    x70_31 c31 1.0
    x70_32 OBJ 3.0
    x70_32 r70 1.0
    x70_32 c32 1.0
    x70_33 OBJ 4.0
    x70_33 r70 1.0
    x70_33 c33 1.0
    x70_34 OBJ 4.0
    x70_34 r70 1.0
    x70_34 c34 1.0
    x70_35 OBJ 3.0
    x70_35 r70 1.0
    x70_35 c35 1.0
    x70_36 OBJ 1.0
    x70_36 r70 1.0
    x70_36 c36 1.0
    x70_37 OBJ 2.0
    x70_37 r70 1.0
    x70_37 c37 1.0
    x70_38 OBJ 1.0
    x70_38 r70 1.0
    x70_38 c38 1.0
    x70_39 OBJ 4.0
    x70_39 r70 1.0
    x70_39 c39 1.0
    x70_40 OBJ 5.0
    x70_40 r70 1.0
    x70_40 c40 1.0
    x70_41 OBJ 2.0
    x70_41 r70 1.0
    x70_41 c41 1.0
    x70_42 OBJ 1.0
    x70_42 r70 1.0
    x70_42 c42 1.0
    x70_43 OBJ 2.0
    x70_43 r70 1.0
    x70_43 c43 1.0
    x70_44 OBJ 2.0
    x70_44 r70 1.0
    x70_44 c44 1.0
    x70_45 OBJ 3.0
    x70_45 r70 1.0
    x70_45 c45 1.0
    x70_46 OBJ 3.0
    x70_46 r70 1.0
    x70_46 c46 1.0
    x70_47 OBJ 5.0
    x70_47 r70 1.0
    x70_47 c47 1.0
    x70_48 OBJ 3.0
    x70_48 r70 1.0
    x70_48 c48 1.0
    x70_49 OBJ 4.0
    x70_49 r70 1.0
    x70_49 c49 1.0
    x70_50 OBJ 4.0
    x70_50 r70 1.0
    x70_50 c50 1.0
    x70_51 OBJ 3.0
    x70_51 r70 1.0
    x70_51 c51 1.0
    x70_52 OBJ 2.0
    x70_52 r70 1.0
    x70_52 c52 1.0
    x70_53 OBJ 2.0
    x70_53 r70 1.0
    x70_53 c53 1.0
    x70_54 OBJ 5.0
    x70_54 r70 1.0
    x70_54 c54 1.0
    x70_55 OBJ 3.0
    x70_55 r70 1.0
    x70_55 c55 1.0
    x70_56 OBJ 1.0
    x70_56 r70 1.0
    x70_56 c56 1.0
    x70_57 OBJ 3.0
    x70_57 r70 1.0
    x70_57 c57 1.0
    x70_58 OBJ 2.0
    x70_58 r70 1.0
    x70_58 c58 1.0
    x70_59 OBJ 3.0
    x70_59 r70 1.0
    x70_59 c59 1.0
    x70_60 OBJ 2.0
    x70_60 r70 1.0
    x70_60 c60 1.0
    x70_61 OBJ 5.0
    x70_61 r70 1.0
    x70_61 c61 1.0
    x70_62 OBJ 1.0
    x70_62 r70 1.0
    x70_62 c62 1.0
    x70_63 OBJ 5.0
    x70_63 r70 1.0
    x70_63 c63 1.0
    x70_64 OBJ 4.0
    x70_64 r70 1.0
    x70_64 c64 1.0
    x70_65 OBJ 3.0
    x70_65 r70 1.0
    x70_65 c65 1.0
    x70_66 OBJ 4.0
    x70_66 r70 1.0
    x70_66 c66 1.0
    x70_67 OBJ 4.0
    x70_67 r70 1.0
    x70_67 c67 1.0
    x70_68 OBJ 2.0
    x70_68 r70 1.0
    x70_68 c68 1.0
    x70_69 OBJ 3.0
    x70_69 r70 1.0
    x70_69 c69 1.0
    x70_70 OBJ 3.0
    x70_70 r70 1.0
    x70_70 c70 1.0
    x70_71 OBJ 2.0
    x70_71 r70 1.0
    x70_71 c71 1.0
    x70_72 OBJ 1.0
    x70_72 r70 1.0
    x70_72 c72 1.0
    x70_73 OBJ 1.0
    x70_73 r70 1.0
    x70_73 c73 1.0
    x70_74 OBJ 1.0
    x70_74 r70 1.0
    x70_74 c74 1.0
    x70_75 OBJ 3.0
    x70_75 r70 1.0
    x70_75 c75 1.0
    x70_76 OBJ 1.0
    x70_76 r70 1.0
    x70_76 c76 1.0
    x70_77 OBJ 1.0
    x70_77 r70 1.0
    x70_77 c77 1.0
    x70_78 OBJ 2.0
    x70_78 r70 1.0
    x70_78 c78 1.0
    x70_79 OBJ 3.0
    x70_79 r70 1.0
    x70_79 c79 1.0
    x71_0 OBJ 1.0
    x71_0 r71 1.0
    x71_0 c0 1.0
    x71_1 OBJ 5.0
    x71_1 r71 1.0
    x71_1 c1 1.0
    x71_2 OBJ 1.0
    x71_2 r71 1.0
    x71_2 c2 1.0
    x71_3 OBJ 4.0
    x71_3 r71 1.0
    x71_3 c3 1.0
    x71_4 OBJ 1.0
    x71_4 r71 1.0
    x71_4 c4 1.0
    x71_5 OBJ 2.0
    x71_5 r71 1.0
    x71_5 c5 1.0
    x71_6 OBJ 4.0
    x71_6 r71 1.0
    x71_6 c6 1.0
    x71_7 OBJ 4.0
    x71_7 r71 1.0
    x71_7 c7 1.0
    x71_8 OBJ 3.0
    x71_8 r71 1.0
    x71_8 c8 1.0
    x71_9 OBJ 4.0
    x71_9 r71 1.0
    x71_9 c9 1.0
    x71_10 OBJ 4.0
    x71_10 r71 1.0
    x71_10 c10 1.0
    x71_11 OBJ 3.0
    x71_11 r71 1.0
    x71_11 c11 1.0
    x71_12 OBJ 5.0
    x71_12 r71 1.0
    x71_12 c12 1.0
    x71_13 OBJ 4.0
    x71_13 r71 1.0
    x71_13 c13 1.0
    x71_14 OBJ 3.0
    x71_14 r71 1.0
    x71_14 c14 1.0
    x71_15 OBJ 3.0
    x71_15 r71 1.0
    x71_15 c15 1.0
    x71_16 OBJ 3.0
    x71_16 r71 1.0
    x71_16 c16 1.0
    x71_17 OBJ 3.0
    x71_17 r71 1.0
    x71_17 c17 1.0
    x71_18 OBJ 5.0
    x71_18 r71 1.0
    x71_18 c18 1.0
    x71_19 OBJ 1.0
    x71_19 r71 1.0
    x71_19 c19 1.0
    x71_20 OBJ 5.0
    x71_20 r71 1.0
    x71_20 c20 1.0
    x71_21 OBJ 5.0
    x71_21 r71 1.0
    x71_21 c21 1.0
    x71_22 OBJ 5.0
    x71_22 r71 1.0
    x71_22 c22 1.0
    x71_23 OBJ 1.0
    x71_23 r71 1.0
    x71_23 c23 1.0
    x71_24 OBJ 4.0
    x71_24 r71 1.0
    x71_24 c24 1.0
    x71_25 OBJ 4.0
    x71_25 r71 1.0
    x71_25 c25 1.0
    x71_26 OBJ 4.0
    x71_26 r71 1.0
    x71_26 c26 1.0
    x71_27 OBJ 1.0
    x71_27 r71 1.0
    x71_27 c27 1.0
    x71_28 OBJ 2.0
    x71_28 r71 1.0
    x71_28 c28 1.0
    x71_29 OBJ 2.0
    x71_29 r71 1.0
    x71_29 c29 1.0
    x71_30 OBJ 2.0
    x71_30 r71 1.0
    x71_30 c30 1.0
    x71_31 OBJ 3.0
    x71_31 r71 1.0
    x71_31 c31 1.0
    x71_32 OBJ 5.0
    x71_32 r71 1.0
    x71_32 c32 1.0
    x71_33 OBJ 3.0
    x71_33 r71 1.0
    x71_33 c33 1.0
    x71_34 OBJ 1.0
    x71_34 r71 1.0
    x71_34 c34 1.0
    x71_35 OBJ 5.0
    x71_35 r71 1.0
    x71_35 c35 1.0
    x71_36 OBJ 1.0
    x71_36 r71 1.0
    x71_36 c36 1.0
    x71_37 OBJ 4.0
    x71_37 r71 1.0
    x71_37 c37 1.0
    x71_38 OBJ 5.0
    x71_38 r71 1.0
    x71_38 c38 1.0
    x71_39 OBJ 5.0
    x71_39 r71 1.0
    x71_39 c39 1.0
    x71_40 OBJ 4.0
    x71_40 r71 1.0
    x71_40 c40 1.0
    x71_41 OBJ 1.0
    x71_41 r71 1.0
    x71_41 c41 1.0
    x71_42 OBJ 2.0
    x71_42 r71 1.0
    x71_42 c42 1.0
    x71_43 OBJ 4.0
    x71_43 r71 1.0
    x71_43 c43 1.0
    x71_44 OBJ 1.0
    x71_44 r71 1.0
    x71_44 c44 1.0
    x71_45 OBJ 2.0
    x71_45 r71 1.0
    x71_45 c45 1.0
    x71_46 OBJ 5.0
    x71_46 r71 1.0
    x71_46 c46 1.0
    x71_47 OBJ 3.0
    x71_47 r71 1.0
    x71_47 c47 1.0
    x71_48 OBJ 5.0
    x71_48 r71 1.0
    x71_48 c48 1.0
    x71_49 OBJ 3.0
    x71_49 r71 1.0
    x71_49 c49 1.0
    x71_50 OBJ 1.0
    x71_50 r71 1.0
    x71_50 c50 1.0
    x71_51 OBJ 2.0
    x71_51 r71 1.0
    x71_51 c51 1.0
    x71_52 OBJ 5.0
    x71_52 r71 1.0
    x71_52 c52 1.0
    x71_53 OBJ 1.0
    x71_53 r71 1.0
    x71_53 c53 1.0
    x71_54 OBJ 2.0
    x71_54 r71 1.0
    x71_54 c54 1.0
    x71_55 OBJ 3.0
    x71_55 r71 1.0
    x71_55 c55 1.0
    x71_56 OBJ 4.0
    x71_56 r71 1.0
    x71_56 c56 1.0
    x71_57 OBJ 2.0
    x71_57 r71 1.0
    x71_57 c57 1.0
    x71_58 OBJ 4.0
    x71_58 r71 1.0
    x71_58 c58 1.0
    x71_59 OBJ 1.0
    x71_59 r71 1.0
    x71_59 c59 1.0
    x71_60 OBJ 4.0
    x71_60 r71 1.0
    x71_60 c60 1.0
    x71_61 OBJ 2.0
    x71_61 r71 1.0
    x71_61 c61 1.0
    x71_62 OBJ 3.0
    x71_62 r71 1.0
    x71_62 c62 1.0
    x71_63 OBJ 3.0
    x71_63 r71 1.0
    x71_63 c63 1.0
    x71_64 OBJ 3.0
    x71_64 r71 1.0
    x71_64 c64 1.0
    x71_65 OBJ 5.0
    x71_65 r71 1.0
    x71_65 c65 1.0
    x71_66 OBJ 2.0
    x71_66 r71 1.0
    x71_66 c66 1.0
    x71_67 OBJ 4.0
    x71_67 r71 1.0
    x71_67 c67 1.0
    x71_68 OBJ 5.0
    x71_68 r71 1.0
    x71_68 c68 1.0
    x71_69 OBJ 5.0
    x71_69 r71 1.0
    x71_69 c69 1.0
    x71_70 OBJ 1.0
    x71_70 r71 1.0
    x71_70 c70 1.0
    x71_71 OBJ 2.0
    x71_71 r71 1.0
    x71_71 c71 1.0
    x71_72 OBJ 5.0
    x71_72 r71 1.0
    x71_72 c72 1.0
    x71_73 OBJ 4.0
    x71_73 r71 1.0
    x71_73 c73 1.0
    x71_74 OBJ 5.0
    x71_74 r71 1.0
    x71_74 c74 1.0
    x71_75 OBJ 2.0
    x71_75 r71 1.0
    x71_75 c75 1.0
    x71_76 OBJ 2.0
    x71_76 r71 1.0
    x71_76 c76 1.0
    x71_77 OBJ 1.0
    x71_77 r71 1.0
    x71_77 c77 1.0
    x71_78 OBJ 5.0
    x71_78 r71 1.0
    x71_78 c78 1.0
    x71_79 OBJ 1.0
    x71_79 r71 1.0
    x71_79 c79 1.0
    x72_0 OBJ 5.0
    x72_0 r72 1.0
    x72_0 c0 1.0
    x72_1 OBJ 3.0
    x72_1 r72 1.0
    x72_1 c1 1.0
    x72_2 OBJ 1.0
    x72_2 r72 1.0
    x72_2 c2 1.0
    x72_3 OBJ 1.0
    x72_3 r72 1.0
    x72_3 c3 1.0
    x72_4 OBJ 2.0
    x72_4 r72 1.0
    x72_4 c4 1.0
    x72_5 OBJ 5.0
    x72_5 r72 1.0
    x72_5 c5 1.0
    x72_6 OBJ 1.0
    x72_6 r72 1.0
    x72_6 c6 1.0
    x72_7 OBJ 5.0
    x72_7 r72 1.0
    x72_7 c7 1.0
    x72_8 OBJ 2.0
    x72_8 r72 1.0
    x72_8 c8 1.0
    x72_9 OBJ 5.0
    x72_9 r72 1.0
    x72_9 c9 1.0
    x72_10 OBJ 4.0
    x72_10 r72 1.0
    x72_10 c10 1.0
    x72_11 OBJ 2.0
    x72_11 r72 1.0
    x72_11 c11 1.0
    x72_12 OBJ 5.0
    x72_12 r72 1.0
    x72_12 c12 1.0
    x72_13 OBJ 2.0
    x72_13 r72 1.0
    x72_13 c13 1.0
    x72_14 OBJ 2.0
    x72_14 r72 1.0
    x72_14 c14 1.0
    x72_15 OBJ 2.0
    x72_15 r72 1.0
    x72_15 c15 1.0
    x72_16 OBJ 4.0
    x72_16 r72 1.0
    x72_16 c16 1.0
    x72_17 OBJ 1.0
    x72_17 r72 1.0
    x72_17 c17 1.0
    x72_18 OBJ 4.0
    x72_18 r72 1.0
    x72_18 c18 1.0
    x72_19 OBJ 2.0
    x72_19 r72 1.0
    x72_19 c19 1.0
    x72_20 OBJ 5.0
    x72_20 r72 1.0
    x72_20 c20 1.0
    x72_21 OBJ 3.0
    x72_21 r72 1.0
    x72_21 c21 1.0
    x72_22 OBJ 5.0
    x72_22 r72 1.0
    x72_22 c22 1.0
    x72_23 OBJ 3.0
    x72_23 r72 1.0
    x72_23 c23 1.0
    x72_24 OBJ 2.0
    x72_24 r72 1.0
    x72_24 c24 1.0
    x72_25 OBJ 4.0
    x72_25 r72 1.0
    x72_25 c25 1.0
    x72_26 OBJ 2.0
    x72_26 r72 1.0
    x72_26 c26 1.0
    x72_27 OBJ 5.0
    x72_27 r72 1.0
    x72_27 c27 1.0
    x72_28 OBJ 4.0
    x72_28 r72 1.0
    x72_28 c28 1.0
    x72_29 OBJ 1.0
    x72_29 r72 1.0
    x72_29 c29 1.0
    x72_30 OBJ 1.0
    x72_30 r72 1.0
    x72_30 c30 1.0
    x72_31 OBJ 1.0
    x72_31 r72 1.0
    x72_31 c31 1.0
    x72_32 OBJ 3.0
    x72_32 r72 1.0
    x72_32 c32 1.0
    x72_33 OBJ 2.0
    x72_33 r72 1.0
    x72_33 c33 1.0
    x72_34 OBJ 2.0
    x72_34 r72 1.0
    x72_34 c34 1.0
    x72_35 OBJ 5.0
    x72_35 r72 1.0
    x72_35 c35 1.0
    x72_36 OBJ 3.0
    x72_36 r72 1.0
    x72_36 c36 1.0
    x72_37 OBJ 2.0
    x72_37 r72 1.0
    x72_37 c37 1.0
    x72_38 OBJ 5.0
    x72_38 r72 1.0
    x72_38 c38 1.0
    x72_39 OBJ 2.0
    x72_39 r72 1.0
    x72_39 c39 1.0
    x72_40 OBJ 2.0
    x72_40 r72 1.0
    x72_40 c40 1.0
    x72_41 OBJ 5.0
    x72_41 r72 1.0
    x72_41 c41 1.0
    x72_42 OBJ 2.0
    x72_42 r72 1.0
    x72_42 c42 1.0
    x72_43 OBJ 2.0
    x72_43 r72 1.0
    x72_43 c43 1.0
    x72_44 OBJ 5.0
    x72_44 r72 1.0
    x72_44 c44 1.0
    x72_45 OBJ 1.0
    x72_45 r72 1.0
    x72_45 c45 1.0
    x72_46 OBJ 4.0
    x72_46 r72 1.0
    x72_46 c46 1.0
    x72_47 OBJ 5.0
    x72_47 r72 1.0
    x72_47 c47 1.0
    x72_48 OBJ 2.0
    x72_48 r72 1.0
    x72_48 c48 1.0
    x72_49 OBJ 3.0
    x72_49 r72 1.0
    x72_49 c49 1.0
    x72_50 OBJ 4.0
    x72_50 r72 1.0
    x72_50 c50 1.0
    x72_51 OBJ 5.0
    x72_51 r72 1.0
    x72_51 c51 1.0
    x72_52 OBJ 1.0
    x72_52 r72 1.0
    x72_52 c52 1.0
    x72_53 OBJ 4.0
    x72_53 r72 1.0
    x72_53 c53 1.0
    x72_54 OBJ 1.0
    x72_54 r72 1.0
    x72_54 c54 1.0
    x72_55 OBJ 4.0
    x72_55 r72 1.0
    x72_55 c55 1.0
    x72_56 OBJ 1.0
    x72_56 r72 1.0
    x72_56 c56 1.0
    x72_57 OBJ 1.0
    x72_57 r72 1.0
    x72_57 c57 1.0
    x72_58 OBJ 5.0
    x72_58 r72 1.0
    x72_58 c58 1.0
    x72_59 OBJ 4.0
    x72_59 r72 1.0
    x72_59 c59 1.0
    x72_60 OBJ 2.0
    x72_60 r72 1.0
    x72_60 c60 1.0
    x72_61 OBJ 3.0
    x72_61 r72 1.0
    x72_61 c61 1.0
    x72_62 OBJ 4.0
    x72_62 r72 1.0
    x72_62 c62 1.0
    x72_63 OBJ 2.0
    x72_63 r72 1.0
    x72_63 c63 1.0
    x72_64 OBJ 2.0
    x72_64 r72 1.0
    x72_64 c64 1.0
    x72_65 OBJ 5.0
    x72_65 r72 1.0
    x72_65 c65 1.0
    x72_66 OBJ 3.0
    x72_66 r72 1.0
    x72_66 c66 1.0
    x72_67 OBJ 4.0
    x72_67 r72 1.0
    x72_67 c67 1.0
    x72_68 OBJ 2.0
    x72_68 r72 1.0
    x72_68 c68 1.0
    x72_69 OBJ 2.0
    x72_69 r72 1.0
    x72_69 c69 1.0
    x72_70 OBJ 2.0
    x72_70 r72 1.0
    x72_70 c70 1.0
    x72_71 OBJ 2.0
    x72_71 r72 1.0
    x72_71 c71 1.0
    x72_72 OBJ 4.0
    x72_72 r72 1.0
    x72_72 c72 1.0
    x72_73 OBJ 3.0
    x72_73 r72 1.0
    x72_73 c73 1.0
    x72_74 OBJ 5.0
    x72_74 r72 1.0
    x72_74 c74 1.0
    x72_75 OBJ 4.0
    x72_75 r72 1.0
    x72_75 c75 1.0
    x72_76 OBJ 3.0
    x72_76 r72 1.0
    x72_76 c76 1.0
    x72_77 OBJ 3.0
    x72_77 r72 1.0
    x72_77 c77 1.0
    x72_78 OBJ 2.0
    x72_78 r72 1.0
    x72_78 c78 1.0
    x72_79 OBJ 2.0
    x72_79 r72 1.0
    x72_79 c79 1.0
    x73_0 OBJ 4.0
    x73_0 r73 1.0
    x73_0 c0 1.0
    x73_1 OBJ 1.0
    x73_1 r73 1.0
    x73_1 c1 1.0
    x73_2 OBJ 2.0
    x73_2 r73 1.0
    x73_2 c2 1.0
    x73_3 OBJ 2.0
    x73_3 r73 1.0
    x73_3 c3 1.0
    x73_4 OBJ 5.0
    x73_4 r73 1.0
    x73_4 c4 1.0
    x73_5 OBJ 3.0
    x73_5 r73 1.0
    x73_5 c5 1.0
    x73_6 OBJ 1.0
    x73_6 r73 1.0
    x73_6 c6 1.0
    x73_7 OBJ 5.0
    x73_7 r73 1.0
    x73_7 c7 1.0
    x73_8 OBJ 3.0
    x73_8 r73 1.0
    x73_8 c8 1.0
    x73_9 OBJ 2.0
    x73_9 r73 1.0
    x73_9 c9 1.0
    x73_10 OBJ 4.0
    x73_10 r73 1.0
    x73_10 c10 1.0
    x73_11 OBJ 4.0
    x73_11 r73 1.0
    x73_11 c11 1.0
    x73_12 OBJ 4.0
    x73_12 r73 1.0
    x73_12 c12 1.0
    x73_13 OBJ 5.0
    x73_13 r73 1.0
    x73_13 c13 1.0
    x73_14 OBJ 4.0
    x73_14 r73 1.0
    x73_14 c14 1.0
    x73_15 OBJ 4.0
    x73_15 r73 1.0
    x73_15 c15 1.0
    x73_16 OBJ 3.0
    x73_16 r73 1.0
    x73_16 c16 1.0
    x73_17 OBJ 4.0
    x73_17 r73 1.0
    x73_17 c17 1.0
    x73_18 OBJ 5.0
    x73_18 r73 1.0
    x73_18 c18 1.0
    x73_19 OBJ 2.0
    x73_19 r73 1.0
    x73_19 c19 1.0
    x73_20 OBJ 4.0
    x73_20 r73 1.0
    x73_20 c20 1.0
    x73_21 OBJ 5.0
    x73_21 r73 1.0
    x73_21 c21 1.0
    x73_22 OBJ 5.0
    x73_22 r73 1.0
    x73_22 c22 1.0
    x73_23 OBJ 2.0
    x73_23 r73 1.0
    x73_23 c23 1.0
    x73_24 OBJ 5.0
    x73_24 r73 1.0
    x73_24 c24 1.0
    x73_25 OBJ 2.0
    x73_25 r73 1.0
    x73_25 c25 1.0
    x73_26 OBJ 2.0
    x73_26 r73 1.0
    x73_26 c26 1.0
    x73_27 OBJ 1.0
    x73_27 r73 1.0
    x73_27 c27 1.0
    x73_28 OBJ 3.0
    x73_28 r73 1.0
    x73_28 c28 1.0
    x73_29 OBJ 4.0
    x73_29 r73 1.0
    x73_29 c29 1.0
    x73_30 OBJ 1.0
    x73_30 r73 1.0
    x73_30 c30 1.0
    x73_31 OBJ 4.0
    x73_31 r73 1.0
    x73_31 c31 1.0
    x73_32 OBJ 1.0
    x73_32 r73 1.0
    x73_32 c32 1.0
    x73_33 OBJ 3.0
    x73_33 r73 1.0
    x73_33 c33 1.0
    x73_34 OBJ 4.0
    x73_34 r73 1.0
    x73_34 c34 1.0
    x73_35 OBJ 3.0
    x73_35 r73 1.0
    x73_35 c35 1.0
    x73_36 OBJ 3.0
    x73_36 r73 1.0
    x73_36 c36 1.0
    x73_37 OBJ 4.0
    x73_37 r73 1.0
    x73_37 c37 1.0
    x73_38 OBJ 2.0
    x73_38 r73 1.0
    x73_38 c38 1.0
    x73_39 OBJ 4.0
    x73_39 r73 1.0
    x73_39 c39 1.0
    x73_40 OBJ 5.0
    x73_40 r73 1.0
    x73_40 c40 1.0
    x73_41 OBJ 5.0
    x73_41 r73 1.0
    x73_41 c41 1.0
    x73_42 OBJ 1.0
    x73_42 r73 1.0
    x73_42 c42 1.0
    x73_43 OBJ 1.0
    x73_43 r73 1.0
    x73_43 c43 1.0
    x73_44 OBJ 4.0
    x73_44 r73 1.0
    x73_44 c44 1.0
    x73_45 OBJ 3.0
    x73_45 r73 1.0
    x73_45 c45 1.0
    x73_46 OBJ 5.0
    x73_46 r73 1.0
    x73_46 c46 1.0
    x73_47 OBJ 4.0
    x73_47 r73 1.0
    x73_47 c47 1.0
    x73_48 OBJ 4.0
    x73_48 r73 1.0
    x73_48 c48 1.0
    x73_49 OBJ 5.0
    x73_49 r73 1.0
    x73_49 c49 1.0
    x73_50 OBJ 3.0
    x73_50 r73 1.0
    x73_50 c50 1.0
    x73_51 OBJ 2.0
    x73_51 r73 1.0
    x73_51 c51 1.0
    x73_52 OBJ 5.0
    x73_52 r73 1.0
    x73_52 c52 1.0
    x73_53 OBJ 1.0
    x73_53 r73 1.0
    x73_53 c53 1.0
    x73_54 OBJ 2.0
    x73_54 r73 1.0
    x73_54 c54 1.0
    x73_55 OBJ 3.0
    x73_55 r73 1.0
    x73_55 c55 1.0
    x73_56 OBJ 4.0
    x73_56 r73 1.0
    x73_56 c56 1.0
    x73_57 OBJ 3.0
    x73_57 r73 1.0
    x73_57 c57 1.0
    x73_58 OBJ 5.0
    x73_58 r73 1.0
    x73_58 c58 1.0
    x73_59 OBJ 5.0
    x73_59 r73 1.0
    x73_59 c59 1.0
    x73_60 OBJ 2.0
    x73_60 r73 1.0
    x73_60 c60 1.0
    x73_61 OBJ 3.0
    x73_61 r73 1.0
    x73_61 c61 1.0
    x73_62 OBJ 2.0
    x73_62 r73 1.0
    x73_62 c62 1.0
    x73_63 OBJ 5.0
    x73_63 r73 1.0
    x73_63 c63 1.0
    x73_64 OBJ 5.0
    x73_64 r73 1.0
    x73_64 c64 1.0
    x73_65 OBJ 4.0
    x73_65 r73 1.0
    x73_65 c65 1.0
    x73_66 OBJ 2.0
    x73_66 r73 1.0
    x73_66 c66 1.0
    x73_67 OBJ 3.0
    x73_67 r73 1.0
    x73_67 c67 1.0
    x73_68 OBJ 1.0
    x73_68 r73 1.0
    x73_68 c68 1.0
    x73_69 OBJ 2.0
    x73_69 r73 1.0
    x73_69 c69 1.0
    x73_70 OBJ 1.0
    x73_70 r73 1.0
    x73_70 c70 1.0
    x73_71 OBJ 5.0
    x73_71 r73 1.0
    x73_71 c71 1.0
    x73_72 OBJ 3.0
    x73_72 r73 1.0
    x73_72 c72 1.0
    x73_73 OBJ 4.0
    x73_73 r73 1.0
    x73_73 c73 1.0
    x73_74 OBJ 4.0
    x73_74 r73 1.0
    x73_74 c74 1.0
    x73_75 OBJ 4.0
    x73_75 r73 1.0
    x73_75 c75 1.0
    x73_76 OBJ 3.0
    x73_76 r73 1.0
    x73_76 c76 1.0
    x73_77 OBJ 3.0
    x73_77 r73 1.0
    x73_77 c77 1.0
    x73_78 OBJ 5.0
    x73_78 r73 1.0
    x73_78 c78 1.0
    x73_79 OBJ 1.0
    x73_79 r73 1.0
    x73_79 c79 1.0
    x74_0 OBJ 3.0
    x74_0 r74 1.0
    x74_0 c0 1.0
    x74_1 OBJ 5.0
    x74_1 r74 1.0
    x74_1 c1 1.0
    x74_2 OBJ 5.0
    x74_2 r74 1.0
    x74_2 c2 1.0
    x74_3 OBJ 3.0
    x74_3 r74 1.0
    x74_3 c3 1.0
    x74_4 OBJ 4.0
    x74_4 r74 1.0
    x74_4 c4 1.0
    x74_5 OBJ 1.0
    x74_5 r74 1.0
    x74_5 c5 1.0
    x74_6 OBJ 3.0
    x74_6 r74 1.0
    x74_6 c6 1.0
    x74_7 OBJ 3.0
    x74_7 r74 1.0
    x74_7 c7 1.0
    x74_8 OBJ 4.0
    x74_8 r74 1.0
    x74_8 c8 1.0
    x74_9 OBJ 5.0
    x74_9 r74 1.0
    x74_9 c9 1.0
    x74_10 OBJ 5.0
    x74_10 r74 1.0
    x74_10 c10 1.0
    x74_11 OBJ 5.0
    x74_11 r74 1.0
    x74_11 c11 1.0
    x74_12 OBJ 3.0
    x74_12 r74 1.0
    x74_12 c12 1.0
    x74_13 OBJ 1.0
    x74_13 r74 1.0
    x74_13 c13 1.0
    x74_14 OBJ 3.0
    x74_14 r74 1.0
    x74_14 c14 1.0
    x74_15 OBJ 4.0
    x74_15 r74 1.0
    x74_15 c15 1.0
    x74_16 OBJ 1.0
    x74_16 r74 1.0
    x74_16 c16 1.0
    x74_17 OBJ 3.0
    x74_17 r74 1.0
    x74_17 c17 1.0
    x74_18 OBJ 5.0
    x74_18 r74 1.0
    x74_18 c18 1.0
    x74_19 OBJ 1.0
    x74_19 r74 1.0
    x74_19 c19 1.0
    x74_20 OBJ 3.0
    x74_20 r74 1.0
    x74_20 c20 1.0
    x74_21 OBJ 3.0
    x74_21 r74 1.0
    x74_21 c21 1.0
    x74_22 OBJ 3.0
    x74_22 r74 1.0
    x74_22 c22 1.0
    x74_23 OBJ 4.0
    x74_23 r74 1.0
    x74_23 c23 1.0
    x74_24 OBJ 2.0
    x74_24 r74 1.0
    x74_24 c24 1.0
    x74_25 OBJ 4.0
    x74_25 r74 1.0
    x74_25 c25 1.0
    x74_26 OBJ 1.0
    x74_26 r74 1.0
    x74_26 c26 1.0
    x74_27 OBJ 1.0
    x74_27 r74 1.0
    x74_27 c27 1.0
    x74_28 OBJ 2.0
    x74_28 r74 1.0
    x74_28 c28 1.0
    x74_29 OBJ 2.0
    x74_29 r74 1.0
    x74_29 c29 1.0
    x74_30 OBJ 1.0
    x74_30 r74 1.0
    x74_30 c30 1.0
    x74_31 OBJ 2.0
    x74_31 r74 1.0
    x74_31 c31 1.0
    x74_32 OBJ 2.0
    x74_32 r74 1.0
    x74_32 c32 1.0
    x74_33 OBJ 3.0
    x74_33 r74 1.0
    x74_33 c33 1.0
    x74_34 OBJ 2.0
    x74_34 r74 1.0
    x74_34 c34 1.0
    x74_35 OBJ 2.0
    x74_35 r74 1.0
    x74_35 c35 1.0
    x74_36 OBJ 1.0
    x74_36 r74 1.0
    x74_36 c36 1.0
    x74_37 OBJ 4.0
    x74_37 r74 1.0
    x74_37 c37 1.0
    x74_38 OBJ 3.0
    x74_38 r74 1.0
    x74_38 c38 1.0
    x74_39 OBJ 1.0
    x74_39 r74 1.0
    x74_39 c39 1.0
    x74_40 OBJ 1.0
    x74_40 r74 1.0
    x74_40 c40 1.0
    x74_41 OBJ 2.0
    x74_41 r74 1.0
    x74_41 c41 1.0
    x74_42 OBJ 5.0
    x74_42 r74 1.0
    x74_42 c42 1.0
    x74_43 OBJ 5.0
    x74_43 r74 1.0
    x74_43 c43 1.0
    x74_44 OBJ 1.0
    x74_44 r74 1.0
    x74_44 c44 1.0
    x74_45 OBJ 2.0
    x74_45 r74 1.0
    x74_45 c45 1.0
    x74_46 OBJ 4.0
    x74_46 r74 1.0
    x74_46 c46 1.0
    x74_47 OBJ 2.0
    x74_47 r74 1.0
    x74_47 c47 1.0
    x74_48 OBJ 1.0
    x74_48 r74 1.0
    x74_48 c48 1.0
    x74_49 OBJ 4.0
    x74_49 r74 1.0
    x74_49 c49 1.0
    x74_50 OBJ 4.0
    x74_50 r74 1.0
    x74_50 c50 1.0
    x74_51 OBJ 4.0
    x74_51 r74 1.0
    x74_51 c51 1.0
    x74_52 OBJ 1.0
    x74_52 r74 1.0
    x74_52 c52 1.0
    x74_53 OBJ 2.0
    x74_53 r74 1.0
    x74_53 c53 1.0
    x74_54 OBJ 5.0
    x74_54 r74 1.0
    x74_54 c54 1.0
    x74_55 OBJ 2.0
    x74_55 r74 1.0
    x74_55 c55 1.0
    x74_56 OBJ 3.0
    x74_56 r74 1.0
    x74_56 c56 1.0
    x74_57 OBJ 1.0
    x74_57 r74 1.0
    x74_57 c57 1.0
    x74_58 OBJ 1.0
    x74_58 r74 1.0
    x74_58 c58 1.0
    x74_59 OBJ 1.0
    x74_59 r74 1.0
    x74_59 c59 1.0
    x74_60 OBJ 2.0
    x74_60 r74 1.0
    x74_60 c60 1.0
    x74_61 OBJ 1.0
    x74_61 r74 1.0
    x74_61 c61 1.0
    x74_62 OBJ 1.0
    x74_62 r74 1.0
    x74_62 c62 1.0
    x74_63 OBJ 1.0
    x74_63 r74 1.0
    x74_63 c63 1.0
    x74_64 OBJ 3.0
    x74_64 r74 1.0
    x74_64 c64 1.0
    x74_65 OBJ 2.0
    x74_65 r74 1.0
    x74_65 c65 1.0
    x74_66 OBJ 1.0
    x74_66 r74 1.0
    x74_66 c66 1.0
    x74_67 OBJ 4.0
    x74_67 r74 1.0
    x74_67 c67 1.0
    x74_68 OBJ 2.0
    x74_68 r74 1.0
    x74_68 c68 1.0
    x74_69 OBJ 1.0
    x74_69 r74 1.0
    x74_69 c69 1.0
    x74_70 OBJ 2.0
    x74_70 r74 1.0
    x74_70 c70 1.0
    x74_71 OBJ 2.0
    x74_71 r74 1.0
    x74_71 c71 1.0
    x74_72 OBJ 5.0
    x74_72 r74 1.0
    x74_72 c72 1.0
    x74_73 OBJ 3.0
    x74_73 r74 1.0
    x74_73 c73 1.0
    x74_74 OBJ 2.0
    x74_74 r74 1.0
    x74_74 c74 1.0
    x74_75 OBJ 3.0
    x74_75 r74 1.0
    x74_75 c75 1.0
    x74_76 OBJ 1.0
    x74_76 r74 1.0
    x74_76 c76 1.0
    x74_77 OBJ 4.0
    x74_77 r74 1.0
    x74_77 c77 1.0
    x74_78 OBJ 3.0
    x74_78 r74 1.0
    x74_78 c78 1.0
    x74_79 OBJ 4.0
    x74_79 r74 1.0
    x74_79 c79 1.0
    x75_0 OBJ 4.0
    x75_0 r75 1.0
    x75_0 c0 1.0
    x75_1 OBJ 3.0
    x75_1 r75 1.0
    x75_1 c1 1.0
    x75_2 OBJ 4.0
    x75_2 r75 1.0
    x75_2 c2 1.0
    x75_3 OBJ 2.0
    x75_3 r75 1.0
    x75_3 c3 1.0
    x75_4 OBJ 4.0
    x75_4 r75 1.0
    x75_4 c4 1.0
    x75_5 OBJ 1.0
    x75_5 r75 1.0
    x75_5 c5 1.0
    x75_6 OBJ 2.0
    x75_6 r75 1.0
    x75_6 c6 1.0
    x75_7 OBJ 2.0
    x75_7 r75 1.0
    x75_7 c7 1.0
    x75_8 OBJ 2.0
    x75_8 r75 1.0
    x75_8 c8 1.0
    x75_9 OBJ 2.0
    x75_9 r75 1.0
    x75_9 c9 1.0
    x75_10 OBJ 3.0
    x75_10 r75 1.0
    x75_10 c10 1.0
    x75_11 OBJ 1.0
    x75_11 r75 1.0
    x75_11 c11 1.0
    x75_12 OBJ 4.0
    x75_12 r75 1.0
    x75_12 c12 1.0
    x75_13 OBJ 5.0
    x75_13 r75 1.0
    x75_13 c13 1.0
    x75_14 OBJ 5.0
    x75_14 r75 1.0
    x75_14 c14 1.0
    x75_15 OBJ 1.0
    x75_15 r75 1.0
    x75_15 c15 1.0
    x75_16 OBJ 4.0
    x75_16 r75 1.0
    x75_16 c16 1.0
    x75_17 OBJ 5.0
    x75_17 r75 1.0
    x75_17 c17 1.0
    x75_18 OBJ 5.0
    x75_18 r75 1.0
    x75_18 c18 1.0
    x75_19 OBJ 1.0
    x75_19 r75 1.0
    x75_19 c19 1.0
    x75_20 OBJ 4.0
    x75_20 r75 1.0
    x75_20 c20 1.0
    x75_21 OBJ 4.0
    x75_21 r75 1.0
    x75_21 c21 1.0
    x75_22 OBJ 1.0
    x75_22 r75 1.0
    x75_22 c22 1.0
    x75_23 OBJ 5.0
    x75_23 r75 1.0
    x75_23 c23 1.0
    x75_24 OBJ 3.0
    x75_24 r75 1.0
    x75_24 c24 1.0
    x75_25 OBJ 4.0
    x75_25 r75 1.0
    x75_25 c25 1.0
    x75_26 OBJ 5.0
    x75_26 r75 1.0
    x75_26 c26 1.0
    x75_27 OBJ 2.0
    x75_27 r75 1.0
    x75_27 c27 1.0
    x75_28 OBJ 1.0
    x75_28 r75 1.0
    x75_28 c28 1.0
    x75_29 OBJ 5.0
    x75_29 r75 1.0
    x75_29 c29 1.0
    x75_30 OBJ 5.0
    x75_30 r75 1.0
    x75_30 c30 1.0
    x75_31 OBJ 2.0
    x75_31 r75 1.0
    x75_31 c31 1.0
    x75_32 OBJ 4.0
    x75_32 r75 1.0
    x75_32 c32 1.0
    x75_33 OBJ 2.0
    x75_33 r75 1.0
    x75_33 c33 1.0
    x75_34 OBJ 4.0
    x75_34 r75 1.0
    x75_34 c34 1.0
    x75_35 OBJ 2.0
    x75_35 r75 1.0
    x75_35 c35 1.0
    x75_36 OBJ 1.0
    x75_36 r75 1.0
    x75_36 c36 1.0
    x75_37 OBJ 5.0
    x75_37 r75 1.0
    x75_37 c37 1.0
    x75_38 OBJ 5.0
    x75_38 r75 1.0
    x75_38 c38 1.0
    x75_39 OBJ 1.0
    x75_39 r75 1.0
    x75_39 c39 1.0
    x75_40 OBJ 3.0
    x75_40 r75 1.0
    x75_40 c40 1.0
    x75_41 OBJ 4.0
    x75_41 r75 1.0
    x75_41 c41 1.0
    x75_42 OBJ 2.0
    x75_42 r75 1.0
    x75_42 c42 1.0
    x75_43 OBJ 5.0
    x75_43 r75 1.0
    x75_43 c43 1.0
    x75_44 OBJ 4.0
    x75_44 r75 1.0
    x75_44 c44 1.0
    x75_45 OBJ 4.0
    x75_45 r75 1.0
    x75_45 c45 1.0
    x75_46 OBJ 3.0
    x75_46 r75 1.0
    x75_46 c46 1.0
    x75_47 OBJ 4.0
    x75_47 r75 1.0
    x75_47 c47 1.0
    x75_48 OBJ 5.0
    x75_48 r75 1.0
    x75_48 c48 1.0
    x75_49 OBJ 5.0
    x75_49 r75 1.0
    x75_49 c49 1.0
    x75_50 OBJ 2.0
    x75_50 r75 1.0
    x75_50 c50 1.0
    x75_51 OBJ 3.0
    x75_51 r75 1.0
    x75_51 c51 1.0
    x75_52 OBJ 4.0
    x75_52 r75 1.0
    x75_52 c52 1.0
    x75_53 OBJ 2.0
    x75_53 r75 1.0
    x75_53 c53 1.0
    x75_54 OBJ 3.0
    x75_54 r75 1.0
    x75_54 c54 1.0
    x75_55 OBJ 2.0
    x75_55 r75 1.0
    x75_55 c55 1.0
    x75_56 OBJ 5.0
    x75_56 r75 1.0
    x75_56 c56 1.0
    x75_57 OBJ 1.0
    x75_57 r75 1.0
    x75_57 c57 1.0
    x75_58 OBJ 5.0
    x75_58 r75 1.0
    x75_58 c58 1.0
    x75_59 OBJ 3.0
    x75_59 r75 1.0
    x75_59 c59 1.0
    x75_60 OBJ 3.0
    x75_60 r75 1.0
    x75_60 c60 1.0
    x75_61 OBJ 5.0
    x75_61 r75 1.0
    x75_61 c61 1.0
    x75_62 OBJ 3.0
    x75_62 r75 1.0
    x75_62 c62 1.0
    x75_63 OBJ 5.0
    x75_63 r75 1.0
    x75_63 c63 1.0
    x75_64 OBJ 3.0
    x75_64 r75 1.0
    x75_64 c64 1.0
    x75_65 OBJ 2.0
    x75_65 r75 1.0
    x75_65 c65 1.0
    x75_66 OBJ 5.0
    x75_66 r75 1.0
    x75_66 c66 1.0
    x75_67 OBJ 5.0
    x75_67 r75 1.0
    x75_67 c67 1.0
    x75_68 OBJ 4.0
    x75_68 r75 1.0
    x75_68 c68 1.0
    x75_69 OBJ 3.0
    x75_69 r75 1.0
    x75_69 c69 1.0
    x75_70 OBJ 1.0
    x75_70 r75 1.0
    x75_70 c70 1.0
    x75_71 OBJ 4.0
    x75_71 r75 1.0
    x75_71 c71 1.0
    x75_72 OBJ 1.0
    x75_72 r75 1.0
    x75_72 c72 1.0
    x75_73 OBJ 2.0
    x75_73 r75 1.0
    x75_73 c73 1.0
    x75_74 OBJ 4.0
    x75_74 r75 1.0
    x75_74 c74 1.0
    x75_75 OBJ 1.0
    x75_75 r75 1.0
    x75_75 c75 1.0
    x75_76 OBJ 5.0
    x75_76 r75 1.0
    x75_76 c76 1.0
    x75_77 OBJ 4.0
    x75_77 r75 1.0
    x75_77 c77 1.0
    x75_78 OBJ 3.0
    x75_78 r75 1.0
    x75_78 c78 1.0
    x75_79 OBJ 5.0
    x75_79 r75 1.0
    x75_79 c79 1.0
    x76_0 OBJ 5.0
    x76_0 r76 1.0
    x76_0 c0 1.0
    x76_1 OBJ 4.0
    x76_1 r76 1.0
    x76_1 c1 1.0
    x76_2 OBJ 1.0
    x76_2 r76 1.0
    x76_2 c2 1.0
    x76_3 OBJ 1.0
    x76_3 r76 1.0
    x76_3 c3 1.0
    x76_4 OBJ 5.0
    x76_4 r76 1.0
    x76_4 c4 1.0
    x76_5 OBJ 2.0
    x76_5 r76 1.0
    x76_5 c5 1.0
    x76_6 OBJ 1.0
    x76_6 r76 1.0
    x76_6 c6 1.0
    x76_7 OBJ 4.0
    x76_7 r76 1.0
    x76_7 c7 1.0
    x76_8 OBJ 3.0
    x76_8 r76 1.0
    x76_8 c8 1.0
    x76_9 OBJ 1.0
    x76_9 r76 1.0
    x76_9 c9 1.0
    x76_10 OBJ 5.0
    x76_10 r76 1.0
    x76_10 c10 1.0
    x76_11 OBJ 4.0
    x76_11 r76 1.0
    x76_11 c11 1.0
    x76_12 OBJ 4.0
    x76_12 r76 1.0
    x76_12 c12 1.0
    x76_13 OBJ 3.0
    x76_13 r76 1.0
    x76_13 c13 1.0
    x76_14 OBJ 1.0
    x76_14 r76 1.0
    x76_14 c14 1.0
    x76_15 OBJ 4.0
    x76_15 r76 1.0
    x76_15 c15 1.0
    x76_16 OBJ 3.0
    x76_16 r76 1.0
    x76_16 c16 1.0
    x76_17 OBJ 1.0
    x76_17 r76 1.0
    x76_17 c17 1.0
    x76_18 OBJ 1.0
    x76_18 r76 1.0
    x76_18 c18 1.0
    x76_19 OBJ 4.0
    x76_19 r76 1.0
    x76_19 c19 1.0
    x76_20 OBJ 3.0
    x76_20 r76 1.0
    x76_20 c20 1.0
    x76_21 OBJ 2.0
    x76_21 r76 1.0
    x76_21 c21 1.0
    x76_22 OBJ 1.0
    x76_22 r76 1.0
    x76_22 c22 1.0
    x76_23 OBJ 3.0
    x76_23 r76 1.0
    x76_23 c23 1.0
    x76_24 OBJ 3.0
    x76_24 r76 1.0
    x76_24 c24 1.0
    x76_25 OBJ 3.0
    x76_25 r76 1.0
    x76_25 c25 1.0
    x76_26 OBJ 2.0
    x76_26 r76 1.0
    x76_26 c26 1.0
    x76_27 OBJ 5.0
    x76_27 r76 1.0
    x76_27 c27 1.0
    x76_28 OBJ 5.0
    x76_28 r76 1.0
    x76_28 c28 1.0
    x76_29 OBJ 5.0
    x76_29 r76 1.0
    x76_29 c29 1.0
    x76_30 OBJ 4.0
    x76_30 r76 1.0
    x76_30 c30 1.0
    x76_31 OBJ 5.0
    x76_31 r76 1.0
    x76_31 c31 1.0
    x76_32 OBJ 3.0
    x76_32 r76 1.0
    x76_32 c32 1.0
    x76_33 OBJ 4.0
    x76_33 r76 1.0
    x76_33 c33 1.0
    x76_34 OBJ 3.0
    x76_34 r76 1.0
    x76_34 c34 1.0
    x76_35 OBJ 4.0
    x76_35 r76 1.0
    x76_35 c35 1.0
    x76_36 OBJ 4.0
    x76_36 r76 1.0
    x76_36 c36 1.0
    x76_37 OBJ 1.0
    x76_37 r76 1.0
    x76_37 c37 1.0
    x76_38 OBJ 1.0
    x76_38 r76 1.0
    x76_38 c38 1.0
    x76_39 OBJ 2.0
    x76_39 r76 1.0
    x76_39 c39 1.0
    x76_40 OBJ 3.0
    x76_40 r76 1.0
    x76_40 c40 1.0
    x76_41 OBJ 1.0
    x76_41 r76 1.0
    x76_41 c41 1.0
    x76_42 OBJ 5.0
    x76_42 r76 1.0
    x76_42 c42 1.0
    x76_43 OBJ 5.0
    x76_43 r76 1.0
    x76_43 c43 1.0
    x76_44 OBJ 2.0
    x76_44 r76 1.0
    x76_44 c44 1.0
    x76_45 OBJ 3.0
    x76_45 r76 1.0
    x76_45 c45 1.0
    x76_46 OBJ 4.0
    x76_46 r76 1.0
    x76_46 c46 1.0
    x76_47 OBJ 2.0
    x76_47 r76 1.0
    x76_47 c47 1.0
    x76_48 OBJ 3.0
    x76_48 r76 1.0
    x76_48 c48 1.0
    x76_49 OBJ 5.0
    x76_49 r76 1.0
    x76_49 c49 1.0
    x76_50 OBJ 1.0
    x76_50 r76 1.0
    x76_50 c50 1.0
    x76_51 OBJ 4.0
    x76_51 r76 1.0
    x76_51 c51 1.0
    x76_52 OBJ 4.0
    x76_52 r76 1.0
    x76_52 c52 1.0
    x76_53 OBJ 1.0
    x76_53 r76 1.0
    x76_53 c53 1.0
    x76_54 OBJ 1.0
    x76_54 r76 1.0
    x76_54 c54 1.0
    x76_55 OBJ 1.0
    x76_55 r76 1.0
    x76_55 c55 1.0
    x76_56 OBJ 1.0
    x76_56 r76 1.0
    x76_56 c56 1.0
    x76_57 OBJ 2.0
    x76_57 r76 1.0
    x76_57 c57 1.0
    x76_58 OBJ 4.0
    x76_58 r76 1.0
    x76_58 c58 1.0
    x76_59 OBJ 5.0
    x76_59 r76 1.0
    x76_59 c59 1.0
    x76_60 OBJ 4.0
    x76_60 r76 1.0
    x76_60 c60 1.0
    x76_61 OBJ 1.0
    x76_61 r76 1.0
    x76_61 c61 1.0
    x76_62 OBJ 3.0
    x76_62 r76 1.0
    x76_62 c62 1.0
    x76_63 OBJ 3.0
    x76_63 r76 1.0
    x76_63 c63 1.0
    x76_64 OBJ 5.0
    x76_64 r76 1.0
    x76_64 c64 1.0
    x76_65 OBJ 2.0
    x76_65 r76 1.0
    x76_65 c65 1.0
    x76_66 OBJ 2.0
    x76_66 r76 1.0
    x76_66 c66 1.0
    x76_67 OBJ 1.0
    x76_67 r76 1.0
    x76_67 c67 1.0
    x76_68 OBJ 2.0
    x76_68 r76 1.0
    x76_68 c68 1.0
    x76_69 OBJ 5.0
    x76_69 r76 1.0
    x76_69 c69 1.0
    x76_70 OBJ 3.0
    x76_70 r76 1.0
    x76_70 c70 1.0
    x76_71 OBJ 3.0
    x76_71 r76 1.0
    x76_71 c71 1.0
    x76_72 OBJ 2.0
    x76_72 r76 1.0
    x76_72 c72 1.0
    x76_73 OBJ 2.0
    x76_73 r76 1.0
    x76_73 c73 1.0
    x76_74 OBJ 2.0
    x76_74 r76 1.0
    x76_74 c74 1.0
    x76_75 OBJ 4.0
    x76_75 r76 1.0
    x76_75 c75 1.0
    x76_76 OBJ 2.0
    x76_76 r76 1.0
    x76_76 c76 1.0
    x76_77 OBJ 3.0
    x76_77 r76 1.0
    x76_77 c77 1.0
    x76_78 OBJ 3.0
    x76_78 r76 1.0
    x76_78 c78 1.0
    x76_79 OBJ 1.0
    x76_79 r76 1.0
    x76_79 c79 1.0
    x77_0 OBJ 2.0
    x77_0 r77 1.0
    x77_0 c0 1.0
    x77_1 OBJ 2.0
    x77_1 r77 1.0
    x77_1 c1 1.0
    x77_2 OBJ 5.0
    x77_2 r77 1.0
    x77_2 c2 1.0
    x77_3 OBJ 3.0
    x77_3 r77 1.0
    x77_3 c3 1.0
    x77_4 OBJ 1.0
    x77_4 r77 1.0
    x77_4 c4 1.0
    x77_5 OBJ 4.0
    x77_5 r77 1.0
    x77_5 c5 1.0
    x77_6 OBJ 5.0
    x77_6 r77 1.0
    x77_6 c6 1.0
    x77_7 OBJ 5.0
    x77_7 r77 1.0
    x77_7 c7 1.0
    x77_8 OBJ 4.0
    x77_8 r77 1.0
    x77_8 c8 1.0
    x77_9 OBJ 2.0
    x77_9 r77 1.0
    x77_9 c9 1.0
    x77_10 OBJ 1.0
    x77_10 r77 1.0
    x77_10 c10 1.0
    x77_11 OBJ 4.0
    x77_11 r77 1.0
    x77_11 c11 1.0
    x77_12 OBJ 4.0
    x77_12 r77 1.0
    x77_12 c12 1.0
    x77_13 OBJ 3.0
    x77_13 r77 1.0
    x77_13 c13 1.0
    x77_14 OBJ 1.0
    x77_14 r77 1.0
    x77_14 c14 1.0
    x77_15 OBJ 4.0
    x77_15 r77 1.0
    x77_15 c15 1.0
    x77_16 OBJ 2.0
    x77_16 r77 1.0
    x77_16 c16 1.0
    x77_17 OBJ 4.0
    x77_17 r77 1.0
    x77_17 c17 1.0
    x77_18 OBJ 4.0
    x77_18 r77 1.0
    x77_18 c18 1.0
    x77_19 OBJ 5.0
    x77_19 r77 1.0
    x77_19 c19 1.0
    x77_20 OBJ 2.0
    x77_20 r77 1.0
    x77_20 c20 1.0
    x77_21 OBJ 3.0
    x77_21 r77 1.0
    x77_21 c21 1.0
    x77_22 OBJ 2.0
    x77_22 r77 1.0
    x77_22 c22 1.0
    x77_23 OBJ 5.0
    x77_23 r77 1.0
    x77_23 c23 1.0
    x77_24 OBJ 1.0
    x77_24 r77 1.0
    x77_24 c24 1.0
    x77_25 OBJ 5.0
    x77_25 r77 1.0
    x77_25 c25 1.0
    x77_26 OBJ 3.0
    x77_26 r77 1.0
    x77_26 c26 1.0
    x77_27 OBJ 4.0
    x77_27 r77 1.0
    x77_27 c27 1.0
    x77_28 OBJ 2.0
    x77_28 r77 1.0
    x77_28 c28 1.0
    x77_29 OBJ 2.0
    x77_29 r77 1.0
    x77_29 c29 1.0
    x77_30 OBJ 4.0
    x77_30 r77 1.0
    x77_30 c30 1.0
    x77_31 OBJ 4.0
    x77_31 r77 1.0
    x77_31 c31 1.0
    x77_32 OBJ 4.0
    x77_32 r77 1.0
    x77_32 c32 1.0
    x77_33 OBJ 3.0
    x77_33 r77 1.0
    x77_33 c33 1.0
    x77_34 OBJ 5.0
    x77_34 r77 1.0
    x77_34 c34 1.0
    x77_35 OBJ 3.0
    x77_35 r77 1.0
    x77_35 c35 1.0
    x77_36 OBJ 1.0
    x77_36 r77 1.0
    x77_36 c36 1.0
    x77_37 OBJ 5.0
    x77_37 r77 1.0
    x77_37 c37 1.0
    x77_38 OBJ 4.0
    x77_38 r77 1.0
    x77_38 c38 1.0
    x77_39 OBJ 5.0
    x77_39 r77 1.0
    x77_39 c39 1.0
    x77_40 OBJ 3.0
    x77_40 r77 1.0
    x77_40 c40 1.0
    x77_41 OBJ 2.0
    x77_41 r77 1.0
    x77_41 c41 1.0
    x77_42 OBJ 3.0
    x77_42 r77 1.0
    x77_42 c42 1.0
    x77_43 OBJ 1.0
    x77_43 r77 1.0
    x77_43 c43 1.0
    x77_44 OBJ 3.0
    x77_44 r77 1.0
    x77_44 c44 1.0
    x77_45 OBJ 4.0
    x77_45 r77 1.0
    x77_45 c45 1.0
    x77_46 OBJ 1.0
    x77_46 r77 1.0
    x77_46 c46 1.0
    x77_47 OBJ 2.0
    x77_47 r77 1.0
    x77_47 c47 1.0
    x77_48 OBJ 4.0
    x77_48 r77 1.0
    x77_48 c48 1.0
    x77_49 OBJ 5.0
    x77_49 r77 1.0
    x77_49 c49 1.0
    x77_50 OBJ 3.0
    x77_50 r77 1.0
    x77_50 c50 1.0
    x77_51 OBJ 3.0
    x77_51 r77 1.0
    x77_51 c51 1.0
    x77_52 OBJ 4.0
    x77_52 r77 1.0
    x77_52 c52 1.0
    x77_53 OBJ 5.0
    x77_53 r77 1.0
    x77_53 c53 1.0
    x77_54 OBJ 5.0
    x77_54 r77 1.0
    x77_54 c54 1.0
    x77_55 OBJ 2.0
    x77_55 r77 1.0
    x77_55 c55 1.0
    x77_56 OBJ 3.0
    x77_56 r77 1.0
    x77_56 c56 1.0
    x77_57 OBJ 1.0
    x77_57 r77 1.0
    x77_57 c57 1.0
    x77_58 OBJ 3.0
    x77_58 r77 1.0
    x77_58 c58 1.0
    x77_59 OBJ 2.0
    x77_59 r77 1.0
    x77_59 c59 1.0
    x77_60 OBJ 4.0
    x77_60 r77 1.0
    x77_60 c60 1.0
    x77_61 OBJ 1.0
    x77_61 r77 1.0
    x77_61 c61 1.0
    x77_62 OBJ 3.0
    x77_62 r77 1.0
    x77_62 c62 1.0
    x77_63 OBJ 4.0
    x77_63 r77 1.0
    x77_63 c63 1.0
    x77_64 OBJ 3.0
    x77_64 r77 1.0
    x77_64 c64 1.0
    x77_65 OBJ 5.0
    x77_65 r77 1.0
    x77_65 c65 1.0
    x77_66 OBJ 3.0
    x77_66 r77 1.0
    x77_66 c66 1.0
    x77_67 OBJ 4.0
    x77_67 r77 1.0
    x77_67 c67 1.0
    x77_68 OBJ 2.0
    x77_68 r77 1.0
    x77_68 c68 1.0
    x77_69 OBJ 5.0
    x77_69 r77 1.0
    x77_69 c69 1.0
    x77_70 OBJ 2.0
    x77_70 r77 1.0
    x77_70 c70 1.0
    x77_71 OBJ 3.0
    x77_71 r77 1.0
    x77_71 c71 1.0
    x77_72 OBJ 2.0
    x77_72 r77 1.0
    x77_72 c72 1.0
    x77_73 OBJ 5.0
    x77_73 r77 1.0
    x77_73 c73 1.0
    x77_74 OBJ 2.0
    x77_74 r77 1.0
    x77_74 c74 1.0
    x77_75 OBJ 3.0
    x77_75 r77 1.0
    x77_75 c75 1.0
    x77_76 OBJ 3.0
    x77_76 r77 1.0
    x77_76 c76 1.0
    x77_77 OBJ 2.0
    x77_77 r77 1.0
    x77_77 c77 1.0
    x77_78 OBJ 5.0
    x77_78 r77 1.0
    x77_78 c78 1.0
    x77_79 OBJ 1.0
    x77_79 r77 1.0
    x77_79 c79 1.0
    x78_0 OBJ 4.0
    x78_0 r78 1.0
    x78_0 c0 1.0
    x78_1 OBJ 1.0
    x78_1 r78 1.0
    x78_1 c1 1.0
    x78_2 OBJ 2.0
    x78_2 r78 1.0
    x78_2 c2 1.0
    x78_3 OBJ 5.0
    x78_3 r78 1.0
    x78_3 c3 1.0
    x78_4 OBJ 1.0
    x78_4 r78 1.0
    x78_4 c4 1.0
    x78_5 OBJ 2.0
    x78_5 r78 1.0
    x78_5 c5 1.0
    x78_6 OBJ 5.0
    x78_6 r78 1.0
    x78_6 c6 1.0
    x78_7 OBJ 5.0
    x78_7 r78 1.0
    x78_7 c7 1.0
    x78_8 OBJ 1.0
    x78_8 r78 1.0
    x78_8 c8 1.0
    x78_9 OBJ 2.0
    x78_9 r78 1.0
    x78_9 c9 1.0
    x78_10 OBJ 1.0
    x78_10 r78 1.0
    x78_10 c10 1.0
    x78_11 OBJ 3.0
    x78_11 r78 1.0
    x78_11 c11 1.0
    x78_12 OBJ 1.0
    x78_12 r78 1.0
    x78_12 c12 1.0
    x78_13 OBJ 2.0
    x78_13 r78 1.0
    x78_13 c13 1.0
    x78_14 OBJ 5.0
    x78_14 r78 1.0
    x78_14 c14 1.0
    x78_15 OBJ 1.0
    x78_15 r78 1.0
    x78_15 c15 1.0
    x78_16 OBJ 3.0
    x78_16 r78 1.0
    x78_16 c16 1.0
    x78_17 OBJ 1.0
    x78_17 r78 1.0
    x78_17 c17 1.0
    x78_18 OBJ 4.0
    x78_18 r78 1.0
    x78_18 c18 1.0
    x78_19 OBJ 1.0
    x78_19 r78 1.0
    x78_19 c19 1.0
    x78_20 OBJ 3.0
    x78_20 r78 1.0
    x78_20 c20 1.0
    x78_21 OBJ 3.0
    x78_21 r78 1.0
    x78_21 c21 1.0
    x78_22 OBJ 5.0
    x78_22 r78 1.0
    x78_22 c22 1.0
    x78_23 OBJ 1.0
    x78_23 r78 1.0
    x78_23 c23 1.0
    x78_24 OBJ 5.0
    x78_24 r78 1.0
    x78_24 c24 1.0
    x78_25 OBJ 4.0
    x78_25 r78 1.0
    x78_25 c25 1.0
    x78_26 OBJ 3.0
    x78_26 r78 1.0
    x78_26 c26 1.0
    x78_27 OBJ 5.0
    x78_27 r78 1.0
    x78_27 c27 1.0
    x78_28 OBJ 5.0
    x78_28 r78 1.0
    x78_28 c28 1.0
    x78_29 OBJ 2.0
    x78_29 r78 1.0
    x78_29 c29 1.0
    x78_30 OBJ 1.0
    x78_30 r78 1.0
    x78_30 c30 1.0
    x78_31 OBJ 5.0
    x78_31 r78 1.0
    x78_31 c31 1.0
    x78_32 OBJ 2.0
    x78_32 r78 1.0
    x78_32 c32 1.0
    x78_33 OBJ 2.0
    x78_33 r78 1.0
    x78_33 c33 1.0
    x78_34 OBJ 2.0
    x78_34 r78 1.0
    x78_34 c34 1.0
    x78_35 OBJ 1.0
    x78_35 r78 1.0
    x78_35 c35 1.0
    x78_36 OBJ 2.0
    x78_36 r78 1.0
    x78_36 c36 1.0
    x78_37 OBJ 1.0
    x78_37 r78 1.0
    x78_37 c37 1.0
    x78_38 OBJ 3.0
    x78_38 r78 1.0
    x78_38 c38 1.0
    x78_39 OBJ 5.0
    x78_39 r78 1.0
    x78_39 c39 1.0
    x78_40 OBJ 5.0
    x78_40 r78 1.0
    x78_40 c40 1.0
    x78_41 OBJ 3.0
    x78_41 r78 1.0
    x78_41 c41 1.0
    x78_42 OBJ 4.0
    x78_42 r78 1.0
    x78_42 c42 1.0
    x78_43 OBJ 4.0
    x78_43 r78 1.0
    x78_43 c43 1.0
    x78_44 OBJ 1.0
    x78_44 r78 1.0
    x78_44 c44 1.0
    x78_45 OBJ 1.0
    x78_45 r78 1.0
    x78_45 c45 1.0
    x78_46 OBJ 5.0
    x78_46 r78 1.0
    x78_46 c46 1.0
    x78_47 OBJ 4.0
    x78_47 r78 1.0
    x78_47 c47 1.0
    x78_48 OBJ 1.0
    x78_48 r78 1.0
    x78_48 c48 1.0
    x78_49 OBJ 3.0
    x78_49 r78 1.0
    x78_49 c49 1.0
    x78_50 OBJ 5.0
    x78_50 r78 1.0
    x78_50 c50 1.0
    x78_51 OBJ 2.0
    x78_51 r78 1.0
    x78_51 c51 1.0
    x78_52 OBJ 4.0
    x78_52 r78 1.0
    x78_52 c52 1.0
    x78_53 OBJ 3.0
    x78_53 r78 1.0
    x78_53 c53 1.0
    x78_54 OBJ 1.0
    x78_54 r78 1.0
    x78_54 c54 1.0
    x78_55 OBJ 1.0
    x78_55 r78 1.0
    x78_55 c55 1.0
    x78_56 OBJ 1.0
    x78_56 r78 1.0
    x78_56 c56 1.0
    x78_57 OBJ 4.0
    x78_57 r78 1.0
    x78_57 c57 1.0
    x78_58 OBJ 5.0
    x78_58 r78 1.0
    x78_58 c58 1.0
    x78_59 OBJ 5.0
    x78_59 r78 1.0
    x78_59 c59 1.0
    x78_60 OBJ 4.0
    x78_60 r78 1.0
    x78_60 c60 1.0
    x78_61 OBJ 2.0
    x78_61 r78 1.0
    x78_61 c61 1.0
    x78_62 OBJ 3.0
    x78_62 r78 1.0
    x78_62 c62 1.0
    x78_63 OBJ 3.0
    x78_63 r78 1.0
    x78_63 c63 1.0
    x78_64 OBJ 5.0
    x78_64 r78 1.0
    x78_64 c64 1.0
    x78_65 OBJ 2.0
    x78_65 r78 1.0
    x78_65 c65 1.0
    x78_66 OBJ 3.0
    x78_66 r78 1.0
    x78_66 c66 1.0
    x78_67 OBJ 3.0
    x78_67 r78 1.0
    x78_67 c67 1.0
    x78_68 OBJ 3.0
    x78_68 r78 1.0
    x78_68 c68 1.0
    x78_69 OBJ 5.0
    x78_69 r78 1.0
    x78_69 c69 1.0
    x78_70 OBJ 2.0
    x78_70 r78 1.0
    x78_70 c70 1.0
    x78_71 OBJ 2.0
    x78_71 r78 1.0
    x78_71 c71 1.0
    x78_72 OBJ 2.0
    x78_72 r78 1.0
    x78_72 c72 1.0
    x78_73 OBJ 2.0
    x78_73 r78 1.0
    x78_73 c73 1.0
    x78_74 OBJ 2.0
    x78_74 r78 1.0
    x78_74 c74 1.0
    x78_75 OBJ 1.0
    x78_75 r78 1.0
    x78_75 c75 1.0
    x78_76 OBJ 5.0
    x78_76 r78 1.0
    x78_76 c76 1.0
    x78_77 OBJ 1.0
    x78_77 r78 1.0
    x78_77 c77 1.0
    x78_78 OBJ 2.0
    x78_78 r78 1.0
    x78_78 c78 1.0
    x78_79 OBJ 3.0
    x78_79 r78 1.0
    x78_79 c79 1.0
    x79_0 OBJ 5.0
    x79_0 r79 1.0
    x79_0 c0 1.0
    x79_1 OBJ 5.0
    x79_1 r79 1.0
    x79_1 c1 1.0
    x79_2 OBJ 5.0
    x79_2 r79 1.0
    x79_2 c2 1.0
    x79_3 OBJ 1.0
    x79_3 r79 1.0
    x79_3 c3 1.0
    x79_4 OBJ 5.0
    x79_4 r79 1.0
    x79_4 c4 1.0
    x79_5 OBJ 4.0
    x79_5 r79 1.0
    x79_5 c5 1.0
    x79_6 OBJ 4.0
    x79_6 r79 1.0
    x79_6 c6 1.0
    x79_7 OBJ 4.0
    x79_7 r79 1.0
    x79_7 c7 1.0
    x79_8 OBJ 5.0
    x79_8 r79 1.0
    x79_8 c8 1.0
    x79_9 OBJ 1.0
    x79_9 r79 1.0
    x79_9 c9 1.0
    x79_10 OBJ 1.0
    x79_10 r79 1.0
    x79_10 c10 1.0
    x79_11 OBJ 2.0
    x79_11 r79 1.0
    x79_11 c11 1.0
    x79_12 OBJ 4.0
    x79_12 r79 1.0
    x79_12 c12 1.0
    x79_13 OBJ 2.0
    x79_13 r79 1.0
    x79_13 c13 1.0
    x79_14 OBJ 2.0
    x79_14 r79 1.0
    x79_14 c14 1.0
    x79_15 OBJ 1.0
    x79_15 r79 1.0
    x79_15 c15 1.0
    x79_16 OBJ 2.0
    x79_16 r79 1.0
    x79_16 c16 1.0
    x79_17 OBJ 3.0
    x79_17 r79 1.0
    x79_17 c17 1.0
    x79_18 OBJ 2.0
    x79_18 r79 1.0
    x79_18 c18 1.0
    x79_19 OBJ 1.0
    x79_19 r79 1.0
    x79_19 c19 1.0
    x79_20 OBJ 4.0
    x79_20 r79 1.0
    x79_20 c20 1.0
    x79_21 OBJ 5.0
    x79_21 r79 1.0
    x79_21 c21 1.0
    x79_22 OBJ 4.0
    x79_22 r79 1.0
    x79_22 c22 1.0
    x79_23 OBJ 4.0
    x79_23 r79 1.0
    x79_23 c23 1.0
    x79_24 OBJ 3.0
    x79_24 r79 1.0
    x79_24 c24 1.0
    x79_25 OBJ 4.0
    x79_25 r79 1.0
    x79_25 c25 1.0
    x79_26 OBJ 1.0
    x79_26 r79 1.0
    x79_26 c26 1.0
    x79_27 OBJ 2.0
    x79_27 r79 1.0
    x79_27 c27 1.0
    x79_28 OBJ 1.0
    x79_28 r79 1.0
    x79_28 c28 1.0
    x79_29 OBJ 4.0
    x79_29 r79 1.0
    x79_29 c29 1.0
    x79_30 OBJ 5.0
    x79_30 r79 1.0
    x79_30 c30 1.0
    x79_31 OBJ 2.0
    x79_31 r79 1.0
    x79_31 c31 1.0
    x79_32 OBJ 1.0
    x79_32 r79 1.0
    x79_32 c32 1.0
    x79_33 OBJ 5.0
    x79_33 r79 1.0
    x79_33 c33 1.0
    x79_34 OBJ 2.0
    x79_34 r79 1.0
    x79_34 c34 1.0
    x79_35 OBJ 2.0
    x79_35 r79 1.0
    x79_35 c35 1.0
    x79_36 OBJ 1.0
    x79_36 r79 1.0
    x79_36 c36 1.0
    x79_37 OBJ 3.0
    x79_37 r79 1.0
    x79_37 c37 1.0
    x79_38 OBJ 1.0
    x79_38 r79 1.0
    x79_38 c38 1.0
    x79_39 OBJ 3.0
    x79_39 r79 1.0
    x79_39 c39 1.0
    x79_40 OBJ 1.0
    x79_40 r79 1.0
    x79_40 c40 1.0
    x79_41 OBJ 3.0
    x79_41 r79 1.0
    x79_41 c41 1.0
    x79_42 OBJ 1.0
    x79_42 r79 1.0
    x79_42 c42 1.0
    x79_43 OBJ 4.0
    x79_43 r79 1.0
    x79_43 c43 1.0
    x79_44 OBJ 3.0
    x79_44 r79 1.0
    x79_44 c44 1.0
    x79_45 OBJ 1.0
    x79_45 r79 1.0
    x79_45 c45 1.0
    x79_46 OBJ 5.0
    x79_46 r79 1.0
    x79_46 c46 1.0
    x79_47 OBJ 4.0
    x79_47 r79 1.0
    x79_47 c47 1.0
    x79_48 OBJ 2.0
    x79_48 r79 1.0
    x79_48 c48 1.0
    x79_49 OBJ 2.0
    x79_49 r79 1.0
    x79_49 c49 1.0
    x79_50 OBJ 2.0
    x79_50 r79 1.0
    x79_50 c50 1.0
    x79_51 OBJ 3.0
    x79_51 r79 1.0
    x79_51 c51 1.0
    x79_52 OBJ 4.0
    x79_52 r79 1.0
    x79_52 c52 1.0
    x79_53 OBJ 3.0
    x79_53 r79 1.0
    x79_53 c53 1.0
    x79_54 OBJ 1.0
    x79_54 r79 1.0
    x79_54 c54 1.0
    x79_55 OBJ 5.0
    x79_55 r79 1.0
    x79_55 c55 1.0
    x79_56 OBJ 4.0
    x79_56 r79 1.0
    x79_56 c56 1.0
    x79_57 OBJ 2.0
    x79_57 r79 1.0
    x79_57 c57 1.0
    x79_58 OBJ 5.0
    x79_58 r79 1.0
    x79_58 c58 1.0
    x79_59 OBJ 1.0
    x79_59 r79 1.0
    x79_59 c59 1.0
    x79_60 OBJ 4.0
    x79_60 r79 1.0
    x79_60 c60 1.0
    x79_61 OBJ 1.0
    x79_61 r79 1.0
    x79_61 c61 1.0
    x79_62 OBJ 2.0
    x79_62 r79 1.0
    x79_62 c62 1.0
    x79_63 OBJ 1.0
    x79_63 r79 1.0
    x79_63 c63 1.0
    x79_64 OBJ 3.0
    x79_64 r79 1.0
    x79_64 c64 1.0
    x79_65 OBJ 5.0
    x79_65 r79 1.0
    x79_65 c65 1.0
    x79_66 OBJ 1.0
    x79_66 r79 1.0
    x79_66 c66 1.0
    x79_67 OBJ 3.0
    x79_67 r79 1.0
    x79_67 c67 1.0
    x79_68 OBJ 1.0
    x79_68 r79 1.0
    x79_68 c68 1.0
    x79_69 OBJ 1.0
    x79_69 r79 1.0
    x79_69 c69 1.0
    x79_70 OBJ 5.0
    x79_70 r79 1.0
    x79_70 c70 1.0
    x79_71 OBJ 2.0
    x79_71 r79 1.0
    x79_71 c71 1.0
    x79_72 OBJ 5.0
    x79_72 r79 1.0
    x79_72 c72 1.0
    x79_73 OBJ 4.0
    x79_73 r79 1.0
    x79_73 c73 1.0
    x79_74 OBJ 2.0
    x79_74 r79 1.0
    x79_74 c74 1.0
    x79_75 OBJ 2.0
    x79_75 r79 1.0
    x79_75 c75 1.0
    x79_76 OBJ 2.0
    x79_76 r79 1.0
    x79_76 c76 1.0
    x79_77 OBJ 4.0
    x79_77 r79 1.0
    x79_77 c77 1.0
    x79_78 OBJ 3.0
    x79_78 r79 1.0
    x79_78 c78 1.0
    x79_79 OBJ 4.0
    x79_79 r79 1.0
    x79_79 c79 1.0
RHS
    RHS r0 1.0
    RHS r1 1.0
    RHS r2 1.0
    RHS r3 1.0
    RHS r4 1.0
    RHS r5 1.0
    RHS r6 1.0
    RHS r7 1.0
    RHS r8 1.0
    RHS r9 1.0
    RHS r10 1.0
    RHS r11 1.0
    RHS r12 1.0
    RHS r13 1.0
    RHS r14 1.0
    RHS r15 1.0
    RHS r16 1.0
    RHS r17 1.0
    RHS r18 1.0
    RHS r19 1.0
    RHS r20 1.0
    RHS r21 1.0
    RHS r22 1.0
    RHS r23 1.0
    RHS r24 1.0
    RHS r25 1.0
    RHS r26 1.0
    RHS r27 1.0
    RHS r28 1.0
    RHS r29 1.0
    RHS r30 1.0
    RHS r31 1.0
    RHS r32 1.0
    RHS r33 1.0
    RHS r34 1.0
    RHS r35 1.0
    RHS r36 1.0
    RHS r37 1.0
    RHS r38 1.0
    RHS r39 1.0
    RHS r40 1.0
    RHS r41 1.0
    RHS r42 1.0
    RHS r43 1.0
    RHS r44 1.0
    RHS r45 1.0
    RHS r46 1.0
    RHS r47 1.0
    RHS r48 1.0
    RHS r49 1.0
    RHS r50 1.0
    RHS r51 1.0
    RHS r52 1.0
    RHS r53 1.0
    RHS r54 1.0
    RHS r55 1.0
    RHS r56 1.0
    RHS r57 1.0
    RHS r58 1.0
    RHS r59 1.0
    RHS r60 1.0
    RHS r61 1.0
    RHS r62 1.0
    RHS r63 1.0
    RHS r64 1.0
    RHS r65 1.0
    RHS r66 1.0
    RHS r67 1.0
    RHS r68 1.0
    RHS r69 1.0
    RHS r70 1.0
    RHS r71 1.0
    RHS r72 1.0
    RHS r73 1.0
    RHS r74 1.0
    RHS r75 1.0
    RHS r76 1.0
    RHS r77 1.0
    RHS r78 1.0
    RHS r79 1.0
    RHS c0 1.0
    RHS c1 1.0
    RHS c2 1.0
    RHS c3 1.0
    RHS c4 1.0
    RHS c5 1.0
    RHS c6 1.0
    RHS c7 1.0
    RHS c8 1.0
    RHS c9 1.0
    RHS c10 1.0
    RHS c11 1.0
    RHS c12 1.0
    RHS c13 1.0
    RHS c14 1.0
    RHS c15 1.0
    RHS c16 1.0
    RHS c17 1.0
    RHS c18 1.0
    RHS c19 1.0
    RHS c20 1.0
    RHS c21 1.0
    RHS c22 1.0
    RHS c23 1.0
    RHS c24 1.0
    RHS c25 1.0
    RHS c26 1.0
    RHS c27 1.0
    RHS c28 1.0
    RHS c29 1.0
    RHS c30 1.0
    RHS c31 1.0
    RHS c32 1.0
    RHS c33 1.0
    RHS c34 1.0
    RHS c35 1.0
    RHS c36 1.0
    RHS c37 1.0
    RHS c38 1.0
    RHS c39 1.0
    RHS c40 1.0
    RHS c41 1.0
    RHS c42 1.0
    RHS c43 1.0
    RHS c44 1.0
    RHS c45 1.0
    RHS c46 1.0
    RHS c47 1.0
    RHS c48 1.0
    RHS c49 1.0
    RHS c50 1.0
    RHS c51 1.0
    RHS c52 1.0
    RHS c53 1.0
    RHS c54 1.0
    RHS c55 1.0
    RHS c56 1.0
    RHS c57 1.0
    RHS c58 1.0
    RHS c59 1.0
    RHS c60 1.0
    RHS c61 1.0
    RHS c62 1.0
    RHS c63 1.0
    RHS c64 1.0
    RHS c65 1.0
    RHS c66 1.0
    RHS c67 1.0
    RHS c68 1.0
    RHS c69 1.0
    RHS c70 1.0
    RHS c71 1.0
    RHS c72 1.0
    RHS c73 1.0
    RHS c74 1.0
    RHS c75 1.0
    RHS c76 1.0
    RHS c77 1.0
    RHS c78 1.0
    RHS c79 1.0
BOUNDS
ENDATA
