NAME ASSIGN_30
ROWS
 N  OBJ
 E  r0
 E  r1
 E  r2
 E  r3
 E  r4
 E  r5
 E  r6
 E  r7
 E  r8
 E  r9
 E  r10
 E  r11
 E  r12
 E  r13
 E  r14
 E  r15
 E  r16
 E  r17
 E  r18
 E  r19
 E  r20
 E  r21
 E  r22
 E  r23
 E  r24
 E  r25
 E  r26
 E  r27
 E  r28
 E  r29
 E  c0
 E  c1
 E  c2
 E  c3
 E  c4
 E  c5
 E  c6
 E  c7
 E  c8
 E  c9
 E  c10
 E  c11
 E  c12
 E  c13
 E  c14
 E  c15
 E  c16
 E  c17
 E  c18
 E  c19
 E  c20
 E  c21
 E  c22
 E  c23
 E  c24
 E  c25
 E  c26
 E  c27
 E  c28
 E  c29
COLUMNS
    x0_0 OBJ 3.0
    x0_0 r0 1.0
    x0_0 c0 1.0
    x0_1 OBJ 2.0
    x0_1 r0 1.0
    x0_1 c1 1.0
    x0_2 OBJ 4.0
    x0_2 r0 1.0
    x0_2 c2 1.0
    x0_3 OBJ 1.0
    x0_3 r0 1.0
    x0_3 c3 1.0
    x0_4 OBJ 1.0
    x0_4 r0 1.0
    x0_4 c4 1.0
    x0_5 OBJ 5.0
    x0_5 r0 1.0
    x0_5 c5 1.0
    x0_6 OBJ 1.0
    x0_6 r0 1.0
    x0_6 c6 1.0
    x0_7 OBJ 3.0
    x0_7 r0 1.0
    x0_7 c7 1.0
    x0_8 OBJ 5.0
    x0_8 r0 1.0
    x0_8 c8 1.0
    x0_9 OBJ 1.0
    x0_9 r0 1.0
    x0_9 c9 1.0
    x0_10 OBJ 5.0
    x0_10 r0 1.0
    x0_10 c10 1.0
    x0_11 OBJ 2.0
    x0_11 r0 1.0
    x0_11 c11 1.0
    x0_12 OBJ 1.0
    x0_12 r0 1.0
    x0_12 c12 1.0
    x0_13 OBJ 1.0
    x0_13 r0 1.0
    x0_13 c13 1.0
    x0_14 OBJ 4.0
    x0_14 r0 1.0
    x0_14 c14 1.0
    x0_15 OBJ 4.0
    x0_15 r0 1.0
    x0_15 c15 1.0
    x0_16 OBJ 1.0
    x0_16 r0 1.0
    x0_16 c16 1.0
    x0_17 OBJ 2.0
    x0_17 r0 1.0
    x0_17 c17 1.0
    x0_18 OBJ 1.0
    x0_18 r0 1.0
    x0_18 c18 1.0
    x0_19 OBJ 5.0
    x0_19 r0 1.0
    x0_19 c19 1.0
    x0_20 OBJ 4.0
    x0_20 r0 1.0
    x0_20 c20 1.0
    x0_21 OBJ 1.0
    x0_21 r0 1.0
    x0_21 c21 1.0
    x0_22 OBJ 5.0
    x0_22 r0 1.0
    x0_22 c22 1.0
    x0_23 OBJ 1.0
    x0_23 r0 1.0
    x0_23 c23 1.0
    x0_24 OBJ 2.0
    x0_24 r0 1.0
    x0_24 c24 1.0
    x0_25 OBJ 5.0
    x0_25 r0 1.0
    x0_25 c25 1.0
    x0_26 OBJ 1.0
    x0_26 r0 1.0
    x0_26 c26 1.0
    x0_27 OBJ 5.0
    x0_27 r0 1.0
    x0_27 c27 1.0
    x0_28 OBJ 5.0
    x0_28 r0 1.0
    x0_28 c28 1.0
    x0_29 OBJ 4.0
    x0_29 r0 1.0
    x0_29 c29 1.0
    x1_0 OBJ 1.0
    x1_0 r1 1.0
    x1_0 c0 1.0
    x1_1 OBJ 2.0
    x1_1 r1 1.0
    x1_1 c1 1.0
    x1_2 OBJ 1.0
    x1_2 r1 1.0
    x1_2 c2 1.0
    x1_3 OBJ 5.0
    x1_3 r1 1.0
    x1_3 c3 1.0
    x1_4 OBJ 2.0
    x1_4 r1 1.0
    x1_4 c4 1.0
    x1_5 OBJ 3.0
    x1_5 r1 1.0
    x1_5 c5 1.0
    x1_6 OBJ 4.0
    x1_6 r1 1.0
    x1_6 c6 1.0
    x1_7 OBJ 2.0
    x1_7 r1 1.0
    x1_7 c7 1.0
    x1_8 OBJ 5.0
    x1_8 r1 1.0
    x1_8 c8 1.0
    x1_9 OBJ 1.0
    x1_9 r1 1.0
    x1_9 c9 1.0
    x1_10 OBJ 5.0
    x1_10 r1 1.0
    x1_10 c10 1.0
    x1_11 OBJ 3.0
    x1_11 r1 1.0
    x1_11 c11 1.0
    x1_12 OBJ 5.0
    x1_12 r1 1.0
    x1_12 c12 1.0
    x1_13 OBJ 2.0
    x1_13 r1 1.0
    x1_13 c13 1.0
    x1_14 OBJ 1.0
    x1_14 r1 1.0
    x1_14 c14 1.0
    x1_15 OBJ 5.0
    x1_15 r1 1.0
    x1_15 c15 1.0
    x1_16 OBJ 5.0
    x1_16 r1 1.0
    x1_16 c16 1.0
    x1_17 OBJ 2.0
    x1_17 r1 1.0
    x1_17 c17 1.0
    x1_18 OBJ 3.0
    x1_18 r1 1.0
    x1_18 c18 1.0
    x1_19 OBJ 1.0
    x1_19 r1 1.0
    x1_19 c19 1.0
    x1_20 OBJ 5.0
    x1_20 r1 1.0
    x1_20 c20 1.0
    x1_21 OBJ 1.0
    x1_21 r1 1.0
    x1_21 c21 1.0
    x1_22 OBJ 5.0
    x1_22 r1 1.0
    x1_22 c22 1.0
    x1_23 OBJ 1.0
    x1_23 r1 1.0
    x1_23 c23 1.0
    x1_24 OBJ 5.0
    x1_24 r1 1.0
    x1_24 c24 1.0
    x1_25 OBJ 2.0
    x1_25 r1 1.0
    x1_25 c25 1.0
    x1_26 OBJ 4.0
    x1_26 r1 1.0
    x1_26 c26 1.0
    x1_27 OBJ 5.0
    x1_27 r1 1.0
    x1_27 c27 1.0
    x1_28 OBJ 4.0
    x1_28 r1 1.0
    x1_28 c28 1.0
    x1_29 OBJ 3.0
    x1_29 r1 1.0
    x1_29 c29 1.0
    x2_0 OBJ 4.0
    x2_0 r2 1.0
    x2_0 c0 1.0
    x2_1 OBJ 5.0
    x2_1 r2 1.0
    x2_1 c1 1.0
    x2_2 OBJ 4.0
    x2_2 r2 1.0
    x2_2 c2 1.0
    x2_3 OBJ 3.0
    x2_3 r2 1.0
    x2_3 c3 1.0
    x2_4 OBJ 3.0
    x2_4 r2 1.0
    x2_4 c4 1.0
    x2_5 OBJ 2.0
    x2_5 r2 1.0
    x2_5 c5 1.0
    x2_6 OBJ 2.0
    x2_6 r2 1.0
    x2_6 c6 1.0
    x2_7 OBJ 2.0
    x2_7 r2 1.0
    x2_7 c7 1.0
    x2_8 OBJ 1.0
    x2_8 r2 1.0
    x2_8 c8 1.0
    x2_9 OBJ 5.0
    x2_9 r2 1.0
    x2_9 c9 1.0
    x2_10 OBJ 3.0
    x2_10 r2 1.0
    x2_10 c10 1.0
    x2_11 OBJ 5.0
    x2_11 r2 1.0
    x2_11 c11 1.0
    x2_12 OBJ 4.0
    x2_12 r2 1.0
    x2_12 c12 1.0
    x2_13 OBJ 3.0
    x2_13 r2 1.0
    x2_13 c13 1.0
    x2_14 OBJ 4.0
    x2_14 r2 1.0
    x2_14 c14 1.0
    x2_15 OBJ 3.0
    x2_15 r2 1.0
    x2_15 c15 1.0
    x2_16 OBJ 5.0
    x2_16 r2 1.0
    x2_16 c16 1.0
    x2_17 OBJ 1.0
    x2_17 r2 1.0
    x2_17 c17 1.0
    x2_18 OBJ 1.0
    x2_18 r2 1.0
    x2_18 c18 1.0
    x2_19 OBJ 5.0
    x2_19 r2 1.0
    x2_19 c19 1.0
    x2_20 OBJ 4.0
    x2_20 r2 1.0
    x2_20 c20 1.0
    x2_21 OBJ 2.0
    x2_21 r2 1.0
    x2_21 c21 1.0
    x2_22 OBJ 3.0
    x2_22 r2 1.0
    x2_22 c22 1.0
    x2_23 OBJ 2.0
    x2_23 r2 1.0
    x2_23 c23 1.0
    x2_24 OBJ 4.0
    x2_24 r2 1.0
    x2_24 c24 1.0
    x2_25 OBJ 4.0
    x2_25 r2 1.0
    x2_25 c25 1.0
    x2_26 OBJ 1.0
    x2_26 r2 1.0
    x2_26 c26 1.0
    x2_27 OBJ 1.0
    x2_27 r2 1.0
    x2_27 c27 1.0
    x2_28 OBJ 5.0
    x2_28 r2 1.0
    x2_28 c28 1.0
    x2_29 OBJ 5.0
    x2_29 r2 1.0
    x2_29 c29 1.0
    x3_0 OBJ 3.0
    x3_0 r3 1.0
    x3_0 c0 1.0
    x3_1 OBJ 3.0
    x3_1 r3 1.0
    x3_1 c1 1.0
    x3_2 OBJ 3.0
    x3_2 r3 1.0
    x3_2 c2 1.0
    x3_3 OBJ 5.0
    x3_3 r3 1.0
    x3_3 c3 1.0
    x3_4 OBJ 4.0
    x3_4 r3 1.0
    x3_4 c4 1.0
    x3_5 OBJ 5.0
    x3_5 r3 1.0
    x3_5 c5 1.0
    x3_6 OBJ 4.0
    x3_6 r3 1.0
    x3_6 c6 1.0
    x3_7 OBJ 1.0
    x3_7 r3 1.0
    x3_7 c7 1.0
    x3_8 OBJ 1.0
    x3_8 r3 1.0
    x3_8 c8 1.0
    x3_9 OBJ 3.0
    x3_9 r3 1.0
    x3_9 c9 1.0
    x3_10 OBJ 4.0
    x3_10 r3 1.0
    x3_10 c10 1.0
    x3_11 OBJ 1.0
    x3_11 r3 1.0
    x3_11 c11 1.0
    x3_12 OBJ 1.0
    x3_12 r3 1.0
    x3_12 c12 1.0
    x3_13 OBJ 3.0
    x3_13 r3 1.0
    x3_13 c13 1.0
    x3_14 OBJ 5.0
    x3_14 r3 1.0
    x3_14 c14 1.0
    x3_15 OBJ 4.0
    x3_15 r3 1.0
    x3_15 c15 1.0
    x3_16 OBJ 3.0
    x3_16 r3 1.0
    x3_16 c16 1.0
    x3_17 OBJ 4.0
    x3_17 r3 1.0
    x3_17 c17 1.0
    x3_18 OBJ 3.0
    x3_18 r3 1.0
    x3_18 c18 1.0
    x3_19 OBJ 1.0
    x3_19 r3 1.0
    x3_19 c19 1.0
    x3_20 OBJ 4.0
    x3_20 r3 1.0
    x3_20 c20 1.0
    x3_21 OBJ 3.0
    x3_21 r3 1.0
    x3_21 c21 1.0
    x3_22 OBJ 2.0
    x3_22 r3 1.0
    x3_22 c22 1.0
    x3_23 OBJ 5.0
    x3_23 r3 1.0
    x3_23 c23 1.0
    x3_24 OBJ 1.0
    x3_24 r3 1.0
    x3_24 c24 1.0
    x3_25 OBJ 4.0
    x3_25 r3 1.0
    x3_25 c25 1.0
    x3_26 OBJ 1.0
    x3_26 r3 1.0
    x3_26 c26 1.0
    x3_27 OBJ 2.0
    x3_27 r3 1.0
    x3_27 c27 1.0
    x3_28 OBJ 3.0
    x3_28 r3 1.0
    x3_28 c28 1.0
    x3_29 OBJ 2.0
    x3_29 r3 1.0
    x3_29 c29 1.0
    x4_0 OBJ 2.0
    x4_0 r4 1.0
    x4_0 c0 1.0
    x4_1 OBJ 4.0
    x4_1 r4 1.0
    x4_1 c1 1.0
    x4_2 OBJ 4.0
    x4_2 r4 1.0
    x4_2 c2 1.0
    x4_3 OBJ 4.0
    x4_3 r4 1.0
    x4_3 c3 1.0
    x4_4 OBJ 1.0
    x4_4 r4 1.0
    x4_4 c4 1.0
    x4_5 OBJ 2.0
    x4_5 r4 1.0
    x4_5 c5 1.0
    x4_6 OBJ 4.0
    x4_6 r4 1.0
    x4_6 c6 1.0
    x4_7 OBJ 4.0
    x4_7 r4 1.0
    x4_7 c7 1.0
    x4_8 OBJ 5.0
    x4_8 r4 1.0
    x4_8 c8 1.0
    x4_9 OBJ 3.0
    x4_9 r4 1.0
    x4_9 c9 1.0
    x4_10 OBJ 2.0
    x4_10 r4 1.0
    x4_10 c10 1.0
    x4_11 OBJ 4.0
    x4_11 r4 1.0
    x4_11 c11 1.0
    x4_12 OBJ 5.0
    x4_12 r4 1.0
    x4_12 c12 1.0
    x4_13 OBJ 3.0
    x4_13 r4 1.0
    x4_13 c13 1.0
    x4_14 OBJ 4.0
    x4_14 r4 1.0
    x4_14 c14 1.0
    x4_15 OBJ 3.0
    x4_15 r4 1.0
    x4_15 c15 1.0
    x4_16 OBJ 4.0
    x4_16 r4 1.0
    x4_16 c16 1.0
    x4_17 OBJ 2.0
    x4_17 r4 1.0
    x4_17 c17 1.0
    x4_18 OBJ 2.0
    x4_18 r4 1.0
    x4_18 c18 1.0
    x4_19 OBJ 1.0
    x4_19 r4 1.0
    x4_19 c19 1.0
    x4_20 OBJ 2.0
    x4_20 r4 1.0
    x4_20 c20 1.0
    x4_21 OBJ 2.0
    x4_21 r4 1.0
    x4_21 c21 1.0
    x4_22 OBJ 2.0
    x4_22 r4 1.0
    x4_22 c22 1.0
    x4_23 OBJ 2.0
    x4_23 r4 1.0
    x4_23 c23 1.0
    x4_24 OBJ 1.0
    x4_24 r4 1.0
    x4_24 c24 1.0
    x4_25 OBJ 4.0
    x4_25 r4 1.0
    x4_25 c25 1.0
    x4_26 OBJ 5.0
    x4_26 r4 1.0
    x4_26 c26 1.0
    x4_27 OBJ 2.0
    x4_27 r4 1.0
    x4_27 c27 1.0
    x4_28 OBJ 3.0
    x4_28 r4 1.0
    x4_28 c28 1.0
    x4_29 OBJ 3.0
    x4_29 r4 1.0
    x4_29 c29 1.0
    x5_0 OBJ 1.0
    x5_0 r5 1.0
    x5_0 c0 1.0
    x5_1 OBJ 2.0
    x5_1 r5 1.0
    x5_1 c1 1.0
    x5_2 OBJ 4.0
    x5_2 r5 1.0
    x5_2 c2 1.0
    x5_3 OBJ 5.0
    x5_3 r5 1.0
    x5_3 c3 1.0
    x5_4 OBJ 3.0
    x5_4 r5 1.0
    x5_4 c4 1.0
    x5_5 OBJ 5.0
    x5_5 r5 1.0
    x5_5 c5 1.0
    x5_6 OBJ 5.0
    x5_6 r5 1.0
    x5_6 c6 1.0
    x5_7 OBJ 3.0
    x5_7 r5 1.0
    x5_7 c7 1.0
    x5_8 OBJ 2.0
    x5_8 r5 1.0
    x5_8 c8 1.0
    x5_9 OBJ 5.0
    x5_9 r5 1.0
    x5_9 c9 1.0
    x5_10 OBJ 5.0
    x5_10 r5 1.0
    x5_10 c10 1.0
    x5_11 OBJ 1.0
    x5_11 r5 1.0
    x5_11 c11 1.0
    x5_12 OBJ 4.0
    x5_12 r5 1.0
    x5_12 c12 1.0
    x5_13 OBJ 5.0
    x5_13 r5 1.0
    x5_13 c13 1.0
    x5_14 OBJ 4.0
    x5_14 r5 1.0
    x5_14 c14 1.0
    x5_15 OBJ 4.0
    x5_15 r5 1.0
    x5_15 c15 1.0
    x5_16 OBJ 4.0
    x5_16 r5 1.0
    x5_16 c16 1.0
    x5_17 OBJ 4.0
    x5_17 r5 1.0
    x5_17 c17 1.0
    x5_18 OBJ 1.0
    x5_18 r5 1.0
    x5_18 c18 1.0
    x5_19 OBJ 4.0
    x5_19 r5 1.0
    x5_19 c19 1.0
    x5_20 OBJ 4.0
    x5_20 r5 1.0
    x5_20 c20 1.0
    x5_21 OBJ 1.0
    x5_21 r5 1.0
    x5_21 c21 1.0
    x5_22 OBJ 2.0
    x5_22 r5 1.0
    x5_22 c22 1.0
    x5_23 OBJ 1.0
    x5_23 r5 1.0
    x5_23 c23 1.0
    x5_24 OBJ 2.0
    x5_24 r5 1.0
    x5_24 c24 1.0
    x5_25 OBJ 4.0
    x5_25 r5 1.0
    x5_25 c25 1.0
    x5_26 OBJ 2.0
    x5_26 r5 1.0
    x5_26 c26 1.0
    x5_27 OBJ 1.0
    x5_27 r5 1.0
    x5_27 c27 1.0
    x5_28 OBJ 3.0
    x5_28 r5 1.0
    x5_28 c28 1.0
    x5_29 OBJ 5.0
    x5_29 r5 1.0
    x5_29 c29 1.0
    x6_0 OBJ 1.0
    x6_0 r6 1.0
    x6_0 c0 1.0
    x6_1 OBJ 1.0
    x6_1 r6 1.0
    x6_1 c1 1.0
    x6_2 OBJ 1.0
    x6_2 r6 1.0
    x6_2 c2 1.0
    x6_3 OBJ 5.0
    x6_3 r6 1.0
    x6_3 c3 1.0
    x6_4 OBJ 2.0
    x6_4 r6 1.0
    x6_4 c4 1.0
    x6_5 OBJ 5.0
    x6_5 r6 1.0
    x6_5 c5 1.0
    x6_6 OBJ 1.0
    x6_6 r6 1.0
    x6_6 c6 1.0
    x6_7 OBJ 3.0
    x6_7 r6 1.0
    x6_7 c7 1.0
    x6_8 OBJ 5.0
    x6_8 r6 1.0
    x6_8 c8 1.0
    x6_9 OBJ 1.0
    x6_9 r6 1.0
    x6_9 c9 1.0
    x6_10 OBJ 1.0
    x6_10 r6 1.0
    x6_10 c10 1.0
    x6_11 OBJ 2.0
    x6_11 r6 1.0
    x6_11 c11 1.0
    x6_12 OBJ 5.0
    x6_12 r6 1.0
    x6_12 c12 1.0
    x6_13 OBJ 4.0
    x6_13 r6 1.0
    x6_13 c13 1.0
    x6_14 OBJ 2.0
    x6_14 r6 1.0
    x6_14 c14 1.0
    x6_15 OBJ 3.0
    x6_15 r6 1.0
    x6_15 c15 1.0
    x6_16 OBJ 3.0
    x6_16 r6 1.0
    x6_16 c16 1.0
    x6_17 OBJ 5.0
    x6_17 r6 1.0
    x6_17 c17 1.0
    x6_18 OBJ 3.0
    x6_18 r6 1.0
    x6_18 c18 1.0
    x6_19 OBJ 4.0
    x6_19 r6 1.0
    x6_19 c19 1.0
    x6_20 OBJ 1.0
    x6_20 r6 1.0
    x6_20 c20 1.0
    x6_21 OBJ 1.0
    x6_21 r6 1.0
    x6_21 c21 1.0
    x6_22 OBJ 4.0
    x6_22 r6 1.0
    x6_22 c22 1.0
    x6_23 OBJ 4.0
    x6_23 r6 1.0
    x6_23 c23 1.0
    x6_24 OBJ 4.0
    x6_24 r6 1.0
    x6_24 c24 1.0
    x6_25 OBJ 4.0
    x6_25 r6 1.0
    x6_25 c25 1.0
    x6_26 OBJ 3.0
    x6_26 r6 1.0
    x6_26 c26 1.0
    x6_27 OBJ 1.0
    x6_27 r6 1.0
    x6_27 c27 1.0
    x6_28 OBJ 2.0
    x6_28 r6 1.0
    x6_28 c28 1.0
    x6_29 OBJ 1.0
    x6_29 r6 1.0
    x6_29 c29 1.0
    x7_0 OBJ 3.0
    x7_0 r7 1.0
    x7_0 c0 1.0
    x7_1 OBJ 3.0
    x7_1 r7 1.0
    x7_1 c1 1.0
    x7_2 OBJ 4.0
    x7_2 r7 1.0
    x7_2 c2 1.0
    x7_3 OBJ 2.0
    x7_3 r7 1.0
    x7_3 c3 1.0
    x7_4 OBJ 5.0
    x7_4 r7 1.0
    x7_4 c4 1.0
    x7_5 OBJ 1.0
    x7_5 r7 1.0
    x7_5 c5 1.0
    x7_6 OBJ 2.0
    x7_6 r7 1.0
    x7_6 c6 1.0
    x7_7 OBJ 5.0
    x7_7 r7 1.0
    x7_7 c7 1.0
    x7_8 OBJ 3.0
    x7_8 r7 1.0
    x7_8 c8 1.0
    x7_9 OBJ 2.0
    x7_9 r7 1.0
    x7_9 c9 1.0
    x7_10 OBJ 5.0
    x7_10 r7 1.0
    x7_10 c10 1.0
    x7_11 OBJ 1.0
    x7_11 r7 1.0
    x7_11 c11 1.0
    x7_12 OBJ 5.0
    x7_12 r7 1.0
    x7_12 c12 1.0
    x7_13 OBJ 3.0
    x7_13 r7 1.0
    x7_13 c13 1.0
    x7_14 OBJ 1.0
    x7_14 r7 1.0
    x7_14 c14 1.0
    x7_15 OBJ 3.0
    x7_15 r7 1.0
    x7_15 c15 1.0
    x7_16 OBJ 5.0
    x7_16 r7 1.0
    x7_16 c16 1.0
    x7_17 OBJ 3.0
    x7_17 r7 1.0
    x7_17 c17 1.0
    x7_18 OBJ 2.0
    x7_18 r7 1.0
    x7_18 c18 1.0
    x7_19 OBJ 3.0
    x7_19 r7 1.0
    x7_19 c19 1.0
    x7_20 OBJ 2.0
    x7_20 r7 1.0
    x7_20 c20 1.0
    x7_21 OBJ 5.0
    x7_21 r7 1.0
    x7_21 c21 1.0
    x7_22 OBJ 5.0
    x7_22 r7 1.0
    x7_22 c22 1.0
    x7_23 OBJ 5.0
    x7_23 r7 1.0
    x7_23 c23 1.0
    x7_24 OBJ 3.0
    x7_24 r7 1.0
    x7_24 c24 1.0
    x7_25 OBJ 2.0
    x7_25 r7 1.0
    x7_25 c25 1.0
    x7_26 OBJ 5.0
    x7_26 r7 1.0
    x7_26 c26 1.0
    x7_27 OBJ 2.0
    x7_27 r7 1.0
    x7_27 c27 1.0
    x7_28 OBJ 2.0
    x7_28 r7 1.0
    x7_28 c28 1.0
    x7_29 OBJ 4.0
    x7_29 r7 1.0
    x7_29 c29 1.0
    x8_0 OBJ 2.0
    x8_0 r8 1.0
    x8_0 c0 1.0
    x8_1 OBJ 2.0
    x8_1 r8 1.0
    x8_1 c1 1.0
    x8_2 OBJ 5.0
    x8_2 r8 1.0
    x8_2 c2 1.0
    x8_3 OBJ 4.0
    x8_3 r8 1.0
    x8_3 c3 1.0
    x8_4 OBJ 3.0
    x8_4 r8 1.0
    x8_4 c4 1.0
    x8_5 OBJ 1.0
    x8_5 r8 1.0
    x8_5 c5 1.0
    x8_6 OBJ 1.0
    x8_6 r8 1.0
    x8_6 c6 1.0
    x8_7 OBJ 3.0
    x8_7 r8 1.0
    x8_7 c7 1.0
    x8_8 OBJ 4.0
    x8_8 r8 1.0
    x8_8 c8 1.0
    x8_9 OBJ 3.0
    x8_9 r8 1.0
    x8_9 c9 1.0
    x8_10 OBJ 2.0
    x8_10 r8 1.0
    x8_10 c10 1.0
    x8_11 OBJ 5.0
    x8_11 r8 1.0
    x8_11 c11 1.0
    x8_12 OBJ 3.0
    x8_12 r8 1.0
    x8_12 c12 1.0
    x8_13 OBJ 4.0
    x8_13 r8 1.0
    x8_13 c13 1.0
    x8_14 OBJ 3.0
    x8_14 r8 1.0
    x8_14 c14 1.0
    x8_15 OBJ 3.0
    x8_15 r8 1.0
    x8_15 c15 1.0
    x8_16 OBJ 1.0
    x8_16 r8 1.0
    x8_16 c16 1.0
    x8_17 OBJ 2.0
    x8_17 r8 1.0
    x8_17 c17 1.0
    x8_18 OBJ 1.0
    x8_18 r8 1.0
    x8_18 c18 1.0
    x8_19 OBJ 2.0
    x8_19 r8 1.0
    x8_19 c19 1.0
    x8_20 OBJ 4.0
    x8_20 r8 1.0
    x8_20 c20 1.0
    x8_21 OBJ 2.0
    x8_21 r8 1.0
    x8_21 c21 1.0
    x8_22 OBJ 3.0
    x8_22 r8 1.0
    x8_22 c22 1.0
    x8_23 OBJ 2.0
    x8_23 r8 1.0
    x8_23 c23 1.0
    x8_24 OBJ 4.0
    x8_24 r8 1.0
    x8_24 c24 1.0
    x8_25 OBJ 5.0
    x8_25 r8 1.0
    x8_25 c25 1.0
    x8_26 OBJ 5.0
    x8_26 r8 1.0
    x8_26 c26 1.0
    x8_27 OBJ 1.0
    x8_27 r8 1.0
    x8_27 c27 1.0
    x8_28 OBJ 4.0
    x8_28 r8 1.0
    x8_28 c28 1.0
    x8_29 OBJ 3.0
    x8_29 r8 1.0
    x8_29 c29 1.0
    x9_0 OBJ 1.0
    x9_0 r9 1.0
    x9_0 c0 1.0
    x9_1 OBJ 1.0
    x9_1 r9 1.0
    x9_1 c1 1.0
    x9_2 OBJ 4.0
    x9_2 r9 1.0
    x9_2 c2 1.0
    x9_3 OBJ 2.0
    x9_3 r9 1.0
    x9_3 c3 1.0
    x9_4 OBJ 4.0
    x9_4 r9 1.0
    x9_4 c4 1.0
    x9_5 OBJ 2.0
    x9_5 r9 1.0
    x9_5 c5 1.0
    x9_6 OBJ 4.0
    x9_6 r9 1.0
    x9_6 c6 1.0
    x9_7 OBJ 3.0
    x9_7 r9 1.0
    x9_7 c7 1.0
    x9_8 OBJ 1.0
    x9_8 r9 1.0
    x9_8 c8 1.0
    x9_9 OBJ 4.0
    x9_9 r9 1.0
    x9_9 c9 1.0
    x9_10 OBJ 4.0
    x9_10 r9 1.0
    x9_10 c10 1.0
    x9_11 OBJ 4.0
    x9_11 r9 1.0
    x9_11 c11 1.0
    x9_12 OBJ 1.0
    x9_12 r9 1.0
    x9_12 c12 1.0
    x9_13 OBJ 2.0
    x9_13 r9 1.0
    x9_13 c13 1.0
    x9_14 OBJ 2.0
    x9_14 r9 1.0
    x9_14 c14 1.0
    x9_15 OBJ 2.0
    x9_15 r9 1.0
    x9_15 c15 1.0
    x9_16 OBJ 1.0
    x9_16 r9 1.0
    x9_16 c16 1.0
    x9_17 OBJ 2.0
    x9_17 r9 1.0
    x9_17 c17 1.0
    x9_18 OBJ 5.0
    x9_18 r9 1.0
    x9_18 c18 1.0
    x9_19 OBJ 4.0
    x9_19 r9 1.0
    x9_19 c19 1.0
    x9_20 OBJ 2.0
    x9_20 r9 1.0
    x9_20 c20 1.0
    x9_21 OBJ 5.0
    x9_21 r9 1.0
    x9_21 c21 1.0
    x9_22 OBJ 5.0
    x9_22 r9 1.0
    x9_22 c22 1.0
    x9_23 OBJ 4.0
    x9_23 r9 1.0
    x9_23 c23 1.0
    x9_24 OBJ 3.0
    x9_24 r9 1.0
    x9_24 c24 1.0
    x9_25 OBJ 2.0
    x9_25 r9 1.0
    x9_25 c25 1.0
    x9_26 OBJ 5.0
    x9_26 r9 1.0
    x9_26 c26 1.0
    x9_27 OBJ 5.0
    x9_27 r9 1.0
    x9_27 c27 1.0
    x9_28 OBJ 2.0
    x9_28 r9 1.0
    x9_28 c28 1.0
    x9_29 OBJ 1.0
    x9_29 r9 1.0
    x9_29 c29 1.0
    x10_0 OBJ 1.0
    x10_0 r10 1.0
    x10_0 c0 1.0
    x10_1 OBJ 1.0
    x10_1 r10 1.0
    x10_1 c1 1.0
    x10_2 OBJ 5.0
    x10_2 r10 1.0
    x10_2 c2 1.0
    x10_3 OBJ 2.0
    x10_3 r10 1.0
    x10_3 c3 1.0
    x10_4 OBJ 4.0
    x10_4 r10 1.0
    x10_4 c4 1.0
    x10_5 OBJ 2.0
    x10_5 r10 1.0
    x10_5 c5 1.0
    x10_6 OBJ 2.0
    x10_6 r10 1.0
    x10_6 c6 1.0
    x10_7 OBJ 1.0
    x10_7 r10 1.0
    x10_7 c7 1.0
    x10_8 OBJ 3.0
    x10_8 r10 1.0
    x10_8 c8 1.0
    x10_9 OBJ 2.0
    x10_9 r10 1.0
    x10_9 c9 1.0
    x10_10 OBJ 3.0
    x10_10 r10 1.0
    x10_10 c10 1.0
    x10_11 OBJ 5.0
    x10_11 r10 1.0
    x10_11 c11 1.0
    x10_12 OBJ 2.0
    x10_12 r10 1.0
    x10_12 c12 1.0
    x10_13 OBJ 5.0
    x10_13 r10 1.0
    x10_13 c13 1.0
    x10_14 OBJ 3.0
    x10_14 r10 1.0
    x10_14 c14 1.0
    x10_15 OBJ 3.0
    x10_15 r10 1.0
    x10_15 c15 1.0
    x10_16 OBJ 5.0
    x10_16 r10 1.0
    x10_16 c16 1.0
    x10_17 OBJ 4.0
    x10_17 r10 1.0
    x10_17 c17 1.0
    x10_18 OBJ 2.0
    x10_18 r10 1.0
    x10_18 c18 1.0
    x10_19 OBJ 1.0
    x10_19 r10 1.0
    x10_19 c19 1.0
    x10_20 OBJ 3.0
    x10_20 r10 1.0
    x10_20 c20 1.0
    x10_21 OBJ 4.0
    x10_21 r10 1.0
    x10_21 c21 1.0
    x10_22 OBJ 5.0
    x10_22 r10 1.0
    x10_22 c22 1.0
    x10_23 OBJ 5.0
    x10_23 r10 1.0
    x10_23 c23 1.0
    x10_24 OBJ 4.0
    x10_24 r10 1.0
    x10_24 c24 1.0
    x10_25 OBJ 5.0
    x10_25 r10 1.0
    x10_25 c25 1.0
    x10_26 OBJ 2.0
    x10_26 r10 1.0
    x10_26 c26 1.0
    x10_27 OBJ 5.0
    x10_27 r10 1.0
    x10_27 c27 1.0
    x10_28 OBJ 2.0
    x10_28 r10 1.0
    x10_28 c28 1.0
    x10_29 OBJ 5.0
    x10_29 r10 1.0
    x10_29 c29 1.0
    x11_0 OBJ 5.0
    x11_0 r11 1.0
    x11_0 c0 1.0
    x11_1 OBJ 1.0
    x11_1 r11 1.0
    x11_1 c1 1.0
    x11_2 OBJ 4.0
    x11_2 r11 1.0
    x11_2 c2 1.0
    x11_3 OBJ 2.0
    x11_3 r11 1.0
    x11_3 c3 1.0
    x11_4 OBJ 5.0
    x11_4 r11 1.0
    x11_4 c4 1.0
    x11_5 OBJ 1.0
    x11_5 r11 1.0
    x11_5 c5 1.0
    x11_6 OBJ 2.0
    x11_6 r11 1.0
    x11_6 c6 1.0
    x11_7 OBJ 2.0
    x11_7 r11 1.0
    x11_7 c7 1.0
    x11_8 OBJ 2.0
    x11_8 r11 1.0
    x11_8 c8 1.0
    x11_9 OBJ 4.0
    x11_9 r11 1.0
    x11_9 c9 1.0
    x11_10 OBJ 5.0
    x11_10 r11 1.0
    x11_10 c10 1.0
    x11_11 OBJ 1.0
    x11_11 r11 1.0
    x11_11 c11 1.0
    x11_12 OBJ 5.0
    x11_12 r11 1.0
    x11_12 c12 1.0
    x11_13 OBJ 1.0
    x11_13 r11 1.0
    x11_13 c13 1.0
    x11_14 OBJ 3.0
    x11_14 r11 1.0
    x11_14 c14 1.0
    x11_15 OBJ 5.0
    x11_15 r11 1.0
    x11_15 c15 1.0
    x11_16 OBJ 5.0
    x11_16 r11 1.0
    x11_16 c16 1.0
    x11_17 OBJ 5.0
    x11_17 r11 1.0
    x11_17 c17 1.0
    x11_18 OBJ 4.0
    x11_18 r11 1.0
    x11_18 c18 1.0
    x11_19 OBJ 1.0
    x11_19 r11 1.0
    x11_19 c19 1.0
    x11_20 OBJ 5.0
    x11_20 r11 1.0
    x11_20 c20 1.0
    x11_21 OBJ 1.0
    x11_21 r11 1.0
    x11_21 c21 1.0
    x11_22 OBJ 2.0
    x11_22 r11 1.0
    x11_22 c22 1.0
    x11_23 OBJ 2.0
    x11_23 r11 1.0
    x11_23 c23 1.0
    x11_24 OBJ 3.0
    x11_24 r11 1.0
    x11_24 c24 1.0
    x11_25 OBJ 1.0
    x11_25 r11 1.0
    x11_25 c25 1.0
    x11_26 OBJ 1.0
    x11_26 r11 1.0
    x11_26 c26 1.0
    x11_27 OBJ 5.0
    x11_27 r11 1.0
    x11_27 c27 1.0
    x11_28 OBJ 4.0
    x11_28 r11 1.0
    x11_28 c28 1.0
    x11_29 OBJ 5.0
    x11_29 r11 1.0
    x11_29 c29 1.0
    x12_0 OBJ 1.0
    x12_0 r12 1.0
    x12_0 c0 1.0
    x12_1 OBJ 1.0
    x12_1 r12 1.0
    x12_1 c1 1.0
    x12_2 OBJ 4.0
    x12_2 r12 1.0
    x12_2 c2 1.0
    x12_3 OBJ 3.0
    x12_3 r12 1.0
    x12_3 c3 1.0
    x12_4 OBJ 5.0
    x12_4 r12 1.0
    x12_4 c4 1.0
    x12_5 OBJ 5.0
    x12_5 r12 1.0
    x12_5 c5 1.0
    x12_6 OBJ 5.0
    x12_6 r12 1.0
    x12_6 c6 1.0
    x12_7 OBJ 5.0
    x12_7 r12 1.0
    x12_7 c7 1.0
    x12_8 OBJ 2.0
    x12_8 r12 1.0
    x12_8 c8 1.0
    x12_9 OBJ 3.0
    x12_9 r12 1.0
    x12_9 c9 1.0
    x12_10 OBJ 4.0
    x12_10 r12 1.0
    x12_10 c10 1.0
    x12_11 OBJ 5.0
    x12_11 r12 1.0
    x12_11 c11 1.0
    x12_12 OBJ 5.0
    x12_12 r12 1.0
    x12_12 c12 1.0
    x12_13 OBJ 4.0
    x12_13 r12 1.0
    x12_13 c13 1.0
    x12_14 OBJ 5.0
    x12_14 r12 1.0
    x12_14 c14 1.0
    x12_15 OBJ 2.0
    x12_15 r12 1.0
    x12_15 c15 1.0
    x12_16 OBJ 5.0
    x12_16 r12 1.0
    x12_16 c16 1.0
    x12_17 OBJ 3.0
    x12_17 r12 1.0
    x12_17 c17 1.0
    x12_18 OBJ 5.0
    x12_18 r12 1.0
    x12_18 c18 1.0
    x12_19 OBJ 2.0
    x12_19 r12 1.0
    x12_19 c19 1.0
    x12_20 OBJ 4.0
    x12_20 r12 1.0
    x12_20 c20 1.0
    x12_21 OBJ 2.0
    x12_21 r12 1.0
    x12_21 c21 1.0
    x12_22 OBJ 4.0
    x12_22 r12 1.0
    x12_22 c22 1.0
    x12_23 OBJ 1.0
    x12_23 r12 1.0
    x12_23 c23 1.0
    x12_24 OBJ 4.0
    x12_24 r12 1.0
    x12_24 c24 1.0
    x12_25 OBJ 4.0
    x12_25 r12 1.0
    x12_25 c25 1.0
    x12_26 OBJ 3.0
    x12_26 r12 1.0
    x12_26 c26 1.0
    x12_27 OBJ 1.0
    x12_27 r12 1.0
    x12_27 c27 1.0
    x12_28 OBJ 2.0
    x12_28 r12 1.0
    x12_28 c28 1.0
    x12_29 OBJ 4.0
    x12_29 r12 1.0
    x12_29 c29 1.0
    x13_0 OBJ 1.0
    x13_0 r13 1.0
    x13_0 c0 1.0
    x13_1 OBJ 2.0
    x13_1 r13 1.0
    x13_1 c1 1.0
    x13_2 OBJ 3.0
    x13_2 r13 1.0
    x13_2 c2 1.0
    x13_3 OBJ 1.0
    x13_3 r13 1.0
    x13_3 c3 1.0
    x13_4 OBJ 2.0
    x13_4 r13 1.0
    x13_4 c4 1.0
    x13_5 OBJ 3.0
    x13_5 r13 1.0
    x13_5 c5 1.0
    x13_6 OBJ 2.0
    x13_6 r13 1.0
    x13_6 c6 1.0
    x13_7 OBJ 3.0
    x13_7 r13 1.0
    x13_7 c7 1.0
    x13_8 OBJ 2.0
    x13_8 r13 1.0
    x13_8 c8 1.0
    x13_9 OBJ 4.0
    x13_9 r13 1.0
    x13_9 c9 1.0
    x13_10 OBJ 2.0
    x13_10 r13 1.0
    x13_10 c10 1.0
    x13_11 OBJ 1.0
    x13_11 r13 1.0
    x13_11 c11 1.0
    x13_12 OBJ 4.0
    x13_12 r13 1.0
    x13_12 c12 1.0
    x13_13 OBJ 4.0
    x13_13 r13 1.0
    x13_13 c13 1.0
    x13_14 OBJ 2.0
    x13_14 r13 1.0
    x13_14 c14 1.0
    x13_15 OBJ 2.0
    x13_15 r13 1.0
    x13_15 c15 1.0
    x13_16 OBJ 2.0
    x13_16 r13 1.0
    x13_16 c16 1.0
    x13_17 OBJ 4.0
    x13_17 r13 1.0
    x13_17 c17 1.0
    x13_18 OBJ 5.0
    x13_18 r13 1.0
    x13_18 c18 1.0
    x13_19 OBJ 4.0
    x13_19 r13 1.0
    x13_19 c19 1.0
    x13_20 OBJ 3.0
    x13_20 r13 1.0
    x13_20 c20 1.0
    x13_21 OBJ 4.0
    x13_21 r13 1.0
    x13_21 c21 1.0
    x13_22 OBJ 2.0
    x13_22 r13 1.0
    x13_22 c22 1.0
    x13_23 OBJ 3.0
    x13_23 r13 1.0
    x13_23 c23 1.0
    x13_24 OBJ 3.0
    x13_24 r13 1.0
    x13_24 c24 1.0
    x13_25 OBJ 1.0
    x13_25 r13 1.0
    x13_25 c25 1.0
    x13_26 OBJ 3.0
    x13_26 r13 1.0
    x13_26 c26 1.0
    x13_27 OBJ 1.0
    x13_27 r13 1.0
    x13_27 c27 1.0
    x13_28 OBJ 3.0
    x13_28 r13 1.0
    x13_28 c28 1.0
    x13_29 OBJ 5.0
    x13_29 r13 1.0
    x13_29 c29 1.0
    x14_0 OBJ 4.0
    x14_0 r14 1.0
    x14_0 c0 1.0
    x14_1 OBJ 4.0
    x14_1 r14 1.0
    x14_1 c1 1.0
    x14_2 OBJ 1.0
    x14_2 r14 1.0
    x14_2 c2 1.0
    x14_3 OBJ 4.0
    x14_3 r14 1.0
    x14_3 c3 1.0
    x14_4 OBJ 3.0
    x14_4 r14 1.0
    x14_4 c4 1.0
    x14_5 OBJ 5.0
    x14_5 r14 1.0
    x14_5 c5 1.0
    x14_6 OBJ 5.0
    x14_6 r14 1.0
    x14_6 c6 1.0
    x14_7 OBJ 3.0
    x14_7 r14 1.0
    x14_7 c7 1.0
    x14_8 OBJ 5.0
    x14_8 r14 1.0
    x14_8 c8 1.0
    x14_9 OBJ 1.0
    x14_9 r14 1.0
    x14_9 c9 1.0
    x14_10 OBJ 1.0
    x14_10 r14 1.0
    x14_10 c10 1.0
    x14_11 OBJ 2.0
    x14_11 r14 1.0
    x14_11 c11 1.0
    x14_12 OBJ 1.0
    x14_12 r14 1.0
    x14_12 c12 1.0
    x14_13 OBJ 1.0
    x14_13 r14 1.0
    x14_13 c13 1.0
    x14_14 OBJ 3.0
    x14_14 r14 1.0
    x14_14 c14 1.0
    x14_15 OBJ 3.0
    x14_15 r14 1.0
    x14_15 c15 1.0
    x14_16 OBJ 1.0
    x14_16 r14 1.0
    x14_16 c16 1.0
    x14_17 OBJ 2.0
    x14_17 r14 1.0
    x14_17 c17 1.0
    x14_18 OBJ 3.0
    x14_18 r14 1.0
    x14_18 c18 1.0
    x14_19 OBJ 2.0
    x14_19 r14 1.0
    x14_19 c19 1.0
    x14_20 OBJ 4.0
    x14_20 r14 1.0
    x14_20 c20 1.0
    x14_21 OBJ 3.0
    x14_21 r14 1.0
    x14_21 c21 1.0
    x14_22 OBJ 4.0
    x14_22 r14 1.0
    x14_22 c22 1.0
    x14_23 OBJ 2.0
    x14_23 r14 1.0
    x14_23 c23 1.0
    x14_24 OBJ 5.0
    x14_24 r14 1.0
    x14_24 c24 1.0
    x14_25 OBJ 5.0
    x14_25 r14 1.0
    x14_25 c25 1.0
    x14_26 OBJ 5.0
    x14_26 r14 1.0
    x14_26 c26 1.0
    x14_27 OBJ 4.0
    x14_27 r14 1.0
    x14_27 c27 1.0
    x14_28 OBJ 3.0
    x14_28 r14 1.0
    x14_28 c28 1.0
    x14_29 OBJ 1.0
    x14_29 r14 1.0
    x14_29 c29 1.0
    x15_0 OBJ 3.0
    x15_0 r15 1.0
    x15_0 c0 1.0
    x15_1 OBJ 1.0
    x15_1 r15 1.0
    x15_1 c1 1.0
    x15_2 OBJ 2.0
    x15_2 r15 1.0
    x15_2 c2 1.0
    x15_3 OBJ 4.0
    x15_3 r15 1.0
    x15_3 c3 1.0
    x15_4 OBJ 1.0
    x15_4 r15 1.0
    x15_4 c4 1.0
    x15_5 OBJ 3.0
    x15_5 r15 1.0
    x15_5 c5 1.0
    x15_6 OBJ 1.0
    x15_6 r15 1.0
    x15_6 c6 1.0
    x15_7 OBJ 1.0
    x15_7 r15 1.0
    x15_7 c7 1.0
    x15_8 OBJ 3.0
    x15_8 r15 1.0
    x15_8 c8 1.0
    x15_9 OBJ 1.0
    x15_9 r15 1.0
    x15_9 c9 1.0
    x15_10 OBJ 5.0
    x15_10 r15 1.0
    x15_10 c10 1.0
    x15_11 OBJ 2.0
    x15_11 r15 1.0
    x15_11 c11 1.0
    x15_12 OBJ 1.0
    x15_12 r15 1.0
    x15_12 c12 1.0
    x15_13 OBJ 3.0
    x15_13 r15 1.0
    x15_13 c13 1.0
    x15_14 OBJ 1.0
    x15_14 r15 1.0
    x15_14 c14 1.0
    x15_15 OBJ 4.0
    x15_15 r15 1.0
    x15_15 c15 1.0
    x15_16 OBJ 1.0
    x15_16 r15 1.0
    x15_16 c16 1.0
    x15_17 OBJ 3.0
    x15_17 r15 1.0
    x15_17 c17 1.0
    x15_18 OBJ 5.0
    x15_18 r15 1.0
    x15_18 c18 1.0
    x15_19 OBJ 4.0
    x15_19 r15 1.0
    x15_19 c19 1.0
    x15_20 OBJ 3.0
    x15_20 r15 1.0
    x15_20 c20 1.0
    x15_21 OBJ 5.0
    x15_21 r15 1.0
    x15_21 c21 1.0
    x15_22 OBJ 2.0
    x15_22 r15 1.0
    x15_22 c22 1.0
    x15_23 OBJ 1.0
    x15_23 r15 1.0
    x15_23 c23 1.0
    x15_24 OBJ 5.0
    x15_24 r15 1.0
    x15_24 c24 1.0
    x15_25 OBJ 2.0
    x15_25 r15 1.0
    x15_25 c25 1.0
    x15_26 OBJ 1.0
    x15_26 r15 1.0
    x15_26 c26 1.0
    x15_27 OBJ 2.0
    x15_27 r15 1.0
    x15_27 c27 1.0
    x15_28 OBJ 3.0
    x15_28 r15 1.0
    x15_28 c28 1.0
    x15_29 OBJ 1.0
    x15_29 r15 1.0
    x15_29 c29 1.0
    x16_0 OBJ 2.0
    x16_0 r16 1.0
    x16_0 c0 1.0
    x16_1 OBJ 2.0
    x16_1 r16 1.0
    x16_1 c1 1.0
    x16_2 OBJ 3.0
    x16_2 r16 1.0
    x16_2 c2 1.0
    x16_3 OBJ 3.0
    x16_3 r16 1.0
    x16_3 c3 1.0
    x16_4 OBJ 5.0
    x16_4 r16 1.0
    x16_4 c4 1.0
    x16_5 OBJ 2.0
    x16_5 r16 1.0
    x16_5 c5 1.0
    x16_6 OBJ 3.0
    x16_6 r16 1.0
    x16_6 c6 1.0
    x16_7 OBJ 4.0
    x16_7 r16 1.0
    x16_7 c7 1.0
    x16_8 OBJ 5.0
    x16_8 r16 1.0
    x16_8 c8 1.0
    x16_9 OBJ 2.0
    x16_9 r16 1.0
    x16_9 c9 1.0
    x16_10 OBJ 3.0
    x16_10 r16 1.0
    x16_10 c10 1.0
    x16_11 OBJ 3.0
    x16_11 r16 1.0
    x16_11 c11 1.0
    x16_12 OBJ 1.0
    x16_12 r16 1.0
    x16_12 c12 1.0
    x16_13 OBJ 3.0
    x16_13 r16 1.0
    x16_13 c13 1.0
    x16_14 OBJ 1.0
    x16_14 r16 1.0
    x16_14 c14 1.0
    x16_15 OBJ 1.0
    x16_15 r16 1.0
    x16_15 c15 1.0
    x16_16 OBJ 1.0
    x16_16 r16 1.0
    x16_16 c16 1.0
    x16_17 OBJ 5.0
    x16_17 r16 1.0
    x16_17 c17 1.0
    x16_18 OBJ 5.0
    x16_18 r16 1.0
    x16_18 c18 1.0
    x16_19 OBJ 2.0
    x16_19 r16 1.0
    x16_19 c19 1.0
    x16_20 OBJ 5.0
    x16_20 r16 1.0
    x16_20 c20 1.0
    x16_21 OBJ 4.0
    x16_21 r16 1.0
    x16_21 c21 1.0
    x16_22 OBJ 2.0
    x16_22 r16 1.0
    x16_22 c22 1.0
    x16_23 OBJ 4.0
    x16_23 r16 1.0
    x16_23 c23 1.0
    x16_24 OBJ 1.0
    x16_24 r16 1.0
    x16_24 c24 1.0
    x16_25 OBJ 4.0
    x16_25 r16 1.0
    x16_25 c25 1.0
    x16_26 OBJ 4.0
    x16_26 r16 1.0
    x16_26 c26 1.0
    x16_27 OBJ 5.0
    x16_27 r16 1.0
    x16_27 c27 1.0
    x16_28 OBJ 4.0
    x16_28 r16 1.0
    x16_28 c28 1.0
    x16_29 OBJ 5.0
    x16_29 r16 1.0
    x16_29 c29 1.0
    x17_0 OBJ 3.0
    x17_0 r17 1.0
    x17_0 c0 1.0
    x17_1 OBJ 2.0
    x17_1 r17 1.0
    x17_1 c1 1.0
    x17_2 OBJ 2.0
    x17_2 r17 1.0
    x17_2 c2 1.0
    x17_3 OBJ 3.0
    x17_3 r17 1.0
    x17_3 c3 1.0
    x17_4 OBJ 2.0
    x17_4 r17 1.0
    x17_4 c4 1.0
    x17_5 OBJ 2.0
    x17_5 r17 1.0
    x17_5 c5 1.0
    x17_6 OBJ 4.0
    x17_6 r17 1.0
    x17_6 c6 1.0
    x17_7 OBJ 3.0
    x17_7 r17 1.0
    x17_7 c7 1.0
    x17_8 OBJ 1.0
    x17_8 r17 1.0
    x17_8 c8 1.0
    x17_9 OBJ 2.0
    x17_9 r17 1.0
    x17_9 c9 1.0
    x17_10 OBJ 1.0
    x17_10 r17 1.0
    x17_10 c10 1.0
    x17_11 OBJ 1.0
    x17_11 r17 1.0
    x17_11 c11 1.0
    x17_12 OBJ 3.0
    x17_12 r17 1.0
    x17_12 c12 1.0
    x17_13 OBJ 4.0
    x17_13 r17 1.0
    x17_13 c13 1.0
    x17_14 OBJ 2.0
    x17_14 r17 1.0
    x17_14 c14 1.0
    x17_15 OBJ 1.0
    x17_15 r17 1.0
    x17_15 c15 1.0
    x17_16 OBJ 1.0
    x17_16 r17 1.0
    x17_16 c16 1.0
    x17_17 OBJ 4.0
    x17_17 r17 1.0
    x17_17 c17 1.0
    x17_18 OBJ 5.0
    x17_18 r17 1.0
    x17_18 c18 1.0
    x17_19 OBJ 3.0
    x17_19 r17 1.0
    x17_19 c19 1.0
    x17_20 OBJ 5.0
    x17_20 r17 1.0
    x17_20 c20 1.0
    x17_21 OBJ 2.0
    x17_21 r17 1.0
    x17_21 c21 1.0
    x17_22 OBJ 3.0
    x17_22 r17 1.0
    x17_22 c22 1.0
    x17_23 OBJ 1.0
    x17_23 r17 1.0
    x17_23 c23 1.0
    x17_24 OBJ 4.0
    x17_24 r17 1.0
    x17_24 c24 1.0
    x17_25 OBJ 2.0
    x17_25 r17 1.0
    x17_25 c25 1.0
    x17_26 OBJ 2.0
    x17_26 r17 1.0
    x17_26 c26 1.0
    x17_27 OBJ 3.0
    x17_27 r17 1.0
    x17_27 c27 1.0
    x17_28 OBJ 4.0
    x17_28 r17 1.0
    x17_28 c28 1.0
    x17_29 OBJ 1.0
    x17_29 r17 1.0
    x17_29 c29 1.0
    x18_0 OBJ 3.0
    x18_0 r18 1.0
    x18_0 c0 1.0
    x18_1 OBJ 3.0
    x18_1 r18 1.0
    x18_1 c1 1.0
    x18_2 OBJ 3.0
    x18_2 r18 1.0
    x18_2 c2 1.0
    x18_3 OBJ 5.0
    x18_3 r18 1.0
    x18_3 c3 1.0
    x18_4 OBJ 3.0
    x18_4 r18 1.0
    x18_4 c4 1.0
    x18_5 OBJ 2.0
    x18_5 r18 1.0
    x18_5 c5 1.0
    x18_6 OBJ 1.0
    x18_6 r18 1.0
    x18_6 c6 1.0
    x18_7 OBJ 3.0
    x18_7 r18 1.0
    x18_7 c7 1.0
    x18_8 OBJ 2.0
    x18_8 r18 1.0
    x18_8 c8 1.0
    x18_9 OBJ 3.0
    x18_9 r18 1.0
    x18_9 c9 1.0
    x18_10 OBJ 2.0
    x18_10 r18 1.0
    x18_10 c10 1.0
    x18_11 OBJ 1.0
    x18_11 r18 1.0
    x18_11 c11 1.0
    x18_12 OBJ 3.0
    x18_12 r18 1.0
    x18_12 c12 1.0
    x18_13 OBJ 4.0
    x18_13 r18 1.0
    x18_13 c13 1.0
    x18_14 OBJ 1.0
    x18_14 r18 1.0
    x18_14 c14 1.0
    x18_15 OBJ 4.0
    x18_15 r18 1.0
    x18_15 c15 1.0
    x18_16 OBJ 3.0
    x18_16 r18 1.0
    x18_16 c16 1.0
    x18_17 OBJ 5.0
    x18_17 r18 1.0
    x18_17 c17 1.0
    x18_18 OBJ 2.0
    x18_18 r18 1.0
    x18_18 c18 1.0
    x18_19 OBJ 2.0
    x18_19 r18 1.0
    x18_19 c19 1.0
    x18_20 OBJ 5.0
    x18_20 r18 1.0
    x18_20 c20 1.0
    x18_21 OBJ 1.0
    x18_21 r18 1.0
    x18_21 c21 1.0
    x18_22 OBJ 1.0
    x18_22 r18 1.0
    x18_22 c22 1.0
    x18_23 OBJ 3.0
    x18_23 r18 1.0
    x18_23 c23 1.0
    x18_24 OBJ 1.0
    x18_24 r18 1.0
    x18_24 c24 1.0
    x18_25 OBJ 2.0
    x18_25 r18 1.0
    x18_25 c25 1.0
    x18_26 OBJ 4.0
    x18_26 r18 1.0
    x18_26 c26 1.0
    x18_27 OBJ 5.0
    x18_27 r18 1.0
    x18_27 c27 1.0
    x18_28 OBJ 1.0
    x18_28 r18 1.0
    x18_28 c28 1.0
    x18_29 OBJ 4.0
    x18_29 r18 1.0
    x18_29 c29 1.0
    x19_0 OBJ 1.0
    x19_0 r19 1.0
    x19_0 c0 1.0
    x19_1 OBJ 3.0
    x19_1 r19 1.0
    x19_1 c1 1.0
    x19_2 OBJ 3.0
    x19_2 r19 1.0
    x19_2 c2 1.0
    x19_3 OBJ 2.0
    x19_3 r19 1.0
    x19_3 c3 1.0
    x19_4 OBJ 1.0
    x19_4 r19 1.0
    x19_4 c4 1.0
    x19_5 OBJ 5.0
    x19_5 r19 1.0
    x19_5 c5 1.0
    x19_6 OBJ 5.0
    x19_6 r19 1.0
    x19_6 c6 1.0
    x19_7 OBJ 2.0
    x19_7 r19 1.0
    x19_7 c7 1.0
    x19_8 OBJ 5.0
    x19_8 r19 1.0
    x19_8 c8 1.0
    x19_9 OBJ 4.0
    x19_9 r19 1.0
    x19_9 c9 1.0
    x19_10 OBJ 3.0
    x19_10 r19 1.0
    x19_10 c10 1.0
    x19_11 OBJ 4.0
    x19_11 r19 1.0
    x19_11 c11 1.0
    x19_12 OBJ 2.0
    x19_12 r19 1.0
    x19_12 c12 1.0
    x19_13 OBJ 3.0
    x19_13 r19 1.0
    x19_13 c13 1.0
    x19_14 OBJ 5.0
    x19_14 r19 1.0
    x19_14 c14 1.0
    x19_15 OBJ 2.0
    x19_15 r19 1.0
    x19_15 c15 1.0
    x19_16 OBJ 1.0
    x19_16 r19 1.0
    x19_16 c16 1.0
    x19_17 OBJ 5.0
    x19_17 r19 1.0
    x19_17 c17 1.0
    x19_18 OBJ 4.0
    x19_18 r19 1.0
    x19_18 c18 1.0
    x19_19 OBJ 5.0
    x19_19 r19 1.0
    x19_19 c19 1.0
    x19_20 OBJ 2.0
    x19_20 r19 1.0
    x19_20 c20 1.0
    x19_21 OBJ 5.0
    x19_21 r19 1.0
    x19_21 c21 1.0
    x19_22 OBJ 5.0
    x19_22 r19 1.0
    x19_22 c22 1.0
    x19_23 OBJ 5.0
    x19_23 r19 1.0
    x19_23 c23 1.0
    x19_24 OBJ 1.0
    x19_24 r19 1.0
    x19_24 c24 1.0
    x19_25 OBJ 5.0
    x19_25 r19 1.0
    x19_25 c25 1.0
    x19_26 OBJ 2.0
    x19_26 r19 1.0
    x19_26 c26 1.0
    x19_27 OBJ 1.0
    x19_27 r19 1.0
    x19_27 c27 1.0
    x19_28 OBJ 1.0
    x19_28 r19 1.0
    x19_28 c28 1.0
    x19_29 OBJ 1.0
    x19_29 r19 1.0
    x19_29 c29 1.0
    x20_0 OBJ 2.0
    x20_0 r20 1.0
    x20_0 c0 1.0
    x20_1 OBJ 3.0
    x20_1 r20 1.0
    x20_1 c1 1.0
    x20_2 OBJ 1.0
    x20_2 r20 1.0
    x20_2 c2 1.0
    x20_3 OBJ 4.0
    x20_3 r20 1.0
    x20_3 c3 1.0
    x20_4 OBJ 4.0
    x20_4 r20 1.0
    x20_4 c4 1.0
    x20_5 OBJ 5.0
    x20_5 r20 1.0
    x20_5 c5 1.0
    x20_6 OBJ 1.0
    x20_6 r20 1.0
    x20_6 c6 1.0
    x20_7 OBJ 1.0
    x20_7 r20 1.0
    x20_7 c7 1.0
    x20_8 OBJ 5.0
    x20_8 r20 1.0
    x20_8 c8 1.0
    x20_9 OBJ 2.0
    x20_9 r20 1.0
    x20_9 c9 1.0
    x20_10 OBJ 4.0
    x20_10 r20 1.0
    x20_10 c10 1.0
    x20_11 OBJ 3.0
    x20_11 r20 1.0
    x20_11 c11 1.0
    x20_12 OBJ 1.0
    x20_12 r20 1.0
    x20_12 c12 1.0
    x20_13 OBJ 4.0
    x20_13 r20 1.0
    x20_13 c13 1.0
    x20_14 OBJ 1.0
    x20_14 r20 1.0
    x20_14 c14 1.0
    x20_15 OBJ 5.0
    x20_15 r20 1.0
    x20_15 c15 1.0
    x20_16 OBJ 5.0
    x20_16 r20 1.0
    x20_16 c16 1.0
    x20_17 OBJ 1.0
    x20_17 r20 1.0
    x20_17 c17 1.0
    x20_18 OBJ 5.0
    x20_18 r20 1.0
    x20_18 c18 1.0
    x20_19 OBJ 1.0
    x20_19 r20 1.0
    x20_19 c19 1.0
    x20_20 OBJ 4.0
    x20_20 r20 1.0
    x20_20 c20 1.0
    x20_21 OBJ 3.0
    x20_21 r20 1.0
    x20_21 c21 1.0
    x20_22 OBJ 1.0
    x20_22 r20 1.0
    x20_22 c22 1.0
    x20_23 OBJ 3.0
    x20_23 r20 1.0
    x20_23 c23 1.0
    x20_24 OBJ 2.0
    x20_24 r20 1.0
    x20_24 c24 1.0
    x20_25 OBJ 2.0
    x20_25 r20 1.0
    x20_25 c25 1.0
    x20_26 OBJ 2.0
    x20_26 r20 1.0
    x20_26 c26 1.0
    x20_27 OBJ 4.0
    x20_27 r20 1.0
    x20_27 c27 1.0
    x20_28 OBJ 4.0
    x20_28 r20 1.0
    x20_28 c28 1.0
    x20_29 OBJ 4.0
    x20_29 r20 1.0
    x20_29 c29 1.0
    x21_0 OBJ 1.0
    x21_0 r21 1.0
    x21_0 c0 1.0
    x21_1 OBJ 4.0
    x21_1 r21 1.0
    x21_1 c1 1.0
    x21_2 OBJ 3.0
    x21_2 r21 1.0
    x21_2 c2 1.0
    x21_3 OBJ 1.0
    x21_3 r21 1.0
    x21_3 c3 1.0
    x21_4 OBJ 5.0
    x21_4 r21 1.0
    x21_4 c4 1.0
    x21_5 OBJ 2.0
    x21_5 r21 1.0
    x21_5 c5 1.0
    x21_6 OBJ 1.0
    x21_6 r21 1.0
    x21_6 c6 1.0
    x21_7 OBJ 5.0
    x21_7 r21 1.0
    x21_7 c7 1.0
    x21_8 OBJ 2.0
    x21_8 r21 1.0
    x21_8 c8 1.0
    x21_9 OBJ 3.0
    x21_9 r21 1.0
    x21_9 c9 1.0
    x21_10 OBJ 3.0
    x21_10 r21 1.0
    x21_10 c10 1.0
    x21_11 OBJ 3.0
    x21_11 r21 1.0
    x21_11 c11 1.0
    x21_12 OBJ 5.0
    x21_12 r21 1.0
    x21_12 c12 1.0
    x21_13 OBJ 5.0
    x21_13 r21 1.0
    x21_13 c13 1.0
    x21_14 OBJ 2.0
    x21_14 r21 1.0
    x21_14 c14 1.0
    x21_15 OBJ 1.0
    x21_15 r21 1.0
    x21_15 c15 1.0
    x21_16 OBJ 4.0
    x21_16 r21 1.0
    x21_16 c16 1.0
    x21_17 OBJ 1.0
    x21_17 r21 1.0
    x21_17 c17 1.0
    x21_18 OBJ 4.0
    x21_18 r21 1.0
    x21_18 c18 1.0
    x21_19 OBJ 3.0
    x21_19 r21 1.0
    x21_19 c19 1.0
    x21_20 OBJ 1.0
    x21_20 r21 1.0
    x21_20 c20 1.0
    x21_21 OBJ 2.0
    x21_21 r21 1.0
    x21_21 c21 1.0
    x21_22 OBJ 4.0
    x21_22 r21 1.0
    x21_22 c22 1.0
    x21_23 OBJ 3.0
    x21_23 r21 1.0
    x21_23 c23 1.0
    x21_24 OBJ 5.0
    x21_24 r21 1.0
    x21_24 c24 1.0
    x21_25 OBJ 3.0
    x21_25 r21 1.0
    x21_25 c25 1.0
    x21_26 OBJ 4.0
    x21_26 r21 1.0
    x21_26 c26 1.0
    x21_27 OBJ 4.0
    x21_27 r21 1.0
    x21_27 c27 1.0
    x21_28 OBJ 4.0
    x21_28 r21 1.0
    x21_28 c28 1.0
    x21_29 OBJ 1.0
    x21_29 r21 1.0
    x21_29 c29 1.0
    x22_0 OBJ 5.0
    x22_0 r22 1.0
    x22_0 c0 1.0
    x22_1 OBJ 2.0
    x22_1 r22 1.0
    x22_1 c1 1.0
    x22_2 OBJ 3.0
    x22_2 r22 1.0
    x22_2 c2 1.0
    x22_3 OBJ 1.0
    x22_3 r22 1.0
    x22_3 c3 1.0
    x22_4 OBJ 4.0
    x22_4 r22 1.0
    x22_4 c4 1.0
    x22_5 OBJ 1.0
    x22_5 r22 1.0
    x22_5 c5 1.0
    x22_6 OBJ 3.0
    x22_6 r22 1.0
    x22_6 c6 1.0
    x22_7 OBJ 4.0
    x22_7 r22 1.0
    x22_7 c7 1.0
    x22_8 OBJ 1.0
    x22_8 r22 1.0
    x22_8 c8 1.0
    x22_9 OBJ 5.0
    x22_9 r22 1.0
    x22_9 c9 1.0
    x22_10 OBJ 4.0
    x22_10 r22 1.0
    x22_10 c10 1.0
    x22_11 OBJ 3.0
    x22_11 r22 1.0
    x22_11 c11 1.0
    x22_12 OBJ 4.0
    x22_12 r22 1.0
    x22_12 c12 1.0
    x22_13 OBJ 2.0
    x22_13 r22 1.0
    x22_13 c13 1.0
    x22_14 OBJ 2.0
    x22_14 r22 1.0
    x22_14 c14 1.0
    x22_15 OBJ 1.0
    x22_15 r22 1.0
    x22_15 c15 1.0
    x22_16 OBJ 5.0
    x22_16 r22 1.0
    x22_16 c16 1.0
    x22_17 OBJ 1.0
    x22_17 r22 1.0
    x22_17 c17 1.0
    x22_18 OBJ 2.0
    x22_18 r22 1.0
    x22_18 c18 1.0
    x22_19 OBJ 5.0
    x22_19 r22 1.0
    x22_19 c19 1.0
    x22_20 OBJ 3.0
    x22_20 r22 1.0
    x22_20 c20 1.0
    x22_21 OBJ 3.0
    x22_21 r22 1.0
    x22_21 c21 1.0
    x22_22 OBJ 2.0
    x22_22 r22 1.0
    x22_22 c22 1.0
    x22_23 OBJ 5.0
    x22_23 r22 1.0
    x22_23 c23 1.0
    x22_24 OBJ 5.0
    x22_24 r22 1.0
    x22_24 c24 1.0
    x22_25 OBJ 3.0
    x22_25 r22 1.0
    x22_25 c25 1.0
    x22_26 OBJ 1.0
    x22_26 r22 1.0
    x22_26 c26 1.0
    x22_27 OBJ 3.0
    x22_27 r22 1.0
    x22_27 c27 1.0
    x22_28 OBJ 2.0
    x22_28 r22 1.0
    x22_28 c28 1.0
    x22_29 OBJ 4.0
    x22_29 r22 1.0
    x22_29 c29 1.0
    x23_0 OBJ 4.0
    x23_0 r23 1.0
    x23_0 c0 1.0
    x23_1 OBJ 4.0
    x23_1 r23 1.0
    x23_1 c1 1.0
    x23_2 OBJ 1.0
    x23_2 r23 1.0
    x23_2 c2 1.0
    x23_3 OBJ 2.0
    x23_3 r23 1.0
    x23_3 c3 1.0
    x23_4 OBJ 1.0
    x23_4 r23 1.0
    x23_4 c4 1.0
    x23_5 OBJ 4.0
    x23_5 r23 1.0
    x23_5 c5 1.0
    x23_6 OBJ 4.0
    x23_6 r23 1.0
    x23_6 c6 1.0
    x23_7 OBJ 4.0
    x23_7 r23 1.0
    x23_7 c7 1.0
    x23_8 OBJ 3.0
    x23_8 r23 1.0
    x23_8 c8 1.0
    x23_9 OBJ 2.0
    x23_9 r23 1.0
    x23_9 c9 1.0
    x23_10 OBJ 4.0
    x23_10 r23 1.0
    x23_10 c10 1.0
    x23_11 OBJ 3.0
    x23_11 r23 1.0
    x23_11 c11 1.0
    x23_12 OBJ 4.0
    x23_12 r23 1.0
    x23_12 c12 1.0
    x23_13 OBJ 3.0
    x23_13 r23 1.0
    x23_13 c13 1.0
    x23_14 OBJ 1.0
    x23_14 r23 1.0
    x23_14 c14 1.0
    x23_15 OBJ 3.0
    x23_15 r23 1.0
    x23_15 c15 1.0
    x23_16 OBJ 1.0
    x23_16 r23 1.0
    x23_16 c16 1.0
    x23_17 OBJ 3.0
    x23_17 r23 1.0
    x23_17 c17 1.0
    x23_18 OBJ 3.0
    x23_18 r23 1.0
    x23_18 c18 1.0
    x23_19 OBJ 4.0
    x23_19 r23 1.0
    x23_19 c19 1.0
    x23_20 OBJ 1.0
    x23_20 r23 1.0
    x23_20 c20 1.0
    x23_21 OBJ 2.0
    x23_21 r23 1.0
    x23_21 c21 1.0
    x23_22 OBJ 1.0
    x23_22 r23 1.0
    x23_22 c22 1.0
    x23_23 OBJ 3.0
    x23_23 r23 1.0
    x23_23 c23 1.0
    x23_24 OBJ 3.0
    x23_24 r23 1.0
    x23_24 c24 1.0
    x23_25 OBJ 3.0
    x23_25 r23 1.0
    x23_25 c25 1.0
    x23_26 OBJ 1.0
    x23_26 r23 1.0
    x23_26 c26 1.0
    x23_27 OBJ 4.0
    x23_27 r23 1.0
    x23_27 c27 1.0
    x23_28 OBJ 4.0
    x23_28 r23 1.0
    x23_28 c28 1.0
    x23_29 OBJ 5.0
    x23_29 r23 1.0
    x23_29 c29 1.0
    x24_0 OBJ 1.0
    x24_0 r24 1.0
    x24_0 c0 1.0
    x24_1 OBJ 3.0
    x24_1 r24 1.0
    x24_1 c1 1.0
    x24_2 OBJ 4.0
    x24_2 r24 1.0
    x24_2 c2 1.0
    x24_3 OBJ 3.0
    x24_3 r24 1.0
    x24_3 c3 1.0
    x24_4 OBJ 1.0
    x24_4 r24 1.0
    x24_4 c4 1.0
    x24_5 OBJ 3.0
    x24_5 r24 1.0
    x24_5 c5 1.0
    x24_6 OBJ 1.0
    x24_6 r24 1.0
    x24_6 c6 1.0
    x24_7 OBJ 1.0
    x24_7 r24 1.0
    x24_7 c7 1.0
    x24_8 OBJ 3.0
    x24_8 r24 1.0
    x24_8 c8 1.0
    x24_9 OBJ 2.0
    x24_9 r24 1.0
    x24_9 c9 1.0
    x24_10 OBJ 2.0
    x24_10 r24 1.0
    x24_10 c10 1.0
    x24_11 OBJ 3.0
    x24_11 r24 1.0
    x24_11 c11 1.0
    x24_12 OBJ 4.0
    x24_12 r24 1.0
    x24_12 c12 1.0
    x24_13 OBJ 5.0
    x24_13 r24 1.0
    x24_13 c13 1.0
    x24_14 OBJ 3.0
    x24_14 r24 1.0
    x24_14 c14 1.0
    x24_15 OBJ 2.0
    x24_15 r24 1.0
    x24_15 c15 1.0
    x24_16 OBJ 3.0
    x24_16 r24 1.0
    x24_16 c16 1.0
    x24_17 OBJ 4.0
    x24_17 r24 1.0
    x24_17 c17 1.0
    x24_18 OBJ 1.0
    x24_18 r24 1.0
    x24_18 c18 1.0
    x24_19 OBJ 4.0
    x24_19 r24 1.0
    x24_19 c19 1.0
    x24_20 OBJ 5.0
    x24_20 r24 1.0
    x24_20 c20 1.0
    x24_21 OBJ 5.0
    x24_21 r24 1.0
    x24_21 c21 1.0
    x24_22 OBJ 2.0
    x24_22 r24 1.0
    x24_22 c22 1.0
    x24_23 OBJ 1.0
    x24_23 r24 1.0
    x24_23 c23 1.0
    x24_24 OBJ 1.0
    x24_24 r24 1.0
    x24_24 c24 1.0
    x24_25 OBJ 4.0
    x24_25 r24 1.0
    x24_25 c25 1.0
    x24_26 OBJ 4.0
    x24_26 r24 1.0
    x24_26 c26 1.0
    x24_27 OBJ 5.0
    x24_27 r24 1.0
    x24_27 c27 1.0
    x24_28 OBJ 2.0
    x24_28 r24 1.0
    x24_28 c28 1.0
    x24_29 OBJ 3.0
    x24_29 r24 1.0
    x24_29 c29 1.0
    x25_0 OBJ 4.0
    x25_0 r25 1.0
    x25_0 c0 1.0
    x25_1 OBJ 1.0
    x25_1 r25 1.0
    x25_1 c1 1.0
    x25_2 OBJ 5.0
    x25_2 r25 1.0
    x25_2 c2 1.0
    x25_3 OBJ 2.0
    x25_3 r25 1.0
    x25_3 c3 1.0
    x25_4 OBJ 2.0
    x25_4 r25 1.0
    x25_4 c4 1.0
    x25_5 OBJ 4.0
    x25_5 r25 1.0
    x25_5 c5 1.0
    x25_6 OBJ 4.0
    x25_6 r25 1.0
    x25_6 c6 1.0
    x25_7 OBJ 3.0
    x25_7 r25 1.0
    x25_7 c7 1.0
    x25_8 OBJ 3.0
    x25_8 r25 1.0
    x25_8 c8 1.0
    x25_9 OBJ 3.0
    x25_9 r25 1.0
    x25_9 c9 1.0
    x25_10 OBJ 3.0
    x25_10 r25 1.0
    x25_10 c10 1.0
    x25_11 OBJ 3.0
    x25_11 r25 1.0
    x25_11 c11 1.0
    x25_12 OBJ 4.0
    x25_12 r25 1.0
    x25_12 c12 1.0
    x25_13 OBJ 2.0
    x25_13 r25 1.0
    x25_13 c13 1.0
    x25_14 OBJ 3.0
    x25_14 r25 1.0
    x25_14 c14 1.0
    x25_15 OBJ 4.0
    x25_15 r25 1.0
    x25_15 c15 1.0
    x25_16 OBJ 5.0
    x25_16 r25 1.0
    x25_16 c16 1.0
    x25_17 OBJ 4.0
    x25_17 r25 1.0
    x25_17 c17 1.0
    x25_18 OBJ 1.0
    x25_18 r25 1.0
    x25_18 c18 1.0
    x25_19 OBJ 2.0
    x25_19 r25 1.0
    x25_19 c19 1.0
    x25_20 OBJ 2.0
    x25_20 r25 1.0
    x25_20 c20 1.0
    x25_21 OBJ 1.0
    x25_21 r25 1.0
    x25_21 c21 1.0
    x25_22 OBJ 2.0
    x25_22 r25 1.0
    x25_22 c22 1.0
    x25_23 OBJ 5.0
    x25_23 r25 1.0
    x25_23 c23 1.0
    x25_24 OBJ 4.0
    x25_24 r25 1.0
    x25_24 c24 1.0
    x25_25 OBJ 5.0
    x25_25 r25 1.0
    x25_25 c25 1.0
    x25_26 OBJ 2.0
    x25_26 r25 1.0
    x25_26 c26 1.0
    x25_27 OBJ 4.0
    x25_27 r25 1.0
    x25_27 c27 1.0
    x25_28 OBJ 3.0
    x25_28 r25 1.0
    x25_28 c28 1.0
    x25_29 OBJ 4.0
    x25_29 r25 1.0
    x25_29 c29 1.0
    x26_0 OBJ 4.0
    x26_0 r26 1.0
    x26_0 c0 1.0
    x26_1 OBJ 2.0
    x26_1 r26 1.0
    x26_1 c1 1.0
    x26_2 OBJ 5.0
    x26_2 r26 1.0
    x26_2 c2 1.0
    x26_3 OBJ 2.0
    x26_3 r26 1.0
    x26_3 c3 1.0
    x26_4 OBJ 2.0
    x26_4 r26 1.0
    x26_4 c4 1.0
    x26_5 OBJ 1.0
    x26_5 r26 1.0
    x26_5 c5 1.0
    x26_6 OBJ 2.0
    x26_6 r26 1.0
    x26_6 c6 1.0
    x26_7 OBJ 3.0
    x26_7 r26 1.0
    x26_7 c7 1.0
    x26_8 OBJ 5.0
    x26_8 r26 1.0
    x26_8 c8 1.0
    x26_9 OBJ 1.0
    x26_9 r26 1.0
    x26_9 c9 1.0
    x26_10 OBJ 3.0
    x26_10 r26 1.0
    x26_10 c10 1.0
    x26_11 OBJ 2.0
    x26_11 r26 1.0
    x26_11 c11 1.0
    x26_12 OBJ 3.0
    x26_12 r26 1.0
    x26_12 c12 1.0
    x26_13 OBJ 3.0
    x26_13 r26 1.0
    x26_13 c13 1.0
    x26_14 OBJ 5.0
    x26_14 r26 1.0
    x26_14 c14 1.0
    x26_15 OBJ 2.0
    x26_15 r26 1.0
    x26_15 c15 1.0
    x26_16 OBJ 1.0
    x26_16 r26 1.0
    x26_16 c16 1.0
    x26_17 OBJ 4.0
    x26_17 r26 1.0
    x26_17 c17 1.0
    x26_18 OBJ 4.0
    x26_18 r26 1.0
    x26_18 c18 1.0
    x26_19 OBJ 4.0
    x26_19 r26 1.0
    x26_19 c19 1.0
    x26_20 OBJ 5.0
    x26_20 r26 1.0
    x26_20 c20 1.0
    x26_21 OBJ 2.0
    x26_21 r26 1.0
    x26_21 c21 1.0
    x26_22 OBJ 4.0
    x26_22 r26 1.0
    x26_22 c22 1.0
    x26_23 OBJ 3.0
    x26_23 r26 1.0
    x26_23 c23 1.0
    x26_24 OBJ 3.0
    x26_24 r26 1.0
    x26_24 c24 1.0
    x26_25 OBJ 1.0
    x26_25 r26 1.0
    x26_25 c25 1.0
    x26_26 OBJ 4.0
    x26_26 r26 1.0
    x26_26 c26 1.0
    x26_27 OBJ 3.0
    x26_27 r26 1.0
    x26_27 c27 1.0
    x26_28 OBJ 5.0
    x26_28 r26 1.0
    x26_28 c28 1.0
    x26_29 OBJ 3.0
    x26_29 r26 1.0
    x26_29 c29 1.0
    x27_0 OBJ 2.0
    x27_0 r27 1.0
    x27_0 c0 1.0
    x27_1 OBJ 5.0
    x27_1 r27 1.0
    x27_1 c1 1.0
    x27_2 OBJ 5.0
    x27_2 r27 1.0
    x27_2 c2 1.0
    x27_3 OBJ 2.0
    x27_3 r27 1.0
    x27_3 c3 1.0
    x27_4 OBJ 1.0
    x27_4 r27 1.0
    x27_4 c4 1.0
    x27_5 OBJ 3.0
    x27_5 r27 1.0
    x27_5 c5 1.0
    x27_6 OBJ 2.0
    x27_6 r27 1.0
    x27_6 c6 1.0
    x27_7 OBJ 4.0
    x27_7 r27 1.0
    x27_7 c7 1.0
    x27_8 OBJ 4.0
    x27_8 r27 1.0
    x27_8 c8 1.0
    x27_9 OBJ 4.0
    x27_9 r27 1.0
    x27_9 c9 1.0
    x27_10 OBJ 4.0
    x27_10 r27 1.0
    x27_10 c10 1.0
    x27_11 OBJ 3.0
    x27_11 r27 1.0
    x27_11 c11 1.0
    x27_12 OBJ 1.0
    x27_12 r27 1.0
    x27_12 c12 1.0
    x27_13 OBJ 2.0
    x27_13 r27 1.0
    x27_13 c13 1.0
    x27_14 OBJ 1.0
    x27_14 r27 1.0
    x27_14 c14 1.0
    x27_15 OBJ 4.0
    x27_15 r27 1.0
    x27_15 c15 1.0
    x27_16 OBJ 4.0
    x27_16 r27 1.0
    x27_16 c16 1.0
    x27_17 OBJ 5.0
    x27_17 r27 1.0
    x27_17 c17 1.0
    x27_18 OBJ 4.0
    x27_18 r27 1.0
    x27_18 c18 1.0
    x27_19 OBJ 1.0
    x27_19 r27 1.0
    x27_19 c19 1.0
    x27_20 OBJ 1.0
    x27_20 r27 1.0
    x27_20 c20 1.0
    x27_21 OBJ 4.0
    x27_21 r27 1.0
    x27_21 c21 1.0
    x27_22 OBJ 5.0
    x27_22 r27 1.0
    x27_22 c22 1.0
    x27_23 OBJ 4.0
    x27_23 r27 1.0
    x27_23 c23 1.0
    x27_24 OBJ 4.0
    x27_24 r27 1.0
    x27_24 c24 1.0
    x27_25 OBJ 2.0
    x27_25 r27 1.0
    x27_25 c25 1.0
    x27_26 OBJ 1.0
    x27_26 r27 1.0
    x27_26 c26 1.0
    x27_27 OBJ 2.0
    x27_27 r27 1.0
    x27_27 c27 1.0
    x27_28 OBJ 2.0
    x27_28 r27 1.0
    x27_28 c28 1.0
    x27_29 OBJ 2.0
    x27_29 r27 1.0
    x27_29 c29 1.0
    x28_0 OBJ 5.0
    x28_0 r28 1.0
    x28_0 c0 1.0
    x28_1 OBJ 1.0
    x28_1 r28 1.0
    x28_1 c1 1.0
    x28_2 OBJ 4.0
    x28_2 r28 1.0
    x28_2 c2 1.0
    x28_3 OBJ 1.0
    x28_3 r28 1.0
    x28_3 c3 1.0
    x28_4 OBJ 5.0
    x28_4 r28 1.0
    x28_4 c4 1.0
    x28_5 OBJ 1.0
    x28_5 r28 1.0
    x28_5 c5 1.0
    x28_6 OBJ 1.0
    x28_6 r28 1.0
    x28_6 c6 1.0
    x28_7 OBJ 2.0
    x28_7 r28 1.0
    x28_7 c7 1.0
    x28_8 OBJ 2.0
    x28_8 r28 1.0
    x28_8 c8 1.0
    x28_9 OBJ 5.0
    x28_9 r28 1.0
    x28_9 c9 1.0
    x28_10 OBJ 1.0
    x28_10 r28 1.0
    x28_10 c10 1.0
    x28_11 OBJ 3.0
    x28_11 r28 1.0
    x28_11 c11 1.0
    x28_12 OBJ 2.0
    x28_12 r28 1.0
    x28_12 c12 1.0
    x28_13 OBJ 3.0
    x28_13 r28 1.0
    x28_13 c13 1.0
    x28_14 OBJ 5.0
    x28_14 r28 1.0
    x28_14 c14 1.0
    x28_15 OBJ 4.0
    x28_15 r28 1.0
    x28_15 c15 1.0
    x28_16 OBJ 1.0
    x28_16 r28 1.0
    x28_16 c16 1.0
    x28_17 OBJ 1.0
    x28_17 r28 1.0
    x28_17 c17 1.0
    x28_18 OBJ 1.0
    x28_18 r28 1.0
    x28_18 c18 1.0
    x28_19 OBJ 3.0
    x28_19 r28 1.0
    x28_19 c19 1.0
    x28_20 OBJ 5.0
    x28_20 r28 1.0
    x28_20 c20 1.0
    x28_21 OBJ 5.0
    x28_21 r28 1.0
    x28_21 c21 1.0
    x28_22 OBJ 2.0
    x28_22 r28 1.0
    x28_22 c22 1.0
    x28_23 OBJ 4.0
    x28_23 r28 1.0
    x28_23 c23 1.0
    x28_24 OBJ 3.0
    x28_24 r28 1.0
    x28_24 c24 1.0
    x28_25 OBJ 2.0
    x28_25 r28 1.0
    x28_25 c25 1.0
    x28_26 OBJ 5.0
    x28_26 r28 1.0
    x28_26 c26 1.0
    x28_27 OBJ 1.0
    x28_27 r28 1.0
    x28_27 c27 1.0
    x28_28 OBJ 1.0
    x28_28 r28 1.0
    x28_28 c28 1.0
    x28_29 OBJ 5.0
    x28_29 r28 1.0
    x28_29 c29 1.0
    x29_0 OBJ 3.0
    x29_0 r29 1.0
    x29_0 c0 1.0
    x29_1 OBJ 4.0
    x29_1 r29 1.0
    x29_1 c1 1.0
    x29_2 OBJ 3.0
    x29_2 r29 1.0
    x29_2 c2 1.0
    x29_3 OBJ 3.0
    x29_3 r29 1.0
    x29_3 c3 1.0
    x29_4 OBJ 2.0
    x29_4 r29 1.0
    x29_4 c4 1.0
    x29_5 OBJ 4.0
    x29_5 r29 1.0
    x29_5 c5 1.0
    x29_6 OBJ 5.0
    x29_6 r29 1.0
    x29_6 c6 1.0
    x29_7 OBJ 2.0
    x29_7 r29 1.0
    x29_7 c7 1.0
    x29_8 OBJ 5.0
    x29_8 r29 1.0
    x29_8 c8 1.0
    x29_9 OBJ 2.0
    x29_9 r29 1.0
    x29_9 c9 1.0
    x29_10 OBJ 1.0
    x29_10 r29 1.0
    x29_10 c10 1.0
    x29_11 OBJ 4.0
    x29_11 r29 1.0
    x29_11 c11 1.0
    x29_12 OBJ 3.0
    x29_12 r29 1.0
    x29_12 c12 1.0
    x29_13 OBJ 1.0
    x29_13 r29 1.0
    x29_13 c13 1.0
    x29_14 OBJ 1.0
    x29_14 r29 1.0
    x29_14 c14 1.0
    x29_15 OBJ 2.0
    x29_15 r29 1.0
    x29_15 c15 1.0
    x29_16 OBJ 4.0
    x29_16 r29 1.0
    x29_16 c16 1.0
    x29_17 OBJ 4.0
    x29_17 r29 1.0
    x29_17 c17 1.0
    x29_18 OBJ 1.0
    x29_18 r29 1.0
    x29_18 c18 1.0
    x29_19 OBJ 3.0
    x29_19 r29 1.0
    x29_19 c19 1.0
    x29_20 OBJ 2.0
    x29_20 r29 1.0
    x29_20 c20 1.0
    x29_21 OBJ 4.0
    x29_21 r29 1.0
    x29_21 c21 1.0
    x29_22 OBJ 3.0
    x29_22 r29 1.0
    x29_22 c22 1.0
    x29_23 OBJ 2.0
    x29_23 r29 1.0
    x29_23 c23 1.0
    x29_24 OBJ 4.0
    x29_24 r29 1.0
    x29_24 c24 1.0
    x29_25 OBJ 1.0
    x29_25 r29 1.0
    x29_25 c25 1.0
    x29_26 OBJ 3.0
    x29_26 r29 1.0
    x29_26 c26 1.0
    x29_27 OBJ 4.0
    x29_27 r29 1.0
    x29_27 c27 1.0
    x29_28 OBJ 3.0
    x29_28 r29 1.0
    x29_28 c28 1.0
    x29_29 OBJ 4.0
    x29_29 r29 1.0
    x29_29 c29 1.0
RHS
    RHS r0 1.0
    RHS r1 1.0
    RHS r2 1.0
    RHS r3 1.0
    RHS r4 1.0
    RHS r5 1.0
    RHS r6 1.0
    RHS r7 1.0
    RHS r8 1.0
    RHS r9 1.0
    RHS r10 1.0
    RHS r11 1.0
    RHS r12 1.0
    RHS r13 1.0
    RHS r14 1.0
    RHS r15 1.0
    RHS r16 1.0
    RHS r17 1.0
    RHS r18 1.0
    RHS r19 1.0
    RHS r20 1.0
    RHS r21 1.0
    RHS r22 1.0
    RHS r23 1.0
    RHS r24 1.0
    RHS r25 1.0
    RHS r26 1.0
    RHS r27 1.0
    RHS r28 1.0
    RHS r29 1.0
    RHS c0 1.0
    RHS c1 1.0
    RHS c2 1.0
    RHS c3 1.0
    RHS c4 1.0
    RHS c5 1.0
    RHS c6 1.0
    RHS c7 1.0
    RHS c8 1.0
    RHS c9 1.0
    RHS c10 1.0
    RHS c11 1.0
    RHS c12 1.0
    RHS c13 1.0
    RHS c14 1.0
    RHS c15 1.0
    RHS c16 1.0
    RHS c17 1.0
    RHS c18 1.0
    RHS c19 1.0
    RHS c20 1.0
    RHS c21 1.0
    RHS c22 1.0
    RHS c23 1.0
    RHS c24 1.0
    RHS c25 1.0
    RHS c26 1.0
    RHS c27 1.0
    RHS c28 1.0
    RHS c29 1.0
BOUNDS
ENDATA
