NAME KLEEMINTY_20
OBJSENSE
    MAX
ROWS
 N  OBJ
 L  c1
 L  c2
 L  c3
 L  c4
 L  c5
 L  c6
 L  c7
 L  c8
 L  c9
 L  c10
 L  c11
 L  c12
 L  c13
 L  c14
 L  c15
 L  c16
 L  c17
 L  c18
 L  c19
 L  c20
COLUMNS
    x1 OBJ 524288.0
    x1 c1 1.0
    x1 c2 4.0
    x1 c3 8.0
    x1 c4 16.0
    x1 c5 32.0
    x1 c6 64.0
    x1 c7 128.0
    x1 c8 256.0
    x1 c9 512.0
    x1 c10 1024.0
    x1 c11 2048.0
    x1 c12 4096.0
    x1 c13 8192.0
    x1 c14 16384.0
    x1 c15 32768.0
    x1 c16 65536.0
    x1 c17 131072.0
    x1 c18 262144.0
    x1 c19 524288.0
    x1 c20 1048576.0
    x2 OBJ 262144.0
    x2 c2 1.0
    x2 c3 4.0
    x2 c4 8.0
    x2 c5 16.0
    x2 c6 32.0
    x2 c7 64.0
    x2 c8 128.0
    x2 c9 256.0
    x2 c10 512.0
    x2 c11 1024.0
    x2 c12 2048.0
    x2 c13 4096.0
    x2 c14 8192.0
    x2 c15 16384.0
    x2 c16 32768.0
    x2 c17 65536.0
    x2 c18 131072.0
    x2 c19 262144.0
    x2 c20 524288.0
    x3 OBJ 131072.0
    x3 c3 1.0
    x3 c4 4.0
    x3 c5 8.0
    x3 c6 16.0
    x3 c7 32.0
    x3 c8 64.0
    x3 c9 128.0
    x3 c10 256.0
    x3 c11 512.0
    x3 c12 1024.0
    x3 c13 2048.0
    x3 c14 4096.0
    x3 c15 8192.0
    x3 c16 16384.0
    x3 c17 32768.0
    x3 c18 65536.0
    x3 c19 131072.0
    x3 c20 262144.0
    x4 OBJ 65536.0
    x4 c4 1.0
    x4 c5 4.0
    x4 c6 8.0
    x4 c7 16.0
    x4 c8 32.0
    x4 c9 64.0
    x4 c10 128.0
    x4 c11 256.0
    x4 c12 512.0
    x4 c13 1024.0
    x4 c14 2048.0
    x4 c15 4096.0
    x4 c16 8192.0
    x4 c17 16384.0
    x4 c18 32768.0
    x4 c19 65536.0
    x4 c20 131072.0
    x5 OBJ 32768.0
    x5 c5 1.0
    x5 c6 4.0
    x5 c7 8.0
    x5 c8 16.0
    x5 c9 32.0
    x5 c10 64.0
    x5 c11 128.0
    x5 c12 256.0
    x5 c13 512.0
    x5 c14 1024.0
    x5 c15 2048.0
    x5 c16 4096.0
    x5 c17 8192.0
    x5 c18 16384.0
    x5 c19 32768.0
    x5 c20 65536.0
    x6 OBJ 16384.0
    x6 c6 1.0
    x6 c7 4.0
    x6 c8 8.0
    x6 c9 16.0
    x6 c10 32.0
    x6 c11 64.0
    x6 c12 128.0
    x6 c13 256.0
    x6 c14 512.0
    x6 c15 1024.0
    x6 c16 2048.0
    x6 c17 4096.0
    x6 c18 8192.0
    x6 c19 16384.0
    x6 c20 32768.0
    x7 OBJ 8192.0
    x7 c7 1.0
    x7 c8 4.0
    x7 c9 8.0
    x7 c10 16.0
    x7 c11 32.0
    x7 c12 64.0
    x7 c13 128.0
    x7 c14 256.0
    x7 c15 512.0
    x7 c16 1024.0
    x7 c17 2048.0
    x7 c18 4096.0
    x7 c19 8192.0
    x7 c20 16384.0
    x8 OBJ 4096.0
    x8 c8 1.0
    x8 c9 4.0
    x8 c10 8.0
    x8 c11 16.0
    x8 c12 32.0
    x8 c13 64.0
    x8 c14 128.0
    x8 c15 256.0
    x8 c16 512.0
    x8 c17 1024.0
    x8 c18 2048.0
    x8 c19 4096.0
    x8 c20 8192.0
    x9 OBJ 2048.0
    x9 c9 1.0
    x9 c10 4.0
    x9 c11 8.0
    x9 c12 16.0
    x9 c13 32.0
    x9 c14 64.0
    x9 c15 128.0
    x9 c16 256.0
    x9 c17 512.0
    x9 c18 1024.0
    x9 c19 2048.0
    x9 c20 4096.0
    x10 OBJ 1024.0
    x10 c10 1.0
    x10 c11 4.0
    x10 c12 8.0
    x10 c13 16.0
    x10 c14 32.0
    x10 c15 64.0
    x10 c16 128.0
    x10 c17 256.0
    x10 c18 512.0
    x10 c19 1024.0
    x10 c20 2048.0
    x11 OBJ 512.0
    x11 c11 1.0
    x11 c12 4.0
    x11 c13 8.0
    x11 c14 16.0
    x11 c15 32.0
    x11 c16 64.0
    x11 c17 128.0
    x11 c18 256.0
    x11 c19 512.0
    x11 c20 1024.0
    x12 OBJ 256.0
    x12 c12 1.0
    x12 c13 4.0
    x12 c14 8.0
    x12 c15 16.0
    x12 c16 32.0
    x12 c17 64.0
    x12 c18 128.0
    x12 c19 256.0
    x12 c20 512.0
    x13 OBJ 128.0
    x13 c13 1.0
    x13 c14 4.0
    x13 c15 8.0
    x13 c16 16.0
    x13 c17 32.0
    x13 c18 64.0
    x13 c19 128.0
    x13 c20 256.0
    x14 OBJ 64.0
    x14 c14 1.0
    x14 c15 4.0
    x14 c16 8.0
    x14 c17 16.0
    x14 c18 32.0
    x14 c19 64.0
    x14 c20 128.0
    x15 OBJ 32.0
    x15 c15 1.0
    x15 c16 4.0
    x15 c17 8.0
    x15 c18 16.0
    x15 c19 32.0
    x15 c20 64.0
    x16 OBJ 16.0
    x16 c16 1.0
    x16 c17 4.0
    x16 c18 8.0
    x16 c19 16.0
    x16 c20 32.0
    x17 OBJ 8.0
    x17 c17 1.0
    x17 c18 4.0
    x17 c19 8.0
    x17 c20 16.0
    x18 OBJ 4.0
    x18 c18 1.0
    x18 c19 4.0
    x18 c20 8.0
    x19 OBJ 2.0
    x19 c19 1.0
    x19 c20 4.0
    x20 OBJ 1.0
    x20 c20 1.0
RHS
    RHS c1 5.0
    RHS c2 25.0
    RHS c3 125.0
    RHS c4 625.0
    RHS c5 3125.0
    RHS c6 15625.0
    RHS c7 78125.0
    RHS c8 390625.0
    RHS c9 1953125.0
    RHS c10 9765625.0
    RHS c11 48828125.0
    RHS c12 244140625.0
    RHS c13 1220703125.0
    RHS c14 6103515625.0
    RHS c15 30517578125.0
    RHS c16 152587890625.0
    RHS c17 762939453125.0
    RHS c18 3814697265625.0
    RHS c19 19073486328125.0
    RHS c20 95367431640625.0
BOUNDS
ENDATA
