NAME NEARSING_200
ROWS
 N  OBJ
 L  r0
 L  d0
 L  r1
 L  d1
 L  r2
 L  d2
 L  r3
 L  d3
 L  r4
 L  d4
 L  r5
 L  d5
 L  r6
 L  d6
 L  r7
 L  d7
 L  r8
 L  d8
 L  r9
 L  d9
 L  r10
 L  d10
 L  r11
 L  d11
 L  r12
 L  d12
 L  r13
 L  d13
 L  r14
 L  d14
 L  r15
 L  d15
 L  r16
 L  d16
 L  r17
 L  d17
 L  r18
 L  d18
 L  r19
 L  d19
 L  r20
 L  d20
 L  r21
 L  d21
 L  r22
 L  d22
 L  r23
 L  d23
 L  r24
 L  d24
 L  r25
 L  d25
 L  r26
 L  d26
 L  r27
 L  d27
 L  r28
 L  d28
 L  r29
 L  d29
 L  r30
 L  d30
 L  r31
 L  d31
 L  r32
 L  d32
 L  r33
 L  d33
 L  r34
 L  d34
 L  r35
 L  d35
 L  r36
 L  d36
 L  r37
 L  d37
 L  r38
 L  d38
 L  r39
 L  d39
 L  r40
 L  d40
 L  r41
 L  d41
 L  r42
 L  d42
 L  r43
 L  d43
 L  r44
 L  d44
 L  r45
 L  d45
 L  r46
 L  d46
 L  r47
 L  d47
 L  r48
 L  d48
 L  r49
 L  d49
 L  r50
 L  d50
 L  r51
 L  d51
 L  r52
 L  d52
 L  r53
 L  d53
 L  r54
 L  d54
 L  r55
 L  d55
 L  r56
 L  d56
 L  r57
 L  d57
 L  r58
 L  d58
 L  r59
 L  d59
 L  r60
 L  d60
 L  r61
 L  d61
 L  r62
 L  d62
 L  r63
 L  d63
 L  r64
 L  d64
 L  r65
 L  d65
 L  r66
 L  d66
 L  r67
 L  d67
 L  r68
 L  d68
 L  r69
 L  d69
 L  r70
 L  d70
 L  r71
 L  d71
 L  r72
 L  d72
 L  r73
 L  d73
 L  r74
 L  d74
 L  r75
 L  d75
 L  r76
 L  d76
 L  r77
 L  d77
 L  r78
 L  d78
 L  r79
 L  d79
 L  r80
 L  d80
 L  r81
 L  d81
 L  r82
 L  d82
 L  r83
 L  d83
 L  r84
 L  d84
 L  r85
 L  d85
 L  r86
 L  d86
 L  r87
 L  d87
 L  r88
 L  d88
 L  r89
 L  d89
 L  r90
 L  d90
 L  r91
 L  d91
 L  r92
 L  d92
 L  r93
 L  d93
 L  r94
 L  d94
 L  r95
 L  d95
 L  r96
 L  d96
 L  r97
 L  d97
 L  r98
 L  d98
 L  r99
 L  d99
COLUMNS
    x0 OBJ -0.35233447033367526
    x0 r0 0.32117130040978825
    x0 d0 0.3211713004096148
    x0 r2 0.5555525521152553
    x0 d2 0.5555525521155328
    x0 r3 -0.8002458194992881
    x0 d3 -0.8002458194988037
    x0 r7 0.16223219970605007
    x0 d7 0.16223219970597139
    x0 r12 0.6072703732099121
    x0 d12 0.6072703732101747
    x0 r17 0.6791721577097107
    x0 d17 0.6791721577096809
    x0 r18 0.7346753465038547
    x0 d18 0.7346753465032617
    x0 r22 0.5629165391529225
    x0 d22 0.562916539152604
    x0 r23 -0.07235621346827403
    x0 d23 -0.07235621346829078
    x0 r29 0.8061371709202403
    x0 d29 0.8061371709194824
    x0 r33 -0.25608119773327065
    x0 d33 -0.2560811977334649
    x0 r34 -0.9032563572454442
    x0 d34 -0.903256357245879
    x0 r35 -0.6734621167944024
    x0 d35 -0.6734621167939533
    x0 r37 -0.40515244368651526
    x0 d37 -0.4051524436861258
    x0 r43 -0.06428486055533722
    x0 d43 -0.06428486055535022
    x0 r47 -0.13426492493118314
    x0 d47 -0.13426492493111628
    x0 r48 0.9390850697820514
    x0 d48 0.9390850697815166
    x0 r51 0.13109163821627168
    x0 d51 0.13109163821623482
    x0 r55 -0.29538591254316926
    x0 d55 -0.2953859125430351
    x0 r64 0.5395369201791338
    x0 d64 0.5395369201787443
    x0 r68 0.12262521085665301
    x0 d68 0.12262521085661288
    x0 r69 -0.1776359628857651
    x0 d69 -0.177635962885713
    x0 r71 0.35736933682807304
    x0 d71 0.35736933682771593
    x0 r73 -0.724708002949487
    x0 d73 -0.7247080029495275
    x0 r77 0.8096577481467708
    x0 d77 0.8096577481460954
    x0 r83 -0.29972330995475605
    x0 d83 -0.29972330995453345
    x0 r85 0.3915364660617644
    x0 d85 0.39153646606210235
    x0 r87 -0.43396290564126305
    x0 d87 -0.4339629056415422
    x0 r90 0.7889960987259366
    x0 d90 0.7889960987265819
    x0 r93 -0.720163748595255
    x0 d93 -0.7201637485952903
    x0 r98 0.894787141817196
    x0 d98 0.8947871418177207
    x1 OBJ -0.6983016521509962
    x1 r1 0.04813142510963919
    x1 d1 0.04813142510960867
    x1 r3 0.5147277958142786
    x1 d3 0.5147277958144771
    x1 r7 0.3759679977223167
    x1 d7 0.37596799772195805
    x1 r9 0.36196486949676543
    x1 d9 0.36196486949700085
    x1 r10 0.0543866158881563
    x1 d10 0.05438661588818324
    x1 r14 0.49609989668229426
    x1 d14 0.49609989668262394
    x1 r17 0.4843876060314656
    x1 d17 0.4843876060315956
    x1 r20 -0.7984495051735168
    x1 d20 -0.7984495051742097
    x1 r21 -0.9896212520524423
    x1 d21 -0.9896212520531548
    x1 r22 0.4194486747990942
    x1 d22 0.41944867479889
    x1 r23 0.31318506374711896
    x1 d23 0.31318506374719385
    x1 r30 0.9475905304484682
    x1 d30 0.9475905304490956
    x1 r32 -0.8647183305141666
    x1 d32 -0.8647183305136286
    x1 r34 0.4953291201425094
    x1 d34 0.495329120142974
    x1 r42 -0.7748897592576582
    x1 d42 -0.7748897592574031
    x1 r45 -0.6821241190808074
    x1 d45 -0.6821241190809745
    x1 r46 0.26189496688059144
    x1 d46 0.2618949668806221
    x1 r47 -0.18128737344780999
    x1 d47 -0.18128737344766985
    x1 r48 -0.7205059942908143
    x1 d48 -0.7205059942912858
    x1 r50 -0.4075469904893332
    x1 d50 -0.4075469904894882
    x1 r55 0.6057928749516099
    x1 d55 0.605792874951235
    x1 r60 0.016517628012041374
    x1 d60 0.016517628012050638
    x1 r66 -0.4190450161485142
    x1 d66 -0.41904501614810685
    x1 r67 -0.4078638852385308
    x1 d67 -0.40786388523852507
    x1 r72 -0.5206362555233135
    x1 d72 -0.5206362555233899
    x1 r76 -0.5343588831558796
    x1 d76 -0.5343588831562273
    x1 r80 -0.133721463870496
    x1 d80 -0.13372146387048223
    x1 r82 -0.6678150705967585
    x1 d82 -0.6678150705968149
    x1 r88 -0.5486523777705781
    x1 d88 -0.5486523777709729
    x1 r89 -0.1974705993012611
    x1 d89 -0.19747059930134384
    x1 r91 0.11247500877474259
    x1 d91 0.11247500877485382
    x1 r93 0.11559534203642285
    x1 d93 0.11559534203637563
    x1 r94 0.48039837365257343
    x1 d94 0.48039837365242183
    x1 r97 0.9333248946217501
    x1 d97 0.9333248946213598
    x2 OBJ 0.3018689460797075
    x2 r2 0.19229413136401918
    x2 d2 0.1922941313640942
    x2 r3 -0.3617222407979399
    x2 d3 -0.36172224079796217
    x2 r4 0.17290233035012625
    x2 d4 0.17290233035006536
    x2 r6 -0.6351801595066502
    x2 d6 -0.6351801595061605
    x2 r7 -0.1136232519633198
    x2 d7 -0.11362325196324356
    x2 r10 -0.6493066533842449
    x2 d10 -0.6493066533848271
    x2 r11 0.7780418034320304
    x2 d11 0.778041803431601
    x2 r13 -0.48968545328345936
    x2 d13 -0.48968545328354757
    x2 r17 0.8891071327974698
    x2 d17 0.8891071327975292
    x2 r18 0.5328756895949964
    x2 d18 0.5328756895947319
    x2 r20 0.611408395352991
    x2 d20 0.6114083953535374
    x2 r26 -0.15866380734587082
    x2 d26 -0.15866380734597887
    x2 r28 -0.04495413272645399
    x2 d28 -0.04495413272644995
    x2 r31 -0.0388806445948926
    x2 d31 -0.03888064459487363
    x2 r33 -0.9142270162630426
    x2 d33 -0.9142270162621707
    x2 r34 0.9723722376222688
    x2 d34 0.972372237621976
    x2 r39 0.14983866692438075
    x2 d39 0.14983866692442518
    x2 r41 -0.0755102313295386
    x2 d41 -0.07551023132957466
    x2 r42 -0.3338230225035068
    x2 d42 -0.33382302250340296
    x2 r43 -0.2171724534973023
    x2 d43 -0.21717245349713485
    x2 r50 -0.9421358984093806
    x2 d50 -0.9421358984102058
    x2 r60 -0.26914269385218015
    x2 d60 -0.2691426938520234
    x2 r63 0.121248443654415
    x2 d63 0.12124844365452951
    x2 r64 -0.7099766113738035
    x2 d64 -0.7099766113733991
    x2 r66 -0.6498303527587179
    x2 d66 -0.6498303527585055
    x2 r73 0.7872273701451948
    x2 d73 0.7872273701450501
    x2 r76 0.13112551459253874
    x2 d76 0.1311255145925953
    x2 r77 0.48776858320600813
    x2 d77 0.48776858320602046
    x2 r78 0.3172153104694435
    x2 d78 0.31721531046953777
    x2 r82 0.24345494574302884
    x2 d82 0.24345494574311727
    x2 r84 0.017199379325553155
    x2 d84 0.017199379325550986
    x2 r85 0.8559099363270639
    x2 d85 0.8559099363273381
    x2 r87 0.6707971049178421
    x2 d87 0.6707971049180129
    x2 r88 0.6368188973617008
    x2 d88 0.6368188973622388
    x2 r89 0.21464970478383827
    x2 d89 0.2146497047836606
    x2 r96 -0.7575683330384535
    x2 d96 -0.7575683330381676
    x3 OBJ -0.8551274266649145
    x3 r1 0.640434021229568
    x3 d1 0.6404340212299555
    x3 r5 -0.42114275074547547
    x3 d5 -0.42114275074531043
    x3 r8 0.42285671051682505
    x3 d8 0.4228567105166344
    x3 r16 -0.6540168364723016
    x3 d16 -0.6540168364728723
    x3 r19 0.4220684817978664
    x3 d19 0.4220684817978035
    x3 r25 0.9106696843986395
    x3 d25 0.9106696843986155
    x3 r27 0.3133407787501441
    x3 d27 0.31334077875041977
    x3 r28 0.1563764452358276
    x3 d28 0.15637644523576247
    x3 r34 0.5984905460599041
    x3 d34 0.5984905460596622
    x3 r35 0.9938973767730994
    x3 d35 0.9938973767732757
    x3 r38 -0.5323655773730935
    x3 d38 -0.5323655773732248
    x3 r46 0.1774525859936753
    x3 d46 0.17745258599385252
    x3 r49 -0.3750002203713212
    x3 d49 -0.3750002203714932
    x3 r52 0.9507761754816324
    x3 d52 0.9507761754808884
    x3 r57 0.43284540781465797
    x3 d57 0.43284540781460057
    x3 r58 0.23905863260278526
    x3 d58 0.23905863260271087
    x3 r62 0.8469751254087985
    x3 d62 0.8469751254087264
    x3 r64 -0.1838678861373475
    x3 d64 -0.18386788613752772
    x3 r65 0.20478759464309615
    x3 d65 0.2047875946432045
    x3 r68 0.9209592722763356
    x3 d68 0.9209592722755703
    x3 r69 0.2382713266659673
    x3 d69 0.23827132666576825
    x3 r74 0.8951979845261777
    x3 d74 0.8951979845264727
    x3 r82 -0.9995766896741547
    x3 d82 -0.9995766896734756
    x3 r84 0.37566820250829935
    x3 d84 0.3756682025083885
    x3 r87 0.051482608057710655
    x3 d87 0.0514826080577321
    x3 r89 0.07191879271134383
    x3 d89 0.07191879271129854
    x3 r93 -0.8020791796376665
    x3 d93 -0.8020791796373105
    x3 r94 0.9170473400323638
    x3 d94 0.9170473400329416
    x3 r96 -0.9960718129617092
    x3 d96 -0.9960718129608214
    x3 r97 0.23599270304837727
    x3 d97 0.23599270304839723
    x3 r98 -0.4596667508896901
    x3 d98 -0.4596667508896683
    x4 OBJ 0.0717640086133784
    x4 r2 -0.26258289307331206
    x4 d2 -0.2625828930734934
    x4 r3 -0.48659546777460805
    x4 d3 -0.48659546777484347
    x4 r7 -0.9201138190825369
    x4 d7 -0.9201138190821101
    x4 r9 0.3820297382463316
    x4 d9 0.3820297382465489
    x4 r11 -0.3532677391402419
    x4 d11 -0.3532677391400256
    x4 r14 0.7458548204434241
    x4 d14 0.7458548204428299
    x4 r19 -0.4517022766281813
    x4 d19 -0.45170227662856194
    x4 r30 0.44050943170773293
    x4 d30 0.4405094317076641
    x4 r32 -0.05989370209071132
    x4 d32 -0.0598937020907561
    x4 r33 -0.8906078313368757
    x4 d33 -0.8906078313367273
    x4 r37 0.2260330680953213
    x4 d37 0.22603306809541124
    x4 r40 0.6121523258048946
    x4 d40 0.6121523258044299
    x4 r48 0.39264756244794374
    x4 d48 0.39264756244817384
    x4 r52 -0.908698088563977
    x4 d52 -0.9086980885630792
    x4 r55 0.9640571926354802
    x4 d55 0.9640571926346896
    x4 r58 -0.0012546615194597432
    x4 d58 -0.0012546615194599182
    x4 r59 0.8224577345490709
    x4 d59 0.8224577345491145
    x4 r67 0.08604146946982794
    x4 d67 0.08604146946980128
    x4 r68 0.3408084723474789
    x4 d68 0.34080847234736883
    x4 r71 0.6391877212008326
    x4 d71 0.6391877212005658
    x4 r72 -0.618900532646397
    x4 d72 -0.6189005326468304
    x4 r73 0.4814207641555006
    x4 d73 0.4814207641550296
    x4 r77 -0.36352718290579356
    x4 d77 -0.36352718290546715
    x4 r81 0.5275701672081625
    x4 d81 0.5275701672081631
    x4 r83 -0.8183374583049916
    x4 d83 -0.8183374583051077
    x4 r84 0.0538035270817494
    x4 d84 0.05380352708177526
    x4 r86 -0.02169825139115189
    x4 d86 -0.02169825139113202
    x4 r89 0.9000837506966315
    x4 d89 0.9000837506971033
    x4 r90 -0.3952456741814785
    x4 d90 -0.3952456741811902
    x4 r98 -0.031389299939386106
    x4 d98 -0.03138929993940135
    x4 r99 0.4900694335778395
    x4 d99 0.4900694335782274
    x5 OBJ -0.2686221661748289
    x5 r0 0.5782708620405528
    x5 d0 0.5782708620400105
    x5 r2 -0.5920471251029706
    x5 d2 -0.5920471251032213
    x5 r3 0.4315243774630424
    x5 d3 0.4315243774629894
    x5 r4 0.44535306922039486
    x5 d4 0.4453530692201784
    x5 r5 0.4529458281179146
    x5 d5 0.45294582811759304
    x5 r13 0.7090558948421597
    x5 d13 0.7090558948424112
    x5 r15 -0.8609953334957359
    x5 d15 -0.8609953334962519
    x5 r19 -0.7021770251821986
    x5 d19 -0.7021770251818484
    x5 r21 -0.13700213635755865
    x5 d21 -0.13700213635764608
    x5 r23 0.7377917704251271
    x5 d23 0.7377917704250332
    x5 r24 0.9160782812521588
    x5 d24 0.9160782812524637
    x5 r28 -0.027168219638547653
    x5 d28 -0.02716821963854502
    x5 r33 -0.8418898751981414
    x5 d33 -0.8418898751979371
    x5 r35 -0.6352311418712329
    x5 d35 -0.6352311418718013
    x5 r39 0.021774553011649767
    x5 d39 0.021774553011641454
    x5 r42 -0.037056864947448975
    x5 d42 -0.037056864947420325
    x5 r44 -0.6524816935622737
    x5 d44 -0.6524816935621607
    x5 r46 -0.8746429447583466
    x5 d46 -0.8746429447580089
    x5 r50 -0.6893675202741569
    x5 d50 -0.6893675202746533
    x5 r51 0.08353946274194457
    x5 d51 0.08353946274190362
    x5 r52 -0.19056318667833483
    x5 d52 -0.19056318667838196
    x5 r56 -0.8132486998162138
    x5 d56 -0.8132486998163478
    x5 r57 -0.9237459578607112
    x5 d57 -0.9237459578607619
    x5 r58 0.5574217540040507
    x5 d58 0.5574217540045541
    x5 r61 -0.9827075915190788
    x5 d61 -0.9827075915183224
    x5 r69 0.002027863066543789
    x5 d69 0.0020278630665429846
    x5 r72 -0.3587386418623142
    x5 d72 -0.35873864186241217
    x5 r74 -0.06587024545010078
    x5 d74 -0.06587024545008868
    x5 r76 0.29650982682984206
    x5 d76 0.296509826829831
    x5 r78 -0.5958847071192253
    x5 d78 -0.5958847071193156
    x5 r79 0.8860292925341802
    x5 d79 0.8860292925346872
    x5 r83 -0.6096475052022017
    x5 d83 -0.609647505202714
    x5 r85 0.004000116230007844
    x5 d85 0.00400011623000949
    x5 r86 0.09751678130260255
    x5 d86 0.09751678130255757
    x5 r87 -0.1898667170783057
    x5 d87 -0.18986671707832012
    x5 r90 -0.6387870020636457
    x5 d90 -0.6387870020636448
    x5 r92 0.8201656728416502
    x5 d92 0.8201656728412025
    x5 r94 -0.6764826875144765
    x5 d94 -0.6764826875142187
    x5 r97 -0.37837928547141897
    x5 d97 -0.3783792854717876
    x6 OBJ -0.8840021504505864
    x6 r2 0.19884673852068846
    x6 d2 0.1988467385205954
    x6 r5 0.957262361642859
    x6 d5 0.9572623616430034
    x6 r7 0.4459005947782011
    x6 d7 0.4459005947783834
    x6 r10 -0.29539214557048754
    x6 d10 -0.2953921455707357
    x6 r12 -0.5462205556682713
    x6 d12 -0.5462205556683033
    x6 r15 -0.3367286212073515
    x6 d15 -0.3367286212070852
    x6 r16 0.28912735733035877
    x6 d16 0.2891273573300842
    x6 r17 -0.871979526100412
    x6 d17 -0.8719795261007693
    x6 r20 -0.45505354389422625
    x6 d20 -0.45505354389456937
    x6 r21 0.17593355634613572
    x6 d21 0.17593355634625277
    x6 r28 0.2929003929181402
    x6 d28 0.29290039291787795
    x6 r32 0.25811656001015315
    x6 d32 0.2581165600100907
    x6 r33 0.1576964895652897
    x6 d33 0.15769648956514412
    x6 r36 0.6268990109294248
    x6 d36 0.626899010929234
    x6 r37 0.13402403609180835
    x6 d37 0.13402403609181973
    x6 r44 0.12419415835857528
    x6 d44 0.12419415835856572
    x6 r46 0.48743592170914374
    x6 d46 0.4874359217087247
    x6 r48 0.8973610938789089
    x6 d48 0.8973610938791531
    x6 r50 0.7815803073116434
    x6 d50 0.7815803073115836
    x6 r53 0.175300831810969
    x6 d53 0.17530083181082023
    x6 r62 0.12314539963425108
    x6 d62 0.12314539963419029
    x6 r67 0.747170111884583
    x6 d67 0.7471701118849747
    x6 r70 0.9624859512295811
    x6 d70 0.9624859512296962
    x6 r73 -0.3725767975459142
    x6 d73 -0.3725767975456386
    x6 r74 -0.10347039748227305
    x6 d74 -0.10347039748230533
    x6 r81 0.9055560058103838
    x6 d81 0.905556005810561
    x6 r85 0.3655503447434496
    x6 d85 0.3655503447436892
    x6 r91 0.31538898330367404
    x6 d91 0.31538898330364584
    x6 r94 0.46373545677202066
    x6 d94 0.4637354567719308
    x6 r96 -0.20901245192944895
    x6 d96 -0.20901245192962448
    x6 r97 0.8398848394684548
    x6 d97 0.8398848394678838
    x6 r98 0.42748956794109905
    x6 d98 0.4274895679407501
    x6 r99 -0.9465930924889099
    x6 d99 -0.9465930924893069
    x7 OBJ 0.014871466378840514
    x7 r1 0.7954113912007992
    x7 d1 0.7954113912011785
    x7 r5 0.614046149071938
    x7 d5 0.6140461490720382
    x7 r7 0.6816462071350269
    x7 d7 0.6816462071346429
    x7 r10 0.10535344085948983
    x7 d10 0.10535344085953671
    x7 r13 0.48948728812731357
    x7 d13 0.489487288127157
    x7 r15 0.29765968142210686
    x7 d15 0.297659681421964
    x7 r16 0.2260987873436746
    x7 d16 0.22609878734377592
    x7 r19 0.5895487462187705
    x7 d19 0.589548746219334
    x7 r20 0.9695660885994799
    x7 d20 0.9695660885990082
    x7 r32 0.8096278126954859
    x7 d32 0.809627812695584
    x7 r34 0.657335334012602
    x7 d34 0.6573353340131061
    x7 r39 -0.2124437984087557
    x7 d39 -0.21244379840868827
    x7 r41 -0.23363233200803202
    x7 d41 -0.23363233200798453
    x7 r42 -0.10467187189914728
    x7 d42 -0.1046718718992107
    x7 r43 0.43992128836873445
    x7 d43 0.43992128836868627
    x7 r44 -0.3788333349332489
    x7 d44 -0.37883333493305904
    x7 r46 -0.43633250822877323
    x7 d46 -0.4363325082290024
    x7 r48 0.7353075674743936
    x7 d48 0.7353075674743503
    x7 r52 0.8862926585820983
    x7 d52 0.8862926585812156
    x7 r54 0.46085018843112224
    x7 d54 0.4608501884308001
    x7 r55 -0.8672607070343601
    x7 d55 -0.8672607070348121
    x7 r59 0.1087013998606432
    x7 d59 0.10870139986056118
    x7 r60 0.03896475923156495
    x7 d60 0.03896475923156297
    x7 r62 -0.746132247548793
    x7 d62 -0.7461322475480497
    x7 r67 0.5962765038271189
    x7 d67 0.5962765038270768
    x7 r68 0.5769232806314648
    x7 d68 0.5769232806314025
    x7 r69 0.40468300758812137
    x7 d69 0.4046830075880897
    x7 r72 0.22833691089367725
    x7 d72 0.2283369108935092
    x7 r74 0.8598696359315077
    x7 d74 0.8598696359307598
    x7 r77 -0.9468361416982156
    x7 d77 -0.9468361416976141
    x7 r81 -0.7910162975032078
    x7 d81 -0.7910162975037535
    x7 r82 -0.7689724459654907
    x7 d82 -0.7689724459657041
    x7 r83 -0.2987659436023069
    x7 d83 -0.2987659436023507
    x7 r89 -0.6165151074343731
    x7 d89 -0.6165151074348777
    x7 r90 -0.8897637331087536
    x7 d90 -0.8897637331090456
    x7 r98 0.605306677262581
    x7 d98 0.6053066772630518
    x8 OBJ -0.9250086831160302
    x8 r2 -0.977240326719983
    x8 d2 -0.977240326720088
    x8 r4 -0.39918720560520127
    x8 d4 -0.3991872056049012
    x8 r6 -0.17716474815109784
    x8 d6 -0.1771647481510232
    x8 r14 -0.8881082808904375
    x8 d14 -0.888108280891205
    x8 r16 0.019066406334279584
    x8 d16 0.019066406334274578
    x8 r19 0.24599530024242755
    x8 d19 0.24599530024244
    x8 r20 0.2247850653807273
    x8 d20 0.2247850653808716
    x8 r21 -0.8499147349680019
    x8 d21 -0.8499147349678003
    x8 r24 0.6702522180441051
    x8 d24 0.6702522180434447
    x8 r28 -0.5388460969889934
    x8 d28 -0.5388460969885421
    x8 r33 0.030639966182832046
    x8 d33 0.030639966182815004
    x8 r35 -0.523813537588903
    x8 d35 -0.5238135375888714
    x8 r41 -0.897222011093548
    x8 d41 -0.8972220110932232
    x8 r43 -0.8326355561800685
    x8 d43 -0.832635556179548
    x8 r44 0.07071375596629181
    x8 d44 0.07071375596625046
    x8 r45 0.3313235731340085
    x8 d45 0.3313235731338797
    x8 r51 -0.5838828271026959
    x8 d51 -0.5838828271021389
    x8 r54 -0.20729556227136148
    x8 d54 -0.20729556227129148
    x8 r56 -0.31639046086199296
    x8 d56 -0.31639046086178035
    x8 r59 0.8572880987842526
    x8 d59 0.8572880987839394
    x8 r60 0.5374374997980571
    x8 d60 0.5374374997981186
    x8 r63 -0.3182804180737362
    x8 d63 -0.3182804180735207
    x8 r65 -0.5717966816161169
    x8 d65 -0.5717966816163871
    x8 r66 0.06723102889475974
    x8 d66 0.06723102889472701
    x8 r67 0.9010152314711946
    x8 d67 0.901015231470299
    x8 r78 -0.6526488211427792
    x8 d78 -0.6526488211433278
    x8 r84 -0.6796480218403909
    x8 d84 -0.679648021840163
    x8 r87 -0.26627661828531646
    x8 d87 -0.2662766182852587
    x8 r90 0.17335460730819996
    x8 d90 0.17335460730805036
    x8 r93 -0.6800724692705062
    x8 d93 -0.6800724692710118
    x9 OBJ -0.13270863267522826
    x9 r1 -0.9928190566605395
    x9 d1 -0.9928190566611803
    x9 r4 -0.6201184120482026
    x9 d4 -0.6201184120481794
    x9 r5 -0.9961539389257887
    x9 d5 -0.9961539389249678
    x9 r11 -0.513174769216123
    x9 d11 -0.5131747692158346
    x9 r12 -0.5660641215728122
    x9 d12 -0.566064121573124
    x9 r13 -0.1631621262970291
    x9 d13 -0.16316212629717425
    x9 r14 -0.9564109246758827
    x9 d14 -0.956410924675438
    x9 r22 0.33836838399929037
    x9 d22 0.3383683839989733
    x9 r23 0.40817293385151654
    x9 d23 0.40817293385145514
    x9 r27 0.3002057614010514
    x9 d27 0.3002057614008544
    x9 r31 -0.14764597091847276
    x9 d31 -0.147645970918467
    x9 r35 -0.583081852800321
    x9 d35 -0.5830818528003893
    x9 r38 -0.05140110625362038
    x9 d38 -0.05140110625366934
    x9 r44 0.6453510883570879
    x9 d44 0.6453510883568465
    x9 r46 0.16144508289911785
    x9 d46 0.1614450828991915
    x9 r47 0.6868775235976956
    x9 d47 0.6868775235979032
    x9 r49 0.05322285514782932
    x9 d49 0.05322285514781304
    x9 r52 0.5610968967939809
    x9 d52 0.5610968967939911
    x9 r54 0.7943832226841614
    x9 d54 0.7943832226844478
    x9 r55 0.26642597225366504
    x9 d55 0.2664259722534148
    x9 r59 -0.7982599886415491
    x9 d59 -0.7982599886410402
    x9 r66 0.331491277397139
    x9 d66 0.3314912773973028
    x9 r74 -0.7463620368145736
    x9 d74 -0.746362036814507
    x9 r76 -0.6345786424845521
    x9 d76 -0.6345786424846971
    x9 r77 0.6156329132159364
    x9 d77 0.6156329132162572
    x9 r79 0.6334836078942583
    x9 d79 0.6334836078947002
    x9 r80 -0.8306792175930948
    x9 d80 -0.8306792175935402
    x9 r85 0.010705949551503835
    x9 d85 0.01070594955149394
    x9 r86 0.9110746957903881
    x9 d86 0.9110746957896447
    x9 r87 0.1309452086090801
    x9 d87 0.13094520860899306
    x9 r89 0.7808795042569343
    x9 d89 0.7808795042568407
    x9 r91 -0.29241023271686384
    x9 d91 -0.29241023271699107
    x9 r92 -0.6065463638778532
    x9 d92 -0.6065463638776658
    x9 r96 -0.5215266111019854
    x9 d96 -0.5215266111024561
    x9 r97 0.29472370632521905
    x9 d97 0.29472370632537226
    x10 OBJ -0.8602891528507621
    x10 r8 0.04664465084126834
    x10 d8 0.046644650841251925
    x10 r9 -0.33132819547876124
    x10 d9 -0.331328195479007
    x10 r12 -0.12196898496964148
    x10 d12 -0.12196898496954542
    x10 r17 -0.006222616293994898
    x10 d17 -0.0062226162940004605
    x10 r19 -0.5650699647864206
    x10 d19 -0.5650699647866262
    x10 r20 -0.12798888475139858
    x10 d20 -0.1279888847512753
    x10 r21 -0.55409183951016
    x10 d21 -0.5540918395106432
    x10 r23 0.9680979525154902
    x10 d23 0.9680979525148043
    x10 r24 -0.1878303171213771
    x10 d24 -0.18783031712135592
    x10 r25 0.9806187141813707
    x10 d25 0.9806187141818965
    x10 r27 0.6498089308221631
    x10 d27 0.6498089308218888
    x10 r34 -0.8279311622927246
    x10 d34 -0.8279311622932773
    x10 r35 -0.1650182450456119
    x10 d35 -0.1650182450456777
    x10 r36 0.8157906414977503
    x10 d36 0.8157906414984636
    x10 r41 -0.555605301352839
    x10 d41 -0.55560530135313
    x10 r43 -0.08228398728122799
    x10 d43 -0.08228398728116475
    x10 r44 -0.2863723254382389
    x10 d44 -0.28637232543807484
    x10 r49 -0.3588620221379175
    x10 d49 -0.35886202213777585
    x10 r51 -0.5399255887813266
    x10 d51 -0.5399255887816843
    x10 r52 0.42413300162786727
    x10 d52 0.42413300162777356
    x10 r54 -0.2017786391175811
    x10 d54 -0.2017786391176139
    x10 r55 0.8427913259910602
    x10 d55 0.8427913259902355
    x10 r60 -0.3634145996163025
    x10 d60 -0.3634145996161419
    x10 r61 -0.7767507273312984
    x10 d61 -0.7767507273311333
    x10 r65 0.2680006808230062
    x10 d65 0.26800068082310796
    x10 r66 0.8322741206152591
    x10 d66 0.8322741206149912
    x10 r67 0.7704784879167668
    x10 d67 0.7704784879159985
    x10 r69 -0.9496188593327555
    x10 d69 -0.9496188593326544
    x10 r71 0.5695041670114154
    x10 d71 0.5695041670116957
    x10 r75 0.4915432688950907
    x10 d75 0.49154326889462224
    x10 r76 -0.9576421470216709
    x10 d76 -0.95764214702141
    x10 r77 0.013720271064573408
    x10 d77 0.013720271064585123
    x10 r88 0.022889688189873914
    x10 d88 0.02288968818987308
    x10 r89 -0.2503522289464073
    x10 d89 -0.25035222894649367
    x10 r92 0.6550367577107674
    x10 d92 0.6550367577113306
    x11 OBJ -0.8185739733122699
    x11 r2 -0.375608532459516
    x11 d2 -0.37560853245946796
    x11 r7 0.3232501604452469
    x11 d7 0.32325016044518196
    x11 r12 -0.6169383629494356
    x11 d12 -0.6169383629489051
    x11 r16 -0.033241186548579105
    x11 d16 -0.03324118654855781
    x11 r17 -0.1258119043500927
    x11 d17 -0.12581190434997042
    x11 r24 0.16179583167784362
    x11 d24 0.1617958316779956
    x11 r26 0.234105426534434
    x11 d26 0.23410542653450012
    x11 r33 0.24820056459632656
    x11 d33 0.24820056459656933
    x11 r34 0.94391998707411
    x11 d34 0.9439199870748435
    x11 r35 0.32590505711993734
    x11 d35 0.32590505712017137
    x11 r43 -0.1109824596178719
    x11 d43 -0.110982459617958
    x11 r45 -0.20545620809376386
    x11 d45 -0.20545620809365958
    x11 r46 0.3570428579442062
    x11 d46 0.3570428579444327
    x11 r48 -0.5979825934157901
    x11 d48 -0.597982593415506
    x11 r51 0.37930706971631833
    x11 d51 0.3793070697165219
    x11 r52 0.5994448389383844
    x11 d52 0.5994448389388233
    x11 r57 0.08702096886247568
    x11 d57 0.08702096886247554
    x11 r61 -0.5801216789489763
    x11 d61 -0.5801216789484182
    x11 r67 -0.5605403328155856
    x11 d67 -0.5605403328153759
    x11 r70 -0.5148610627334769
    x11 d70 -0.5148610627332934
    x11 r72 0.040431152493103806
    x11 d72 0.04043115249306408
    x11 r73 -0.9117288574009546
    x11 d73 -0.9117288574014082
    x11 r78 0.8013494310636278
    x11 d78 0.8013494310640351
    x11 r79 0.7532016718018604
    x11 d79 0.7532016718020733
    x11 r88 0.6288365299360408
    x11 d88 0.6288365299361328
    x11 r93 0.8525036656425078
    x11 d93 0.8525036656431817
    x11 r94 -0.33806492768065044
    x11 d94 -0.3380649276809284
    x11 r96 0.032407337986207985
    x11 d96 0.032407337986224465
    x12 OBJ -0.15096162171497207
    x12 r2 0.5905623360816423
    x12 d2 0.590562336081983
    x12 r3 -0.17415812565016298
    x12 d3 -0.17415812565029629
    x12 r5 -0.12950123786109846
    x12 d5 -0.12950123786120726
    x12 r6 -0.3910867512588785
    x12 d6 -0.39108675125876935
    x12 r8 -0.9819193846265661
    x12 d8 -0.9819193846260591
    x12 r9 0.9773613294792907
    x12 d9 0.9773613294788978
    x12 r11 0.18244340833427208
    x12 d11 0.18244340833422984
    x12 r14 -0.6759416892064676
    x12 d14 -0.6759416892069819
    x12 r15 -0.6906039987195403
    x12 d15 -0.6906039987198893
    x12 r17 0.17135638483377003
    x12 d17 0.17135638483370846
    x12 r20 -0.670786174154637
    x12 d20 -0.6707861741545249
    x12 r24 0.40331368826925007
    x12 d24 0.40331368826901265
    x12 r26 -0.6149213915762348
    x12 d26 -0.614921391576777
    x12 r31 -0.9495072002467495
    x12 d31 -0.9495072002468895
    x12 r33 0.845493910714292
    x12 d33 0.845493910714899
    x12 r35 -0.46735575153285236
    x12 d35 -0.46735575153328873
    x12 r42 0.8372791219631006
    x12 d42 0.8372791219623145
    x12 r43 0.9922540799046087
    x12 d43 0.9922540799042696
    x12 r45 0.35661544086592567
    x12 d45 0.35661544086622077
    x12 r50 0.9674580786058813
    x12 d50 0.9674580786067625
    x12 r51 -0.4525390852305926
    x12 d51 -0.4525390852304255
    x12 r53 -0.10863484673993229
    x12 d53 -0.10863484674003447
    x12 r55 0.7215008402357497
    x12 d55 0.7215008402356642
    x12 r57 0.4178351100109947
    x12 d57 0.4178351100111796
    x12 r58 0.9010295750932391
    x12 d58 0.901029575092642
    x12 r61 -0.6576010791234783
    x12 d61 -0.6576010791239856
    x12 r65 0.301246451275351
    x12 d65 0.3012464512751968
    x12 r76 -0.023589088257318425
    x12 d76 -0.023589088257312006
    x12 r78 0.25330671949680306
    x12 d78 0.2533067194967468
    x12 r82 -0.05356081144381952
    x12 d82 -0.05356081144377779
    x12 r88 -0.4779687318283623
    x12 d88 -0.4779687318283123
    x12 r91 -0.847378665426525
    x12 d91 -0.8473786654267831
    x12 r92 0.2895907709994032
    x12 d92 0.28959077099934305
    x12 r96 0.7193383489329064
    x12 d96 0.7193383489327626
    x12 r99 0.22472173576976284
    x12 d99 0.22472173576964083
    x13 OBJ 0.6537042493440761
    x13 r0 -0.7459232654042713
    x13 d0 -0.7459232654037239
    x13 r1 -0.31207970714410926
    x13 d1 -0.3120797071442795
    x13 r9 -0.47531363238968716
    x13 d9 -0.47531363239012536
    x13 r11 -0.6001895600551834
    x13 d11 -0.6001895600550218
    x13 r13 0.5268524327029771
    x13 d13 0.5268524327030292
    x13 r14 0.21851717468974674
    x13 d14 0.21851717468975354
    x13 r16 -0.382650668904005
    x13 d16 -0.38265066890392463
    x13 r17 -0.4503707194559152
    x13 d17 -0.45037071945625423
    x13 r24 0.3796764087914739
    x13 d24 0.3796764087914492
    x13 r26 -0.295793623788549
    x13 d26 -0.29579362378865653
    x13 r29 0.04164318528849442
    x13 d29 0.041643185288461365
    x13 r30 0.7915978783643407
    x13 d30 0.7915978783642408
    x13 r33 0.10875970514115707
    x13 d33 0.10875970514113983
    x13 r34 0.05068027953001675
    x13 d34 0.05068027953001021
    x13 r41 -0.9911610016310592
    x13 d41 -0.9911610016314475
    x13 r43 -0.11272041399139687
    x13 d43 -0.11272041399150014
    x13 r47 -0.444745101099165
    x13 d47 -0.4447451010987621
    x13 r49 0.6006182712952455
    x13 d49 0.6006182712956104
    x13 r58 0.3014797780685283
    x13 d58 0.3014797780683579
    x13 r65 0.9267270228404989
    x13 d65 0.9267270228398183
    x13 r75 -0.7079087280307499
    x13 d75 -0.7079087280311079
    x13 r80 -0.5815814694596093
    x13 d80 -0.581581469459439
    x13 r82 0.19447213638969463
    x13 d82 0.19447213638977007
    x13 r83 0.14570996962228633
    x13 d83 0.14570996962224758
    x13 r86 0.5033694660308543
    x13 d86 0.5033694660308362
    x13 r92 0.2600630400306918
    x13 d92 0.2600630400308106
    x13 r95 -0.3175508864703698
    x13 d95 -0.3175508864703232
    x13 r96 -0.34754957756442484
    x13 d96 -0.34754957756461374
    x14 OBJ -0.7523960777007088
    x14 r0 0.8097041914664787
    x14 d0 0.809704191466253
    x14 r2 -0.7972244650744815
    x14 d2 -0.7972244650745185
    x14 r5 0.14267969400713532
    x14 d5 0.14267969400708505
    x14 r10 0.24803539113896633
    x14 d10 0.24803539113907522
    x14 r22 -0.05971382314263152
    x14 d22 -0.05971382314264824
    x14 r25 0.19616741491957002
    x14 d25 0.19616741491962517
    x14 r29 -0.6583398256246806
    x14 d29 -0.6583398256240232
    x14 r31 0.7035282579548761
    x14 d31 0.7035282579543161
    x14 r33 -0.11101762942739346
    x14 d33 -0.11101762942747631
    x14 r34 0.5791877913255801
    x14 d34 0.57918779132548
    x14 r35 -0.897702808350848
    x14 d35 -0.8977028083505485
    x14 r36 -0.007985874304845098
    x14 d36 -0.007985874304849715
    x14 r48 -0.4656953478164294
    x14 d48 -0.4656953478167482
    x14 r52 -0.0003631805722290604
    x14 d52 -0.00036318057222908156
    x14 r55 -0.25152868256782956
    x14 d55 -0.2515286825679838
    x14 r57 -0.6472952350310919
    x14 d57 -0.6472952350310269
    x14 r60 0.5102456614669011
    x14 d60 0.5102456614673356
    x14 r64 -0.6726430583848606
    x14 d64 -0.6726430583849614
    x14 r66 0.8179457455412484
    x14 d66 0.8179457455406147
    x14 r67 0.8373465704714262
    x14 d67 0.8373465704719443
    x14 r69 0.3338379905164557
    x14 d69 0.3338379905163535
    x14 r70 0.391178827429955
    x14 d70 0.39117882742983145
    x14 r75 0.1776393770583362
    x14 d75 0.17763937705823526
    x14 r76 0.7645152095519436
    x14 d76 0.7645152095522109
    x14 r77 -0.42449228475590695
    x14 d77 -0.4244922847555787
    x14 r78 0.18892702373945602
    x14 d78 0.18892702373955145
    x14 r81 0.7734802628800723
    x14 d81 0.7734802628800903
    x14 r88 -0.9088225619491483
    x14 d88 -0.9088225619488145
    x14 r89 0.34859300342754906
    x14 d89 0.34859300342730465
    x14 r94 -0.7476763645532085
    x14 d94 -0.7476763645530764
    x14 r97 0.19146585904751934
    x14 d97 0.19146585904734006
    x15 OBJ -0.5535220707859709
    x15 r5 -0.6397402506820451
    x15 d5 -0.6397402506824844
    x15 r9 0.7177566334422869
    x15 d9 0.7177566334423323
    x15 r17 0.6023575442487425
    x15 d17 0.602357544248212
    x15 r18 -0.4967048972122423
    x15 d18 -0.4967048972122572
    x15 r26 0.7526434507280038
    x15 d26 0.7526434507286288
    x15 r27 0.38442389985082914
    x15 d27 0.38442389985073155
    x15 r29 -0.904943454213778
    x15 d29 -0.9049434542144943
    x15 r33 0.28191782877471305
    x15 d33 0.2819178287749432
    x15 r35 -0.990301456863137
    x15 d35 -0.9903014568624978
    x15 r36 -0.9274600432553806
    x15 d36 -0.9274600432550579
    x15 r42 0.3169158376502803
    x15 d42 0.3169158376500908
    x15 r47 0.9833508520044671
    x15 d47 0.9833508520052064
    x15 r48 0.5834670911741717
    x15 d48 0.5834670911743647
    x15 r53 -0.7943480504676135
    x15 d53 -0.7943480504683086
    x15 r58 -0.7422214090503696
    x15 d58 -0.7422214090506658
    x15 r64 -0.07091794009107577
    x15 d64 -0.07091794009108437
    x15 r68 0.09253970423886138
    x15 d68 0.0925397042389521
    x15 r69 -0.765520850864353
    x15 d69 -0.7655208508647192
    x15 r74 -0.09342284733785933
    x15 d74 -0.0934228473378513
    x15 r76 0.7735541036426758
    x15 d76 0.7735541036432454
    x15 r78 0.23033560868994618
    x15 d78 0.23033560869002995
    x15 r83 -0.2511577516953065
    x15 d83 -0.2511577516950788
    x15 r84 -0.38267158523217604
    x15 d84 -0.38267158523180167
    x15 r85 -0.22010635588621374
    x15 d85 -0.22010635588615107
    x15 r95 -0.17834902022469223
    x15 d95 -0.17834902022483376
    x15 r97 -0.7762306369282099
    x15 d97 -0.7762306369284423
    x16 OBJ 0.2548664448111786
    x16 r0 0.6530209570507741
    x16 d0 0.6530209570502581
    x16 r1 0.5014680823426338
    x16 d1 0.5014680823427414
    x16 r6 -0.004277351961042397
    x16 d6 -0.004277351961039886
    x16 r20 0.748345760935792
    x16 d20 0.7483457609364567
    x16 r21 -0.19540610207636644
    x16 d21 -0.19540610207627268
    x16 r26 0.900785004354882
    x16 d26 0.900785004354191
    x16 r28 -0.07953821681089224
    x16 d28 -0.07953821681094453
    x16 r30 -0.7522970172529988
    x16 d30 -0.7522970172523877
    x16 r31 0.04187116830907622
    x16 d31 0.041871168309089525
    x16 r38 0.020973760670224717
    x16 d38 0.020973760670223277
    x16 r41 0.856010570942259
    x16 d41 0.8560105709420224
    x16 r42 -0.0772673802732966
    x16 d42 -0.07726738027335732
    x16 r43 0.6955800600344231
    x16 d43 0.6955800600347543
    x16 r47 -0.5835093290587616
    x16 d47 -0.58350932905932
    x16 r49 0.03353797613227738
    x16 d49 0.033537976132298974
    x16 r50 -0.8796987953109598
    x16 d50 -0.879698795311035
    x16 r52 -0.15497588670571139
    x16 d52 -0.154975886705602
    x16 r53 0.5845057759022403
    x16 d53 0.5845057759019595
    x16 r56 -0.33249041575447613
    x16 d56 -0.33249041575454014
    x16 r57 -0.7757790301735739
    x16 d57 -0.7757790301735299
    x16 r60 -0.8420142394337213
    x16 d60 -0.8420142394344465
    x16 r65 -0.9254975553404923
    x16 d65 -0.925497555340578
    x16 r68 -0.6310778722039312
    x16 d68 -0.6310778722035332
    x16 r69 -0.6325070114299451
    x16 d69 -0.6325070114304914
    x16 r73 0.7139914199468747
    x16 d73 0.7139914199462248
    x16 r77 0.4326987475280084
    x16 d77 0.4326987475281785
    x16 r78 0.10759700440016418
    x16 d78 0.1075970044001116
    x16 r82 -0.007030331587837724
    x16 d82 -0.007030331587842785
    x16 r83 0.6489905611072992
    x16 d83 0.6489905611078539
    x16 r86 -0.008101043348722747
    x16 d86 -0.008101043348726059
    x16 r89 0.9827477291027722
    x16 d89 0.9827477291024272
    x16 r91 -0.977481301898272
    x16 d91 -0.9774813018985175
    x16 r92 -0.5296692503284508
    x16 d92 -0.5296692503287825
    x16 r93 -0.374588758316333
    x16 d93 -0.3745887583166912
    x17 OBJ 0.8954178849140113
    x17 r12 0.8967922104032311
    x17 d12 0.8967922104030285
    x17 r17 -0.7701298249272908
    x17 d17 -0.770129824927738
    x17 r18 0.7190837170481341
    x17 d18 0.7190837170478035
    x17 r20 -0.6518024201590009
    x17 d20 -0.651802420158681
    x17 r22 -0.03198796399009218
    x17 d22 -0.03198796399009683
    x17 r24 0.3659121847709417
    x17 d24 0.3659121847706325
    x17 r27 -0.45905486656812
    x17 d27 -0.4590548665682485
    x17 r34 0.799714377415907
    x17 d34 0.7997143774166224
    x17 r35 -0.0409264087769774
    x17 d35 -0.040926408777011494
    x17 r36 -0.14644031822906767
    x17 d36 -0.14644031822915832
    x17 r42 -0.1727503928717231
    x17 d42 -0.17275039287169036
    x17 r49 0.5493720665972468
    x17 d49 0.5493720665970406
    x17 r50 -0.6590672701190035
    x17 d50 -0.6590672701190882
    x17 r53 0.0707607012148701
    x17 d53 0.0707607012148233
    x17 r58 0.04865024071246293
    x17 d58 0.04865024071248335
    x17 r59 0.051268964334534095
    x17 d59 0.05126896433451174
    x17 r60 -0.6916044278256808
    x17 d60 -0.6916044278257658
    x17 r62 -0.6393099518334138
    x17 d62 -0.639309951833967
    x17 r64 0.04324972967210683
    x17 d64 0.04324972967212958
    x17 r67 0.8086173597552893
    x17 d67 0.8086173597557832
    x17 r68 0.834377688836317
    x17 d68 0.8343776888355644
    x17 r71 -0.46047908879227006
    x17 d71 -0.460479088792247
    x17 r73 0.5865573170178251
    x17 d73 0.5865573170180554
    x17 r74 -0.1206381858868153
    x17 d74 -0.12063818588680424
    x17 r79 -0.8426092687193756
    x17 d79 -0.8426092687192945
    x17 r81 -0.49635139526084804
    x17 d81 -0.4963513952604877
    x17 r84 0.7673770611908248
    x17 d84 0.7673770611906094
    x17 r85 -0.9471437177782436
    x17 d85 -0.9471437177787447
    x17 r86 0.5835379481333467
    x17 d86 0.5835379481337949
    x17 r96 0.7130516360905348
    x17 d96 0.7130516360898599
    x17 r97 0.900744570948887
    x17 d97 0.9007445709481157
    x17 r99 -0.2789612583907537
    x17 d99 -0.2789612583904821
    x18 OBJ 0.15420589723499734
    x18 r1 0.852797719772773
    x18 d1 0.8527977197724793
    x18 r2 -0.672621363434611
    x18 d2 -0.6726213634342952
    x18 r3 0.7244786445473104
    x18 d3 0.7244786445473902
    x18 r5 -0.8414665784095097
    x18 d5 -0.8414665784100788
    x18 r6 0.2936227604085908
    x18 d6 0.29362276040833263
    x18 r8 0.5131765153867784
    x18 d8 0.5131765153871214
    x18 r12 -0.04589786568712606
    x18 d12 -0.04589786568712455
    x18 r15 -0.9091679975723841
    x18 d15 -0.9091679975722757
    x18 r20 0.02761320045749094
    x18 d20 0.027613200457483604
    x18 r22 -0.6566323423483762
    x18 d22 -0.6566323423489334
    x18 r23 -0.1592370374928478
    x18 d23 -0.1592370374928631
    x18 r25 -0.043218912478558025
    x18 d25 -0.043218912478593434
    x18 r28 -0.21130486536447912
    x18 d28 -0.21130486536458887
    x18 r30 -0.1201513989185723
    x18 d30 -0.12015139891851521
    x18 r31 0.911492681692907
    x18 d31 0.9114926816932899
    x18 r36 0.8642142249166618
    x18 d36 0.8642142249158158
    x18 r43 -0.1398391761398705
    x18 d43 -0.13983917613989502
    x18 r44 0.3779186280262281
    x18 d44 0.37791862802632326
    x18 r46 -0.384428956176756
    x18 d46 -0.3844289561766575
    x18 r50 -0.21394833560285087
    x18 d50 -0.21394833560288318
    x18 r52 0.9228951711031554
    x18 d52 0.9228951711025009
    x18 r54 0.9864516520803068
    x18 d54 0.9864516520807272
    x18 r57 0.3610281161770359
    x18 d57 0.36102811617680425
    x18 r59 0.5807282593009877
    x18 d59 0.5807282593005841
    x18 r62 0.5490919347948642
    x18 d62 0.5490919347945464
    x18 r67 0.58501886453097
    x18 d67 0.5850188645307757
    x18 r68 0.5846299836626367
    x18 d68 0.5846299836627081
    x18 r80 -0.8292469520047288
    x18 d80 -0.8292469520045141
    x18 r86 -0.6883901142192792
    x18 d86 -0.6883901142195369
    x18 r87 0.5750249946281107
    x18 d87 0.5750249946284334
    x18 r88 0.8398368080241232
    x18 d88 0.8398368080246505
    x18 r94 -0.8999582495083118
    x18 d94 -0.8999582495089775
    x18 r98 0.8468465248901083
    x18 d98 0.846846524890112
    x18 r99 -0.8081784435602799
    x18 d99 -0.8081784435595247
    x19 OBJ -0.20663905069843969
    x19 r3 0.6396223051415335
    x19 d3 0.6396223051412323
    x19 r5 0.21711153881027334
    x19 d5 0.21711153881047254
    x19 r7 -0.4085193573803674
    x19 d7 -0.40851935738012257
    x19 r8 -0.9440975096131878
    x19 d8 -0.9440975096124162
    x19 r9 -0.391020592324101
    x19 d9 -0.3910205923244498
    x19 r11 0.44895505486708
    x19 d11 0.448955054867207
    x19 r15 0.6949911525088093
    x19 d15 0.6949911525094945
    x19 r16 -0.11495511616790854
    x19 d16 -0.11495511616790885
    x19 r18 0.3944665494612134
    x19 d18 0.3944665494615164
    x19 r25 0.2159252756477088
    x19 d25 0.21592527564753142
    x19 r27 -0.4130810488684673
    x19 d27 -0.4130810488683465
    x19 r28 0.6899906947526031
    x19 d28 0.689990694752185
    x19 r30 0.44848532520188766
    x19 d30 0.4484853252022203
    x19 r31 -0.7029827349408859
    x19 d31 -0.7029827349404575
    x19 r39 -0.029494194647054606
    x19 d39 -0.029494194647025875
    x19 r44 0.298418998952384
    x19 d44 0.298418998952425
    x19 r45 0.308809245443717
    x19 d45 0.3088092454438056
    x19 r47 0.87876541397787
    x19 d47 0.8787654139784007
    x19 r49 0.9797218175610067
    x19 d49 0.9797218175605173
    x19 r54 0.6276881429674164
    x19 d54 0.6276881429669029
    x19 r59 0.1327808787989948
    x19 d59 0.13278087879904055
    x19 r60 -0.9756327398401057
    x19 d60 -0.9756327398391665
    x19 r63 0.6634618256205083
    x19 d63 0.6634618256206898
    x19 r66 0.8055273327191457
    x19 d66 0.8055273327191442
    x19 r68 0.14194533439463597
    x19 d68 0.14194533439451754
    x19 r74 0.9849045560547527
    x19 d74 0.9849045560552697
    x19 r76 0.39093612958667623
    x19 d76 0.3909361295865199
    x19 r77 -0.3535666427947852
    x19 d77 -0.3535666427949582
    x19 r80 -0.47565410334509717
    x19 d80 -0.4756541033447897
    x19 r81 -0.11258230689166582
    x19 d81 -0.11258230689160473
    x19 r82 -0.6399921909516628
    x19 d82 -0.6399921909512377
    x19 r86 -0.07413674218468325
    x19 d86 -0.07413674218469636
    x19 r87 -0.32571227892736654
    x19 d87 -0.3257122789273081
    x19 r88 0.4871965851478697
    x19 d88 0.4871965851478821
    x19 r90 -0.3424573665112107
    x19 d90 -0.34245736651155273
    x19 r94 -0.6564190396305776
    x19 d94 -0.6564190396309717
    x19 r95 -0.9198865516155292
    x19 d95 -0.9198865516155239
    x19 r96 -0.16117548793139802
    x19 d96 -0.16117548793123734
    x19 r98 -0.3780813501945022
    x19 d98 -0.3780813501946262
    x20 OBJ 0.9525102111858401
    x20 r3 -0.9974018853372972
    x20 d3 -0.9974018853367669
    x20 r8 -0.8796674230207264
    x20 d8 -0.8796674230209659
    x20 r11 -0.05868264780977639
    x20 d11 -0.05868264780977308
    x20 r13 -0.26832276133345956
    x20 d13 -0.26832276133340727
    x20 r14 -0.5347096102971642
    x20 d14 -0.5347096102969755
    x20 r19 0.09158775959348842
    x20 d19 0.09158775959346667
    x20 r21 -0.7969269800260392
    x20 d21 -0.7969269800261575
    x20 r23 -0.6843019083679249
    x20 d23 -0.6843019083676167
    x20 r34 0.908376486596508
    x20 d34 0.9083764865959677
    x20 r39 -0.401981172454559
    x20 d39 -0.4019811724547957
    x20 r44 -0.6258587235310842
    x20 d44 -0.6258587235313811
    x20 r46 -0.8018144418662063
    x20 d46 -0.8018144418667107
    x20 r48 0.07170123086433633
    x20 d48 0.0717012308643607
    x20 r51 -0.6324989315201897
    x20 d51 -0.6324989315199923
    x20 r56 0.956814019148768
    x20 d56 0.9568140191496951
    x20 r57 0.8159516200353236
    x20 d57 0.8159516200351685
    x20 r62 0.7599531310675369
    x20 d62 0.7599531310682451
    x20 r63 0.18016968271143852
    x20 d63 0.1801696827113696
    x20 r67 0.8678337287087801
    x20 d67 0.8678337287095842
    x20 r71 -0.041610801527742325
    x20 d71 -0.04161080152771342
    x20 r73 0.7073163639258047
    x20 d73 0.707316363925647
    x20 r74 0.20719035499748317
    x20 d74 0.20719035499753102
    x20 r75 -0.038993116889486146
    x20 d75 -0.038993116889516094
    x20 r76 -0.9575169964431556
    x20 d76 -0.9575169964425123
    x20 r78 0.793315019686373
    x20 d78 0.793315019686672
    x20 r80 -0.013474657764744213
    x20 d80 -0.01347465776473929
    x20 r83 -0.1296227460746171
    x20 d83 -0.12962274607467694
    x20 r86 -0.2591701306759717
    x20 d86 -0.25917013067599315
    x20 r90 -0.790558443108788
    x20 d90 -0.7905584431094266
    x20 r92 0.07457840491187384
    x20 d92 0.07457840491181428
    x20 r93 -0.9555450282432423
    x20 d93 -0.9555450282424169
    x20 r94 0.6382274031449684
    x20 d94 0.638227403145011
    x20 r95 -0.5010975646486577
    x20 d95 -0.5010975646481649
    x20 r97 -0.43312538884401053
    x20 d97 -0.4331253888439032
    x21 OBJ -0.9068346387644874
    x21 r0 -0.9715141236877889
    x21 d0 -0.9715141236884415
    x21 r1 -0.2555560012910165
    x21 d1 -0.25555600129092426
    x21 r2 -0.3848084745132123
    x21 d2 -0.3848084745133216
    x21 r3 0.5243620388287074
    x21 d3 0.5243620388283291
    x21 r4 0.334004351997246
    x21 d4 0.3340043519970246
    x21 r5 -0.5879361758077022
    x21 d5 -0.5879361758073545
    x21 r15 0.25037289843235033
    x21 d15 0.2503728984321455
    x21 r18 0.5568102792839149
    x21 d18 0.5568102792844031
    x21 r36 -0.07352505440689194
    x21 d36 -0.07352505440689854
    x21 r47 0.09221941774803333
    x21 d47 0.09221941774798863
    x21 r48 0.43686690307764686
    x21 d48 0.4368669030779272
    x21 r53 0.06260208017691604
    x21 d53 0.06260208017695289
    x21 r56 -0.22324358048574244
    x21 d56 -0.22324358048594867
    x21 r59 -0.8230824675317181
    x21 d59 -0.8230824675321744
    x21 r60 -0.9485633723455269
    x21 d60 -0.948563372345185
    x21 r62 -0.5940492784674787
    x21 d62 -0.5940492784674801
    x21 r65 -0.2144638599416131
    x21 d65 -0.214463859941592
    x21 r66 -0.0014236384194710183
    x21 d66 -0.0014236384194722832
    x21 r69 0.27981837755094285
    x21 d69 0.27981837755098554
    x21 r70 -0.31924666952538105
    x21 d70 -0.319246669525476
    x21 r75 0.7844912436160145
    x21 d75 0.784491243615746
    x21 r82 0.4984242820345275
    x21 d82 0.4984242820346155
    x21 r89 -0.8275356016887854
    x21 d89 -0.8275356016891839
    x21 r95 -0.6186471615856224
    x21 d95 -0.6186471615854856
    x21 r96 0.7502549199247774
    x21 d96 0.7502549199243669
    x21 r99 -0.8324321536110002
    x21 d99 -0.8324321536104158
    x22 OBJ 0.716936918097359
    x22 r15 0.013787255281589639
    x22 d15 0.013787255281588588
    x22 r19 0.6975505569643781
    x22 d19 0.6975505569640594
    x22 r28 0.3811874931249788
    x22 d28 0.3811874931248396
    x22 r29 -0.3406043806527397
    x22 d29 -0.3406043806524313
    x22 r30 -0.9056417923846576
    x22 d30 -0.9056417923842681
    x22 r33 0.016230544650147616
    x22 d33 0.016230544650159225
    x22 r34 0.9628736369092676
    x22 d34 0.9628736369086252
    x22 r36 0.17934006021055104
    x22 d36 0.17934006021051135
    x22 r38 -0.14950721641486986
    x22 d38 -0.1495072164148448
    x22 r41 0.2875887686387353
    x22 d41 0.2875887686388585
    x22 r46 0.12067715200726514
    x22 d46 0.12067715200716848
    x22 r47 0.29530773953404776
    x22 d47 0.29530773953406486
    x22 r49 0.5479008551371154
    x22 d49 0.5479008551368553
    x22 r54 -0.8197812992219775
    x22 d54 -0.8197812992215149
    x22 r58 -0.9177755704288033
    x22 d58 -0.9177755704287883
    x22 r72 -0.8479083292803093
    x22 d72 -0.847908329279541
    x22 r74 0.5300337438108631
    x22 d74 0.5300337438103918
    x22 r77 -0.6319449252762581
    x22 d77 -0.6319449252768419
    x22 r89 0.2009789032091287
    x22 d89 0.20097890320916292
    x22 r90 -0.7591358823443384
    x22 d90 -0.7591358823446643
    x22 r91 0.11015676208942726
    x22 d91 0.11015676208945177
    x22 r93 -0.7592411978076752
    x22 d93 -0.7592411978070774
    x22 r96 -0.593440197725102
    x22 d96 -0.5934401977250143
    x22 r97 0.21185789385917686
    x22 d97 0.21185789385899237
    x23 OBJ -0.4207814273366475
    x23 r3 -0.01835401213632526
    x23 d3 -0.018354012136325006
    x23 r6 -0.6864583415027883
    x23 d6 -0.6864583415024875
    x23 r7 -0.8299163350057357
    x23 d7 -0.8299163350059066
    x23 r8 0.8794947952937227
    x23 d8 0.879494795294354
    x23 r9 -0.595985365930942
    x23 d9 -0.5959853659304841
    x23 r23 -0.4570317197073124
    x23 d23 -0.45703171970696677
    x23 r24 0.8157724151363899
    x23 d24 0.8157724151359901
    x23 r26 0.5616947807478179
    x23 d26 0.5616947807481799
    x23 r29 -0.680231831162162
    x23 d29 -0.6802318311619195
    x23 r38 0.5130064014833786
    x23 d38 0.5130064014837085
    x23 r39 -0.6681872370824371
    x23 d39 -0.6681872370822729
    x23 r40 -0.6889835608324999
    x23 d40 -0.688983560832771
    x23 r44 -0.7032978093340296
    x23 d44 -0.7032978093343822
    x23 r46 0.0529225514090621
    x23 d46 0.05292255140908557
    x23 r48 -0.1285674473017968
    x23 d48 -0.12856744730167513
    x23 r55 0.4260778146724511
    x23 d55 0.42607781467286093
    x23 r61 0.26662567270199644
    x23 d61 0.26662567270174087
    x23 r67 0.10291955550152232
    x23 d67 0.1029195555015283
    x23 r68 -0.36794627216079
    x23 d68 -0.3679462721608525
    x23 r69 -0.8714322157966639
    x23 d69 -0.8714322157965939
    x23 r71 -0.0962685732339088
    x23 d71 -0.09626857323383237
    x23 r76 -0.486422378360609
    x23 d76 -0.4864223783606007
    x23 r80 0.8089288719161658
    x23 d80 0.8089288719164359
    x23 r81 0.8518261558264284
    x23 d81 0.8518261558255882
    x23 r83 0.33042849993822987
    x23 d83 0.33042849993817275
    x23 r85 0.13736504623202173
    x23 d85 0.13736504623201298
    x23 r86 -0.7324500170099664
    x23 d86 -0.7324500170101297
    x23 r87 -0.8971054268269316
    x23 d87 -0.8971054268274137
    x23 r89 0.7528748199823767
    x23 d89 0.7528748199830431
    x23 r92 0.4727102077130376
    x23 d92 0.4727102077129039
    x23 r93 -0.025607596711207492
    x23 d93 -0.025607596711225637
    x23 r94 0.6837201580219421
    x23 d94 0.6837201580224167
    x24 OBJ -0.7114898332851249
    x24 r4 -0.63740368382326
    x24 d4 -0.6374036838229266
    x24 r9 0.07369791943211723
    x24 d9 0.07369791943218629
    x24 r11 0.2990752677554702
    x24 d11 0.2990752677556914
    x24 r12 0.6678392212158613
    x24 d12 0.6678392212155307
    x24 r13 -0.5457141695530552
    x24 d13 -0.5457141695527086
    x24 r14 -0.6402021215436002
    x24 d14 -0.6402021215441974
    x24 r15 0.48499384147074465
    x24 d15 0.48499384147046576
    x24 r17 0.9621085613714724
    x24 d17 0.9621085613705697
    x24 r18 -0.4363429260249183
    x24 d18 -0.4363429260247293
    x24 r20 0.6617177290637675
    x24 d20 0.6617177290638757
    x24 r21 0.4924785679642518
    x24 d21 0.4924785679644225
    x24 r22 -0.9631843622625786
    x24 d22 -0.9631843622626834
    x24 r27 -0.55015479954551
    x24 d27 -0.5501547995456969
    x24 r30 0.43227580587623704
    x24 d30 0.43227580587658354
    x24 r31 -0.9079404570947374
    x24 d31 -0.9079404570942813
    x24 r32 -0.2808908532386698
    x24 d32 -0.2808908532388446
    x24 r33 0.49469137768885085
    x24 d33 0.4946913776890746
    x24 r34 0.7810177949423809
    x24 d34 0.7810177949418684
    x24 r35 -0.6872186186676303
    x24 d35 -0.6872186186677749
    x24 r38 0.32964162930952257
    x24 d38 0.32964162930975377
    x24 r42 -0.5749806482247279
    x24 d42 -0.5749806482252405
    x24 r51 0.4274985674290328
    x24 d51 0.4274985674294009
    x24 r56 0.3615003763431701
    x24 d56 0.3615003763429072
    x24 r57 -0.5551994937110274
    x24 d57 -0.5551994937107286
    x24 r59 -0.32109759080824896
    x24 d59 -0.3210975908079414
    x24 r60 -0.42560146264896215
    x24 d60 -0.425601462649157
    x24 r63 0.0069022115856254285
    x24 d63 0.006902211585625222
    x24 r64 0.939245558483754
    x24 d64 0.9392455584845828
    x24 r67 0.09047684414731161
    x24 d67 0.09047684414733675
    x24 r70 0.24616769830385454
    x24 d70 0.24616769830396298
    x24 r80 0.6048356806236908
    x24 d80 0.6048356806233721
    x24 r84 -0.6186210256548805
    x24 d84 -0.6186210256550102
    x24 r88 0.2116589734000478
    x24 d88 0.21165897340022935
    x24 r95 0.8244759123380272
    x24 d95 0.8244759123380316
    x24 r97 0.8259939856758236
    x24 d97 0.8259939856750288
    x25 OBJ -0.7644155238432633
    x25 r4 0.5490698531360287
    x25 d4 0.5490698531356369
    x25 r6 -0.7997927654366186
    x25 d6 -0.7997927654361341
    x25 r8 -0.6451415587837217
    x25 d8 -0.6451415587833368
    x25 r12 0.9991635201028386
    x25 d12 0.9991635201031753
    x25 r14 -0.2979684378797951
    x25 d14 -0.29796843787973853
    x25 r20 -0.3640233004587632
    x25 d20 -0.3640233004585714
    x25 r23 0.5437529777976111
    x25 d23 0.5437529777980139
    x25 r25 -0.4503240600357674
    x25 d25 -0.450324060036015
    x25 r27 -0.11051170766337415
    x25 d27 -0.11051170766329686
    x25 r29 0.19204725546158707
    x25 d29 0.1920472554615768
    x25 r35 -0.5842018363907899
    x25 d35 -0.5842018363912372
    x25 r37 0.2518301638601823
    x25 d37 0.2518301638603749
    x25 r46 -0.08615198203243302
    x25 d46 -0.08615198203246621
    x25 r49 0.7067776757372002
    x25 d49 0.7067776757376415
    x25 r50 0.3483092671018291
    x25 d50 0.34830926710161064
    x25 r54 0.6921251707713096
    x25 d54 0.6921251707719019
    x25 r56 -0.5869843371494312
    x25 d56 -0.5869843371496632
    x25 r57 0.023450476471735815
    x25 d57 0.02345047647173255
    x25 r66 0.9911914597538836
    x25 d66 0.9911914597539232
    x25 r70 -0.6555231971175486
    x25 d70 -0.6555231971177217
    x25 r71 -0.9042422220087303
    x25 d71 -0.9042422220090787
    x25 r76 -0.2978378326219462
    x25 d76 -0.29783783262205227
    x25 r77 -0.10209169979197896
    x25 d77 -0.10209169979201206
    x25 r83 0.6871436345063571
    x25 d83 0.6871436345068783
    x25 r86 -0.7230218619450655
    x25 d86 -0.7230218619457291
    x25 r88 -0.9344520794019298
    x25 d88 -0.9344520794020833
    x25 r92 0.9405362284476217
    x25 d92 0.9405362284482792
    x25 r96 0.6952884426716688
    x25 d96 0.6952884426722613
    x25 r98 0.5204277906867554
    x25 d98 0.5204277906867242
    x26 OBJ -0.38303635179613127
    x26 r3 -0.010836666933375039
    x26 d3 -0.01083666693336547
    x26 r5 -0.8686094031893765
    x26 d5 -0.8686094031892487
    x26 r6 0.04499027863780647
    x26 d6 0.04499027863782461
    x26 r19 0.9167757354621124
    x26 d19 0.9167757354614435
    x26 r20 0.20446761041897288
    x26 d20 0.2044676104190581
    x26 r25 -0.7749625364046933
    x26 d25 -0.7749625364039388
    x26 r26 -0.8333657829177261
    x26 d26 -0.8333657829174255
    x26 r27 0.3487446833862351
    x26 d27 0.3487446833859169
    x26 r32 -0.48809846078965546
    x26 d32 -0.48809846078982955
    x26 r38 0.22858015044477442
    x26 d38 0.22858015044464922
    x26 r39 0.6134634825406386
    x26 d39 0.6134634825403831
    x26 r40 0.31918359340390934
    x26 d40 0.3191835934037572
    x26 r41 0.6211649405202566
    x26 d41 0.6211649405199613
    x26 r43 -0.16044081143920708
    x26 d43 -0.16044081143920202
    x26 r45 -0.18711866032403734
    x26 d45 -0.18711866032403676
    x26 r46 0.8892651414315582
    x26 d46 0.8892651414316755
    x26 r51 0.4347017594137308
    x26 d51 0.43470175941352557
    x26 r64 0.7316971363526472
    x26 d64 0.7316971363533571
    x26 r65 0.3860975144447252
    x26 d65 0.3860975144445335
    x26 r71 -0.1265731184281238
    x26 d71 -0.12657311842812513
    x26 r72 -0.4960200919763629
    x26 d72 -0.4960200919761546
    x26 r74 -0.9310006780986559
    x26 d74 -0.9310006780986626
    x26 r75 0.8760085651849161
    x26 d75 0.8760085651851192
    x26 r78 -0.05188870261661882
    x26 d78 -0.05188870261662611
    x26 r86 0.19405394649691887
    x26 d86 0.19405394649706323
    x26 r87 -0.019844207904148092
    x26 d87 -0.01984420790415287
    x26 r90 0.32203055721095186
    x26 d90 0.3220305572107542
    x26 r95 0.13798153501599275
    x26 d95 0.13798153501597055
    x26 r99 0.2792956600919074
    x26 d99 0.27929566009175244
    x27 OBJ 0.6322527182400628
    x27 r1 -0.9034638065004692
    x27 d1 -0.9034638065002195
    x27 r10 0.6696277989159143
    x27 d10 0.6696277989153286
    x27 r11 0.8180533274705806
    x27 d11 0.8180533274698453
    x27 r12 0.9224234484999245
    x27 d12 0.9224234484994115
    x27 r14 0.060424858662568415
    x27 d14 0.06042485866259227
    x27 r15 0.3391912312727188
    x27 d15 0.33919123127238104
    x27 r19 0.5671203219698402
    x27 d19 0.5671203219702773
    x27 r21 0.22372576111732334
    x27 d21 0.22372576111720416
    x27 r22 -0.29648407132928023
    x27 d22 -0.29648407132952836
    x27 r23 -0.027532873318162565
    x27 d23 -0.02753287331816668
    x27 r28 -0.4981981473527104
    x27 d28 -0.49819814735228857
    x27 r32 -0.7864656798638867
    x27 d32 -0.7864656798633465
    x27 r33 0.43768328546700697
    x27 d33 0.43768328546706564
    x27 r34 -0.5730485110166812
    x27 d34 -0.573048511016455
    x27 r35 0.23143999525461534
    x27 d35 0.2314399952544518
    x27 r37 0.29931824457739586
    x27 d37 0.29931824457738104
    x27 r39 0.07872986795765868
    x27 d39 0.07872986795761258
    x27 r40 -0.6131059289686682
    x27 d40 -0.6131059289692183
    x27 r54 0.15460965130897253
    x27 d54 0.15460965130886015
    x27 r57 -0.47433747158818806
    x27 d57 -0.47433747158833384
    x27 r58 0.27378317495267734
    x27 d58 0.2737831749528163
    x27 r59 0.22660510564666514
    x27 d59 0.22660510564680794
    x27 r66 0.3223755916733946
    x27 d66 0.3223755916731771
    x27 r69 0.95842761703182
    x27 d69 0.958427617032397
    x27 r75 0.22829008327598999
    x27 d75 0.22829008327617728
    x27 r80 -0.9397015848580899
    x27 d80 -0.9397015848577848
    x27 r85 0.27227026132360144
    x27 d85 0.2722702613236037
    x27 r89 0.6928744502090305
    x27 d89 0.6928744502091377
    x27 r92 -0.5533217599656011
    x27 d92 -0.5533217599652773
    x27 r94 -0.13097774829402486
    x27 d94 -0.13097774829412628
    x27 r95 -0.49252976541811133
    x27 d95 -0.4925297654181375
    x27 r98 -0.1616352428310941
    x27 d98 -0.16163524283099404
    x28 OBJ -0.638547240152125
    x28 r1 0.6693519899543847
    x28 d1 0.6693519899547625
    x28 r8 -0.9419140614445785
    x28 d8 -0.9419140614444337
    x28 r16 0.22371436096246233
    x28 d16 0.22371436096242428
    x28 r17 0.6286619582238262
    x28 d17 0.6286619582240126
    x28 r18 -0.7869726107586978
    x28 d18 -0.7869726107590912
    x28 r20 -0.41129036516524664
    x28 d20 -0.4112903651653721
    x28 r27 -0.947649702145277
    x28 d27 -0.9476497021454281
    x28 r35 0.020836941615332227
    x28 d35 0.02083694161534428
    x28 r36 -0.6669333395570749
    x28 d36 -0.6669333395565088
    x28 r38 0.2910990866919543
    x28 d38 0.2910990866920523
    x28 r39 0.29328090292301745
    x28 d39 0.2932809029230136
    x28 r40 0.0970262151832566
    x28 d40 0.0970262151832382
    x28 r41 0.02587643446546828
    x28 d41 0.025876434465468313
    x28 r44 -0.3154718496079367
    x28 d44 -0.3154718496082334
    x28 r46 0.4841526081683569
    x28 d46 0.4841526081684684
    x28 r51 -0.10230067786775465
    x28 d51 -0.10230067786779597
    x28 r56 0.3081605948893904
    x28 d56 0.30816059488913466
    x28 r57 0.6004437191970655
    x28 d57 0.6004437191970414
    x28 r59 -0.9333210329943973
    x28 d59 -0.9333210329949647
    x28 r60 0.21184592202510633
    x28 d60 0.21184592202511704
    x28 r66 0.6976394978715912
    x28 d66 0.6976394978720171
    x28 r72 -0.3883454095603829
    x28 d72 -0.38834540956072927
    x28 r81 -0.5403466289174965
    x28 d81 -0.5403466289173565
    x28 r84 0.37143782222982735
    x28 d84 0.37143782222949895
    x28 r92 -0.005774133970187334
    x28 d92 -0.00577413397018708
    x28 r94 -0.6138794271995378
    x28 d94 -0.6138794271999064
    x28 r97 0.13108261615056604
    x28 d97 0.1310826161505659
    x28 r98 -0.6591232281163977
    x28 d98 -0.6591232281160264
    x29 OBJ 0.1632003273249325
    x29 r0 -0.49633037726909235
    x29 d0 -0.4963303772691504
    x29 r1 0.8711797766225693
    x29 d1 0.8711797766218358
    x29 r3 0.8877397799327278
    x29 d3 0.8877397799326694
    x29 r11 -0.5227979600432693
    x29 d11 -0.5227979600434404
    x29 r14 -0.12084210593509326
    x29 d14 -0.12084210593498868
    x29 r16 0.8678213460579525
    x29 d16 0.867821346057297
    x29 r25 -0.279469936841211
    x29 d25 -0.27946993684128096
    x29 r27 -0.3801269012147461
    x29 d27 -0.38012690121491627
    x29 r28 0.8737403295954547
    x29 d28 0.8737403295951364
    x29 r34 -0.612454911247611
    x29 d34 -0.6124549112475102
    x29 r39 -0.011929996136235799
    x29 d39 -0.011929996136227444
    x29 r41 0.09021152971544177
    x29 d41 0.09021152971538543
    x29 r42 0.174877647711978
    x29 d42 0.17487764771191067
    x29 r43 0.1767456291197702
    x29 d43 0.17674562911982294
    x29 r45 -0.6532788547326693
    x29 d45 -0.6532788547326167
    x29 r46 0.4882059923766102
    x29 d46 0.48820599237657497
    x29 r54 0.04583503486992857
    x29 d54 0.04583503486989865
    x29 r56 -0.6874897977901133
    x29 d56 -0.6874897977906125
    x29 r59 0.6024087653594001
    x29 d59 0.6024087653594093
    x29 r61 -0.5275350424856511
    x29 d61 -0.5275350424860529
    x29 r64 -0.8641261114268186
    x29 d64 -0.8641261114263654
    x29 r70 0.3750919562597841
    x29 d70 0.3750919562594612
    x29 r75 0.5836690683065939
    x29 d75 0.5836690683067001
    x29 r76 0.150165437449022
    x29 d76 0.15016543744893868
    x29 r77 0.971225732435117
    x29 d77 0.9712257324355714
    x29 r82 0.12428169048438531
    x29 d82 0.12428169048429555
    x29 r85 0.05515841827017365
    x29 d85 0.055158418270148044
    x29 r86 -0.29202062793069894
    x29 d86 -0.2920206279304725
    x29 r87 0.027118791960304423
    x29 d87 0.027118791960287096
    x29 r89 0.28264620862126466
    x29 d89 0.2826462086214097
    x29 r90 -0.820678494364731
    x29 d90 -0.8206784943641935
    x29 r93 0.7802851428424391
    x29 d93 0.7802851428431995
    x29 r95 -0.21188653004173208
    x29 d95 -0.2118865300419182
    x29 r96 -0.5978265733771739
    x29 d96 -0.5978265733769578
    x29 r99 0.30301378511639143
    x29 d99 0.30301378511656074
    x30 OBJ 0.2778269378523681
    x30 r0 -0.5189212148833309
    x30 d0 -0.5189212148834635
    x30 r1 -0.4685439700448404
    x30 d1 -0.4685439700445567
    x30 r2 0.4560633958127116
    x30 d2 0.45606339581313593
    x30 r3 -0.5705713191883381
    x30 d3 -0.5705713191879324
    x30 r5 0.6212943099087678
    x30 d5 0.6212943099092779
    x30 r6 -0.975017492703131
    x30 d6 -0.9750174927030296
    x30 r8 0.964662326273841
    x30 d8 0.964662326274405
    x30 r13 0.839167217078965
    x30 d13 0.8391672170783195
    x30 r15 0.8052024761897347
    x30 d15 0.8052024761890801
    x30 r17 0.9950295917335896
    x30 d17 0.9950295917341873
    x30 r23 0.40678957030443774
    x30 d23 0.4067895703047438
    x30 r26 0.13571967704348054
    x30 d26 0.13571967704359475
    x30 r27 -0.13636922491313808
    x30 d27 -0.1363692249130382
    x30 r31 0.384129354184761
    x30 d31 0.3841293541844063
    x30 r34 0.16547724384125595
    x30 d34 0.16547724384121723
    x30 r38 0.4220340715325721
    x30 d38 0.42203407153240224
    x30 r41 0.9216792915166059
    x30 d41 0.9216792915163179
    x30 r42 -0.006496097304570458
    x30 d42 -0.006496097304570702
    x30 r43 -0.6652240584797515
    x30 d43 -0.665224058480165
    x30 r44 -0.7345429400256338
    x30 d44 -0.7345429400256744
    x30 r45 0.5591827387870802
    x30 d45 0.5591827387874106
    x30 r49 -0.2745228004853255
    x30 d49 -0.27452280048531325
    x30 r50 -0.4563548978789824
    x30 d50 -0.4563548978788835
    x30 r51 0.9700497919513678
    x30 d51 0.970049791952175
    x30 r52 0.9046621091747074
    x30 d52 0.9046621091752871
    x30 r53 0.1424543861275449
    x30 d53 0.1424543861274265
    x30 r61 0.18992616442197474
    x30 d61 0.18992616442184693
    x30 r63 -0.13418027365368213
    x30 d63 -0.13418027365376126
    x30 r66 0.2248330067849642
    x30 d66 0.22483300678477944
    x30 r70 -0.30453633391559465
    x30 d70 -0.30453633391545976
    x30 r72 0.8418847086436041
    x30 d72 0.8418847086437213
    x30 r73 0.42668710997586046
    x30 d73 0.42668710997589937
    x30 r74 0.23528959943657357
    x30 d74 0.23528959943671457
    x30 r75 -0.7108271942161315
    x30 d75 -0.7108271942158871
    x30 r81 0.2021328320843987
    x30 d81 0.20213283208443483
    x30 r82 0.6037667795667399
    x30 d82 0.6037667795670113
    x30 r84 -0.03078908021226634
    x30 d84 -0.030789080212254516
    x30 r88 -0.008823981802470682
    x30 d88 -0.008823981802463195
    x30 r90 -0.9716004326829273
    x30 d90 -0.9716004326834522
    x30 r92 0.9392483071200262
    x30 d92 0.9392483071205092
    x30 r93 0.30947317290693244
    x30 d93 0.30947317290703574
    x30 r96 0.5073064593254368
    x30 d96 0.5073064593250579
    x30 r97 -0.03230558033944586
    x30 d97 -0.03230558033946461
    x30 r99 0.6572480109650087
    x30 d99 0.6572480109648094
    x31 OBJ -0.25520491454853755
    x31 r2 -0.9882468069469299
    x31 d2 -0.9882468069463706
    x31 r9 0.8387574062782113
    x31 d9 0.8387574062786934
    x31 r11 -0.21539132943630102
    x31 d11 -0.21539132943644593
    x31 r15 -0.5545500418266189
    x31 d15 -0.5545500418261653
    x31 r18 -0.8531731675161032
    x31 d18 -0.853173167516437
    x31 r20 0.3728427165435073
    x31 d20 0.37284271654320533
    x31 r30 -0.8773881427424655
    x31 d30 -0.8773881427430507
    x31 r33 -0.8038138734380214
    x31 d33 -0.8038138734380399
    x31 r34 0.5687770365335352
    x31 d34 0.5687770365334899
    x31 r38 -0.8896668373081285
    x31 d38 -0.8896668373078677
    x31 r39 -0.6133702979007793
    x31 d39 -0.6133702979005655
    x31 r40 -0.8288281396083397
    x31 d40 -0.8288281396079455
    x31 r50 -0.8603585530724529
    x31 d50 -0.8603585530724592
    x31 r53 -0.001269225192817025
    x31 d53 -0.0012692251928173826
    x31 r54 0.7954555215107604
    x31 d54 0.7954555215108492
    x31 r56 0.6144369672923073
    x31 d56 0.6144369672920921
    x31 r58 0.019101701375255242
    x31 d58 0.01910170137525643
    x31 r59 0.46276581504631964
    x31 d59 0.4627658150467654
    x31 r61 -0.5535674325729574
    x31 d61 -0.5535674325724864
    x31 r64 0.07788835580690523
    x31 d64 0.07788835580698263
    x31 r73 0.5022484885712426
    x31 d73 0.5022484885714369
    x31 r75 0.3154723425834851
    x31 d75 0.3154723425832124
    x31 r78 -0.27103276368501295
    x31 d78 -0.27103276368483586
    x31 r79 0.5468555700694193
    x31 d79 0.5468555700692733
    x31 r80 0.7564953411644164
    x31 d80 0.756495341163829
    x31 r90 0.11930886909229832
    x31 d90 0.11930886909234355
    x31 r92 -0.9581160765229013
    x31 d92 -0.9581160765222564
    x31 r94 0.8841082713648922
    x31 d94 0.8841082713643862
    x31 r97 0.27328853758827476
    x31 d97 0.27328853758807153
    x31 r98 -0.5207503410543124
    x31 d98 -0.5207503410540324
    x32 OBJ 0.09548893141911563
    x32 r0 -0.16197489449091274
    x32 d0 -0.16197489449095362
    x32 r1 -0.2533014299699268
    x32 d1 -0.2533014299700549
    x32 r4 -0.3959192457083416
    x32 d4 -0.39591924570848225
    x32 r12 -0.2521058653290482
    x32 d12 -0.25210586532895657
    x32 r16 0.6916157166691477
    x32 d16 0.6916157166691792
    x32 r22 -0.7346546803995775
    x32 d22 -0.7346546803995317
    x32 r26 0.6394737859625321
    x32 d26 0.639473785962905
    x32 r31 0.8239358438654807
    x32 d31 0.8239358438654338
    x32 r36 0.886685544032999
    x32 d36 0.8866855440337429
    x32 r37 -0.2733380104749388
    x32 d37 -0.2733380104748016
    x32 r39 0.6720909033239064
    x32 d39 0.6720909033233757
    x32 r45 0.5803275527056206
    x32 d45 0.5803275527058986
    x32 r52 0.77705902747161
    x32 d52 0.7770590274711912
    x32 r53 -0.42799813019727373
    x32 d53 -0.42799813019711047
    x32 r55 -0.8323918487930904
    x32 d55 -0.8323918487927019
    x32 r63 0.5553901318865706
    x32 d63 0.5553901318861583
    x32 r68 0.7956013957473917
    x32 d68 0.7956013957470307
    x32 r70 0.051433639909923334
    x32 d70 0.051433639909913675
    x32 r73 -0.9220634505003416
    x32 d73 -0.922063450499972
    x32 r82 -0.9788315910318881
    x32 d82 -0.9788315910317288
    x32 r83 -0.9223737813354009
    x32 d83 -0.9223737813352652
    x32 r84 0.6458151601564015
    x32 d84 0.6458151601560375
    x32 r88 0.21822993432844662
    x32 d88 0.21822993432856722
    x32 r93 0.3482703041780244
    x32 d93 0.3482703041779828
    x32 r94 -0.16901580722472875
    x32 d94 -0.16901580722483373
    x32 r96 -0.28774459693128085
    x32 d96 -0.2877445969315023
    x33 OBJ -0.8744220500533537
    x33 r0 0.820034112631113
    x33 d0 0.8200341126314092
    x33 r3 0.273063343268775
    x33 d3 0.2730633432687703
    x33 r7 0.3528922696641352
    x33 d7 0.3528922696643922
    x33 r9 -0.37146680044368097
    x33 d9 -0.3714668004434967
    x33 r12 0.6560552393936809
    x33 d12 0.6560552393936506
    x33 r15 -0.8243792722199998
    x33 d15 -0.8243792722197838
    x33 r16 0.655750899754943
    x33 d16 0.6557508997546809
    x33 r18 0.33554141821312666
    x33 d18 0.33554141821316774
    x33 r19 0.866872290154687
    x33 d19 0.8668722901544436
    x33 r22 -0.2622147914040731
    x33 d22 -0.2622147914040823
    x33 r28 0.10883210418179612
    x33 d28 0.10883210418180071
    x33 r31 -0.39882209851640216
    x33 d31 -0.3988220985165418
    x33 r33 -0.2048953037014296
    x33 d33 -0.2048953037015183
    x33 r41 0.8080124399211872
    x33 d41 0.8080124399210555
    x33 r42 -0.5993691029819093
    x33 d42 -0.5993691029819419
    x33 r51 -0.7051775505873328
    x33 d51 -0.7051775505870567
    x33 r52 0.43892813000679154
    x33 d52 0.43892813000687536
    x33 r58 0.5532876139549543
    x33 d58 0.5532876139546289
    x33 r59 0.9214163882864785
    x33 d59 0.9214163882857423
    x33 r66 0.29873619474323676
    x33 d66 0.29873619474309293
    x33 r68 0.14160379608225537
    x33 d68 0.14160379608231957
    x33 r74 0.8663293425426561
    x33 d74 0.8663293425433692
    x33 r84 -0.2650236580643579
    x33 d84 -0.2650236580643288
    x33 r86 -0.3241106572689736
    x33 d86 -0.3241106572689168
    x33 r87 -0.27076756282921255
    x33 d87 -0.2707675628293919
    x33 r91 -0.1393694670951482
    x33 d91 -0.13936946709513146
    x33 r96 -0.5086031696296385
    x33 d96 -0.5086031696293807
    x34 OBJ -0.8807976600675347
    x34 r3 0.5758281497823479
    x34 d3 0.5758281497823458
    x34 r12 0.21507605629752624
    x34 d12 0.2150760562976176
    x34 r17 0.7266222045349946
    x34 d17 0.726622204534614
    x34 r18 -0.5062990568023766
    x34 d18 -0.5062990568021285
    x34 r20 0.31800191544337375
    x34 d20 0.3180019154436409
    x34 r21 -0.0727305667426672
    x34 d21 -0.07273056674265
    x34 r31 0.4017721699244401
    x34 d31 0.4017721699243692
    x34 r35 -0.9149787253136694
    x34 d35 -0.9149787253129709
    x34 r39 0.8000042138560193
    x34 d39 0.8000042138555239
    x34 r41 -0.39434806077062934
    x34 d41 -0.39434806077030465
    x34 r47 -0.5767458361009281
    x34 d47 -0.5767458361004135
    x34 r48 -0.0032177039592717893
    x34 d48 -0.003217703959273687
    x34 r51 -0.8573117199388252
    x34 d51 -0.8573117199393121
    x34 r60 0.7925024275325945
    x34 d60 0.7925024275329411
    x34 r61 0.9652148110451537
    x34 d61 0.9652148110454762
    x34 r63 0.5222840832435514
    x34 d63 0.5222840832433195
    x34 r70 -0.4445068675869577
    x34 d70 -0.4445068675871829
    x34 r71 -0.6257369302149449
    x34 d71 -0.6257369302143486
    x34 r73 0.1881081197586647
    x34 d73 0.18810811975875
    x34 r74 0.6688677251369115
    x34 d74 0.6688677251366693
    x34 r75 -0.13342239861723715
    x34 d75 -0.13342239861727204
    x34 r77 0.7196940847623245
    x34 d77 0.7196940847624849
    x34 r80 -0.27059669856976587
    x34 d80 -0.2705966985697158
    x34 r85 0.8969855839603322
    x34 d85 0.8969855839608866
    x34 r86 -0.80367337262973
    x34 d86 -0.8036733726301475
    x34 r87 -0.45284034704511344
    x34 d87 -0.452840347045412
    x34 r92 0.0023018414277486965
    x34 d92 0.002301841427749522
    x35 OBJ -0.5880825743613469
    x35 r5 0.8204319292751052
    x35 d5 0.8204319292743023
    x35 r6 -0.4667798932090663
    x35 d6 -0.466779893208705
    x35 r7 0.14225082726988658
    x35 d7 0.14225082726992871
    x35 r10 -0.3496087121595213
    x35 d10 -0.34960871215931544
    x35 r12 -0.09168035574160349
    x35 d12 -0.09168035574165306
    x35 r16 0.7805315141345428
    x35 d16 0.7805315141352723
    x35 r17 -0.4817739026271244
    x35 d17 -0.4817739026270099
    x35 r23 0.3909980277856073
    x35 d23 0.3909980277854462
    x35 r25 -0.5007036594015131
    x35 d25 -0.5007036594015473
    x35 r28 -0.8018685435930744
    x35 d28 -0.8018685435934796
    x35 r29 -0.34339216401829087
    x35 d29 -0.3433921640183412
    x35 r33 0.862203891881884
    x35 d33 0.8622038918820589
    x35 r39 -0.022861780238468743
    x35 d39 -0.022861780238469995
    x35 r41 0.4926889278777353
    x35 d41 0.4926889278775498
    x35 r57 -0.5339562435154941
    x35 d57 -0.5339562435152028
    x35 r58 0.27688490446641434
    x35 d58 0.27688490446630815
    x35 r59 -0.5209714942931227
    x35 d59 -0.5209714942926394
    x35 r65 -0.17571481326352845
    x35 d65 -0.17571481326367364
    x35 r74 0.8820886772135699
    x35 d74 0.8820886772143045
    x35 r77 -0.9381893703533823
    x35 d77 -0.9381893703542598
    x35 r78 -0.2852310047991313
    x35 d78 -0.28523100479916697
    x35 r79 -0.850213619370705
    x35 d79 -0.8502136193704355
    x35 r82 -0.6423829130677026
    x35 d82 -0.6423829130673004
    x35 r84 -0.33295970775972394
    x35 d84 -0.3329597077600009
    x35 r88 -0.002836209429724068
    x35 d88 -0.0028362094297266533
    x35 r91 0.3156798309593414
    x35 d91 0.3156798309591235
    x35 r96 -0.7199760548286278
    x35 d96 -0.7199760548292249
    x36 OBJ 0.3607999463635718
    x36 r6 0.8077101997688467
    x36 d6 0.8077101997685632
    x36 r10 0.9059510668599544
    x36 d10 0.905951066859072
    x36 r11 -0.8124055131078745
    x36 d11 -0.8124055131074436
    x36 r13 0.31186452993616554
    x36 d13 0.3118645299364135
    x36 r20 -0.6705849402348889
    x36 d20 -0.6705849402343143
    x36 r23 -0.3802429245007355
    x36 d23 -0.38024292450079394
    x36 r32 -0.5160319362848285
    x36 d32 -0.516031936285296
    x36 r33 0.9246336193091018
    x36 d33 0.9246336193099769
    x36 r34 -0.2711646187177199
    x36 d34 -0.2711646187174679
    x36 r40 -0.27578254047101924
    x36 d40 -0.2757825404711396
    x36 r44 -0.9371658713859101
    x36 d44 -0.937165871386127
    x36 r48 0.5580379805172047
    x36 d48 0.5580379805175995
    x36 r49 0.4660882204250447
    x36 d49 0.4660882204252073
    x36 r56 0.8679591994905766
    x36 d56 0.867959199490804
    x36 r67 -0.41507319747809457
    x36 d67 -0.4150731974782639
    x36 r69 0.9556306244140904
    x36 d69 0.9556306244143081
    x36 r72 0.6695605124450705
    x36 d72 0.6695605124446409
    x36 r75 0.2557628076442018
    x36 d75 0.2557628076444208
    x36 r78 0.43027523615995933
    x36 d78 0.43027523615999563
    x36 r79 0.10989031274665617
    x36 d79 0.10989031274674997
    x36 r85 0.6153123437507231
    x36 d85 0.6153123437510442
    x36 r86 -0.08119921312300127
    x36 d86 -0.08119921312297386
    x36 r89 0.7174440102525785
    x36 d89 0.7174440102522408
    x36 r91 -0.6044870578141279
    x36 d91 -0.6044870578138366
    x36 r92 -0.6064710919947545
    x36 d92 -0.6064710919944143
    x36 r97 -0.2388512768157971
    x36 d97 -0.23885127681591495
    x37 OBJ -0.14481538866119426
    x37 r15 0.3413291026678327
    x37 d15 0.34132910266778665
    x37 r17 -0.07489263752108699
    x37 d17 -0.07489263752104601
    x37 r24 -0.9732145929227758
    x37 d24 -0.9732145929234066
    x37 r25 -0.49274373292321627
    x37 d25 -0.49274373292279655
    x37 r27 0.22098292636161032
    x37 d27 0.2209829263614106
    x37 r31 0.19092499507752714
    x37 d31 0.19092499507756108
    x37 r35 -0.832726237197587
    x37 d35 -0.8327262371969739
    x37 r40 -0.09977845807017993
    x37 d40 -0.09977845807026002
    x37 r42 -0.7424565132310388
    x37 d42 -0.7424565132308976
    x37 r45 0.8634968324993377
    x37 d45 0.86349683249896
    x37 r48 -0.6690285776080891
    x37 d48 -0.6690285776076065
    x37 r64 -0.03525710314441777
    x37 d64 -0.035257103144452635
    x37 r74 0.5977459896717938
    x37 d74 0.5977459896715923
    x37 r78 0.7001343286700223
    x37 d78 0.700134328670048
    x37 r84 0.048071815640400084
    x37 d84 0.048071815640357486
    x37 r91 0.9699605421933102
    x37 d91 0.969960542193994
    x37 r92 0.0423479676646874
    x37 d92 0.04234796766467414
    x37 r93 -0.5976921578791043
    x37 d93 -0.5976921578796931
    x37 r95 0.1120409443330499
    x37 d95 0.1120409443330708
    x37 r97 0.5835127564668448
    x37 d97 0.5835127564670981
    x37 r99 0.4440308244310063
    x37 d99 0.44403082443060204
    x38 OBJ -0.37170565924641696
    x38 r2 -0.970331250850925
    x38 d2 -0.9703312508516625
    x38 r4 0.13501476529470113
    x38 d4 0.13501476529456952
    x38 r5 -0.6278956597577394
    x38 d5 -0.6278956597571711
    x38 r8 0.4667712899362517
    x38 d8 0.4667712899363618
    x38 r9 0.5921769207582988
    x38 d9 0.5921769207586995
    x38 r10 0.17509612318874712
    x38 d10 0.17509612318887446
    x38 r12 -0.5191202079936386
    x38 d12 -0.5191202079935053
    x38 r15 -0.19848633681866756
    x38 d15 -0.19848633681867064
    x38 r20 -0.2297705391716962
    x38 d20 -0.22977053917178653
    x38 r26 -0.850733390896929
    x38 d26 -0.8507333908977224
    x38 r29 0.7823326974619422
    x38 d29 0.7823326974615077
    x38 r35 0.7832953222188326
    x38 d35 0.783295322218239
    x38 r39 -0.9055841015756174
    x38 d39 -0.9055841015753059
    x38 r40 0.7229850960542097
    x38 d40 0.7229850960540221
    x38 r45 -0.21296752326167478
    x38 d45 -0.2129675232615949
    x38 r48 0.557311213159229
    x38 d48 0.5573112131587246
    x38 r49 -0.3310794584654342
    x38 d49 -0.33107945846555153
    x38 r50 -0.603249357300216
    x38 d50 -0.603249357300562
    x38 r51 0.6085349860363249
    x38 d51 0.6085349860361023
    x38 r55 0.4169908208004991
    x38 d55 0.41699082080037486
    x38 r58 0.05935632534416446
    x38 d58 0.05935632534414228
    x38 r59 -0.9378291895638524
    x38 d59 -0.9378291895631347
    x38 r60 -0.7761712942275334
    x38 d60 -0.7761712942276252
    x38 r72 -0.6106333574700922
    x38 d72 -0.6106333574701819
    x38 r77 0.5776606572005978
    x38 d77 0.5776606572001122
    x38 r80 0.5518115040841054
    x38 d80 0.5518115040839751
    x38 r83 0.6935402834357622
    x38 d83 0.6935402834357327
    x38 r85 0.6890015230232343
    x38 d85 0.6890015230226334
    x38 r86 0.13008108465671198
    x38 d86 0.13008108465684204
    x38 r90 -0.11518377574088867
    x38 d90 -0.11518377574098361
    x38 r91 0.9954958974370598
    x38 d91 0.9954958974380242
    x38 r93 -0.8859656703184629
    x38 d93 -0.8859656703181211
    x38 r96 -0.9560400366790984
    x38 d96 -0.9560400366791362
    x39 OBJ 0.17112372701527745
    x39 r4 -0.7623061422440836
    x39 d4 -0.7623061422444148
    x39 r7 -0.31318242057555845
    x39 d7 -0.3131824205753685
    x39 r8 0.29091958572948307
    x39 d8 0.29091958572940835
    x39 r9 0.4211122722829088
    x39 d9 0.42111227228268316
    x39 r11 -0.9026383399667928
    x39 d11 -0.9026383399659431
    x39 r12 0.9205004783872683
    x39 d12 0.9205004783871704
    x39 r13 0.07824648489434738
    x39 d13 0.07824648489439441
    x39 r17 0.321322259322834
    x39 d17 0.32132225932296554
    x39 r18 -0.3186952441763973
    x39 d18 -0.3186952441766838
    x39 r24 0.6844036896159613
    x39 d24 0.6844036896153217
    x39 r26 -0.652828172944544
    x39 d26 -0.6528281729448773
    x39 r30 0.9025046673257715
    x39 d30 0.9025046673265308
    x39 r39 0.8913463413731524
    x39 d39 0.8913463413724523
    x39 r41 -0.0898760435814232
    x39 d41 -0.08987604358139653
    x39 r47 -0.1650455357427949
    x39 d47 -0.16504553574277725
    x39 r50 0.9074121112608244
    x39 d50 0.907412111260935
    x39 r54 -0.1865364248056547
    x39 d54 -0.18653642480564003
    x39 r55 -0.8681494118973347
    x39 d55 -0.8681494118966557
    x39 r57 -0.22991656953089223
    x39 d57 -0.22991656953100817
    x39 r58 0.9495367673106594
    x39 d58 0.9495367673104067
    x39 r65 -0.17293866492680543
    x39 d65 -0.1729386649268533
    x39 r67 0.3473894426185664
    x39 d67 0.3473894426188217
    x39 r71 -0.029762712345483777
    x39 d71 -0.02976271234547522
    x39 r81 0.18760738613910743
    x39 d81 0.18760738613908523
    x39 r82 -0.6268469868170803
    x39 d82 -0.6268469868168793
    x39 r86 -0.5517590565269528
    x39 d86 -0.5517590565273267
    x39 r87 0.28193318932427225
    x39 d87 0.28193318932409245
    x39 r92 -0.27334722175703274
    x39 d92 -0.2733472217569701
    x39 r96 -0.40018240216010836
    x39 d96 -0.4001824021602026
    x40 OBJ -0.09363124725844929
    x40 r10 -0.2155616853597362
    x40 d10 -0.21556168535983186
    x40 r11 0.8613688790718326
    x40 d11 0.8613688790717263
    x40 r12 -0.7258363664377203
    x40 d12 -0.7258363664383409
    x40 r17 -0.04871945616592743
    x40 d17 -0.048719456165930236
    x40 r18 0.5773703967873276
    x40 d18 0.5773703967878547
    x40 r19 -0.021479469871510837
    x40 d19 -0.021479469871519368
    x40 r21 0.2609273167672339
    x40 d21 0.2609273167670253
    x40 r24 0.7642568288735216
    x40 d24 0.7642568288739785
    x40 r25 -0.7536616696630203
    x40 d25 -0.7536616696628982
    x40 r27 -0.6678481973467929
    x40 d27 -0.6678481973470183
    x40 r32 -0.5246443386819077
    x40 d32 -0.5246443386823608
    x40 r33 0.012354776000998102
    x40 d33 0.0123547760009902
    x40 r37 0.770393122103183
    x40 d37 0.7703931221037241
    x40 r40 0.9995461915164889
    x40 d40 0.9995461915169555
    x40 r41 -0.6953445651574508
    x40 d41 -0.6953445651572102
    x40 r42 -0.23921962271125308
    x40 d42 -0.23921962271148728
    x40 r44 -0.6473080308966861
    x40 d44 -0.6473080308967238
    x40 r51 -0.6052841112002934
    x40 d51 -0.6052841112008736
    x40 r53 -0.3846386632372507
    x40 d53 -0.3846386632376082
    x40 r54 0.9221233826765747
    x40 d54 0.9221233826772622
    x40 r55 0.7904648618492516
    x40 d55 0.7904648618486712
    x40 r62 -0.2223754301365164
    x40 d62 -0.22237543013640912
    x40 r67 -0.9737880412609778
    x40 d67 -0.9737880412614064
    x40 r73 0.1201843605388877
    x40 d73 0.12018436053882255
    x40 r76 -0.15695539769286349
    x40 d76 -0.15695539769273284
    x40 r81 0.6314087982438377
    x40 d81 0.6314087982436234
    x40 r84 -0.8175106568050057
    x40 d84 -0.8175106568046603
    x40 r86 0.31864189041294844
    x40 d86 0.31864189041264457
    x40 r87 -0.14372048780475954
    x40 d87 -0.14372048780488147
    x40 r88 0.6023889269232912
    x40 d88 0.6023889269237351
    x40 r93 0.23206012676549426
    x40 d93 0.23206012676557536
    x40 r95 -0.3892257302461326
    x40 d95 -0.3892257302457681
    x41 OBJ -0.4004660062726353
    x41 r1 0.4647049369049967
    x41 d1 0.46470493690476183
    x41 r5 -0.25766935087860054
    x41 d5 -0.257669350878634
    x41 r6 0.7810813992618497
    x41 d6 0.7810813992618008
    x41 r7 -0.6223107990252483
    x41 d7 -0.6223107990255394
    x41 r11 0.3437598652277456
    x41 d11 0.3437598652274815
    x41 r14 -0.6499085174745887
    x41 d14 -0.6499085174750181
    x41 r15 -0.8590872577301794
    x41 d15 -0.8590872577298173
    x41 r16 0.7971244548903447
    x41 d16 0.7971244548901583
    x41 r19 0.7184390178958875
    x41 d19 0.7184390178958311
    x41 r24 -0.7319751028111756
    x41 d24 -0.7319751028116118
    x41 r31 -0.9086837420471454
    x41 d31 -0.9086837420473363
    x41 r50 0.8578800818645738
    x41 d50 0.8578800818643095
    x41 r51 0.741698651324475
    x41 d51 0.7416986513239475
    x41 r57 0.9750096656366005
    x41 d57 0.97500966563589
    x41 r63 -0.8290485319436995
    x41 d63 -0.8290485319435754
    x41 r64 -0.0024870610201130905
    x41 d64 -0.0024870610201127535
    x41 r67 -0.6851833169525554
    x41 d67 -0.6851833169520807
    x41 r73 0.7778409097731187
    x41 d73 0.7778409097731073
    x41 r74 -0.5753309112563405
    x41 d74 -0.5753309112567035
    x41 r75 -0.8184874937280384
    x41 d75 -0.8184874937277458
    x41 r76 -0.7715915186039801
    x41 d76 -0.771591518603291
    x41 r77 0.7516443438607758
    x41 d77 0.7516443438606525
    x41 r82 -0.15742277851232056
    x41 d82 -0.15742277851238537
    x41 r93 -0.630097109468456
    x41 d93 -0.6300971094678555
    x41 r94 -0.3921246140423089
    x41 d94 -0.3921246140424226
    x41 r97 -0.6805344432954752
    x41 d97 -0.6805344432961431
    x41 r99 0.9175864241064022
    x41 d99 0.9175864241058392
    x42 OBJ 0.5887589630449823
    x42 r2 0.24438919018548066
    x42 d2 0.24438919018524372
    x42 r3 0.7768975741544766
    x42 d3 0.776897574154538
    x42 r8 0.1284021791218508
    x42 d8 0.12840217912173368
    x42 r21 0.3807138475393219
    x42 d21 0.3807138475395478
    x42 r25 -0.7555211380280857
    x42 d25 -0.7555211380283395
    x42 r34 0.4460417797699747
    x42 d34 0.4460417797698337
    x42 r35 -0.5479390893784757
    x42 d35 -0.5479390893783244
    x42 r39 0.26959818180322914
    x42 d39 0.26959818180342965
    x42 r44 -0.7414305694465431
    x42 d44 -0.7414305694465096
    x42 r50 0.3961822341831469
    x42 d50 0.39618223418352017
    x42 r52 -0.24151099705513213
    x42 d52 -0.24151099705506016
    x42 r54 0.5415737620971801
    x42 d54 0.5415737620975664
    x42 r57 0.9383380638876864
    x42 d57 0.938338063888311
    x42 r58 -0.25523769054112866
    x42 d58 -0.25523769054095163
    x42 r68 0.8647962666363642
    x42 d68 0.86479626663621
    x42 r69 -0.6418315610420995
    x42 d69 -0.6418315610422453
    x42 r75 -0.2002789169049508
    x42 d75 -0.20027891690500893
    x42 r76 -0.7236225291767948
    x42 d76 -0.7236225291764895
    x42 r79 0.6788092806266017
    x42 d79 0.6788092806260122
    x42 r80 0.005517296319931919
    x42 d80 0.005517296319929258
    x42 r84 -0.4737785819372218
    x42 d84 -0.4737785819367601
    x42 r85 -0.0113974783646138
    x42 d85 -0.01139747836460885
    x42 r88 -0.6559070863360563
    x42 d88 -0.6559070863354122
    x42 r92 0.16274119004941934
    x42 d92 0.16274119004953583
    x42 r95 -0.33079969462498826
    x42 d95 -0.3307996946247835
    x43 OBJ 0.3979888674591425
    x43 r0 -0.11975017523011333
    x43 d0 -0.11975017523011076
    x43 r3 -0.5877664342054572
    x43 d3 -0.5877664342058838
    x43 r5 0.03964598375736039
    x43 d5 0.039645983757360184
    x43 r10 0.5249043888112677
    x43 d10 0.5249043888114043
    x43 r16 -0.3268537614834248
    x43 d16 -0.3268537614833825
    x43 r17 -0.6177953934957969
    x43 d17 -0.6177953934959274
    x43 r20 -0.34040737739096194
    x43 d20 -0.34040737739085875
    x43 r25 0.5994275791901231
    x43 d25 0.5994275791905636
    x43 r34 -0.15578580491533067
    x43 d34 -0.1557858049153332
    x43 r36 0.27545073103365114
    x43 d36 0.275450731033738
    x43 r38 0.07552308712624534
    x43 d38 0.0755230871262911
    x43 r39 0.7840133322107672
    x43 d39 0.7840133322100764
    x43 r41 -0.6405654952955748
    x43 d41 -0.6405654952955835
    x43 r42 -0.857702140879218
    x43 d42 -0.8577021408790501
    x43 r43 0.868490161349132
    x43 d43 0.8684901613485939
    x43 r44 -0.9132281535444402
    x43 d44 -0.9132281535441494
    x43 r47 -0.580462015210105
    x43 d47 -0.58046201521048
    x43 r51 -0.5154278558574961
    x43 d51 -0.5154278558571608
    x43 r52 0.8093201317836631
    x43 d52 0.8093201317833478
    x43 r53 -0.5662717464789888
    x43 d53 -0.5662717464785747
    x43 r58 -0.7297090226956107
    x43 d58 -0.7297090226962013
    x43 r61 0.073753527285491
    x43 d61 0.07375352728550075
    x43 r62 -0.42704744284219553
    x43 d62 -0.42704744284210894
    x43 r66 0.5516510309700042
    x43 d66 0.551651030970275
    x43 r69 -0.39727238963431866
    x43 d69 -0.3972723896341224
    x43 r72 0.20273423909668553
    x43 d72 0.20273423909673144
    x43 r79 0.04006553953845082
    x43 d79 0.04006553953842214
    x43 r80 -0.9487984182745184
    x43 d80 -0.94879841827357
    x43 r81 -0.7046163989076646
    x43 d81 -0.7046163989076568
    x43 r87 -0.1124677369942737
    x43 d87 -0.11246773699436503
    x43 r90 -0.323508530565622
    x43 d90 -0.3235085305655643
    x43 r94 0.8673269281753948
    x43 d94 0.8673269281754709
    x43 r97 0.47495118115624413
    x43 d97 0.4749511811559412
    x44 OBJ -0.5118069785556942
    x44 r0 -0.992135036348716
    x44 d0 -0.9921350363477305
    x44 r3 0.8024313680073165
    x44 d3 0.8024313680065247
    x44 r4 -0.2257143170556022
    x44 d4 -0.22571431705546455
    x44 r7 0.32096430032061773
    x44 d7 0.32096430032091505
    x44 r10 0.08857522943324225
    x44 d10 0.08857522943320041
    x44 r12 -0.531379603999196
    x44 d12 -0.5313796039996571
    x44 r14 0.604121594470693
    x44 d14 0.6041215944712744
    x44 r16 -0.8557128604878743
    x44 d16 -0.8557128604874089
    x44 r22 0.9152489325833459
    x44 d22 0.9152489325829456
    x44 r23 -0.2969132008753641
    x44 d23 -0.2969132008752316
    x44 r27 0.23701134763831355
    x44 d27 0.2370113476381076
    x44 r30 -0.014510584268467852
    x44 d30 -0.014510584268457421
    x44 r31 -0.5539018715247708
    x44 d31 -0.553901871524266
    x44 r35 0.1967553763947083
    x44 d35 0.19675537639467497
    x44 r43 0.2801729795997552
    x44 d43 0.2801729795997779
    x44 r45 0.17424409784394657
    x44 d45 0.17424409784391523
    x44 r48 -0.4253095002030509
    x44 d48 -0.42530950020336145
    x44 r50 0.19158648989734228
    x44 d50 0.1915864898971808
    x44 r51 0.2551782603670838
    x44 d51 0.25517826036718405
    x44 r61 0.8107991351173567
    x44 d61 0.8107991351174083
    x44 r62 -0.936385227990197
    x44 d62 -0.9363852279894346
    x44 r64 0.1068189369481285
    x44 d64 0.10681893694802237
    x44 r67 -0.11787357452240999
    x44 d67 -0.11787357452232936
    x44 r71 -0.05588753885828979
    x44 d71 -0.055887538858344736
    x44 r73 -0.09966882016176348
    x44 d73 -0.09966882016177074
    x44 r74 0.4215970445263
    x44 d74 0.4215970445265962
    x44 r78 0.3585847710768255
    x44 d78 0.35858477107705444
    x44 r81 0.9693825086306733
    x44 d81 0.9693825086298223
    x44 r84 0.5561758590620649
    x44 d84 0.5561758590625805
    x44 r91 -0.9679634565919251
    x44 d91 -0.9679634565921166
    x44 r92 -0.315962853607457
    x44 d92 -0.315962853607736
    x44 r93 0.6653665281684897
    x44 d93 0.6653665281682
    x45 OBJ 0.148847420517342
    x45 r1 -0.9020461900248344
    x45 d1 -0.9020461900240492
    x45 r2 -0.43340998646893025
    x45 d2 -0.43340998646872253
    x45 r11 -0.6931752492798087
    x45 d11 -0.6931752492797532
    x45 r12 0.1711774888546025
    x45 d12 0.17117748885464315
    x45 r15 0.004601309902189321
    x45 d15 0.00460130990219118
    x45 r18 -0.2298706461935054
    x45 d18 -0.22987064619328154
    x45 r23 0.991491519046531
    x45 d23 0.9914915190471868
    x45 r25 0.6088568492606179
    x45 d25 0.608856849260103
    x45 r27 0.47356358617817884
    x45 d27 0.473563586178582
    x45 r32 -0.02423346254552694
    x45 d32 -0.024233462545543386
    x45 r33 -0.18159781050303758
    x45 d33 -0.1815978105031823
    x45 r43 0.5123001083769356
    x45 d43 0.5123001083766996
    x45 r44 -0.9426631759215551
    x45 d44 -0.9426631759211966
    x45 r45 0.4446810752298891
    x45 d45 0.4446810752294938
    x45 r50 0.05222577618973623
    x45 d50 0.05222577618970248
    x45 r55 -0.047125360457231036
    x45 d55 -0.04712536045720239
    x45 r58 -0.04719599623581927
    x45 d58 -0.04719599623580439
    x45 r59 -0.040719365747720504
    x45 d59 -0.040719365747691555
    x45 r61 0.27879931048083617
    x45 d61 0.27879931048072615
    x45 r64 0.0272982385376368
    x45 d64 0.027298238537647866
    x45 r66 0.5698571802317605
    x45 d66 0.5698571802320088
    x45 r68 -0.08472862386497781
    x45 d68 -0.08472862386493818
    x45 r70 -0.7942855729734772
    x45 d70 -0.7942855729736268
    x45 r73 0.9233313318730574
    x45 d73 0.9233313318728404
    x45 r74 -0.7540435601182323
    x45 d74 -0.754043560117833
    x45 r75 -0.441137369384079
    x45 d75 -0.44113736938388115
    x45 r77 -0.03005006934636012
    x45 d77 -0.030050069346350915
    x45 r82 -0.31677063534379735
    x45 d82 -0.3167706353439964
    x45 r83 -0.07448053206015626
    x45 d83 -0.07448053206018548
    x45 r90 0.33377495658977563
    x45 d90 0.3337749565895585
    x45 r92 -0.42552323110028656
    x45 d92 -0.42552323110057155
    x45 r94 0.7677820182312534
    x45 d94 0.7677820182312873
    x45 r96 0.4254864653609125
    x45 d96 0.4254864653609666
    x46 OBJ 0.050393007622902886
    x46 r0 -0.05301413507608732
    x46 d0 -0.05301413507611888
    x46 r5 0.42917989559063385
    x46 d5 0.4291798955909947
    x46 r6 -0.9120424813121246
    x46 d6 -0.9120424813118747
    x46 r9 -0.13255845221692608
    x46 d9 -0.13255845221684603
    x46 r11 0.5142409794997451
    x46 d11 0.5142409794999626
    x46 r13 0.8765014403263307
    x46 d13 0.8765014403255011
    x46 r16 -0.6806355014259517
    x46 d16 -0.68063550142659
    x46 r18 -0.4356134192351129
    x46 d18 -0.4356134192349648
    x46 r34 -0.6537890149768055
    x46 d34 -0.6537890149762225
    x46 r37 -0.8725959597091433
    x46 d37 -0.8725959597084597
    x46 r44 0.4059423495304293
    x46 d44 0.40594234953029307
    x46 r47 0.47633119976415106
    x46 d47 0.4763311997638615
    x46 r52 -0.08603213553368483
    x46 d52 -0.0860321355336619
    x46 r54 0.8272593536867876
    x46 d54 0.8272593536869257
    x46 r61 0.6371904776940198
    x46 d61 0.6371904776938692
    x46 r63 -0.17091339299447927
    x46 d63 -0.1709133929944188
    x46 r70 -0.20396914647000108
    x46 d70 -0.20396914647008813
    x46 r71 -0.6347975033471291
    x46 d71 -0.6347975033470827
    x46 r78 -0.24129146038785265
    x46 d78 -0.24129146038794905
    x46 r84 0.5139827222600797
    x46 d84 0.5139827222597078
    x46 r88 -0.4604270992877928
    x46 d88 -0.4604270992878403
    x46 r89 -0.942680287314656
    x46 d89 -0.9426802873151343
    x46 r92 0.20289108483383922
    x46 d92 0.2028910848338236
    x46 r94 -0.38405371743693095
    x46 d94 -0.38405371743705075
    x47 OBJ 0.7502749911468578
    x47 r1 -0.055631825106343014
    x47 d1 -0.05563182510629115
    x47 r8 -0.4961424615865171
    x47 d8 -0.4961424615864601
    x47 r11 0.9463057351459749
    x47 d11 0.946305735145206
    x47 r14 0.5961663478904797
    x47 d14 0.5961663478900153
    x47 r15 0.33964922912299245
    x47 d15 0.3396492291230034
    x47 r16 -0.4425094082846488
    x47 d16 -0.44250940828449103
    x47 r19 0.4082122720166901
    x47 d19 0.40821227201671184
    x47 r22 0.4900398896388143
    x47 d22 0.4900398896387793
    x47 r33 0.5317650450174141
    x47 d33 0.5317650450176853
    x47 r34 0.5345944701871186
    x47 d34 0.5345944701870987
    x47 r43 0.6858721593748749
    x47 d43 0.6858721593744457
    x47 r47 -0.3935207997691934
    x47 d47 -0.3935207997689241
    x47 r49 0.6555440563252835
    x47 d49 0.655544056325676
    x47 r55 0.42080739653771326
    x47 d55 0.4208073965379601
    x47 r58 0.8825407194674717
    x47 d58 0.8825407194669308
    x47 r61 -0.8776371302545019
    x47 d61 -0.8776371302543587
    x47 r66 0.9831204065459342
    x47 d66 0.9831204065459528
    x47 r68 0.4023123738822767
    x47 d68 0.402312373882433
    x47 r69 0.6441623951243083
    x47 d69 0.644162395124383
    x47 r73 -0.8442823460005064
    x47 d73 -0.8442823460005467
    x47 r74 -0.5658694843180412
    x47 d74 -0.5658694843181956
    x47 r76 0.5500304802538878
    x47 d76 0.5500304802540742
    x47 r77 0.24657560796835987
    x47 d77 0.24657560796859737
    x47 r80 0.6845146932893049
    x47 d80 0.684514693288754
    x47 r87 -0.01305281043506512
    x47 d87 -0.01305281043506936
    x47 r88 0.09420582281429768
    x47 d88 0.09420582281436259
    x48 OBJ 0.4588905788784352
    x48 r2 -0.018980700469675593
    x48 d2 -0.018980700469665577
    x48 r3 -0.07818397690533829
    x48 d3 -0.07818397690539157
    x48 r8 -0.1324110293115799
    x48 d8 -0.13241102931154472
    x48 r9 0.7252607774724928
    x48 d9 0.7252607774724318
    x48 r18 -0.3493023299524245
    x48 d18 -0.3493023299522995
    x48 r23 0.7103021478978415
    x48 d23 0.7103021478974282
    x48 r25 0.6400909483585542
    x48 d25 0.6400909483585665
    x48 r26 0.12837199709308367
    x48 d26 0.12837199709305563
    x48 r27 0.46586419781662713
    x48 d27 0.46586419781680477
    x48 r29 -0.9624034414174765
    x48 d29 -0.962403441417757
    x48 r30 0.9406104966448261
    x48 d30 0.940610496644681
    x48 r32 -0.035069335538953306
    x48 d32 -0.03506933553894135
    x48 r33 0.12856981303699033
    x48 d33 0.12856981303697557
    x48 r37 -0.5451403275326148
    x48 d37 -0.5451403275328205
    x48 r38 0.06875463264286719
    x48 d38 0.0687546326428483
    x48 r41 -0.9764562610943053
    x48 d41 -0.9764562610950857
    x48 r43 0.8018807889525585
    x48 d43 0.8018807889521067
    x48 r46 -0.4200802608661278
    x48 d46 -0.42008026086606876
    x48 r51 -0.45520106742373034
    x48 d51 -0.4552010674235891
    x48 r55 0.06898362914143119
    x48 d55 0.06898362914146013
    x48 r61 0.3562758591799231
    x48 d61 0.35627585918021615
    x48 r62 0.8989091840674543
    x48 d62 0.8989091840675502
    x48 r67 -0.2491044067192172
    x48 d67 -0.24910440671914325
    x48 r69 0.56739476138297
    x48 d69 0.5673947613831894
    x48 r74 0.5777001915516218
    x48 d74 0.5777001915516273
    x48 r82 0.17994981085451434
    x48 d82 0.17994981085443842
    x48 r87 -0.3908238774145578
    x48 d87 -0.3908238774142918
    x48 r91 -0.91201978646327
    x48 d91 -0.9120197864640969
    x48 r95 -0.9033796882312122
    x48 d95 -0.9033796882304511
    x49 OBJ -0.42412447021962696
    x49 r1 0.47806500999249923
    x49 d1 0.47806500999254953
    x49 r8 -0.5935894649320035
    x49 d8 -0.5935894649322557
    x49 r9 0.19256926323695756
    x49 d9 0.19256926323685614
    x49 r11 0.6141284187004115
    x49 d11 0.614128418699942
    x49 r18 0.728038160139024
    x49 d18 0.7280381601385849
    x49 r21 -0.3089534366993274
    x49 d21 -0.30895343669913233
    x49 r23 0.6094484346186639
    x49 d23 0.6094484346188439
    x49 r25 -0.9068842661242564
    x49 d25 -0.9068842661247921
    x49 r28 0.009702131929903324
    x49 d28 0.009702131929903438
    x49 r30 -0.4322208550562081
    x49 d30 -0.4322208550564965
    x49 r31 0.8106844724160511
    x49 d31 0.8106844724153275
    x49 r33 -0.6740810174865037
    x49 d33 -0.6740810174869731
    x49 r36 0.49370802850693907
    x49 d36 0.49370802850742856
    x49 r38 0.07357868934506828
    x49 d38 0.07357868934512928
    x49 r41 0.5899840877014029
    x49 d41 0.5899840877018154
    x49 r47 0.6816948463369226
    x49 d47 0.6816948463367247
    x49 r55 -0.8503082411123337
    x49 d55 -0.850308241112673
    x49 r57 0.6368221386936597
    x49 d57 0.636822138694148
    x49 r60 0.5046250715194855
    x49 d60 0.5046250715197821
    x49 r69 0.9144210571051727
    x49 d69 0.9144210571044865
    x49 r72 0.18201392008390993
    x49 d72 0.18201392008400952
    x49 r78 -0.004473728454113868
    x49 d78 -0.004473728454117417
    x49 r84 0.2349106954879454
    x49 d84 0.23491069548784402
    x49 r88 -0.9236281763983785
    x49 d88 -0.9236281763989892
    x49 r92 0.6379895245929337
    x49 d92 0.6379895245928195
    x49 r93 0.5251483725373329
    x49 d93 0.5251483725373867
    x49 r96 -0.46988065473474716
    x49 d96 -0.46988065473464913
    x49 r99 -0.25163973445521104
    x49 d99 -0.25163973445522625
    x50 OBJ 0.9603496949851642
    x50 r4 0.2890116493730621
    x50 d4 0.28901164937279394
    x50 r9 0.8447969216298699
    x50 d9 0.8447969216298574
    x50 r11 0.024252955962315248
    x50 d11 0.024252955962314256
    x50 r13 0.7403100258505304
    x50 d13 0.7403100258502686
    x50 r15 0.8677815882759632
    x50 d15 0.8677815882767994
    x50 r19 0.8477446360621448
    x50 d19 0.8477446360616477
    x50 r22 0.8363420889489934
    x50 d22 0.836342088949724
    x50 r29 0.6282553533330206
    x50 d29 0.6282553533331956
    x50 r31 0.20361144359228156
    x50 d31 0.20361144359228445
    x50 r32 -0.5128266006106119
    x50 d32 -0.5128266006109506
    x50 r44 -0.16406106864722725
    x50 d44 -0.16406106864723008
    x50 r50 -0.5797943520392388
    x50 d50 -0.5797943520390633
    x50 r52 -0.940382900311663
    x50 d52 -0.940382900311888
    x50 r55 -0.14599329484722956
    x50 d55 -0.1459932948473097
    x50 r57 0.7175448693923425
    x50 d57 0.7175448693919156
    x50 r58 0.9100647150076793
    x50 d58 0.9100647150069855
    x50 r61 -0.17376665094609245
    x50 d61 -0.17376665094610874
    x50 r62 -0.10148580051612943
    x50 d62 -0.10148580051609121
    x50 r63 0.6072906210431219
    x50 d63 0.6072906210433121
    x50 r65 -0.5411260675759981
    x50 d65 -0.5411260675759071
    x50 r73 -0.6536054072374959
    x50 d73 -0.6536054072378752
    x50 r77 0.11652367439831313
    x50 d77 0.11652367439841523
    x50 r80 -0.030154832655816755
    x50 d80 -0.030154832655831156
    x50 r84 -0.6000859994362568
    x50 d84 -0.6000859994366596
    x50 r89 0.5298007642674496
    x50 d89 0.5298007642671546
    x50 r91 0.698437311208626
    x50 d91 0.6984373112090901
    x50 r92 0.5611385041716206
    x50 d92 0.5611385041721206
    x50 r93 -0.04856677914017182
    x50 d93 -0.04856677914020741
    x50 r94 -0.8654887633834247
    x50 d94 -0.8654887633830531
    x50 r95 0.5196221254776663
    x50 d95 0.5196221254772518
    x50 r96 0.49452755585245134
    x50 d96 0.49452755585230695
    x50 r99 0.7254843499186105
    x50 d99 0.7254843499192447
    x51 OBJ -0.7638684434900758
    x51 r1 0.31199065206445775
    x51 d1 0.311990652064349
    x51 r2 -0.7466992909119683
    x51 d2 -0.7466992909123326
    x51 r4 -0.6964715476796779
    x51 d4 -0.6964715476802736
    x51 r7 -0.6389966909806384
    x51 d7 -0.6389966909807675
    x51 r11 0.5739054971456425
    x51 d11 0.5739054971452682
    x51 r20 -0.4892376868502455
    x51 d20 -0.4892376868498967
    x51 r21 -0.3876362574422756
    x51 d21 -0.3876362574419934
    x51 r25 0.8305468829058258
    x51 d25 0.8305468829051894
    x51 r26 0.2734011106404781
    x51 d26 0.2734011106404911
    x51 r30 0.4498348821536944
    x51 d30 0.44983488215352463
    x51 r34 -0.006830532204470163
    x51 d34 -0.006830532204475698
    x51 r36 -0.08021269203824066
    x51 d36 -0.08021269203826312
    x51 r37 -0.27058862380532744
    x51 d37 -0.27058862380521576
    x51 r39 0.38907799328787207
    x51 d39 0.38907799328780424
    x51 r40 -0.6875587483402863
    x51 d40 -0.6875587483400547
    x51 r41 -0.3390916976309135
    x51 d41 -0.33909169763077496
    x51 r46 -0.7072230765588243
    x51 d46 -0.7072230765587894
    x51 r47 -0.059755090264620225
    x51 d47 -0.059755090264602476
    x51 r50 -0.29506331076858894
    x51 d50 -0.29506331076887193
    x51 r61 -0.6332709713144884
    x51 d61 -0.6332709713149604
    x51 r66 -0.4435906248457784
    x51 d66 -0.4435906248456978
    x51 r67 -0.23933633916600794
    x51 d67 -0.239336339165943
    x51 r68 0.7800270400259681
    x51 d68 0.7800270400256993
    x51 r70 0.1030159554470973
    x51 d70 0.10301595544718953
    x51 r72 -0.9618205842879959
    x51 d72 -0.9618205842884698
    x51 r76 -0.8641845909197037
    x51 d76 -0.8641845909199729
    x51 r84 0.8761944309885059
    x51 d84 0.8761944309889302
    x51 r85 0.6744721909106197
    x51 d85 0.6744721909105051
    x51 r91 0.14307847994260836
    x51 d91 0.1430784799424951
    x51 r93 0.020628237273407013
    x51 d93 0.02062823727338906
    x51 r94 0.4076405317078995
    x51 d94 0.4076405317080902
    x51 r96 -0.8037547211050959
    x51 d96 -0.8037547211057072
    x51 r99 0.4107867227779751
    x51 d99 0.410786722777654
    x52 OBJ -0.1637543564295456
    x52 r4 -0.9904334394733987
    x52 d4 -0.9904334394728451
    x52 r8 0.9886231496721709
    x52 d8 0.988623149671766
    x52 r12 0.8840324686775067
    x52 d12 0.8840324686768082
    x52 r20 0.7502520729350408
    x52 d20 0.7502520729344077
    x52 r22 0.787773538120762
    x52 d22 0.7877735381207427
    x52 r28 0.6244718162542173
    x52 d28 0.6244718162546516
    x52 r29 -0.9754888828379464
    x52 d29 -0.9754888828388921
    x52 r30 -0.1817667281882931
    x52 d30 -0.1817667281882003
    x52 r34 -0.29555312445385384
    x52 d34 -0.2955531244539444
    x52 r35 -0.9038930328715293
    x52 d35 -0.9038930328718141
    x52 r36 0.9996484792880234
    x52 d36 0.9996484792882653
    x52 r37 -0.49577814729543257
    x52 d37 -0.49577814729499015
    x52 r42 0.5532771836703738
    x52 d42 0.5532771836707024
    x52 r44 -0.7018665714351278
    x52 d44 -0.7018665714350499
    x52 r45 -0.024973900887383715
    x52 d45 -0.02497390088737969
    x52 r50 -0.3952694298763766
    x52 d50 -0.3952694298763505
    x52 r51 0.7337374296433239
    x52 d51 0.73373742964326
    x52 r54 -0.9455069041020396
    x52 d54 -0.9455069041019447
    x52 r55 -0.11755174229324528
    x52 d55 -0.11755174229317508
    x52 r56 0.547798872368265
    x52 d56 0.5477988723687184
    x52 r58 0.40134846705000093
    x52 d58 0.40134846704998184
    x52 r61 0.9156248072367956
    x52 d61 0.9156248072369011
    x52 r62 -0.5371227942215915
    x52 d62 -0.5371227942210571
    x52 r69 0.7024355702555156
    x52 d69 0.7024355702556401
    x52 r74 0.6491531629048686
    x52 d74 0.6491531629051526
    x52 r75 -0.5131280547608681
    x52 d75 -0.5131280547610897
    x52 r77 -0.7287894635899235
    x52 d77 -0.7287894635896381
    x52 r78 -0.2345782592274912
    x52 d78 -0.23457825922733483
    x52 r83 -0.2807366231680941
    x52 d83 -0.2807366231678167
    x52 r84 0.4236584150832088
    x52 d84 0.42365841508329005
    x52 r85 0.8546411126711908
    x52 d85 0.8546411126710943
    x52 r86 0.09927030725605746
    x52 d86 0.09927030725613276
    x52 r91 -0.11852485186180783
    x52 d91 -0.11852485186170508
    x52 r94 0.28077928307493005
    x52 d94 0.28077928307469907
    x53 OBJ 0.5142818591304987
    x53 r0 0.1205922671679045
    x53 d0 0.12059226716796437
    x53 r5 0.7456066922499023
    x53 d5 0.7456066922503101
    x53 r8 0.1390465317790135
    x53 d8 0.13904653177898788
    x53 r15 -0.032647826711386996
    x53 d15 -0.032647826711365395
    x53 r22 -0.4581370625170753
    x53 d22 -0.4581370625166192
    x53 r23 0.6684833588084462
    x53 d23 0.6684833588085197
    x53 r24 0.3845916307393349
    x53 d24 0.38459163073961805
    x53 r25 -0.8111448373781851
    x53 d25 -0.8111448373788219
    x53 r35 0.8462102791211543
    x53 d35 0.8462102791218952
    x53 r36 0.2710523922085215
    x53 d36 0.27105239220831956
    x53 r37 0.9528563047849756
    x53 d37 0.9528563047843427
    x53 r38 0.8623361975214212
    x53 d38 0.8623361975213976
    x53 r46 -0.6580784512622682
    x53 d46 -0.6580784512624102
    x53 r47 -0.25414420143554617
    x53 d47 -0.2541442014354615
    x53 r50 -0.038091408166255336
    x53 d50 -0.03809140816624777
    x53 r60 0.9531324663532696
    x53 d60 0.9531324663539534
    x53 r61 0.30950310886924726
    x53 d61 0.30950310886914606
    x53 r62 0.08632260035402628
    x53 d62 0.08632260035397797
    x53 r65 0.9973479877523412
    x53 d65 0.9973479877527469
    x53 r68 0.9632670698706784
    x53 d68 0.9632670698704441
    x53 r69 0.6538957011689959
    x53 d69 0.6538957011691303
    x53 r74 -0.2938896210516586
    x53 d74 -0.293889621051917
    x53 r75 -0.46926526451878936
    x53 d75 -0.46926526451881656
    x53 r79 0.8752462236991987
    x53 d79 0.8752462236989919
    x53 r80 -0.39349473939857127
    x53 d80 -0.3934947393986411
    x53 r82 -0.05848190376958473
    x53 d82 -0.05848190376960577
    x53 r83 -0.8551868591123652
    x53 d83 -0.8551868591116568
    x53 r87 0.3099006508297528
    x53 d87 0.3099006508295623
    x53 r88 0.37013790732597207
    x53 d88 0.37013790732565904
    x53 r95 -0.28644224002667373
    x53 d95 -0.2864422400265154
    x53 r99 -0.8751887699205616
    x53 d99 -0.8751887699197476
    x54 OBJ -0.6960309306789905
    x54 r0 -0.44616585907043693
    x54 d0 -0.4461658590704396
    x54 r4 0.932696906603381
    x54 d4 0.9326969066041906
    x54 r7 0.7243472760516536
    x54 d7 0.7243472760510441
    x54 r8 0.7261398871822264
    x54 d8 0.7261398871824417
    x54 r10 -0.6762502367273322
    x54 d10 -0.6762502367271366
    x54 r11 0.7028287206547272
    x54 d11 0.7028287206543488
    x54 r12 0.8295518878042702
    x54 d12 0.8295518878041968
    x54 r15 0.37142522670551115
    x54 d15 0.371425226705519
    x54 r16 0.852994158945992
    x54 d16 0.8529941589462414
    x54 r17 0.8988569250831959
    x54 d17 0.8988569250828822
    x54 r19 -0.9415586231575459
    x54 d19 -0.9415586231569378
    x54 r28 0.7098509538844475
    x54 d28 0.709850953885155
    x54 r30 0.6464680684955866
    x54 d30 0.6464680684949666
    x54 r34 0.5898682524716938
    x54 d34 0.58986825247222
    x54 r49 0.03255116977714456
    x54 d49 0.032551169777147275
    x54 r50 0.852851746734774
    x54 d50 0.8528517467353252
    x54 r53 0.6205617914830326
    x54 d53 0.6205617914830214
    x54 r54 0.7969995690731637
    x54 d54 0.7969995690730745
    x54 r58 -0.7968518243720857
    x54 d58 -0.7968518243713992
    x54 r60 0.689946022070457
    x54 d60 0.6899460220710771
    x54 r72 0.9914499403944033
    x54 d72 0.991449940394765
    x54 r73 -0.28205414491110004
    x54 d73 -0.28205414491112696
    x54 r74 0.33177783858936394
    x54 d74 0.3317778385891436
    x54 r75 -0.11701493233568283
    x54 d75 -0.11701493233574896
    x54 r77 -0.573165614356022
    x54 d77 -0.5731656143556481
    x54 r78 0.7184511159638052
    x54 d78 0.7184511159643291
    x54 r79 -0.9045455317905422
    x54 d79 -0.9045455317899737
    x54 r81 0.19664322446440718
    x54 d81 0.1966432244644206
    x54 r84 0.25192337214189187
    x54 d84 0.2519233721420418
    x54 r87 -0.9692011827253686
    x54 d87 -0.9692011827250537
    x54 r89 0.7626159162108632
    x54 d89 0.762615916210776
    x54 r90 0.6409805428251616
    x54 d90 0.6409805428252342
    x54 r92 -0.934585541328649
    x54 d92 -0.9345855413284047
    x54 r93 0.20646681737256656
    x54 d93 0.20646681737259062
    x54 r94 -0.8327072245026832
    x54 d94 -0.8327072245033078
    x54 r97 -0.26468996113706433
    x54 d97 -0.26468996113709714
    x54 r98 -0.25100954804463194
    x54 d98 -0.25100954804453374
    x55 OBJ -0.022073799048388798
    x55 r1 -0.6766860771898837
    x55 d1 -0.6766860771905338
    x55 r2 0.8523356264288384
    x55 d2 0.8523356264295964
    x55 r3 0.68621214405159
    x55 d3 0.6862121440515461
    x55 r4 0.7390982973776379
    x55 d4 0.7390982973781799
    x55 r7 -0.8100705565878741
    x55 d7 -0.8100705565883753
    x55 r12 -0.9649847909217371
    x55 d12 -0.9649847909220011
    x55 r25 0.33214267038596224
    x55 d25 0.3321426703862538
    x55 r29 -0.9771032098710812
    x55 d29 -0.9771032098702871
    x55 r34 -0.11593238560128416
    x55 d34 -0.11593238560136764
    x55 r36 0.8687195518564761
    x55 d36 0.8687195518564347
    x55 r42 0.8855461749488467
    x55 d42 0.8855461749488592
    x55 r43 -0.3254924363756302
    x55 d43 -0.3254924363758181
    x55 r44 0.6789276100092381
    x55 d44 0.6789276100093021
    x55 r46 -0.19074404145372004
    x55 d46 -0.1907440414538522
    x55 r48 -0.08004260527121265
    x55 d48 -0.08004260527117449
    x55 r49 -0.06637855038303919
    x55 d49 -0.06637855038297612
    x55 r52 -0.39311698539530693
    x55 d52 -0.3931169853951972
    x55 r55 -0.20685875790145292
    x55 d55 -0.2068587579016469
    x55 r56 -0.1984095710301288
    x55 d56 -0.1984095710301087
    x55 r59 -0.06926156071970957
    x55 d59 -0.06926156071974643
    x55 r61 0.5407063534159637
    x55 d61 0.5407063534155703
    x55 r65 -0.4566194852941017
    x55 d65 -0.45661948529382734
    x55 r68 -0.882677162016279
    x55 d68 -0.8826771620168045
    x55 r70 0.028130016221805887
    x55 d70 0.028130016221815782
    x55 r74 0.8413892455744285
    x55 d74 0.8413892455752384
    x55 r76 -0.46932288339646955
    x55 d76 -0.46932288339687844
    x55 r80 0.9866845193256537
    x55 d80 0.9866845193264411
    x55 r86 0.2859939633535773
    x55 d86 0.28599396335356514
    x55 r88 -0.6037905301803119
    x55 d88 -0.6037905301807568
    x55 r90 -0.4596408697199035
    x55 d90 -0.4596408697196667
    x55 r93 0.8057251901064595
    x55 d93 0.8057251901066754
    x55 r94 0.5524396284113309
    x55 d94 0.5524396284107933
    x55 r95 0.173554610737642
    x55 d95 0.1735546107375768
    x55 r96 0.15458780859123933
    x55 d96 0.15458780859120405
    x56 OBJ -0.9215854859051247
    x56 r1 0.8119198204849145
    x56 d1 0.8119198204855372
    x56 r4 -0.9644458550893382
    x56 d4 -0.964445855090088
    x56 r8 0.5030790587741834
    x56 d8 0.5030790587744961
    x56 r9 -0.577946997665642
    x56 d9 -0.5779469976661137
    x56 r12 -0.4220606870432777
    x56 d12 -0.4220606870430908
    x56 r19 -0.9177451987436669
    x56 d19 -0.9177451987433664
    x56 r20 0.41160808409890004
    x56 d20 0.41160808409930977
    x56 r22 -0.5792305548618595
    x56 d22 -0.57923055486169
    x56 r27 0.9929098891634376
    x56 d27 0.9929098891627632
    x56 r29 0.7620189920011959
    x56 d29 0.7620189920008849
    x56 r33 -0.24298620068392585
    x56 d33 -0.24298620068382198
    x56 r37 0.9511433543673073
    x56 d37 0.9511433543679735
    x56 r38 0.35308680664120073
    x56 d38 0.3530868066414601
    x56 r41 -0.9171817758320024
    x56 d41 -0.9171817758313322
    x56 r43 -0.4773992184302043
    x56 d43 -0.477399218430618
    x56 r45 0.3793042691705062
    x56 d45 0.37930426917021415
    x56 r46 0.71778078908867
    x56 d46 0.7177807890884346
    x56 r53 0.8810257235286925
    x56 d53 0.8810257235280339
    x56 r64 0.47039974100322257
    x56 d64 0.4703997410029428
    x56 r66 -0.34945598065095407
    x56 d66 -0.34945598065065736
    x56 r70 -0.7600022038489485
    x56 d70 -0.7600022038493398
    x56 r73 0.4006141809388144
    x56 d73 0.4006141809385034
    x56 r78 0.8231700879575614
    x56 d78 0.8231700879581564
    x56 r81 -0.7171682804670665
    x56 d81 -0.7171682804668141
    x56 r83 0.7974204636710618
    x56 d83 0.7974204636710426
    x56 r84 -0.28562811866257465
    x56 d84 -0.2856281186623173
    x56 r88 -0.9304059149763939
    x56 d88 -0.9304059149762974
    x56 r96 0.0697708413754381
    x56 d96 0.06977084137538972
    x57 OBJ 0.3364317130687904
    x57 r6 -0.22040927894547524
    x57 d6 -0.22040927894532894
    x57 r7 -0.02144552429034996
    x57 d7 -0.021445524290366065
    x57 r13 -0.3191219067439126
    x57 d13 -0.3191219067438996
    x57 r16 -0.8170256920312071
    x57 d16 -0.8170256920317507
    x57 r19 0.9896377206924603
    x57 d19 0.9896377206928195
    x57 r21 -0.8573479566030342
    x57 d21 -0.8573479566026535
    x57 r23 -0.17862945244636452
    x57 d23 -0.17862945244630224
    x57 r25 -0.04685092023908011
    x57 d25 -0.04685092023906535
    x57 r30 -0.9485057343897605
    x57 d30 -0.9485057343898239
    x57 r31 0.5432051512093423
    x57 d31 0.5432051512098037
    x57 r32 0.4840099278010739
    x57 d32 0.4840099278012111
    x57 r33 0.19295186631835182
    x57 d33 0.19295186631830988
    x57 r34 0.327307977980116
    x57 d34 0.327307977980112
    x57 r35 0.9403455317873717
    x57 d35 0.9403455317872392
    x57 r40 -0.826321231067217
    x57 d40 -0.8263212310680335
    x57 r41 0.2832376466542026
    x57 d41 0.2832376466539691
    x57 r43 0.3791636913959249
    x57 d43 0.37916369139587375
    x57 r45 0.6488115449599605
    x57 d45 0.6488115449601759
    x57 r49 -0.8698328539972344
    x57 d49 -0.8698328539975168
    x57 r54 -0.14122268765030221
    x57 d54 -0.14122268765043977
    x57 r55 0.6618541625528882
    x57 d55 0.6618541625529296
    x57 r60 0.02153234567609119
    x57 d60 0.021532345676091035
    x57 r62 -0.801872462375876
    x57 d62 -0.8018724623757445
    x57 r65 0.21236873863828576
    x57 d65 0.21236873863839864
    x57 r69 -0.016507285101141633
    x57 d69 -0.016507285101143968
    x57 r78 -0.7554252026809849
    x57 d78 -0.7554252026802412
    x57 r83 -0.7321205009930636
    x57 d83 -0.7321205009928234
    x57 r87 -0.8816265624872841
    x57 d87 -0.8816265624878596
    x57 r88 0.7811626400658567
    x57 d88 0.781162640065923
    x57 r92 -0.38178338126140177
    x57 d92 -0.38178338126135203
    x57 r95 0.38214065351798165
    x57 d95 0.38214065351804666
    x57 r96 -0.19613952730382556
    x57 d96 -0.19613952730371753
    x58 OBJ 0.5291417324256262
    x58 r1 0.812518780422721
    x58 d1 0.8125187804235137
    x58 r3 -0.12240393923131587
    x58 d3 -0.12240393923133121
    x58 r4 0.46711484706710804
    x58 d4 0.46711484706677153
    x58 r8 -0.33694358164173366
    x58 d8 -0.3369435816416341
    x58 r9 0.8357161688106376
    x58 d9 0.8357161688109473
    x58 r13 -0.7992050034053946
    x58 d13 -0.7992050034053877
    x58 r15 0.4305483071567606
    x58 d15 0.43054830715675524
    x58 r18 -0.48273315437049114
    x58 d18 -0.4827331543704238
    x58 r21 -0.13671146053192218
    x58 d21 -0.1367114605319605
    x58 r22 -0.17132575056661192
    x58 d22 -0.17132575056650837
    x58 r24 -0.8153162669084999
    x58 d24 -0.8153162669081039
    x58 r25 0.7425804136769918
    x58 d25 0.7425804136765594
    x58 r29 -0.19319088499585946
    x58 d29 -0.19319088499570597
    x58 r35 -0.6417077988586191
    x58 d35 -0.6417077988587198
    x58 r36 -0.6923891543800686
    x58 d36 -0.6923891543806181
    x58 r37 0.7383030908435437
    x58 d37 0.7383030908430374
    x58 r42 0.782963395860607
    x58 d42 0.7829633958603709
    x58 r43 -0.6923145180556904
    x58 d43 -0.69231451805524
    x58 r45 0.761454868240246
    x58 d45 0.7614548682399913
    x58 r48 -0.07231319746321274
    x58 d48 -0.07231319746321771
    x58 r50 -0.8772130720400633
    x58 d50 -0.877213072039592
    x58 r54 0.4053734268814222
    x58 d54 0.405373426881107
    x58 r56 -0.9247406893162553
    x58 d56 -0.9247406893159191
    x58 r61 -0.8728090708786045
    x58 d61 -0.872809070878624
    x58 r68 -0.88821296805043
    x58 d68 -0.8882129680497378
    x58 r71 0.505926383799163
    x58 d71 0.5059263837995991
    x58 r72 0.865039930730348
    x58 d72 0.8650399307299627
    x58 r79 0.24093164392165067
    x58 d79 0.2409316439217245
    x58 r80 0.5273703907268061
    x58 d80 0.527370390726384
    x58 r89 -0.5986136342586312
    x58 d89 -0.5986136342584093
    x58 r95 -0.4497164263872324
    x58 d95 -0.449716426386845
    x58 r96 0.17158699220730322
    x58 d96 0.17158699220745843
    x59 OBJ 0.14605188055476792
    x59 r4 -0.8997225855905759
    x59 d4 -0.899722585590481
    x59 r5 0.934852571615371
    x59 d5 0.9348525716154431
    x59 r6 -0.3816842377394747
    x59 d6 -0.38168423773914784
    x59 r7 0.14541409457808552
    x59 d7 0.14541409457803933
    x59 r9 -0.7982753743877531
    x59 d9 -0.7982753743880889
    x59 r10 0.03198605488896522
    x59 d10 0.0319860548889437
    x59 r14 0.8075630994284
    x59 d14 0.8075630994287977
    x59 r18 0.003963689519666191
    x59 d18 0.003963689519669349
    x59 r19 -0.7070069755927653
    x59 d19 -0.7070069755928267
    x59 r21 0.051962717467149755
    x59 d21 0.05196271746716401
    x59 r23 0.7511888082548286
    x59 d23 0.7511888082541976
    x59 r31 -0.2169474443793169
    x59 d31 -0.2169474443794063
    x59 r34 -0.7889742234249271
    x59 d34 -0.7889742234241715
    x59 r35 0.9910394212877804
    x59 d35 0.9910394212876037
    x59 r39 -0.5503600441640948
    x59 d39 -0.550360044163867
    x59 r40 -0.5909707752439406
    x59 d40 -0.5909707752437044
    x59 r47 0.4908645691164033
    x59 d47 0.4908645691162302
    x59 r53 -0.7033626044121046
    x59 d53 -0.7033626044115819
    x59 r54 -0.7792188041779942
    x59 d54 -0.7792188041779671
    x59 r57 -0.19690898246732913
    x59 d57 -0.19690898246720295
    x59 r60 0.15883201683808146
    x59 d60 0.15883201683815953
    x59 r62 -0.41929313845195004
    x59 d62 -0.4192931384522994
    x59 r63 -0.6859966316793962
    x59 d63 -0.6859966316798797
    x59 r66 0.9377310360797575
    x59 d66 0.9377310360797665
    x59 r70 0.6685198352398869
    x59 d70 0.6685198352395947
    x59 r71 -0.4158840473690031
    x59 d71 -0.4158840473693986
    x59 r75 -0.5361306150683973
    x59 d75 -0.5361306150680792
    x59 r82 0.7866686429362983
    x59 d82 0.7866686429361137
    x59 r85 -0.3616595695356746
    x59 d85 -0.36165956953587863
    x59 r86 0.9226250589029446
    x59 d86 0.9226250589020293
    x59 r90 0.19822702468709186
    x59 d90 0.19822702468693815
    x59 r91 0.3419646817746431
    x59 d91 0.34196468177459816
    x60 OBJ 0.7509556236617765
    x60 r2 0.5716511436788372
    x60 d2 0.5716511436791186
    x60 r5 -0.635212344409817
    x60 d5 -0.6352123444104502
    x60 r7 0.026368765670852667
    x60 d7 0.026368765670833506
    x60 r9 0.5685052289296972
    x60 d9 0.5685052289295744
    x60 r13 0.5930963162418226
    x60 d13 0.5930963162416606
    x60 r15 -0.35592025160753016
    x60 d15 -0.3559202516074389
    x60 r17 0.48544670754823915
    x60 d17 0.48544670754832336
    x60 r28 -0.33358679832104743
    x60 d28 -0.3335867983210924
    x60 r33 -0.46168926116077946
    x60 d33 -0.4616892611608504
    x60 r36 -0.5974665250771691
    x60 d36 -0.5974665250772393
    x60 r38 -0.7190784210642835
    x60 d38 -0.7190784210637501
    x60 r39 0.4066928385850632
    x60 d39 0.40669283858470356
    x60 r42 -0.7039527691055976
    x60 d42 -0.7039527691060845
    x60 r46 0.687437655246222
    x60 d46 0.6874376552463005
    x60 r47 0.16757007934681178
    x60 d47 0.16757007934666798
    x60 r48 0.14475253613979744
    x60 d48 0.1447525361399219
    x60 r50 -0.2641526523045774
    x60 d50 -0.26415265230473606
    x60 r54 -0.6771678541503923
    x60 d54 -0.6771678541507491
    x60 r56 -0.3088445203474812
    x60 d56 -0.3088445203472074
    x60 r65 -0.9560289365921839
    x60 d65 -0.9560289365914744
    x60 r69 0.16447539389148624
    x60 d69 0.16447539389155155
    x60 r70 0.5417410829990099
    x60 d70 0.5417410829992548
    x60 r71 0.7243041602131992
    x60 d71 0.7243041602125195
    x60 r77 -0.8625253573919995
    x60 d77 -0.8625253573921113
    x60 r81 -0.8322275485846504
    x60 d81 -0.8322275485846964
    x60 r84 0.6316849203007338
    x60 d84 0.6316849203009101
    x60 r88 -0.3989149902971314
    x60 d88 -0.39891499029742744
    x60 r89 0.19417419687462578
    x60 d89 0.19417419687459897
    x60 r90 0.7875016209819596
    x60 d90 0.7875016209822553
    x60 r91 -0.06501883445058265
    x60 d91 -0.06501883445059925
    x61 OBJ -0.37250497430380647
    x61 r1 -0.61518580847851
    x61 d1 -0.6151858084782208
    x61 r2 -0.1910308954905109
    x61 d2 -0.19103089549044475
    x61 r3 -0.07596405382900051
    x61 d3 -0.07596405382902563
    x61 r5 -0.4990838385319676
    x61 d5 -0.49908383853198496
    x61 r8 0.3655467273332993
    x61 d8 0.36554672733321547
    x61 r10 0.4766892272310421
    x61 d10 0.4766892272311682
    x61 r11 -0.891524856367025
    x61 d11 -0.8915248563669186
    x61 r13 -0.8586926219603563
    x61 d13 -0.8586926219610349
    x61 r15 0.16600038034355458
    x61 d15 0.16600038034367448
    x61 r18 -0.1351148010668486
    x61 d18 -0.13511480106671991
    x61 r20 0.5231666605687761
    x61 d20 0.5231666605690897
    x61 r21 0.7122953585403018
    x61 d21 0.7122953585403369
    x61 r28 0.2723278609288118
    x61 d28 0.2723278609285631
    x61 r29 -0.28974575642471123
    x61 d29 -0.28974575642458933
    x61 r42 -0.9428082488411962
    x61 d42 -0.9428082488419957
    x61 r43 0.7297226578606042
    x61 d43 0.7297226578601326
    x61 r48 0.0840293750433887
    x61 d48 0.08402937504333714
    x61 r50 -0.5794135138908381
    x61 d50 -0.5794135138903466
    x61 r58 -0.09124136452196918
    x61 d58 -0.09124136452195883
    x61 r65 0.6422993453951797
    x61 d65 0.642299345395284
    x61 r70 -0.2797821367188895
    x61 d70 -0.27978213671909685
    x61 r72 -0.503919708037075
    x61 d72 -0.5039197080368085
    x61 r73 0.7356941417617371
    x61 d73 0.7356941417612134
    x61 r74 0.8060463192771956
    x61 d74 0.8060463192764282
    x61 r78 0.16338412372170863
    x61 d78 0.1633841237216849
    x61 r83 0.4764885440967854
    x61 d83 0.4764885440970481
    x61 r86 -0.19316792097842805
    x61 d86 -0.19316792097848798
    x61 r87 -0.6869507544869973
    x61 d87 -0.6869507544866655
    x61 r94 -0.9780962827648034
    x61 d94 -0.978096282764151
    x62 OBJ 0.3905907325473186
    x62 r1 -0.3160895324368167
    x62 d1 -0.31608953243655374
    x62 r7 -0.18394741893569622
    x62 d7 -0.1839474189355815
    x62 r10 -0.376056225484783
    x62 d10 -0.37605622548515266
    x62 r13 0.4822120525321394
    x62 d13 0.48221205253199456
    x62 r16 0.39863445673595654
    x62 d16 0.3986344567358714
    x62 r22 0.7797411546184567
    x62 d22 0.7797411546186495
    x62 r24 0.498397655292111
    x62 d24 0.49839765529254115
    x62 r25 0.7721958252765309
    x62 d25 0.7721958252759832
    x62 r26 0.5784551021829238
    x62 d26 0.5784551021832507
    x62 r28 -0.9433926328976996
    x62 d28 -0.9433926328970098
    x62 r46 0.12985589188760027
    x62 d46 0.12985589188757166
    x62 r50 -0.5594293689995209
    x62 d50 -0.5594293689996258
    x62 r56 -0.08609003177636132
    x62 d56 -0.08609003177639044
    x62 r61 0.33158547600896027
    x62 d61 0.3315854760090722
    x62 r62 -0.1714603529001988
    x62 d62 -0.17146035290010284
    x62 r68 0.07354153060442603
    x62 d68 0.07354153060447186
    x62 r69 -0.542541614832361
    x62 d69 -0.5425416148328251
    x62 r74 -0.08268670981885728
    x62 d74 -0.08268670981877765
    x62 r75 -0.9355225423134903
    x62 d75 -0.9355225423134749
    x62 r80 -0.5322950343077644
    x62 d80 -0.5322950343082641
    x62 r85 -0.23781941412084873
    x62 d85 -0.23781941412098662
    x62 r88 0.06896773596695094
    x62 d88 0.06896773596697386
    x62 r89 0.8267641768877001
    x62 d89 0.8267641768869867
    x63 OBJ 0.18873975421003686
    x63 r1 -0.5217468385650914
    x63 d1 -0.5217468385646703
    x63 r3 -0.61685241360243
    x63 d3 -0.6168524136028503
    x63 r5 -0.8070572178615381
    x63 d5 -0.807057217861566
    x63 r6 -0.6530648146581008
    x63 d6 -0.6530648146574619
    x63 r7 -0.12094524302654053
    x63 d7 -0.12094524302654946
    x63 r10 -0.4047354911047403
    x63 d10 -0.40473549110458307
    x63 r11 -0.2060823340609137
    x63 d11 -0.20608233406075638
    x63 r13 -0.0758636945474982
    x63 d13 -0.07586369454750305
    x63 r19 -0.17336975988954384
    x63 d19 -0.1733697598893713
    x63 r28 -0.6511854830941319
    x63 d28 -0.6511854830943566
    x63 r29 -0.14157898332045749
    x63 d29 -0.14157898332037627
    x63 r37 0.15234499768403098
    x63 d37 0.1523449976841585
    x63 r47 0.48811548550241324
    x63 d47 0.48811548550255196
    x63 r52 0.07696974971760318
    x63 d52 0.07696974971757783
    x63 r55 0.5155863233306377
    x63 d55 0.5155863233303956
    x63 r57 -0.9699295239306114
    x63 d57 -0.9699295239307251
    x63 r61 -0.5956806818701832
    x63 d61 -0.5956806818696144
    x63 r64 -0.915159877222743
    x63 d64 -0.9151598772219175
    x63 r67 -0.3597339706573144
    x63 d67 -0.35973397065766793
    x63 r69 -0.9523143681481223
    x63 d69 -0.9523143681489739
    x63 r70 -0.07295718056951728
    x63 d70 -0.0729571805695449
    x63 r71 -0.5231308118699087
    x63 d71 -0.5231308118696146
    x63 r78 0.8805472976096702
    x63 d78 0.8805472976103336
    x63 r79 -0.7661244174976976
    x63 d79 -0.7661244174984093
    x63 r91 0.1541096081228437
    x63 d91 0.15410960812278174
    x63 r93 0.458675037098242
    x63 d93 0.4586750370981106
    x63 r96 0.7137134835611971
    x63 d96 0.7137134835608995
    x63 r98 0.18911091071238406
    x63 d98 0.1891109107124522
    x64 OBJ 0.1597904085649844
    x64 r1 0.139235484631983
    x64 d1 0.13923548463198257
    x64 r2 -0.5637262457353984
    x64 d2 -0.563726245735827
    x64 r4 0.2572463088853496
    x64 d4 0.25724630888514227
    x64 r9 0.8117566621662142
    x64 d9 0.8117566621666751
    x64 r11 0.4899927110751525
    x64 d11 0.4899927110747291
    x64 r23 -0.2842996556694295
    x64 d23 -0.28429965566942195
    x64 r30 -0.19671326519297083
    x64 d30 -0.19671326519299054
    x64 r36 -0.5874681038452789
    x64 d36 -0.5874681038454412
    x64 r37 0.7621907422125265
    x64 d37 0.762190742211989
    x64 r45 -0.8205601083178047
    x64 d45 -0.820560108317519
    x64 r47 0.9321381868978871
    x64 d47 0.9321381868978712
    x64 r48 -0.10396023470321669
    x64 d48 -0.10396023470321557
    x64 r50 0.3006009952651132
    x64 d50 0.30060099526537754
    x64 r51 -0.09391773621581434
    x64 d51 -0.09391773621588137
    x64 r52 -0.5111778882342368
    x64 d52 -0.5111778882340927
    x64 r56 -0.3510952163297383
    x64 d56 -0.351095216329859
    x64 r60 0.6970268115679521
    x64 d60 0.6970268115684096
    x64 r67 -0.011119466780790566
    x64 d67 -0.011119466780788779
    x64 r68 0.8321544944299719
    x64 d68 0.8321544944298808
    x64 r70 0.48915205953866536
    x64 d70 0.48915205953845964
    x64 r73 -0.8134929873174757
    x64 d73 -0.8134929873173259
    x64 r79 -0.0422521949173964
    x64 d79 -0.042252194917411806
    x64 r80 0.8978850877374751
    x64 d80 0.89788508773799
    x64 r82 -0.7456579458849035
    x64 d82 -0.7456579458851149
    x64 r85 -0.538642037177355
    x64 d85 -0.5386420371776904
    x64 r86 0.017436709415088902
    x64 d86 0.017436709415081544
    x64 r92 0.8351175030137219
    x64 d92 0.8351175030144775
    x64 r93 -0.24340771825626173
    x64 d93 -0.24340771825640048
    x64 r94 0.44863819921473747
    x64 d94 0.4486381992147069
    x64 r96 0.9895330890213014
    x64 d96 0.989533089021139
    x64 r99 -0.47004759361320625
    x64 d99 -0.47004759361316784
    x65 OBJ -0.0875893373971739
    x65 r5 -0.9646253014008426
    x65 d5 -0.9646253014011998
    x65 r6 0.9430948925361302
    x65 d6 0.9430948925370585
    x65 r11 0.6593262479753577
    x65 d11 0.6593262479751746
    x65 r12 -0.5125086084068773
    x65 d12 -0.5125086084064031
    x65 r17 0.5748774924756266
    x65 d17 0.574877492476149
    x65 r19 -0.1617218152076989
    x65 d19 -0.16172181520776707
    x65 r20 0.6637629636652695
    x65 d20 0.6637629636652148
    x65 r30 -0.21232801061489215
    x65 d30 -0.21232801061476975
    x65 r31 -0.45118907700299893
    x65 d31 -0.4511890770029499
    x65 r32 0.8839556844782488
    x65 d32 0.8839556844774201
    x65 r37 0.7658419159946999
    x65 d37 0.7658419159953558
    x65 r39 -0.48948374304932685
    x65 d39 -0.4894837430491269
    x65 r41 -0.20065703359516962
    x65 d41 -0.2006570335953243
    x65 r44 0.16988667621195264
    x65 d44 0.16988667621201006
    x65 r45 -0.8083272009116869
    x65 d45 -0.8083272009112311
    x65 r50 0.862027221295546
    x65 d50 0.8620272212957246
    x65 r60 -0.05420541539475954
    x65 d60 -0.05420541539473275
    x65 r63 0.6242666904624397
    x65 d63 0.6242666904628426
    x65 r64 0.4626107181400043
    x65 d64 0.4626107181400095
    x65 r69 0.3601117561695981
    x65 d69 0.3601117561699122
    x65 r71 -0.23636231364365345
    x65 d71 -0.2363623136438372
    x65 r74 -0.2493688006531063
    x65 d74 -0.24936880065312927
    x65 r78 0.3061474943707061
    x65 d78 0.3061474943705718
    x65 r83 -0.2881016808427397
    x65 d83 -0.28810168084296844
    x65 r84 0.9907839323023266
    x65 d84 0.9907839323021992
    x65 r90 -0.1452663301856254
    x65 d90 -0.14526633018561258
    x65 r91 -0.33974516262792354
    x65 d91 -0.33974516262821164
    x65 r93 0.1526820959674613
    x65 d93 0.15268209596746457
    x65 r96 -0.11385358815244917
    x65 d96 -0.11385358815237914
    x66 OBJ 0.6799355610250828
    x66 r6 0.12306805495822903
    x66 d6 0.12306805495829068
    x66 r8 0.7671377768443124
    x66 d8 0.7671377768444332
    x66 r9 -0.886670590581661
    x66 d9 -0.8866705905821817
    x66 r16 0.9127027276226127
    x66 d16 0.9127027276230788
    x66 r19 0.9954859761356252
    x66 d19 0.995485976135492
    x66 r24 -0.32889733298576007
    x66 d24 -0.3288973329856757
    x66 r29 -0.3020400268653596
    x66 d29 -0.30204002686507586
    x66 r33 0.44371524789994443
    x66 d33 0.4437152479003614
    x66 r38 -0.4641145896208081
    x66 d38 -0.4641145896207194
    x66 r41 0.223949445177561
    x66 d41 0.2239494451776774
    x66 r43 -0.9767987282015262
    x66 d43 -0.9767987282011485
    x66 r48 -0.39257489932257106
    x66 d48 -0.39257489932222556
    x66 r54 -0.6153699252640983
    x66 d54 -0.6153699252643083
    x66 r58 0.9152773281211115
    x66 d58 0.9152773281204546
    x66 r62 0.6358664890112422
    x66 d62 0.635866489011659
    x66 r67 -0.6042059328155458
    x66 d67 -0.6042059328152422
    x66 r70 0.5957441003938198
    x66 d70 0.5957441003943305
    x66 r71 -0.7189857416462382
    x66 d71 -0.7189857416455833
    x66 r82 -0.9918527754029103
    x66 d82 -0.9918527754029371
    x66 r84 -0.4331456387669015
    x66 d84 -0.4331456387673087
    x66 r88 0.5168781913188172
    x66 d88 0.5168781913191907
    x66 r91 0.47356645983259815
    x66 d91 0.47356645983295387
    x66 r92 -0.8024144830018147
    x66 d92 -0.8024144830010137
    x66 r93 -0.4572219821482004
    x66 d93 -0.4572219821480412
    x66 r94 0.6732435331258715
    x66 d94 0.6732435331263966
    x66 r96 -0.4620298062315735
    x66 d96 -0.4620298062320008
    x67 OBJ 0.8893621902158748
    x67 r3 -0.6880285594647031
    x67 d3 -0.688028559464531
    x67 r6 0.06750097679324263
    x67 d6 0.06750097679318647
    x67 r10 -0.3811929838174275
    x67 d10 -0.38119298381708006
    x67 r14 0.2217678179862841
    x67 d14 0.22176781798618225
    x67 r15 0.9563172673848386
    x67 d15 0.956317267384283
    x67 r16 0.4897055022959633
    x67 d16 0.48970550229574666
    x67 r19 0.9074361858441147
    x67 d19 0.9074361858433324
    x67 r21 0.5596709832943576
    x67 d21 0.5596709832947533
    x67 r28 0.05647861592697967
    x67 d28 0.05647861592693792
    x67 r31 0.7925551659191683
    x67 d31 0.7925551659187873
    x67 r33 0.6124099991277392
    x67 d33 0.6124099991274238
    x67 r35 0.02567871726946347
    x67 d35 0.02567871726945745
    x67 r40 -0.40361174402446687
    x67 d40 -0.40361174402409283
    x67 r43 -0.07263023800683532
    x67 d43 -0.07263023800681667
    x67 r47 0.9729851630110748
    x67 d47 0.9729851630112925
    x67 r48 -0.05466176891846186
    x67 d48 -0.05466176891850259
    x67 r49 0.8797329792210495
    x67 d49 0.879732979220595
    x67 r52 -0.9968021827208444
    x67 d52 -0.996802182721541
    x67 r53 -0.46962309991763695
    x67 d53 -0.4696230999178403
    x67 r54 -0.8199390566478888
    x67 d54 -0.8199390566472258
    x67 r55 0.22478958806499194
    x67 d55 0.2247895880651291
    x67 r57 0.959270639457795
    x67 d57 0.9592706394569077
    x67 r58 0.5308096908650395
    x67 d58 0.5308096908650138
    x67 r61 0.4855808495059051
    x67 d61 0.4855808495057708
    x67 r69 -0.5661535374336655
    x67 d69 -0.5661535374340408
    x67 r70 -0.6939767502338474
    x67 d70 -0.6939767502336897
    x67 r71 0.505098058022011
    x67 d71 0.505098058021665
    x67 r75 0.026125501884871616
    x67 d75 0.02612550188485337
    x67 r76 -0.9440757765442618
    x67 d76 -0.9440757765436797
    x67 r78 0.7568786716873892
    x67 d78 0.7568786716880467
    x67 r87 0.9092693101360656
    x67 d87 0.9092693101360044
    x67 r91 0.662214040797727
    x67 d91 0.6622140407978786
    x67 r92 -0.6855584931670713
    x67 d92 -0.685558493167112
    x67 r94 0.7021390218705037
    x67 d94 0.7021390218705399
    x68 OBJ -0.05180332516071107
    x68 r2 -0.5058822040156679
    x68 d2 -0.5058822040154943
    x68 r3 -0.34687485392548
    x68 d3 -0.3468748539254237
    x68 r4 0.9286308296421297
    x68 d4 0.9286308296429261
    x68 r7 0.9813151055630929
    x68 d7 0.9813151055638298
    x68 r9 0.6722541368948287
    x68 d9 0.6722541368950745
    x68 r11 0.30011652015963586
    x68 d11 0.3001165201596174
    x68 r14 0.7153428874317631
    x68 d14 0.7153428874312594
    x68 r18 0.27310785239021795
    x68 d18 0.27310785239040136
    x68 r21 -0.5008499479921107
    x68 d21 -0.5008499479923636
    x68 r22 -0.6986525667879933
    x68 d22 -0.6986525667880061
    x68 r23 -0.5540095299060166
    x68 d23 -0.554009529906042
    x68 r28 -0.8171526369181152
    x68 d28 -0.8171526369187677
    x68 r29 -0.22467588679498296
    x68 d29 -0.224675886795121
    x68 r30 0.07749883038047245
    x68 d30 0.0774988303804351
    x68 r33 0.8283973208125515
    x68 d33 0.828397320813127
    x68 r36 -0.7497107932752416
    x68 d36 -0.7497107932751812
    x68 r41 -0.8411128501080256
    x68 d41 -0.8411128501084272
    x68 r46 0.989061919519421
    x68 d46 0.9890619195187709
    x68 r54 0.10568107249804992
    x68 d54 0.10568107249811592
    x68 r56 -0.28948770671060897
    x68 d56 -0.2894877067107134
    x68 r57 0.9502613634207349
    x68 d57 0.9502613634207564
    x68 r58 -0.7681683758709377
    x68 d58 -0.7681683758703711
    x68 r60 0.901134518601908
    x68 d60 0.9011345186027093
    x68 r70 -0.17074121440482015
    x68 d70 -0.17074121440484824
    x68 r75 -0.2896253731138061
    x68 d75 -0.28962537311384967
    x68 r78 -0.432369021655141
    x68 d78 -0.4323690216547613
    x68 r83 0.7136105505929562
    x68 d83 0.7136105505922923
    x68 r87 0.5887130151677946
    x68 d87 0.5887130151680451
    x68 r88 -0.05834476333618244
    x68 d88 -0.058344763336223765
    x68 r92 0.920334361670913
    x68 d92 0.920334361671625
    x68 r95 -0.07308393309228678
    x68 d95 -0.07308393309225344
    x68 r96 -0.9819656140618584
    x68 d96 -0.9819656140615092
    x68 r97 -0.5863698077960735
    x68 d97 -0.5863698077956983
    x69 OBJ 0.3283044109493489
    x69 r9 -0.5346648413729749
    x69 d9 -0.5346648413734473
    x69 r10 -0.3582019518606758
    x69 d10 -0.3582019518604431
    x69 r11 -0.141904294739575
    x69 d11 -0.1419042947396989
    x69 r15 -0.8170695968881412
    x69 d15 -0.8170695968887582
    x69 r16 0.39006323077701577
    x69 d16 0.3900632307767112
    x69 r25 0.03255015321604082
    x69 d25 0.032550153216022566
    x69 r26 -0.08176914356355991
    x69 d26 -0.08176914356348762
    x69 r28 -0.6981415026401507
    x69 d28 -0.6981415026395283
    x69 r32 0.17297941308808396
    x69 d32 0.1729794130880416
    x69 r34 -0.5276182949054371
    x69 d34 -0.5276182949049724
    x69 r42 0.20549569303980886
    x69 d42 0.20549569303960968
    x69 r47 0.8300617216269064
    x69 d47 0.8300617216266165
    x69 r51 -0.21305063368463828
    x69 d51 -0.2130506336844932
    x69 r54 0.12516937295473296
    x69 d54 0.12516937295484012
    x69 r55 0.0704933751580783
    x69 d55 0.07049337515804278
    x69 r58 -0.6242905135236789
    x69 d58 -0.6242905135233585
    x69 r62 0.35581743697571966
    x69 d62 0.3558174369756763
    x69 r64 -0.6987817604634485
    x69 d64 -0.6987817604640157
    x69 r67 0.8187487268085498
    x69 d67 0.8187487268080778
    x69 r71 0.6001680351733332
    x69 d71 0.6001680351731823
    x69 r73 0.9285731213713369
    x69 d73 0.9285731213715251
    x69 r75 0.9207111731966708
    x69 d75 0.9207111731958196
    x69 r77 0.3083175654546608
    x69 d77 0.30831756545450656
    x69 r79 0.1751261115053715
    x69 d79 0.17512611150538818
    x69 r80 0.6028612385948604
    x69 d80 0.6028612385946791
    x69 r82 0.9055797988426042
    x69 d82 0.9055797988420768
    x69 r86 0.6528014545261975
    x69 d86 0.6528014545266615
    x69 r87 0.4375656362638307
    x69 d87 0.4375656362634924
    x69 r89 -0.6094329828636404
    x69 d89 -0.6094329828641598
    x69 r90 0.5360584438352614
    x69 d90 0.5360584438352552
    x69 r92 0.2399928640340956
    x69 d92 0.2399928640340932
    x70 OBJ -0.8786611448055606
    x70 r3 -0.3438498533398926
    x70 d3 -0.3438498533402094
    x70 r4 -0.9705408679942502
    x70 d4 -0.9705408679949146
    x70 r5 0.7390522523806433
    x70 d5 0.73905225238048
    x70 r6 -0.753421643044397
    x70 d6 -0.7534216430447241
    x70 r7 0.6604214561873856
    x70 d7 0.6604214561875703
    x70 r8 0.727933841046672
    x70 d8 0.7279338410472904
    x70 r11 0.9529112143271079
    x70 d11 0.9529112143272123
    x70 r14 0.8457918910498154
    x70 d14 0.8457918910495857
    x70 r19 0.39080865883875093
    x70 d19 0.3908086588385633
    x70 r22 -0.6719508067038356
    x70 d22 -0.6719508067038029
    x70 r25 -0.9901546032518158
    x70 d25 -0.990154603251655
    x70 r26 -0.6387193064840602
    x70 d26 -0.6387193064841102
    x70 r32 0.46348417296464994
    x70 d32 0.4634841729648335
    x70 r33 -0.6803415813887062
    x70 d33 -0.6803415813889202
    x70 r34 -0.7777884071871191
    x70 d34 -0.7777884071872375
    x70 r43 -0.8579467900350175
    x70 d43 -0.8579467900356763
    x70 r59 -0.7997798819773589
    x70 d59 -0.7997798819775658
    x70 r60 -0.35847266738013306
    x70 d60 -0.35847266737984856
    x70 r61 -0.44499169194191057
    x70 d61 -0.444991691942064
    x70 r67 -0.3800361369010645
    x70 d67 -0.3800361369008674
    x70 r70 -0.12234909745814848
    x70 d70 -0.12234909745811613
    x70 r72 0.5888871682149635
    x70 d72 0.5888871682145405
    x70 r78 -0.9516879457074934
    x70 d78 -0.9516879457081001
    x70 r82 0.8987071042355865
    x70 d82 0.8987071042349662
    x70 r84 0.39871093810536395
    x70 d84 0.39871093810503366
    x70 r87 0.5965848664161388
    x70 d87 0.5965848664159445
    x70 r91 0.28368794586608903
    x70 d91 0.28368794586616897
    x70 r95 0.8742201063965807
    x70 d95 0.8742201063957574
    x70 r96 -0.08335317897486316
    x70 d96 -0.08335317897494443
    x70 r98 0.40122670547811556
    x70 d98 0.40122670547810385
    x71 OBJ 0.4029840426088478
    x71 r2 0.12468653682596953
    x71 d2 0.12468653682590448
    x71 r3 0.9502964162076784
    x71 d3 0.9502964162068713
    x71 r10 -0.4795798158378686
    x71 d10 -0.47957981583772974
    x71 r12 -0.8479566634865614
    x71 d12 -0.8479566634873774
    x71 r14 0.8604215357995573
    x71 d14 0.8604215357998358
    x71 r16 -0.5654590958387
    x71 d16 -0.5654590958381823
    x71 r28 -0.07294732619971755
    x71 d28 -0.07294732619965269
    x71 r29 0.74988955491606
    x71 d29 0.7498895549157232
    x71 r30 -0.13666399916115513
    x71 d30 -0.13666399916119146
    x71 r31 -0.7641733944595486
    x71 d31 -0.764173394458986
    x71 r35 0.014542269978213174
    x71 d35 0.014542269978206337
    x71 r40 0.9349744554433423
    x71 d40 0.9349744554424146
    x71 r42 -0.015389372050258032
    x71 d42 -0.015389372050261073
    x71 r43 -0.27296843028694195
    x71 d43 -0.2729684302869559
    x71 r44 0.7724776044931834
    x71 d44 0.7724776044939363
    x71 r48 0.0650651608646835
    x71 d48 0.06506516086473044
    x71 r53 -0.1820068426093595
    x71 d53 -0.1820068426094641
    x71 r56 -0.058197361588742114
    x71 d56 -0.05819736158869365
    x71 r60 0.7574948451119061
    x71 d60 0.7574948451118338
    x71 r64 -0.9822246096925706
    x71 d64 -0.9822246096917607
    x71 r65 -0.15364582119548698
    x71 d65 -0.15364582119553208
    x71 r67 0.1468669461046488
    x71 d67 0.14686694610467727
    x71 r68 0.7801043684295474
    x71 d68 0.7801043684301544
    x71 r69 0.9003773617868807
    x71 d69 0.9003773617862679
    x71 r73 -0.7343985975714915
    x71 d73 -0.7343985975716452
    x71 r81 -0.4411496455410373
    x71 d81 -0.4411496455409265
    x71 r85 -0.7759091621190106
    x71 d85 -0.77590916211846
    x71 r89 0.4022445624037845
    x71 d89 0.4022445624033973
    x71 r92 0.4598332121156894
    x71 d92 0.4598332121158451
    x71 r94 -0.38779519520615957
    x71 d94 -0.3877951952065253
    x71 r96 -0.94042999419257
    x71 d96 -0.9404299941931693
    x71 r99 -0.5114515447102068
    x71 d99 -0.5114515447105471
    x72 OBJ 0.29425770905533755
    x72 r0 0.11902761299542974
    x72 d0 0.11902761299543813
    x72 r1 -0.44496730604349444
    x72 d1 -0.44496730604368107
    x72 r5 -0.7539016684167781
    x72 d5 -0.7539016684165636
    x72 r7 0.9200665979332534
    x72 d7 0.9200665979340316
    x72 r8 -0.9511517911401324
    x72 d8 -0.9511517911395457
    x72 r21 -0.40191248038797034
    x72 d21 -0.401912480387737
    x72 r28 0.47007260493391256
    x72 d28 0.4700726049343787
    x72 r29 0.8125529920189645
    x72 d29 0.8125529920193623
    x72 r30 0.6239384487993622
    x72 d30 0.6239384487989539
    x72 r34 0.12571348892051515
    x72 d34 0.1257134889206013
    x72 r36 -0.3189104099778586
    x72 d36 -0.3189104099777681
    x72 r37 -0.5303050326842658
    x72 d37 -0.5303050326837911
    x72 r39 -0.17222839787872934
    x72 d39 -0.17222839787870906
    x72 r46 -0.1357757086963609
    x72 d46 -0.13577570869641647
    x72 r50 -0.8483809385169607
    x72 d50 -0.8483809385165256
    x72 r51 0.14879748720062924
    x72 d51 0.14879748720054756
    x72 r54 -0.19340276482210172
    x72 d54 -0.1934027648221969
    x72 r56 0.14282189968717773
    x72 d56 0.1428218996871316
    x72 r61 0.04158764074271626
    x72 d61 0.04158764074269787
    x72 r63 0.9872292256877215
    x72 d63 0.9872292256879841
    x72 r65 -0.054150638573273735
    x72 d65 -0.054150638573261384
    x72 r67 -0.8287036001576973
    x72 d67 -0.828703600156904
    x72 r71 -0.9824496018525166
    x72 d71 -0.9824496018530354
    x72 r76 0.7304592578210867
    x72 d76 0.730459257820571
    x72 r78 -0.6185761911196181
    x72 d78 -0.6185761911202163
    x72 r79 0.8291280359649338
    x72 d79 0.8291280359649614
    x72 r81 0.9306006464344643
    x72 d81 0.9306006464349813
    x72 r83 0.028579302341819046
    x72 d83 0.02857930234182946
    x72 r84 -0.6184493927947741
    x72 d84 -0.618449392795078
    x72 r91 0.8889385030227384
    x72 d91 0.8889385030220297
    x72 r95 -0.6363687816714718
    x72 d95 -0.6363687816708788
    x72 r96 0.33153894799037475
    x72 d96 0.33153894799064626
    x73 OBJ 0.9861918789332682
    x73 r2 0.6764085192114531
    x73 d2 0.6764085192120044
    x73 r3 0.9247714230105257
    x73 d3 0.9247714230107791
    x73 r4 -0.3778748018667877
    x73 d4 -0.37787480186688466
    x73 r6 -0.6176090170888029
    x73 d6 -0.617609017089396
    x73 r8 0.9486728744610655
    x73 d8 0.9486728744619599
    x73 r9 0.8238074221914962
    x73 d9 0.8238074221920328
    x73 r11 0.4603466576178503
    x73 d11 0.4603466576174558
    x73 r14 0.5221026999148066
    x73 d14 0.5221026999152802
    x73 r15 0.7441099324923606
    x73 d15 0.744109932492149
    x73 r17 -0.688658179459789
    x73 d17 -0.6886581794601736
    x73 r19 0.024474686443258342
    x73 d19 0.024474686443244225
    x73 r26 -0.12986976858998878
    x73 d26 -0.12986976859000648
    x73 r29 0.10794337028160306
    x73 d29 0.10794337028167081
    x73 r32 0.6193535280482463
    x73 d32 0.6193535280483011
    x73 r33 0.6018914793988523
    x73 d33 0.6018914793993579
    x73 r37 -0.4018519215977929
    x73 d37 -0.4018519215979209
    x73 r40 -0.26339660876046866
    x73 d40 -0.2633966087604912
    x73 r46 -0.05713354281284677
    x73 d46 -0.057133542812790365
    x73 r47 0.27248562653323694
    x73 d47 0.2724856265334568
    x73 r49 -0.48410323026119806
    x73 d49 -0.4841032302615414
    x73 r53 0.1344306477674595
    x73 d53 0.13443064776736682
    x73 r57 -0.7317994385704747
    x73 d57 -0.7317994385704607
    x73 r61 0.3055451481337259
    x73 d61 0.30554514813401384
    x73 r62 -0.6657374241345342
    x73 d62 -0.6657374241343298
    x73 r64 0.8531246392730554
    x73 d64 0.8531246392731181
    x73 r67 0.040097906575796705
    x73 d67 0.04009790657577734
    x73 r68 0.029876211984918744
    x73 d68 0.029876211984901743
    x73 r70 -0.3299411155009655
    x73 d70 -0.3299411155009431
    x73 r72 -0.842847063094526
    x73 d72 -0.8428470630941413
    x73 r79 0.31159668205285973
    x73 d79 0.31159668205278757
    x73 r80 0.6878157859233607
    x73 d80 0.6878157859232855
    x73 r83 -0.40811688366197285
    x73 d83 -0.40811688366227605
    x73 r84 -0.6268682076943688
    x73 d84 -0.6268682076943434
    x73 r85 -0.1285452441996895
    x73 d85 -0.1285452441996118
    x73 r91 0.1545110077023677
    x73 d91 0.1545110077022487
    x73 r95 0.43969367070666787
    x73 d95 0.4396936707066957
    x73 r98 0.021532009234185523
    x73 d98 0.021532009234185034
    x74 OBJ 0.6438495732194298
    x74 r1 0.006791495222236099
    x74 d1 0.006791495222235379
    x74 r2 0.19903954052527983
    x74 d2 0.19903954052533185
    x74 r3 -0.2315342105782019
    x74 d3 -0.23153421057826493
    x74 r6 -0.5256505990687543
    x74 d6 -0.5256505990688212
    x74 r8 0.8232141927288252
    x74 d8 0.8232141927291742
    x74 r12 0.38419920141378716
    x74 d12 0.38419920141410197
    x74 r18 -0.10799114658750297
    x74 d18 -0.10799114658746171
    x74 r22 -0.03940273424763707
    x74 d22 -0.03940273424767073
    x74 r23 0.02890961174302653
    x74 d23 0.028909611743044922
    x74 r24 -0.03396111078396835
    x74 d24 -0.03396111078396498
    x74 r25 0.016579936502669534
    x74 d25 0.0165799365026764
    x74 r26 0.2140918710437607
    x74 d26 0.21409187104385402
    x74 r34 0.7887682413172266
    x74 d34 0.788768241316961
    x74 r36 -0.9228428489666876
    x74 d36 -0.9228428489657864
    x74 r38 -0.7493137337859521
    x74 d38 -0.7493137337852535
    x74 r39 0.8601462660437869
    x74 d39 0.8601462660441123
    x74 r40 0.524054083309752
    x74 d40 0.5240540833098826
    x74 r43 0.18220374404794426
    x74 d43 0.18220374404794096
    x74 r45 0.9095018257282856
    x74 d45 0.9095018257278318
    x74 r48 0.9395316728005918
    x74 d48 0.9395316728004727
    x74 r53 -0.0010609196272997057
    x74 d53 -0.0010609196273007522
    x74 r60 -0.12428181456250242
    x74 d60 -0.12428181456239722
    x74 r61 -0.04192483843931605
    x74 d61 -0.04192483843932119
    x74 r65 0.12131232840641681
    x74 d65 0.12131232840652965
    x74 r66 0.25660024428797445
    x74 d66 0.25660024428794204
    x74 r67 0.17124175027698474
    x74 d67 0.17124175027709987
    x74 r69 0.8804764761432284
    x74 d69 0.8804764761436134
    x74 r70 0.8821726510882173
    x74 d70 0.8821726510888163
    x74 r71 0.73109169079086
    x74 d71 0.731091690790677
    x74 r72 0.21117034136089186
    x74 d72 0.21117034136081753
    x74 r77 0.32194450611567915
    x74 d77 0.32194450611598413
    x74 r85 0.8638606467143146
    x74 d85 0.8638606467140006
    x74 r86 0.0431185870599462
    x74 d86 0.04311858705993776
    x74 r89 0.9586759742659885
    x74 d89 0.9586759742663781
    x74 r90 -0.520073736804112
    x74 d90 -0.5200737368039233
    x74 r91 -0.04629816142354648
    x74 d91 -0.04629816142357651
    x74 r95 0.4031090247015552
    x74 d95 0.4031090247019433
    x74 r96 0.5712840477815417
    x74 d96 0.5712840477817398
    x75 OBJ -0.43080893581170154
    x75 r0 -0.7567560912316387
    x75 d0 -0.7567560912318798
    x75 r4 0.7219351058440688
    x75 d4 0.721935105844
    x75 r5 -0.7559252363213442
    x75 d5 -0.7559252363214874
    x75 r6 0.32854884900576153
    x75 d6 0.32854884900550446
    x75 r7 0.5523278358397623
    x75 d7 0.5523278358394444
    x75 r8 0.4720319859933375
    x75 d8 0.47203198599321705
    x75 r10 -0.5920508216947165
    x75 d10 -0.592050821695189
    x75 r12 -0.5268870530718381
    x75 d12 -0.5268870530714471
    x75 r15 -0.23882320386233769
    x75 d15 -0.2388232038622591
    x75 r17 -0.32687147163112384
    x75 d17 -0.32687147163141916
    x75 r19 0.7522440840475322
    x75 d19 0.7522440840480179
    x75 r21 0.5585735732539463
    x75 d21 0.558573573253985
    x75 r23 -0.2814760164822325
    x75 d23 -0.2814760164820654
    x75 r26 -0.5650472010013887
    x75 d26 -0.5650472010012102
    x75 r27 0.05375844702215615
    x75 d27 0.053758447022146424
    x75 r28 0.9303681247530904
    x75 d28 0.9303681247529167
    x75 r31 0.8733907472911817
    x75 d31 0.8733907472914372
    x75 r32 0.48220604374303755
    x75 d32 0.48220604374346937
    x75 r33 0.37564757368451773
    x75 d33 0.3756475736843674
    x75 r39 0.4626633217704246
    x75 d39 0.46266332177020175
    x75 r40 0.6529658627338915
    x75 d40 0.6529658627336125
    x75 r43 -0.5501125430968905
    x75 d43 -0.5501125430970296
    x75 r51 -0.8589842447848464
    x75 d51 -0.8589842447850469
    x75 r55 -0.5008356006767534
    x75 d55 -0.5008356006762699
    x75 r56 0.686069509811527
    x75 d56 0.6860695098112183
    x75 r57 0.2290327099813787
    x75 d57 0.22903270998151062
    x75 r58 0.8002082951828966
    x75 d58 0.8002082951836296
    x75 r64 0.2327406588347165
    x75 d64 0.23274065883487655
    x75 r66 -0.36055954435978044
    x75 d66 -0.3605595443595319
    x75 r69 0.37050828208528563
    x75 d69 0.37050828208544706
    x75 r73 -0.8750672528694552
    x75 d73 -0.875067252868779
    x75 r87 -0.8753318156806318
    x75 d87 -0.8753318156802182
    x75 r91 0.49317781943445227
    x75 d91 0.49317781943468353
    x75 r95 0.5600756822309556
    x75 d95 0.560075682231151
    x75 r96 -0.9950366752359852
    x75 d96 -0.9950366752356129
    x75 r97 -0.7446706616529419
    x75 d97 -0.744670661652902
    x75 r99 -0.2247604421691154
    x75 d99 -0.22476044216923885
    x76 OBJ -0.22841711510657836
    x76 r7 -0.5261956595298336
    x76 d7 -0.5261956595296513
    x76 r8 -0.6625158866572511
    x76 d8 -0.6625158866574706
    x76 r9 0.598743999978641
    x76 d9 0.5987439999785288
    x76 r11 -0.2648251611888621
    x76 d11 -0.2648251611887151
    x76 r13 0.17497479912300706
    x76 d13 0.17497479912315733
    x76 r16 0.5071008468568057
    x76 d16 0.5071008468567539
    x76 r17 -0.6904431709122361
    x76 d17 -0.690443170911887
    x76 r22 -0.4731103819218705
    x76 d22 -0.47311038192211885
    x76 r23 0.003188492687774991
    x76 d23 0.0031884926877729846
    x76 r28 0.29991885776348526
    x76 d28 0.2999188577635183
    x76 r30 -0.10263884095780273
    x76 d30 -0.10263884095786144
    x76 r32 0.6040381719571726
    x76 d32 0.6040381719575237
    x76 r34 0.17951238169966977
    x76 d34 0.1795123816995375
    x76 r37 0.004099812817809578
    x76 d37 0.0040998128178098584
    x76 r44 -0.6327756965882139
    x76 d44 -0.6327756965883192
    x76 r49 -0.3293216423747032
    x76 d49 -0.3293216423747585
    x76 r51 0.08773823362142785
    x76 d51 0.0877382336213813
    x76 r53 0.8741661780595376
    x76 d53 0.8741661780589256
    x76 r56 -0.928138320902111
    x76 d56 -0.9281383209014726
    x76 r60 -0.318624943551594
    x76 d60 -0.31862494355183807
    x76 r71 0.5373219479693885
    x76 d71 0.5373219479689864
    x76 r78 0.5354180354015443
    x76 d78 0.5354180354016633
    x76 r80 -0.5649707319730413
    x76 d80 -0.5649707319728697
    x76 r85 0.2774460006281514
    x76 d85 0.27744600062830754
    x76 r86 -0.0026365307887297185
    x76 d86 -0.0026365307887315234
    x76 r87 0.8304300226271775
    x76 d87 0.8304300226266552
    x76 r88 0.5789981429663773
    x76 d88 0.5789981429664292
    x76 r91 -0.4253636029263428
    x76 d91 -0.42536360292658815
    x76 r95 -0.7004891947783305
    x76 d95 -0.7004891947784662
    x77 OBJ 0.33730543176837635
    x77 r0 -0.5187224830934603
    x77 d0 -0.5187224830930101
    x77 r1 -0.45795823787465495
    x77 d1 -0.45795823787441153
    x77 r4 -0.2648688413387543
    x77 d4 -0.26486884133866945
    x77 r5 0.18362416665901438
    x77 d5 0.1836241666589597
    x77 r6 0.4117422570268079
    x77 d6 0.41174225702679873
    x77 r15 -0.9153613615914475
    x77 d15 -0.9153613615916577
    x77 r19 -0.5215956849566046
    x77 d19 -0.5215956849566568
    x77 r27 0.9862523233476763
    x77 d27 0.9862523233467999
    x77 r33 0.7023483756396314
    x77 d33 0.7023483756398611
    x77 r34 -0.8704365748801342
    x77 d34 -0.870436574880585
    x77 r41 0.7398045581079775
    x77 d41 0.739804558108581
    x77 r43 -0.4085895820723471
    x77 d43 -0.4085895820720832
    x77 r45 0.08319519941426634
    x77 d45 0.08319519941422132
    x77 r47 -0.07505100256189445
    x77 d47 -0.07505100256193561
    x77 r51 -0.5919906163683053
    x77 d51 -0.5919906163682487
    x77 r54 0.5407830617153857
    x77 d54 0.5407830617150314
    x77 r56 0.06497464745103798
    x77 d56 0.06497464745098744
    x77 r61 0.00813643155563537
    x77 d61 0.008136431555639503
    x77 r62 -0.7557047609544099
    x77 d62 -0.7557047609542451
    x77 r64 -0.9472462778877639
    x77 d64 -0.9472462778878432
    x77 r71 0.5822262982613844
    x77 d71 0.5822262982614815
    x77 r77 -0.8842567304110107
    x77 d77 -0.884256730411359
    x77 r78 0.2756509460415273
    x77 d78 0.27565094604153034
    x77 r79 0.6300502240093446
    x77 d79 0.6300502240093474
    x77 r80 -0.9476279947278432
    x77 d80 -0.9476279947286724
    x77 r81 0.4397312623525256
    x77 d81 0.43973126235247434
    x77 r84 0.16789968254850685
    x77 d84 0.16789968254855595
    x77 r87 0.3572150052743821
    x77 d87 0.35721500527446776
    x77 r93 -0.4090301737793973
    x77 d93 -0.40903017377975337
    x77 r97 0.3316638652797581
    x77 d97 0.3316638652795035
    x78 OBJ -0.9548741438888229
    x78 r0 0.3389442906197915
    x78 d0 0.338944290619952
    x78 r1 -0.20048572650862173
    x78 d1 -0.2004857265085884
    x78 r6 -0.4606646665205625
    x78 d6 -0.46066466652050186
    x78 r7 0.18861530655069592
    x78 d7 0.18861530655078998
    x78 r8 -0.3209204578077536
    x78 d8 -0.3209204578076441
    x78 r17 0.6958098383590445
    x78 d17 0.6958098383590667
    x78 r26 0.4300540655851621
    x78 d26 0.43005406558525344
    x78 r34 -0.591558327503364
    x78 d34 -0.5915583275034101
    x78 r36 -0.08001047975570574
    x78 d36 -0.08001047975566071
    x78 r37 0.38682952024535533
    x78 d37 0.38682952024543005
    x78 r39 -0.948758267939636
    x78 d39 -0.9487582679394071
    x78 r41 -0.5884934600122023
    x78 d41 -0.5884934600120859
    x78 r43 -0.31219842370008877
    x78 d43 -0.312198423700008
    x78 r44 -0.1306575414094615
    x78 d44 -0.13065754140958982
    x78 r46 -0.1399003410250177
    x78 d46 -0.13990034102512355
    x78 r47 0.06797240693655127
    x78 d47 0.06797240693655877
    x78 r54 -0.07592271290930763
    x78 d54 -0.07592271290936793
    x78 r56 0.979450958524809
    x78 d56 0.9794509585242765
    x78 r64 0.5259786889129252
    x78 d64 0.525978688913379
    x78 r67 0.9403070325812595
    x78 d67 0.9403070325805001
    x78 r69 0.7380927352857576
    x78 d69 0.7380927352857968
    x78 r75 -0.07586550654975666
    x78 d75 -0.07586550654971504
    x78 r76 0.02655045453424454
    x78 d76 0.026550454534253535
    x78 r84 0.005501887874821421
    x78 d84 0.005501887874817594
    x78 r85 -0.7094724922074471
    x78 d85 -0.7094724922068701
    x78 r86 0.7841658874245176
    x78 d86 0.7841658874246423
    x78 r87 0.2147154043936692
    x78 d87 0.21471540439372502
    x78 r89 0.7515764653822234
    x78 d89 0.7515764653819432
    x78 r90 0.9731307820889947
    x78 d90 0.9731307820881838
    x78 r92 0.32697046894419834
    x78 d92 0.3269704689443589
    x78 r95 -0.07728528122929879
    x78 d95 -0.07728528122924957
    x78 r96 0.5889619709632348
    x78 d96 0.5889619709632302
    x79 OBJ -0.07660942740046828
    x79 r3 0.2759617255837097
    x79 d3 0.2759617255834495
    x79 r5 0.14568284842453472
    x79 d5 0.1456828484246652
    x79 r7 -0.4001400154748911
    x79 d7 -0.4001400154750102
    x79 r9 -0.24005074566626816
    x79 d9 -0.24005074566606993
    x79 r11 0.2128544535672412
    x79 d11 0.21285445356734517
    x79 r12 0.4825606205624442
    x79 d12 0.4825606205624112
    x79 r14 0.5541619827389987
    x79 d14 0.5541619827395462
    x79 r24 0.9246780477234458
    x79 d24 0.9246780477242793
    x79 r29 -0.6002856928995268
    x79 d29 -0.6002856928998824
    x79 r33 -0.1459402118088753
    x79 d33 -0.14594021180898867
    x79 r34 -0.9488000038052429
    x79 d34 -0.9488000038051821
    x79 r36 0.5730438599794556
    x79 d36 0.573043859979096
    x79 r37 0.4862741091313927
    x79 d37 0.48627410913180624
    x79 r40 -0.9278960972154164
    x79 d40 -0.927896097215257
    x79 r41 0.18857182151183038
    x79 d41 0.1885718215117064
    x79 r42 0.18671876073344595
    x79 d42 0.18671876073354082
    x79 r44 -0.6021126600472222
    x79 d44 -0.6021126600470014
    x79 r46 -0.022094582831460707
    x79 d46 -0.022094582831440793
    x79 r48 0.8666363140327664
    x79 d48 0.8666363140332747
    x79 r49 -0.6564564643165414
    x79 d49 -0.6564564643167878
    x79 r52 -0.011894894040195059
    x79 d52 -0.011894894040206386
    x79 r53 0.3745777396959544
    x79 d53 0.3745777396958014
    x79 r59 0.4740454673479344
    x79 d59 0.47404546734757647
    x79 r60 -0.5523825684752917
    x79 d60 -0.5523825684755562
    x79 r61 -0.7305211723653144
    x79 d61 -0.7305211723648632
    x79 r64 -0.69856237912885
    x79 d64 -0.6985623791294265
    x79 r72 -0.9127018643143869
    x79 d72 -0.9127018643142355
    x79 r74 0.576557164295368
    x79 d74 0.5765571642949998
    x79 r78 -0.48282956319792003
    x79 d78 -0.48282956319795733
    x79 r80 0.4019817548139071
    x79 d80 0.40198175481397547
    x79 r84 0.6462511703259104
    x79 d84 0.6462511703261014
    x79 r87 -0.05973956825809856
    x79 d87 -0.05973956825815014
    x79 r90 -0.1503145194277229
    x79 d90 -0.15031451942763716
    x79 r93 -0.6376561535907508
    x79 d93 -0.6376561535907886
    x79 r94 0.03462259996811046
    x79 d94 0.0346225999681373
    x79 r96 0.6658062644278084
    x79 d96 0.6658062644278966
    x80 OBJ -0.6639032421869109
    x80 r3 -0.5871120708398803
    x80 d3 -0.587112070840009
    x80 r6 -0.11338263054113362
    x80 d6 -0.11338263054106328
    x80 r14 -0.4467281419558444
    x80 d14 -0.44672814195628546
    x80 r16 -0.3051312044823089
    x80 d16 -0.3051312044825371
    x80 r20 0.7699223320233501
    x80 d20 0.7699223320238037
    x80 r23 0.8629586676637246
    x80 d23 0.8629586676633889
    x80 r24 0.09154130948961403
    x80 d24 0.09154130948962218
    x80 r27 -0.28034107698763955
    x80 d27 -0.2803410769874084
    x80 r28 0.44096758296540606
    x80 d28 0.4409675829654909
    x80 r37 0.7570287764218937
    x80 d37 0.75702877642148
    x80 r54 -0.8987005069119736
    x80 d54 -0.8987005069113335
    x80 r56 0.36547525229426525
    x80 d56 0.36547525229452876
    x80 r58 0.852634786159719
    x80 d58 0.8526347861589465
    x80 r59 0.8841829530365786
    x80 d59 0.8841829530371552
    x80 r60 0.13935777626909696
    x80 d60 0.13935777626897247
    x80 r61 -0.17486376037550722
    x80 d61 -0.1748637603756245
    x80 r63 -0.4072556959627498
    x80 d63 -0.4072556959627793
    x80 r66 -0.038431999234997516
    x80 d66 -0.03843199923501489
    x80 r67 0.38223636678795025
    x80 d67 0.3822363667882322
    x80 r71 0.5442261387439451
    x80 d71 0.5442261387439099
    x80 r74 0.07134413460130506
    x80 d74 0.07134413460128
    x80 r76 -0.8462199541586208
    x80 d76 -0.8462199541588089
    x80 r80 0.9001553423520585
    x80 d80 0.9001553423513524
    x80 r81 -0.5231168230767405
    x80 d81 -0.5231168230762965
    x80 r83 0.3198404472999108
    x80 d83 0.3198404472997703
    x80 r85 -0.43433587488004277
    x80 d85 -0.43433587488040587
    x80 r86 0.9325410364817726
    x80 d86 0.932541036481819
    x81 OBJ -0.7658084110365362
    x81 r0 0.4322397655763923
    x81 d0 0.4322397655761781
    x81 r4 0.5947215276465625
    x81 d4 0.5947215276469467
    x81 r5 0.6520276668445586
    x81 d5 0.6520276668447887
    x81 r9 0.09143927237678118
    x81 d9 0.09143927237680906
    x81 r14 0.7425334667469115
    x81 d14 0.7425334667470944
    x81 r18 0.842175323575235
    x81 d18 0.8421753235744156
    x81 r23 0.6900069803153783
    x81 d23 0.6900069803157959
    x81 r31 -0.7858585515811021
    x81 d31 -0.7858585515815179
    x81 r38 -0.4073072524626702
    x81 d38 -0.40730725246296184
    x81 r40 0.03823194405228336
    x81 d40 0.03823194405227638
    x81 r41 0.028827740060164198
    x81 d41 0.02882774006014062
    x81 r42 -0.005346384132680404
    x81 d42 -0.005346384132680481
    x81 r45 0.8298682584572727
    x81 d45 0.8298682584579135
    x81 r47 -0.3859400212127364
    x81 d47 -0.38594002121264637
    x81 r49 -0.4374461155179066
    x81 d49 -0.43744611551806994
    x81 r51 0.032585564273680534
    x81 d51 0.032585564273662174
    x81 r57 -0.771290574820374
    x81 d57 -0.7712905748198935
    x81 r59 -0.2528128231901925
    x81 d59 -0.25281282319030085
    x81 r61 -0.571280375617875
    x81 d61 -0.5712803756177012
    x81 r66 0.9810035900915182
    x81 d66 0.9810035900910113
    x81 r67 -0.33431226049887397
    x81 d67 -0.3343122604987972
    x81 r68 -0.6584434351247868
    x81 d68 -0.6584434351243931
    x81 r71 0.8841696079048025
    x81 d71 0.8841696079047789
    x81 r75 0.27776665976506276
    x81 d75 0.2777666597648277
    x81 r82 -0.334088538623021
    x81 d82 -0.3340885386226947
    x81 r86 -0.7288940606218988
    x81 d86 -0.7288940606223453
    x81 r89 0.05225382614403662
    x81 d89 0.0522538261440028
    x81 r92 0.20296896483438154
    x81 d92 0.20296896483452606
    x81 r95 -0.5478129260702982
    x81 d95 -0.5478129260703447
    x81 r98 0.7282841040580723
    x81 d98 0.7282841040577427
    x81 r99 -0.7062118700167417
    x81 d99 -0.7062118700165811
    x82 OBJ -0.8820911613373792
    x82 r3 -0.20195774951088996
    x82 d3 -0.20195774951096374
    x82 r9 -0.07109424249944518
    x82 d9 -0.071094242499493
    x82 r10 0.514154486889828
    x82 d10 0.5141544868901412
    x82 r11 -0.8500091725058816
    x82 d11 -0.8500091725059884
    x82 r17 -0.21035359920606544
    x82 d17 -0.21035359920601737
    x82 r24 -0.872128097835088
    x82 d24 -0.8721280978354035
    x82 r26 -0.29647930850324045
    x82 d26 -0.2964793085033804
    x82 r31 -0.4734123244216861
    x82 d31 -0.47341232442158465
    x82 r33 0.052889432480085485
    x82 d33 0.052889432480126106
    x82 r37 -0.6992494472744093
    x82 d37 -0.6992494472750993
    x82 r42 0.28533982109669176
    x82 d42 0.28533982109663697
    x82 r43 -0.9456905434258831
    x82 d43 -0.94569054342577
    x82 r45 0.6397297635081585
    x82 d45 0.6397297635081007
    x82 r47 -0.15680764632950228
    x82 d47 -0.15680764632961283
    x82 r48 -0.3969338951152437
    x82 d48 -0.39693389511496646
    x82 r49 0.7595757594306378
    x82 d49 0.7595757594311718
    x82 r50 -0.8957823135656209
    x82 d50 -0.8957823135651067
    x82 r56 -0.6814207740889362
    x82 d56 -0.6814207740894362
    x82 r59 0.23019789204331453
    x82 d59 0.23019789204334873
    x82 r60 -0.7420571173618229
    x82 d60 -0.7420571173615785
    x82 r66 -0.1240088499556482
    x82 d66 -0.12400884995558778
    x82 r68 -0.1318902203936141
    x82 d68 -0.13189022039352977
    x82 r69 -0.3977187022562054
    x82 d69 -0.3977187022561661
    x82 r70 -0.7979464866850894
    x82 d70 -0.797946486685244
    x82 r72 0.111900204436993
    x82 d72 0.1119002044369203
    x82 r73 -0.3004879214661955
    x82 d73 -0.30048792146637626
    x82 r78 -0.7834495728746418
    x82 d78 -0.7834495728744713
    x82 r79 -0.35570134724175473
    x82 d79 -0.3557013472419053
    x82 r90 0.12406890538833126
    x82 d90 0.12406890538824106
    x82 r91 0.6613709005175519
    x82 d91 0.661370900517387
    x82 r94 -0.3882079937628262
    x82 d94 -0.3882079937628418
    x82 r98 0.6392678570564108
    x82 d98 0.639267857055825
    x83 OBJ 0.5364659769450415
    x83 r0 0.7656656673141509
    x83 d0 0.7656656673134992
    x83 r1 -0.9355130132257958
    x83 d1 -0.935513013226021
    x83 r6 -0.29416265761142735
    x83 d6 -0.2941626576114527
    x83 r8 -0.5307771533522314
    x83 d8 -0.5307771533517758
    x83 r11 0.384925063958242
    x83 d11 0.38492506395852705
    x83 r13 -0.27527557994771334
    x83 d13 -0.27527557994779
    x83 r17 -0.12891541093700032
    x83 d17 -0.12891541093696063
    x83 r20 -0.6098183593619095
    x83 d20 -0.6098183593624826
    x83 r23 0.9021232976394697
    x83 d23 0.9021232976389865
    x83 r24 -0.6940841834858935
    x83 d24 -0.6940841834853526
    x83 r31 0.14178257289133622
    x83 d31 0.14178257289121865
    x83 r34 -0.9529529506213785
    x83 d34 -0.952952950620669
    x83 r37 -0.7358573122157517
    x83 d37 -0.7358573122158543
    x83 r38 -0.031708425472740887
    x83 d38 -0.03170842547276559
    x83 r40 -0.12623394332998084
    x83 d40 -0.12623394332994634
    x83 r42 -0.10654062716450219
    x83 d42 -0.10654062716454889
    x83 r44 0.27579293927866044
    x83 d44 0.27579293927872034
    x83 r47 -0.6157025065834192
    x83 d47 -0.6157025065833402
    x83 r51 0.8178555553069937
    x83 d51 0.8178555553072149
    x83 r55 -0.9741070964387479
    x83 d55 -0.9741070964392543
    x83 r56 -0.27137977402229563
    x83 d56 -0.27137977402235486
    x83 r58 -0.8939189763989559
    x83 d58 -0.8939189763989692
    x83 r59 -0.8320998776197603
    x83 d59 -0.8320998776193759
    x83 r64 -0.7592344462232665
    x83 d64 -0.7592344462226553
    x83 r65 -0.45353284524335935
    x83 d65 -0.45353284524380094
    x83 r66 0.09494989377916307
    x83 d66 0.09494989377912823
    x83 r68 0.14206831041046275
    x83 d68 0.14206831041038476
    x83 r70 0.9966075527420628
    x83 d70 0.9966075527428502
    x83 r71 -0.48796133216531357
    x83 d71 -0.48796133216488496
    x83 r76 -0.013575473807221128
    x83 d76 -0.013575473807215487
    x83 r79 -0.4268487505211489
    x83 d79 -0.42684875052100457
    x83 r81 -0.09163731144747445
    x83 d81 -0.09163731144745291
    x83 r83 -0.4837461880288545
    x83 d83 -0.4837461880288294
    x83 r89 -0.4130484519979749
    x83 d89 -0.41304845199792706
    x83 r92 0.1536942256368956
    x83 d92 0.15369422563689877
    x83 r97 -0.09566777433187501
    x83 d97 -0.09566777433181263
    x84 OBJ -0.7413195559626315
    x84 r2 0.23778375962581633
    x84 d2 0.23778375962590803
    x84 r12 -0.04930692404463133
    x84 d12 -0.0493069240446431
    x84 r14 0.460650346411857
    x84 d14 0.4606503464119983
    x84 r22 0.7436580156768127
    x84 d22 0.7436580156761988
    x84 r25 -0.48187034710765064
    x84 d25 -0.4818703471080717
    x84 r33 -0.4963621304230521
    x84 d33 -0.49636213042324895
    x84 r41 0.4542222909105591
    x84 d41 0.45422229091046773
    x84 r42 0.07999876689058416
    x84 d42 0.07999876689052926
    x84 r47 -0.017985695098409415
    x84 d47 -0.01798569509840644
    x84 r48 -0.0557634083971148
    x84 d48 -0.055763408397149036
    x84 r50 0.044536913812772916
    x84 d50 0.04453691381280011
    x84 r57 -0.29412928904798297
    x84 d57 -0.29412928904812974
    x84 r65 0.9189703264439695
    x84 d65 0.9189703264442118
    x84 r68 0.5281030410056471
    x84 d68 0.5281030410053139
    x84 r69 0.6051618785071684
    x84 d69 0.6051618785070219
    x84 r70 -0.15146186554733387
    x84 d70 -0.151461865547441
    x84 r78 -0.6412141161041591
    x84 d78 -0.64121411610392
    x84 r80 0.9315004584850572
    x84 d80 0.9315004584846708
    x84 r82 0.5308029583918372
    x84 d82 0.5308029583923006
    x84 r83 -0.38725580106476176
    x84 d83 -0.38725580106484536
    x84 r87 -0.841471120901212
    x84 d87 -0.8414711209019947
    x84 r89 -0.08941932963073307
    x84 d89 -0.08941932963069242
    x84 r90 0.5325068327234013
    x84 d90 0.5325068327233307
    x84 r91 -0.6103007326926497
    x84 d91 -0.6103007326929692
    x84 r94 -0.8147130337849189
    x84 d94 -0.8147130337849166
    x85 OBJ -0.5047703326061714
    x85 r0 0.9050082578379726
    x85 d0 0.9050082578375482
    x85 r16 0.8370868442142412
    x85 d16 0.837086844213744
    x85 r17 0.72305333064975
    x85 d17 0.7230533306501887
    x85 r19 -0.9668200300294065
    x85 d19 -0.9668200300290717
    x85 r20 0.6199799169167162
    x85 d20 0.619979916917245
    x85 r21 -0.9294827556953926
    x85 d21 -0.929482755694778
    x85 r22 -0.5197078340581109
    x85 d22 -0.5197078340576231
    x85 r27 0.6626261855307285
    x85 d27 0.6626261855305322
    x85 r31 0.7541058488815324
    x85 d31 0.7541058488811963
    x85 r32 -0.38756631694056676
    x85 d32 -0.38756631694082744
    x85 r36 0.3368196163237829
    x85 d36 0.33681961632350754
    x85 r38 -0.777417703300582
    x85 d38 -0.7774177033005601
    x85 r40 -0.5967766279932241
    x85 d40 -0.5967766279928534
    x85 r41 -0.2304244252909382
    x85 d41 -0.23042442529106177
    x85 r42 0.6478799930906436
    x85 d42 0.6478799930906112
    x85 r43 -0.18189188928415811
    x85 d43 -0.18189188928400005
    x85 r44 -0.12066111995432593
    x85 d44 -0.12066111995434574
    x85 r45 0.5776286819298615
    x85 d45 0.5776286819299151
    x85 r53 -0.1808001622246307
    x85 d53 -0.1808001622245398
    x85 r56 0.9248714257433688
    x85 d56 0.9248714257430397
    x85 r58 -0.30792083967853356
    x85 d58 -0.3079208396787314
    x85 r59 -0.9823469123486679
    x85 d59 -0.9823469123484422
    x85 r60 0.7660178116802976
    x85 d60 0.7660178116806081
    x85 r69 -0.4769862233885418
    x85 d69 -0.4769862233884244
    x85 r81 -0.9806570262103889
    x85 d81 -0.9806570262106371
    x85 r85 -0.26713177820829914
    x85 d85 -0.26713177820808304
    x85 r97 0.7232829567838248
    x85 d97 0.7232829567839367
    x86 OBJ -0.21810059373354584
    x86 r2 0.5271303894903547
    x86 d2 0.5271303894905289
    x86 r8 0.009562009501155933
    x86 d8 0.009562009501160828
    x86 r9 0.6569897286864621
    x86 d9 0.6569897286862513
    x86 r14 -0.012287425483385794
    x86 d14 -0.012287425483377466
    x86 r18 0.6956665297783866
    x86 d18 0.6956665297789427
    x86 r22 0.02434801928018482
    x86 d22 0.024348019280194592
    x86 r24 -0.4567679030039482
    x86 d24 -0.4567679030034958
    x86 r36 0.9723286263434887
    x86 d36 0.9723286263426216
    x86 r38 0.5921264382321747
    x86 d38 0.5921264382321331
    x86 r41 0.684284508797518
    x86 d41 0.6842845087969502
    x86 r42 0.613520307024708
    x86 d42 0.6135203070243399
    x86 r47 0.9220838063769823
    x86 d47 0.9220838063771072
    x86 r48 0.05085741595524862
    x86 d48 0.050857415955280004
    x86 r51 -0.9512013575367182
    x86 d51 -0.951201357537012
    x86 r53 0.011398562157302283
    x86 d53 0.011398562157296678
    x86 r55 -0.5516130537954382
    x86 d55 -0.5516130537950281
    x86 r61 -0.8136302816883965
    x86 d61 -0.8136302816877978
    x86 r65 0.7385506479229396
    x86 d65 0.7385506479224977
    x86 r66 0.9283908544867809
    x86 d66 0.9283908544868839
    x86 r67 0.7291828844899992
    x86 d67 0.7291828844903582
    x86 r69 -0.6542393996736737
    x86 d69 -0.6542393996735488
    x86 r73 -0.03987768569833583
    x86 d73 -0.039877685698368644
    x86 r76 0.8602283657299477
    x86 d76 0.8602283657291325
    x86 r80 -0.8095787246673358
    x86 d80 -0.8095787246670982
    x86 r85 -0.629099895177677
    x86 d85 -0.629099895177302
    x86 r88 0.6330432169844318
    x86 d88 0.6330432169841256
    x86 r89 0.30767087218166256
    x86 d89 0.30767087218179107
    x86 r95 -0.1868231685481112
    x86 d95 -0.18682316854823952
    x87 OBJ 0.7428439482525988
    x87 r6 0.9018780809037965
    x87 d6 0.9018780809029096
    x87 r8 -0.13900745364391986
    x87 d8 -0.13900745364388634
    x87 r9 0.8466343315016456
    x87 d9 0.8466343315018061
    x87 r10 -0.27451719764916294
    x87 d10 -0.27451719764913823
    x87 r13 0.8286543424184438
    x87 d13 0.8286543424184055
    x87 r17 0.9207324973554138
    x87 d17 0.9207324973548153
    x87 r31 -0.9811765013103428
    x87 d31 -0.9811765013107494
    x87 r39 0.3070061932340806
    x87 d39 0.3070061932343265
    x87 r40 -0.6954881623325155
    x87 d40 -0.6954881623325775
    x87 r42 0.9087935272435725
    x87 d42 0.9087935272442348
    x87 r45 0.859572550905279
    x87 d45 0.859572550904968
    x87 r53 0.4499445998871041
    x87 d53 0.44994459988719154
    x87 r54 -0.39259368381469795
    x87 d54 -0.3925936838143178
    x87 r56 0.2595374179900496
    x87 d56 0.25953741798996066
    x87 r68 0.3869834975308104
    x87 d68 0.38698349753084804
    x87 r75 0.136965496886585
    x87 d75 0.136965496886663
    x87 r77 -0.6096422042614431
    x87 d77 -0.6096422042617838
    x87 r80 -0.5001825831220836
    x87 d80 -0.5001825831220781
    x87 r82 0.6251107799832805
    x87 d82 0.6251107799829793
    x87 r83 -0.3755997374855873
    x87 d83 -0.37559973748594705
    x87 r84 0.5775907069185693
    x87 d84 0.5775907069183623
    x87 r86 0.6188216539492282
    x87 d86 0.6188216539497312
    x87 r93 0.6376552183538629
    x87 d93 0.637655218353508
    x87 r94 -0.257855944457708
    x87 d94 -0.25785594445775073
    x87 r96 0.42437613213551084
    x87 d96 0.42437613213532127
    x87 r97 -0.6099976209247784
    x87 d97 -0.6099976209244445
    x87 r98 0.06289075747698947
    x87 d98 0.06289075747703492
    x87 r99 -0.1880542188244818
    x87 d99 -0.1880542188245156
    x88 OBJ -0.8388373975997228
    x88 r1 -0.2169578085804209
    x88 d1 -0.21695780858049646
    x88 r3 0.20741755870342815
    x88 d3 0.20741755870360717
    x88 r7 0.49086826803496497
    x88 d7 0.490868268034872
    x88 r8 -0.9601297818374837
    x88 d8 -0.9601297818375333
    x88 r12 0.9169771421591155
    x88 d12 0.9169771421587487
    x88 r13 0.18174202098300496
    x88 d13 0.18174202098294412
    x88 r14 0.3086333909354042
    x88 d14 0.30863339093554376
    x88 r17 -0.494019862406023
    x88 d17 -0.4940198624060808
    x88 r19 -0.16368387369380266
    x88 d19 -0.16368387369372037
    x88 r24 -0.3872400196178465
    x88 d24 -0.38724001961766413
    x88 r25 0.9956774897128728
    x88 d25 0.9956774897129893
    x88 r28 -0.9372437111236787
    x88 d28 -0.9372437111229635
    x88 r29 -0.3135777313749375
    x88 d29 -0.31357773137463957
    x88 r33 0.2837764776010041
    x88 d33 0.2837764776011969
    x88 r35 -0.06619965468947742
    x88 d35 -0.0661996546894119
    x88 r38 -0.6753127359661024
    x88 d38 -0.6753127359667378
    x88 r40 0.8737582828429524
    x88 d40 0.8737582828432431
    x88 r50 -0.4408649411664525
    x88 d50 -0.4408649411662459
    x88 r52 -0.9416103619359868
    x88 d52 -0.9416103619364787
    x88 r65 0.15877916014446058
    x88 d65 0.15877916014437557
    x88 r69 -0.9080230904281861
    x88 d69 -0.9080230904276452
    x88 r71 0.022443524039314378
    x88 d71 0.022443524039323825
    x88 r75 -0.2457654676028509
    x88 d75 -0.24576546760277795
    x88 r76 0.9883295220097865
    x88 d76 0.9883295220098847
    x88 r78 -0.32761543106174384
    x88 d78 -0.32761543106189406
    x88 r83 0.75067484142523
    x88 d83 0.7506748414254194
    x88 r84 -0.13208850325137345
    x88 d84 -0.13208850325144827
    x88 r89 0.3991572400030081
    x88 d89 0.3991572400027812
    x88 r94 -0.5259832936112041
    x88 d94 -0.5259832936111933
    x88 r95 -0.3552241506964351
    x88 d95 -0.35522415069625857
    x88 r96 -0.6286797339474572
    x88 d96 -0.6286797339478916
    x88 r98 -0.5087953855984468
    x88 d98 -0.5087953855980425
    x89 OBJ -0.10162519810133808
    x89 r2 -0.053562307352686744
    x89 d2 -0.053562307352738064
    x89 r6 -0.09461568779792695
    x89 d6 -0.09461568779800635
    x89 r14 -0.2589741616592902
    x89 d14 -0.2589741616593168
    x89 r16 0.44495740903519954
    x89 d16 0.4449574090351466
    x89 r17 -0.8009152790604561
    x89 d17 -0.800915279060895
    x89 r19 0.8416515063874919
    x89 d19 0.8416515063871404
    x89 r28 -0.7188683757383609
    x89 d28 -0.7188683757381246
    x89 r31 0.11461954443730704
    x89 d31 0.11461954443736914
    x89 r33 -0.5860159160987726
    x89 d33 -0.5860159160989297
    x89 r35 0.6064067821883252
    x89 d35 0.606406782188029
    x89 r37 -0.824769256753213
    x89 d37 -0.8247692567537227
    x89 r39 -0.6762340930234327
    x89 d39 -0.676234093023615
    x89 r42 0.3389912446585597
    x89 d42 0.33899124465875335
    x89 r43 0.08739297595145845
    x89 d43 0.08739297595142453
    x89 r44 0.027763793452928454
    x89 d44 0.027763793452925727
    x89 r52 0.7569950124141223
    x89 d52 0.7569950124145174
    x89 r54 -0.438770345015729
    x89 d54 -0.4387703450159056
    x89 r58 0.19015386715126392
    x89 d58 0.19015386715136387
    x89 r61 0.013927289989197567
    x89 d61 0.013927289989196023
    x89 r63 -0.8700904618084992
    x89 d63 -0.8700904618087815
    x89 r67 -0.3698314506154019
    x89 d67 -0.36983145061543604
    x89 r73 0.5824430589537182
    x89 d73 0.5824430589535532
    x89 r81 0.3088952934272975
    x89 d81 0.3088952934271033
    x89 r83 0.3427979808681836
    x89 d83 0.3427979808681545
    x89 r84 -0.6187922344490842
    x89 d84 -0.6187922344496646
    x89 r89 -0.7292538412911593
    x89 d89 -0.7292538412911859
    x89 r91 0.3570663655779176
    x89 d91 0.35706636557806287
    x89 r92 -0.3731216070534844
    x89 d92 -0.3731216070531264
    x89 r98 0.8577452550046414
    x89 d98 0.8577452550039141
    x90 OBJ 0.0988798182880748
    x90 r0 -0.13695636400472222
    x90 d0 -0.13695636400478506
    x90 r2 -0.7430882400486609
    x90 d2 -0.7430882400486155
    x90 r6 0.4129463433909315
    x90 d6 0.4129463433910509
    x90 r10 0.2603894490166905
    x90 d10 0.2603894490164833
    x90 r12 -0.13872021304144844
    x90 d12 -0.13872021304132873
    x90 r15 0.037476527753017574
    x90 d15 0.03747652775302233
    x90 r18 0.5050197991755598
    x90 d18 0.5050197991753298
    x90 r21 0.8417107591651833
    x90 d21 0.8417107591647486
    x90 r22 0.4361171392659955
    x90 d22 0.4361171392660799
    x90 r30 -0.27284450163019747
    x90 d30 -0.2728445016304006
    x90 r31 -0.0613249342741371
    x90 d31 -0.06132493427412487
    x90 r33 -0.00035808123045577567
    x90 d33 -0.0003580812304558133
    x90 r34 -0.7702068837138794
    x90 d34 -0.7702068837139623
    x90 r36 -0.8728385975781623
    x90 d36 -0.8728385975786085
    x90 r38 0.599816331648316
    x90 d38 0.59981633164818
    x90 r40 0.14606708559114057
    x90 d40 0.14606708559100243
    x90 r41 -0.19749444935356508
    x90 d41 -0.1974944493535405
    x90 r42 0.626140315909057
    x90 d42 0.6261403159089276
    x90 r45 -0.2529048399097804
    x90 d45 -0.2529048399100097
    x90 r49 0.034156198593356946
    x90 d49 0.03415619859337859
    x90 r50 0.7876481115501346
    x90 d50 0.7876481115508122
    x90 r51 0.6120203423244563
    x90 d51 0.6120203423239037
    x90 r53 -0.8926653457648461
    x90 d53 -0.8926653457639745
    x90 r55 0.8641855487696262
    x90 d55 0.8641855487704749
    x90 r56 0.9111091363648889
    x90 d56 0.9111091363656212
    x90 r66 -0.4518800152767717
    x90 d66 -0.45188001527679084
    x90 r67 0.6519256639885627
    x90 d67 0.6519256639879379
    x90 r68 0.5835659641960431
    x90 d68 0.583565964196398
    x90 r69 -0.41628336939115673
    x90 d69 -0.4162833693914147
    x90 r70 0.9438460547907748
    x90 d70 0.9438460547899707
    x90 r73 0.09135148084979461
    x90 d73 0.09135148084975646
    x90 r75 -0.4998142200612179
    x90 d75 -0.4998142200611641
    x90 r80 -0.17635237423778438
    x90 d80 -0.1763523742377899
    x90 r85 -0.5932270804958404
    x90 d85 -0.5932270804956515
    x90 r96 0.29448627150885964
    x90 d96 0.294486271508942
    x90 r97 -0.6360769290508166
    x90 d97 -0.6360769290503716
    x90 r98 -0.8378138062145764
    x90 d98 -0.8378138062144553
    x90 r99 -0.7216187414656752
    x90 d99 -0.7216187414659346
    x91 OBJ 0.766767652883025
    x91 r4 -0.878724386962543
    x91 d4 -0.8787243869625034
    x91 r5 -0.3298349273871102
    x91 d5 -0.3298349273871268
    x91 r6 0.7992347097448522
    x91 d6 0.7992347097450565
    x91 r9 -0.30410289737922014
    x91 d9 -0.3041028973794247
    x91 r10 0.5427257569394335
    x91 d10 0.5427257569390066
    x91 r20 0.8396707512317008
    x91 d20 0.8396707512317554
    x91 r24 0.19516064391414534
    x91 d24 0.19516064391399143
    x91 r35 -0.7830712382673586
    x91 d35 -0.7830712382677077
    x91 r39 0.04916558741916455
    x91 d39 0.04916558741915918
    x91 r41 -0.8025433185124327
    x91 d41 -0.8025433185117606
    x91 r45 -0.9313731744152034
    x91 d45 -0.931373174415387
    x91 r46 -0.37089470213876985
    x91 d46 -0.3708947021385244
    x91 r48 -0.04399205988356991
    x91 d48 -0.043992059883590125
    x91 r57 0.7857220172117243
    x91 d57 0.7857220172110607
    x91 r58 -0.06171119347637788
    x91 d58 -0.06171119347633381
    x91 r66 0.8492027142918936
    x91 d66 0.8492027142923083
    x91 r69 0.21186231402051114
    x91 d69 0.21186231402054695
    x91 r71 0.26394659813742427
    x91 d71 0.2639465981373817
    x91 r79 -0.9148113429883069
    x91 d79 -0.9148113429877746
    x91 r81 -0.19476544290156195
    x91 d81 -0.19476544290161496
    x91 r84 -0.757342829099811
    x91 d84 -0.7573428290996761
    x91 r93 0.0357556791807121
    x91 d93 0.035755679180723095
    x91 r95 0.31520516050795133
    x91 d95 0.3152051605077386
    x91 r96 -0.633068099081668
    x91 d96 -0.6330680990822676
    x91 r97 0.7374397418202063
    x91 d97 0.7374397418196742
    x91 r99 -0.408286655959329
    x91 d99 -0.40828665595906
    x92 OBJ 0.6385596756714826
    x92 r2 -0.11606573307004497
    x92 d2 -0.11606573307012384
    x92 r8 -0.025289833983958676
    x92 d8 -0.025289833983958506
    x92 r10 0.6532923683239755
    x92 d10 0.6532923683235233
    x92 r12 -0.18176350890027582
    x92 d12 -0.18176350890036694
    x92 r13 0.04736045436552261
    x92 d13 0.047360454365511916
    x92 r16 -0.448071206381935
    x92 d16 -0.44807120638217046
    x92 r20 -0.7224782861219841
    x92 d20 -0.7224782861216588
    x92 r21 -0.3190313891855512
    x92 d21 -0.3190313891853259
    x92 r23 0.5573166840789363
    x92 d23 0.5573166840790856
    x92 r24 0.03992348924596523
    x92 d24 0.039923489245991095
    x92 r30 0.5382584700527824
    x92 d30 0.5382584700526963
    x92 r35 0.1824786254714721
    x92 d35 0.1824786254715812
    x92 r36 -0.08636951532566384
    x92 d36 -0.08636951532574941
    x92 r37 -0.6326982397690195
    x92 d37 -0.6326982397687039
    x92 r40 -0.4973492744647483
    x92 d40 -0.49734927446512744
    x92 r42 0.18201043489142843
    x92 d42 0.18201043489153257
    x92 r45 -0.6939303468023372
    x92 d45 -0.6939303468018794
    x92 r46 0.5310432599305566
    x92 d46 0.531043259930817
    x92 r47 0.26277553538662346
    x92 d47 0.2627755353863906
    x92 r52 0.22921822890954058
    x92 d52 0.22921822890948584
    x92 r54 0.5546203476053353
    x92 d54 0.5546203476055472
    x92 r58 -0.4894353528075699
    x92 d58 -0.4894353528073805
    x92 r59 -0.9231160641412577
    x92 d59 -0.9231160641421434
    x92 r62 -0.1586122283090452
    x92 d62 -0.15861222830904925
    x92 r68 -0.4404630015800941
    x92 d68 -0.4404630015797822
    x92 r69 -0.1434381400292215
    x92 d69 -0.1434381400293566
    x92 r73 0.2679338322723619
    x92 d73 0.2679338322722052
    x92 r74 0.8146656090272
    x92 d74 0.8146656090272164
    x92 r81 -0.5681074216973183
    x92 d81 -0.5681074216970688
    x92 r87 -0.5774910348390838
    x92 d87 -0.5774910348388471
    x92 r92 0.22153496007143603
    x92 d92 0.22153496007136875
    x92 r95 0.15796942521174917
    x92 d95 0.1579694252116053
    x92 r98 0.6295152626114489
    x92 d98 0.629515262612028
    x92 r99 0.8244103684212025
    x92 d99 0.8244103684219121
    x93 OBJ 0.7279689393970303
    x93 r0 -0.36294886332461207
    x93 d0 -0.3629488633243981
    x93 r1 -0.781908002141112
    x93 d1 -0.7819080021414999
    x93 r7 -0.25397109220652414
    x93 d7 -0.25397109220661507
    x93 r8 -0.1430504321668964
    x93 d8 -0.14305043216701122
    x93 r17 -0.42652675192159895
    x93 d17 -0.4265267519219705
    x93 r18 0.600143517291092
    x93 d18 0.6001435172907466
    x93 r25 0.2583786888786337
    x93 d25 0.2583786888788679
    x93 r26 -0.550437870305575
    x93 d26 -0.5504378703054447
    x93 r29 0.27926350735144045
    x93 d29 0.2792635073514888
    x93 r31 0.6770939299056946
    x93 d31 0.677093929906219
    x93 r34 -0.5533974525736962
    x93 d34 -0.5533974525737778
    x93 r39 0.5013325924751522
    x93 d39 0.5013325924748636
    x93 r41 -0.22165490076790406
    x93 d41 -0.22165490076777739
    x93 r42 -0.470313833312918
    x93 d42 -0.470313833312958
    x93 r43 0.9751922013620125
    x93 d43 0.9751922013621523
    x93 r48 -0.8512018379323494
    x93 d48 -0.8512018379315551
    x93 r49 -0.9227023612253353
    x93 d49 -0.922702361226106
    x93 r50 0.3074783727571069
    x93 d50 0.3074783727570636
    x93 r52 0.07756195442363634
    x93 d52 0.07756195442367181
    x93 r57 -0.9680719206432804
    x93 d57 -0.9680719206433158
    x93 r62 -0.1793550580088603
    x93 d62 -0.179355058008796
    x93 r64 0.8154104207407262
    x93 d64 0.8154104207403009
    x93 r65 -0.9087430789209099
    x93 d65 -0.9087430789214674
    x93 r68 0.012046330626893864
    x93 d68 0.012046330626893273
    x93 r78 -0.5198805784790292
    x93 d78 -0.5198805784789285
    x93 r81 0.6501122125404166
    x93 d81 0.6501122125409599
    x93 r84 0.581604641614047
    x93 d84 0.5816046416141261
    x93 r89 -0.3380833727854038
    x93 d89 -0.338083372785399
    x93 r91 -0.30322773586661467
    x93 d91 -0.3032277358666507
    x93 r93 -0.049569171719149985
    x93 d93 -0.04956917171912574
    x93 r94 0.15744611673388897
    x93 d94 0.15744611673381512
    x93 r97 0.04562695577065501
    x93 d97 0.04562695577063509
    x94 OBJ -0.4431578709722057
    x94 r1 0.044731214223616034
    x94 d1 0.04473121422364707
    x94 r2 0.2728740443329656
    x94 d2 0.27287404433307344
    x94 r6 0.2164072470395848
    x94 d6 0.21640724703977318
    x94 r8 0.3707810720866709
    x94 d8 0.37078107208686145
    x94 r21 0.9561173330632082
    x94 d21 0.9561173330623993
    x94 r24 0.09706301160680764
    x94 d24 0.09706301160675905
    x94 r26 -0.017235247549591826
    x94 d26 -0.017235247549598088
    x94 r38 0.5387032258496458
    x94 d38 0.5387032258494369
    x94 r40 0.916834465556738
    x94 d40 0.9168344655562968
    x94 r41 0.5286329218052066
    x94 d41 0.5286329218052632
    x94 r42 -0.5245911364148541
    x94 d42 -0.5245911364150162
    x94 r43 0.540184931656623
    x94 d43 0.5401849316567342
    x94 r47 -0.4501967985061852
    x94 d47 -0.4501967985061817
    x94 r49 0.8837656330173067
    x94 d49 0.8837656330178817
    x94 r53 0.23071278848746402
    x94 d53 0.2307127884876052
    x94 r59 0.14352258623772562
    x94 d59 0.14352258623775607
    x94 r60 -0.24695544325625685
    x94 d60 -0.24695544325611804
    x94 r62 -0.18101637601466547
    x94 d62 -0.18101637601470535
    x94 r63 -0.27170487483020755
    x94 d63 -0.2717048748300917
    x94 r65 0.09426174714235569
    x94 d65 0.09426174714233058
    x94 r69 -0.12137236816856367
    x94 d69 -0.1213723681685668
    x94 r72 -0.48721673166306134
    x94 d72 -0.4872167316632212
    x94 r74 -0.25614737571823665
    x94 d74 -0.25614737571825397
    x94 r76 0.6535894196975205
    x94 d76 0.653589419697551
    x94 r80 0.8304008630263224
    x94 d80 0.8304008630268935
    x94 r81 -0.5130935709007582
    x94 d81 -0.5130935709007494
    x94 r88 0.5029186880412304
    x94 d88 0.5029186880414451
    x94 r99 0.0833788004716427
    x94 d99 0.08337880047170515
    x95 OBJ -0.16940696557660284
    x95 r0 0.10810049561665602
    x95 d0 0.10810049561670787
    x95 r2 0.46696044972130424
    x95 d2 0.4669604497216381
    x95 r6 0.7447808198732517
    x95 d6 0.7447808198734791
    x95 r8 0.476422511719478
    x95 d8 0.476422511719026
    x95 r9 -0.03051389336587751
    x95 d9 -0.03051389336589539
    x95 r12 0.4705352441701094
    x95 d12 0.47053524417036424
    x95 r18 0.9560415445610668
    x95 d18 0.956041544560334
    x95 r23 -0.8483291687306473
    x95 d23 -0.8483291687298534
    x95 r34 -0.021599496512522798
    x95 d34 -0.02159949651253189
    x95 r35 0.1709600896126009
    x95 d35 0.1709600896126645
    x95 r36 -0.5758524460633558
    x95 d36 -0.5758524460635835
    x95 r39 0.19378000822269237
    x95 d39 0.19378000822280309
    x95 r40 -0.3044284335160945
    x95 d40 -0.3044284335160794
    x95 r42 -0.6819089982552442
    x95 d42 -0.6819089982548885
    x95 r45 0.8337313529423072
    x95 d45 0.833731352942608
    x95 r46 -0.7383737756202657
    x95 d46 -0.7383737756201686
    x95 r48 0.021906543666571077
    x95 d48 0.021906543666562233
    x95 r55 0.11573976491722826
    x95 d55 0.11573976491730716
    x95 r56 0.780318997119914
    x95 d56 0.780318997119349
    x95 r57 -0.9843594963681261
    x95 d57 -0.9843594963679709
    x95 r60 0.7822921310737696
    x95 d60 0.7822921310732781
    x95 r66 0.35611231779685726
    x95 d66 0.35611231779679275
    x95 r69 -0.9245427074754213
    x95 d69 -0.9245427074762765
    x95 r70 0.7180577972845437
    x95 d70 0.7180577972851226
    x95 r78 0.40649714662149705
    x95 d78 0.40649714662158143
    x95 r80 -0.9318308988138935
    x95 d80 -0.9318308988135217
    x95 r81 0.6185841826499352
    x95 d81 0.618584182650494
    x95 r82 -0.06652646040394439
    x95 d82 -0.06652646040396734
    x95 r84 0.8524387546235204
    x95 d84 0.8524387546229778
    x95 r87 -0.8320670307848814
    x95 d87 -0.832067030784168
    x95 r92 0.6337025181761453
    x95 d92 0.6337025181763141
    x95 r96 0.6382350787106486
    x95 d96 0.6382350787100485
    x96 OBJ -0.2824576693367504
    x96 r3 0.4444391824675382
    x96 d3 0.4444391824673875
    x96 r6 0.026056097320757532
    x96 d6 0.026056097320744577
    x96 r10 -0.5132481174783436
    x96 d10 -0.5132481174786284
    x96 r11 0.36172586880682656
    x96 d11 0.36172586880716107
    x96 r13 0.48962999289906706
    x96 d13 0.4896299928991739
    x96 r15 -0.4451657733391756
    x96 d15 -0.44516577333898333
    x96 r18 -0.24954244192258446
    x96 d18 -0.24954244192251818
    x96 r28 -0.26947065765248923
    x96 d28 -0.2694706576524185
    x96 r29 -0.626268097451995
    x96 d29 -0.6262680974524348
    x96 r30 -0.7487178211381105
    x96 d30 -0.7487178211375568
    x96 r33 0.8018196833106825
    x96 d33 0.8018196833101892
    x96 r38 0.8844471215629068
    x96 d38 0.8844471215622656
    x96 r41 -0.27253801447494874
    x96 d41 -0.2725380144750305
    x96 r47 -0.792051276036086
    x96 d47 -0.7920512760354258
    x96 r50 -0.5738520954059869
    x96 d50 -0.573852095405528
    x96 r52 0.8538583434344842
    x96 d52 0.8538583434347786
    x96 r55 -0.35680365116272506
    x96 d55 -0.3568036511626074
    x96 r57 0.642751381681514
    x96 d57 0.6427513816813502
    x96 r60 -0.11563339039603449
    x96 d60 -0.1156333903959912
    x96 r63 0.3268177361328857
    x96 d63 0.3268177361330184
    x96 r71 0.3173633954225965
    x96 d71 0.317363395422371
    x96 r76 0.24645274035183706
    x96 d76 0.24645274035182896
    x96 r82 -0.6127318660210894
    x96 d82 -0.6127318660215443
    x96 r83 -0.12267695776000398
    x96 d83 -0.12267695776005264
    x96 r86 -0.2564806313687398
    x96 d86 -0.25648063136879184
    x96 r88 0.7513246287421858
    x96 d88 0.7513246287427874
    x96 r89 0.30362394073354526
    x96 d89 0.3036239407335661
    x96 r91 0.12799273500107056
    x96 d91 0.12799273500103783
    x96 r93 -0.5801401537941744
    x96 d93 -0.5801401537942457
    x96 r95 -0.6239163354514699
    x96 d95 -0.6239163354514158
    x96 r97 -0.617004664657778
    x96 d97 -0.6170046646581828
    x97 OBJ 0.768385654396434
    x97 r0 -0.33700422171601874
    x97 d0 -0.33700422171633937
    x97 r7 0.20758921434644617
    x97 d7 0.20758921434637884
    x97 r8 -0.29285460949579845
    x97 d8 -0.2928546094958528
    x97 r10 0.09708972418910466
    x97 d10 0.09708972418909909
    x97 r16 -0.12525260735328292
    x97 d16 -0.12525260735322685
    x97 r19 0.10968726398550133
    x97 d19 0.10968726398545309
    x97 r21 -0.16499479328348365
    x97 d21 -0.16499479328343422
    x97 r22 -0.2228102795126674
    x97 d22 -0.22281027951273533
    x97 r28 0.8970433345916426
    x97 d28 0.8970433345920693
    x97 r29 0.447127258772007
    x97 d29 0.4471272587721252
    x97 r32 -0.9101010871808635
    x97 d32 -0.9101010871817377
    x97 r33 0.9571280760606122
    x97 d33 0.9571280760606475
    x97 r34 -0.7656294152917165
    x97 d34 -0.7656294152923322
    x97 r38 -0.07119880968062664
    x97 d38 -0.0711988096806863
    x97 r40 -0.7387166203417364
    x97 d40 -0.7387166203413194
    x97 r50 0.8849382342422796
    x97 d50 0.8849382342426849
    x97 r55 -0.7792380002954651
    x97 d55 -0.779238000296192
    x97 r56 -0.28223662202501276
    x97 d56 -0.2822366220247956
    x97 r59 0.8972075679353799
    x97 d59 0.8972075679345836
    x97 r67 -0.3690506179206543
    x97 d67 -0.3690506179209832
    x97 r68 0.6116761523443508
    x97 d68 0.6116761523448624
    x97 r69 -0.630306893318962
    x97 d69 -0.6303068933195356
    x97 r73 -0.6616008231798256
    x97 d73 -0.6616008231799885
    x97 r77 0.5639706280597705
    x97 d77 0.563970628059594
    x97 r78 -0.9161278734664917
    x97 d78 -0.9161278734656717
    x97 r83 0.711955906669206
    x97 d83 0.7119559066685526
    x97 r92 0.24210022112651175
    x97 d92 0.24210022112634544
    x97 r98 -0.5034639367249321
    x97 d98 -0.50346393672536
    x97 r99 0.17050552967728438
    x97 d99 0.1705055296772169
    x98 OBJ 0.9154624079279825
    x98 r2 0.00784812710981786
    x98 d2 0.007848127109816874
    x98 r5 0.034748988548356285
    x98 d5 0.03474898854832842
    x98 r6 0.5434886629106519
    x98 d6 0.5434886629103758
    x98 r7 0.09766601513865725
    x98 d7 0.0976660151385708
    x98 r13 0.7662199578008073
    x98 d13 0.7662199578012456
    x98 r16 0.5973431811132064
    x98 d16 0.5973431811127914
    x98 r17 0.6962967901062791
    x98 d17 0.6962967901056087
    x98 r20 -0.9787041586145953
    x98 d20 -0.9787041586146316
    x98 r21 0.4516100656921327
    x98 d21 0.45161006569248174
    x98 r30 0.7379243142496839
    x98 d30 0.7379243142497882
    x98 r33 0.7998317316977734
    x98 d33 0.7998317316985364
    x98 r35 -0.30627277042252654
    x98 d35 -0.3062727704224904
    x98 r37 -0.37029583289652623
    x98 d37 -0.3702958328968945
    x98 r41 -0.3799107424801673
    x98 d41 -0.37991074248050355
    x98 r45 -0.16492036583001157
    x98 d45 -0.164920365829847
    x98 r46 0.9866535068023043
    x98 d46 0.9866535068019082
    x98 r48 -0.3928895072926235
    x98 d48 -0.39288950729275096
    x98 r50 -0.2142572483209737
    x98 d50 -0.21425724832107595
    x98 r51 -0.03661449943474504
    x98 d51 -0.036614499434766135
    x98 r53 -0.9681272947180899
    x98 d53 -0.9681272947187013
    x98 r64 -0.9127980332095151
    x98 d64 -0.9127980332099266
    x98 r71 0.029621274008940768
    x98 d71 0.02962127400895853
    x98 r74 -0.2636418009335473
    x98 d74 -0.26364180093342726
    x98 r76 0.7098007155960608
    x98 d76 0.7098007155957815
    x98 r78 0.34815897743541213
    x98 d78 0.3481589774357551
    x98 r80 0.8822761768185741
    x98 d80 0.8822761768190868
    x98 r82 0.6559942997278081
    x98 d82 0.6559942997276627
    x98 r84 -0.36893627386082883
    x98 d84 -0.3689362738610253
    x98 r85 0.037030740217817826
    x98 d85 0.03703074021785205
    x98 r86 0.3988331328131143
    x98 d86 0.3988331328127862
    x98 r87 0.07259171576796097
    x98 d87 0.07259171576798228
    x98 r89 -0.290047661271128
    x98 d89 -0.2900476612712543
    x98 r94 0.03987197242732843
    x98 d94 0.03987197242730751
    x98 r95 0.6821309650291709
    x98 d95 0.682130965028956
    x98 r97 -0.9265025650746876
    x98 d97 -0.9265025650752267
    x98 r98 -0.5475492122286287
    x98 d98 -0.547549212228362
    x99 OBJ -0.6981581884177821
    x99 r9 -0.7205840875140477
    x99 d9 -0.7205840875133336
    x99 r12 -0.5548610889941759
    x99 d12 -0.5548610889941064
    x99 r16 0.6614265611446342
    x99 d16 0.6614265611446596
    x99 r17 0.4220312772189625
    x99 d17 0.422031277218769
    x99 r20 0.5578049559645677
    x99 d20 0.5578049559651047
    x99 r22 0.4875787775740752
    x99 d22 0.48757877757407564
    x99 r25 0.6128241956293743
    x99 d25 0.6128241956292846
    x99 r35 0.6256159347359831
    x99 d35 0.6256159347358717
    x99 r36 -0.06807249677607108
    x99 d36 -0.0680724967761161
    x99 r39 -0.5581488038216549
    x99 d39 -0.5581488038221355
    x99 r43 0.29379930591139636
    x99 d43 0.2937993059112589
    x99 r44 -0.24755366973934234
    x99 d44 -0.24755366973932225
    x99 r47 -0.6005639765625885
    x99 d47 -0.6005639765630918
    x99 r52 0.453040925779554
    x99 d52 0.45304092577999594
    x99 r60 -0.5951868809650276
    x99 d60 -0.5951868809649004
    x99 r63 0.20408949881007699
    x99 d63 0.20408949880994484
    x99 r64 0.05786965971611058
    x99 d64 0.05786965971607205
    x99 r66 0.3473357612586905
    x99 d66 0.3473357612586394
    x99 r68 0.3640189502241613
    x99 d68 0.3640189502241922
    x99 r69 -0.12261073549833279
    x99 d69 -0.12261073549823448
    x99 r74 0.6252415729183358
    x99 d74 0.6252415729178613
    x99 r87 0.3688206041370894
    x99 d87 0.36882060413697426
    x99 r89 -0.9065850518527283
    x99 d89 -0.9065850518531674
    x99 r90 -0.2599935172180643
    x99 d90 -0.25999351721802205
    x99 r92 -0.992964350821484
    x99 d92 -0.992964350821923
    x99 r94 -0.9913675602390288
    x99 d94 -0.9913675602395992
    x99 r96 0.3578894010042135
    x99 d96 0.35788940100445266
    x100 OBJ -0.6475645430192594
    x100 r0 0.9701664882681986
    x100 d0 0.9701664882681869
    x100 r7 0.8507139073346375
    x100 d7 0.8507139073344916
    x100 r9 0.7861293221276378
    x100 d9 0.7861293221276205
    x100 r11 0.8854926719273069
    x100 d11 0.8854926719279408
    x100 r12 -0.4679438156918141
    x100 d12 -0.46794381569142635
    x100 r19 -0.311830944484748
    x100 d19 -0.3118309444846522
    x100 r20 0.06251415431674867
    x100 d20 0.06251415431677745
    x100 r23 0.270251694435105
    x100 d23 0.2702516944348792
    x100 r24 -0.6289682226598416
    x100 d24 -0.6289682226604173
    x100 r26 0.5061797552872802
    x100 d26 0.5061797552876887
    x100 r28 -0.9051383639943278
    x100 d28 -0.9051383639948389
    x100 r34 0.07592887481300936
    x100 d34 0.07592887481294495
    x100 r37 0.587216302972726
    x100 d37 0.5872163029729849
    x100 r43 -0.15073054795537644
    x100 d43 -0.15073054795524754
    x100 r44 0.5449534211008702
    x100 d44 0.5449534211005828
    x100 r47 0.06510617838644572
    x100 d47 0.06510617838648361
    x100 r50 0.4439519864479964
    x100 d50 0.4439519864481476
    x100 r56 -0.23060225981096538
    x100 d56 -0.2306022598111711
    x100 r57 0.9682349316237249
    x100 d57 0.9682349316236912
    x100 r63 0.45391730617714576
    x100 d63 0.4539173061775348
    x100 r70 0.4218080750751476
    x100 d70 0.4218080750755217
    x100 r73 0.2843021776718324
    x100 d73 0.2843021776715556
    x100 r74 -0.5192287329511602
    x100 d74 -0.5192287329515388
    x100 r75 -0.6913555996035632
    x100 d75 -0.6913555996029405
    x100 r77 -0.8496610808774132
    x100 d77 -0.8496610808774744
    x100 r80 0.5272824347290599
    x100 d80 0.5272824347292644
    x100 r88 -0.30670936367993473
    x100 d88 -0.3067093636797678
    x100 r93 -0.9020848483701911
    x100 d93 -0.9020848483693622
    x100 r96 -0.7116500312000937
    x100 d96 -0.711650031200626
    x101 OBJ -0.5360862663609285
    x101 r2 0.7141402224657039
    x101 d2 0.7141402224660246
    x101 r5 -0.155727719320083
    x101 d5 -0.1557277193200439
    x101 r8 0.9350012834678465
    x101 d8 0.9350012834677764
    x101 r12 -0.728008048466416
    x101 d12 -0.7280080484662614
    x101 r15 0.06365581293636913
    x101 d15 0.06365581293631623
    x101 r22 0.012325927223089117
    x101 d22 0.012325927223077675
    x101 r23 0.12232960036167739
    x101 d23 0.12232960036172835
    x101 r29 0.6173332508802147
    x101 d29 0.6173332508803431
    x101 r32 -0.009499521032896752
    x101 d32 -0.00949952103289377
    x101 r33 -0.023423291144576863
    x101 d33 -0.02342329114459776
    x101 r37 -0.22726907928804652
    x101 d37 -0.22726907928803344
    x101 r38 0.7069916407909298
    x101 d38 0.7069916407913572
    x101 r39 -0.6807008327625859
    x101 d39 -0.6807008327622316
    x101 r43 -0.39718498780349365
    x101 d43 -0.39718498780355
    x101 r48 -0.07612711355081259
    x101 d48 -0.07612711355086327
    x101 r50 -0.1870442120765301
    x101 d50 -0.18704421207634686
    x101 r59 0.08451572720964151
    x101 d59 0.08451572720963037
    x101 r60 0.6548905824540825
    x101 d60 0.6548905824540863
    x101 r64 0.5020132816584464
    x101 d64 0.5020132816584463
    x101 r70 0.7813720218805118
    x101 d70 0.7813720218800764
    x101 r71 -0.17308858252900272
    x101 d71 -0.17308858252898177
    x101 r79 -0.19125038698484476
    x101 d79 -0.1912503869847276
    x101 r80 0.04072004753069436
    x101 d80 0.04072004753070336
    x101 r81 -0.5459949652256779
    x101 d81 -0.5459949652253171
    x101 r90 0.4117878706320619
    x101 d90 0.4117878706321036
    x101 r91 0.04975921698071328
    x101 d91 0.04975921698073826
    x101 r92 -0.3550483029625444
    x101 d92 -0.3550483029628373
    x101 r94 -0.9311663839285866
    x101 d94 -0.9311663839283456
    x101 r96 -0.12519343099435165
    x101 d96 -0.12519343099439895
    x101 r98 0.7160509286149819
    x101 d98 0.7160509286142971
    x102 OBJ -0.5333278326382778
    x102 r1 0.5645972360022629
    x102 d1 0.5645972360024485
    x102 r7 -0.6137040452073843
    x102 d7 -0.6137040452068264
    x102 r9 0.8492136642316597
    x102 d9 0.8492136642308382
    x102 r10 -0.386105281622398
    x102 d10 -0.38610528162277685
    x102 r14 0.49822263175512504
    x102 d14 0.49822263175498455
    x102 r15 0.540099108642047
    x102 d15 0.5400991086425387
    x102 r20 0.05496178355856296
    x102 d20 0.05496178355858162
    x102 r21 -0.9732545705220301
    x102 d21 -0.973254570522334
    x102 r26 0.7537412484626467
    x102 d26 0.7537412484624497
    x102 r28 0.5761390497291772
    x102 d28 0.5761390497294014
    x102 r29 0.43587470707549514
    x102 d29 0.4358747070754302
    x102 r31 -0.5470803928627928
    x102 d31 -0.5470803928626721
    x102 r36 -0.23318640717449246
    x102 d36 -0.23318640717435704
    x102 r39 0.002036600988551962
    x102 d39 0.0020366009885533906
    x102 r43 0.07914917777689112
    x102 d43 0.07914917777683647
    x102 r44 0.15863285367396607
    x102 d44 0.15863285367411895
    x102 r47 0.15462160066490083
    x102 d47 0.15462160066478386
    x102 r50 0.6404277645868188
    x102 d50 0.6404277645866528
    x102 r52 -0.347151061940252
    x102 d52 -0.3471510619400721
    x102 r53 0.801986197986277
    x102 d53 0.8019861979870085
    x102 r56 -0.2131964258036172
    x102 d56 -0.2131964258035205
    x102 r60 0.9013346149307362
    x102 d60 0.901334614930273
    x102 r61 0.5223616683365571
    x102 d61 0.522361668336233
    x102 r64 -0.613204117655946
    x102 d64 -0.6132041176561009
    x102 r67 0.02890740297121286
    x102 d67 0.028907402971197267
    x102 r68 0.8028259201735122
    x102 d68 0.802825920174173
    x102 r72 -0.8745893340198769
    x102 d72 -0.8745893340204138
    x102 r73 0.5100335084826235
    x102 d73 0.5100335084822587
    x102 r75 0.9405977074264471
    x102 d75 0.9405977074258609
    x102 r79 0.6684770912497957
    x102 d79 0.6684770912491641
    x102 r83 -0.716346170013811
    x102 d83 -0.7163461700133475
    x102 r86 -0.6665799670601886
    x102 d86 -0.666579967060768
    x102 r87 0.17914107317915762
    x102 d87 0.17914107317899627
    x102 r88 0.29505198301356983
    x102 d88 0.29505198301335767
    x102 r95 0.16457273709884768
    x102 d95 0.1645727370989945
    x102 r98 0.8918297973868403
    x102 d98 0.8918297973870642
    x103 OBJ -0.030074539317286764
    x103 r0 -0.4688714553129605
    x103 d0 -0.46887145531285035
    x103 r1 0.8398402189849574
    x103 d1 0.8398402189843212
    x103 r9 0.19758668691913206
    x103 d9 0.19758668691897818
    x103 r11 -0.39892873397032225
    x103 d11 -0.3989287339700111
    x103 r14 0.35909469865510757
    x103 d14 0.35909469865539495
    x103 r16 0.554457413702099
    x103 d16 0.5544574137020163
    x103 r18 -0.8623581482692586
    x103 d18 -0.8623581482686025
    x103 r21 0.6847425480391325
    x103 d21 0.6847425480385678
    x103 r23 0.5195356885504285
    x103 d23 0.5195356885504253
    x103 r24 -0.1661883586957824
    x103 d24 -0.16618835869584167
    x103 r26 -0.6149121780229398
    x103 d26 -0.614912178022972
    x103 r32 0.4867574619207251
    x103 d32 0.4867574619211222
    x103 r35 -0.4407475145397308
    x103 d35 -0.44074751453945676
    x103 r37 0.9270564553754586
    x103 d37 0.9270564553749345
    x103 r38 0.005213907324338463
    x103 d38 0.005213907324338745
    x103 r43 -0.5126796872206081
    x103 d43 -0.5126796872200995
    x103 r48 -0.7390193661650288
    x103 d48 -0.7390193661650175
    x103 r50 0.6274335201990917
    x103 d50 0.6274335201990797
    x103 r59 0.4028196299406994
    x103 d59 0.4028196299407508
    x103 r62 -0.43821503240458126
    x103 d62 -0.43821503240480586
    x103 r78 -0.5364855342493606
    x103 d78 -0.536485534249868
    x103 r81 0.7538887484788017
    x103 d81 0.7538887484785083
    x103 r82 -0.7072256971548172
    x103 d82 -0.7072256971552046
    x103 r84 0.6471621997169441
    x103 d84 0.6471621997170429
    x103 r85 -0.004939190597617271
    x103 d85 -0.004939190597615144
    x103 r88 -0.08138738714093452
    x103 d88 -0.08138738714088338
    x103 r90 0.5064295103302074
    x103 d90 0.5064295103304912
    x103 r93 0.8011864554692443
    x103 d93 0.8011864554685286
    x103 r98 0.715965736116305
    x103 d98 0.7159657361168413
    x104 OBJ 0.17824700746451128
    x104 r0 0.5579948601357845
    x104 d0 0.557994860135761
    x104 r6 -0.6459056023338756
    x104 d6 -0.6459056023334089
    x104 r8 -0.6455606815933121
    x104 d8 -0.6455606815932633
    x104 r12 0.16470553657593734
    x104 d12 0.1647055365758036
    x104 r13 -0.3964724094923362
    x104 d13 -0.39647240949214635
    x104 r14 0.9765705297136928
    x104 d14 0.9765705297132145
    x104 r16 0.725538702244112
    x104 d16 0.7255387022447484
    x104 r17 0.07958141658966622
    x104 d17 0.07958141658966511
    x104 r19 -0.579667472230041
    x104 d19 -0.579667472230378
    x104 r24 -0.06520471327843258
    x104 d24 -0.06520471327839239
    x104 r28 0.6683154220916048
    x104 d28 0.6683154220911781
    x104 r36 -0.3588941137741206
    x104 d36 -0.3588941137743716
    x104 r38 -0.13653270382934135
    x104 d38 -0.13653270382940402
    x104 r40 -0.25400493556119863
    x104 d40 -0.25400493556128667
    x104 r42 -0.4503093386368473
    x104 d42 -0.45030933863709227
    x104 r51 -0.43562108008237277
    x104 d51 -0.4356210800827538
    x104 r54 0.18681287754877873
    x104 d54 0.18681287754888343
    x104 r60 -0.15845140240668298
    x104 d60 -0.15845140240661643
    x104 r61 -0.26631223706250085
    x104 d61 -0.266312237062476
    x104 r62 0.16515540304595788
    x104 d62 0.16515540304608547
    x104 r64 0.6530746982163238
    x104 d64 0.6530746982157846
    x104 r70 -0.9175644526741318
    x104 d70 -0.9175644526746831
    x104 r71 -0.7627763844559363
    x104 d71 -0.7627763844561393
    x104 r72 0.07529565374890757
    x104 d72 0.0752956537489142
    x104 r73 -0.47822773159930576
    x104 d73 -0.47822773159976173
    x104 r74 -0.9810028527100347
    x104 d74 -0.9810028527104124
    x104 r75 0.17696950573192094
    x104 d75 0.1769695057320749
    x104 r80 0.4390081634923275
    x104 d80 0.4390081634924978
    x104 r83 0.4756108862897461
    x104 d83 0.475610886289524
    x104 r88 -0.29103572398580213
    x104 d88 -0.29103572398553335
    x104 r90 -0.8580489673908256
    x104 d90 -0.8580489673909494
    x104 r91 0.4565201545572175
    x104 d91 0.4565201545576015
    x104 r93 0.14646328362965177
    x104 d93 0.14646328362959057
    x105 OBJ -0.47450676140292414
    x105 r0 -0.7408888813886454
    x105 d0 -0.7408888813889176
    x105 r2 0.9634561819686731
    x105 d2 0.9634561819688088
    x105 r5 -0.13391893802903798
    x105 d5 -0.13391893802901145
    x105 r8 -0.8621583585988617
    x105 d8 -0.8621583585994473
    x105 r17 -0.20166858791200237
    x105 d17 -0.2016685879121784
    x105 r19 0.4474254063918057
    x105 d19 0.4474254063920639
    x105 r22 -0.08739308530317458
    x105 d22 -0.08739308530316614
    x105 r29 -0.5462937798508054
    x105 d29 -0.5462937798511579
    x105 r39 0.5332013565358695
    x105 d39 0.5332013565357351
    x105 r41 -0.2520760703512557
    x105 d41 -0.25207607035116514
    x105 r42 0.8196892653998562
    x105 d42 0.8196892654001005
    x105 r43 0.1585871874731084
    x105 d43 0.15858718747325543
    x105 r45 0.4171688258761439
    x105 d45 0.417168825876557
    x105 r46 -0.30654686068469106
    x105 d46 -0.30654686068468384
    x105 r50 -0.4005165287416812
    x105 d50 -0.4005165287420134
    x105 r51 0.7411522072349808
    x105 d51 0.741152207234685
    x105 r52 0.21249901728568066
    x105 d52 0.21249901728546902
    x105 r55 -0.10064156002020952
    x105 d55 -0.10064156002022791
    x105 r61 0.4214749002830862
    x105 d61 0.42147490028343143
    x105 r62 -0.41491617333591835
    x105 d62 -0.4149161733358513
    x105 r66 0.7910323224395659
    x105 d66 0.7910323224394359
    x105 r68 -0.4479477868618038
    x105 d68 -0.4479477868620348
    x105 r69 -0.2261256101538649
    x105 d69 -0.2261256101538783
    x105 r70 0.005596660367245487
    x105 d70 0.005596660367247468
    x105 r71 0.1919792269771856
    x105 d71 0.19197922697702358
    x105 r76 0.08175471761719022
    x105 d76 0.08175471761719989
    x105 r86 -0.7561856066756183
    x105 d86 -0.7561856066752621
    x105 r89 0.5876585911006522
    x105 d89 0.5876585911005655
    x105 r90 -0.8524468965275671
    x105 d90 -0.8524468965275361
    x105 r96 0.9406816177960795
    x105 d96 0.9406816177957612
    x106 OBJ -0.9918127932298721
    x106 r1 -0.4964121054373214
    x106 d1 -0.4964121054376598
    x106 r3 -0.16083919640785282
    x106 d3 -0.16083919640800778
    x106 r7 -0.9580866174690759
    x106 d7 -0.958086617469318
    x106 r8 0.01750259172703017
    x106 d8 0.01750259172702719
    x106 r11 -0.1142408674518034
    x106 d11 -0.11424086745190476
    x106 r15 0.8512119184683442
    x106 d15 0.8512119184681218
    x106 r17 0.41660122549200396
    x106 d17 0.4166012254917233
    x106 r21 0.7139288816096647
    x106 d21 0.7139288816092636
    x106 r26 -0.46695924131593314
    x106 d26 -0.46695924131591815
    x106 r37 -0.5935332578369921
    x106 d37 -0.5935332578374416
    x106 r45 -0.45337933175970857
    x106 d45 -0.45337933175992684
    x106 r49 -0.592841049089138
    x106 d49 -0.5928410490888464
    x106 r52 0.5989689546674597
    x106 d52 0.598968954667474
    x106 r53 -0.07816236169560487
    x106 d53 -0.07816236169562805
    x106 r54 -0.234189260774593
    x106 d54 -0.23418926077460678
    x106 r55 0.46940152567804816
    x106 d55 0.4694015256780895
    x106 r57 0.9752703928644213
    x106 d57 0.9752703928641013
    x106 r58 -0.941030075970634
    x106 d58 -0.9410300759707554
    x106 r60 0.8092541877613171
    x106 d60 0.8092541877619884
    x106 r61 0.666899845878119
    x106 d61 0.6668998458779751
    x106 r70 0.08005927241450772
    x106 d70 0.08005927241453044
    x106 r71 -0.8221674498403839
    x106 d71 -0.8221674498400395
    x106 r72 -0.7391074749951032
    x106 d72 -0.7391074749950023
    x106 r79 0.8331030020084234
    x106 d79 0.8331030020085322
    x106 r82 0.9258745406340523
    x106 d82 0.9258745406335578
    x106 r83 0.6441697211378197
    x106 d83 0.6441697211376163
    x106 r85 -0.8942706952022081
    x106 d85 -0.8942706952016933
    x106 r86 -0.46531199679708
    x106 d86 -0.46531199679711804
    x106 r93 -0.6479110186164863
    x106 d93 -0.6479110186171315
    x107 OBJ -0.16210699774934412
    x107 r5 -0.7211866018067605
    x107 d5 -0.7211866018068489
    x107 r7 0.6013855227592864
    x107 d7 0.6013855227590873
    x107 r13 0.0937361978319311
    x107 d13 0.09373619783190683
    x107 r14 0.2737197406787455
    x107 d14 0.2737197406785493
    x107 r20 0.9211580579967487
    x107 d20 0.9211580579973805
    x107 r21 -0.35011467922302963
    x107 d21 -0.35011467922309375
    x107 r25 -0.2615106382965864
    x107 d25 -0.26151063829666876
    x107 r27 0.0907195699788832
    x107 d27 0.09071956997895171
    x107 r31 -0.22420031140126628
    x107 d31 -0.22420031140105268
    x107 r32 0.34898571486313945
    x107 d32 0.3489857148627922
    x107 r33 0.47347011365733427
    x107 d33 0.47347011365690067
    x107 r34 -0.03239706880855442
    x107 d34 -0.03239706880857587
    x107 r35 -0.481590147425502
    x107 d35 -0.4815901474252541
    x107 r38 -0.42470204780450516
    x107 d38 -0.42470204780479043
    x107 r39 -0.9862669166160385
    x107 d39 -0.9862669166159966
    x107 r40 -0.5006982079864906
    x107 d40 -0.5006982079863964
    x107 r45 0.7620622736679015
    x107 d45 0.762062273667465
    x107 r47 0.9555697702913808
    x107 d47 0.9555697702908293
    x107 r51 -0.42805240067516315
    x107 d51 -0.42805240067540856
    x107 r52 0.4451502901469724
    x107 d52 0.44515029014715674
    x107 r56 0.5047637984256845
    x107 d56 0.5047637984261434
    x107 r57 -0.16323362822063858
    x107 d57 -0.16323362822070556
    x107 r59 0.840771443745236
    x107 d59 0.840771443745556
    x107 r60 0.3625281846824102
    x107 d60 0.36252818468208264
    x107 r64 0.03414735512330469
    x107 d64 0.03414735512329569
    x107 r65 0.796095440858738
    x107 d65 0.7960954408585499
    x107 r66 -0.12941673434311185
    x107 d66 -0.12941673434298412
    x107 r68 0.3281855634781796
    x107 d68 0.3281855634778552
    x107 r70 -0.7926515174689135
    x107 d70 -0.7926515174683938
    x107 r80 -0.39216118071491723
    x107 d80 -0.3921611807152019
    x107 r81 -0.2553622991998179
    x107 d81 -0.25536229919979214
    x107 r89 0.4886183298198852
    x107 d89 0.48861832982009845
    x107 r91 -0.31867934599143766
    x107 d91 -0.31867934599164544
    x107 r93 0.25636384854889904
    x107 d93 0.25636384854867367
    x107 r97 -0.85209640543825
    x107 d97 -0.8520964054384736
    x108 OBJ -0.26149285421054924
    x108 r4 -0.9966299932967742
    x108 d4 -0.9966299932970297
    x108 r6 0.1239813255347344
    x108 d6 0.12398132553461727
    x108 r7 0.1084924329981134
    x108 d7 0.10849243299811216
    x108 r9 -0.33372955992475384
    x108 d9 -0.33372955992496234
    x108 r21 0.9657386767721596
    x108 d21 0.9657386767722171
    x108 r22 -0.4410381919969668
    x108 d22 -0.44103819199726274
    x108 r25 -0.5987566662341357
    x108 d25 -0.5987566662335371
    x108 r35 -0.6215463427488686
    x108 d35 -0.6215463427494874
    x108 r40 -0.2986894022305111
    x108 d40 -0.2986894022305597
    x108 r46 -0.45655651120648755
    x108 d46 -0.4565565112068813
    x108 r49 -0.08147287869945452
    x108 d49 -0.08147287869949453
    x108 r51 0.21089791806075797
    x108 d51 0.21089791806067712
    x108 r55 -0.31505332472808356
    x108 d55 -0.3150533247279474
    x108 r59 0.9159178407152821
    x108 d59 0.9159178407153454
    x108 r61 0.4661885546463205
    x108 d61 0.46618855464604525
    x108 r71 0.6744778988538511
    x108 d71 0.6744778988539444
    x108 r76 -0.7262997815538172
    x108 d76 -0.7262997815539227
    x108 r77 -0.3504485149693157
    x108 d77 -0.3504485149693703
    x108 r84 -0.014220214359847327
    x108 d84 -0.014220214359837528
    x108 r85 0.8334780303028231
    x108 d85 0.8334780303022665
    x108 r86 0.49555367403808415
    x108 d86 0.4955536740381101
    x108 r87 -0.23176042160201815
    x108 d87 -0.23176042160210683
    x108 r96 -0.663319599461174
    x108 d96 -0.6633195994612177
    x108 r97 0.33980307531086673
    x108 d97 0.3398030753106541
    x109 OBJ 0.1326824474127839
    x109 r0 -0.7012641051918436
    x109 d0 -0.701264105192218
    x109 r1 -0.8592961832828927
    x109 d1 -0.8592961832825383
    x109 r2 0.5767630446118011
    x109 d2 0.5767630446115793
    x109 r4 -0.15499996904610946
    x109 d4 -0.15499996904599872
    x109 r7 0.37432634338089255
    x109 d7 0.37432634338096576
    x109 r14 0.6298596636411984
    x109 d14 0.6298596636407677
    x109 r15 -0.19594493761630005
    x109 d15 -0.19594493761614892
    x109 r24 0.23742852817531923
    x109 d24 0.2374285281754193
    x109 r27 0.7825425683635889
    x109 d27 0.7825425683642301
    x109 r31 0.03731540161767177
    x109 d31 0.03731540161764973
    x109 r36 0.03603134591624779
    x109 d36 0.036031345916239195
    x109 r37 0.6344311096133171
    x109 d37 0.6344311096133934
    x109 r39 -0.49218434876676254
    x109 d39 -0.4921843487662957
    x109 r47 -0.9794872628589801
    x109 d47 -0.9794872628593033
    x109 r48 -0.06524615774320996
    x109 d48 -0.06524615774323436
    x109 r49 0.09019345230015641
    x109 d49 0.09019345230012968
    x109 r50 -0.6632449488931518
    x109 d50 -0.6632449488926139
    x109 r52 -0.4931891536122366
    x109 d52 -0.49318915361205645
    x109 r53 -0.9418860548362145
    x109 d53 -0.9418860548355222
    x109 r54 0.37360780918090986
    x109 d54 0.37360780918058867
    x109 r55 0.6335224961989754
    x109 d55 0.6335224961994832
    x109 r56 0.9365482472406885
    x109 d56 0.9365482472403034
    x109 r62 0.5767983648603965
    x109 d62 0.5767983648604912
    x109 r66 -0.08621137374768129
    x109 d66 -0.08621137374775077
    x109 r72 -0.2346606858711966
    x109 d72 -0.23466068587105954
    x109 r81 0.5611186923075817
    x109 d81 0.5611186923072702
    x109 r83 0.0850925941889622
    x109 d83 0.08509259418892169
    x109 r87 -0.38429637346036793
    x109 d87 -0.38429637346026957
    x109 r88 0.3550730973979235
    x109 d88 0.3550730973981465
    x109 r89 0.5752230551929804
    x109 d89 0.5752230551933887
    x109 r98 -0.7623169323034689
    x109 d98 -0.7623169323036859
    x110 OBJ 0.9061958510501906
    x110 r3 -0.1528403091021837
    x110 d3 -0.15284030910218696
    x110 r8 0.37628878714751823
    x110 d8 0.37628878714749836
    x110 r9 0.4847043061860048
    x110 d9 0.48470430618592597
    x110 r12 -0.03659159402373269
    x110 d12 -0.03659159402376661
    x110 r13 0.9133282658158988
    x110 d13 0.9133282658156936
    x110 r14 -0.0441761460070742
    x110 d14 -0.04417614600704323
    x110 r22 0.22202176575575971
    x110 d22 0.22202176575580498
    x110 r25 -0.04764986793680093
    x110 d25 -0.04764986793679317
    x110 r26 -0.5241321163190551
    x110 d26 -0.52413211631941
    x110 r37 -0.8459597059661865
    x110 d37 -0.8459597059670145
    x110 r38 0.21941766427951825
    x110 d38 0.21941766427959236
    x110 r43 -0.6276591199654589
    x110 d43 -0.6276591199657493
    x110 r48 -0.8799227947060331
    x110 d48 -0.8799227947059551
    x110 r51 0.6542029567462495
    x110 d51 0.654202956746772
    x110 r53 -0.7086798966629766
    x110 d53 -0.708679896662677
    x110 r56 -0.06260659541115965
    x110 d56 -0.0626065954111095
    x110 r58 0.4557578533799094
    x110 d58 0.4557578533801205
    x110 r60 -0.7216650390808195
    x110 d60 -0.7216650390803859
    x110 r73 0.6707771720450926
    x110 d73 0.6707771720450604
    x110 r75 -0.7990269395518965
    x110 d75 -0.7990269395513986
    x110 r76 -0.7352850188791695
    x110 d76 -0.7352850188793819
    x110 r77 -0.718910260529072
    x110 d77 -0.7189102605294064
    x110 r80 0.7516358546783819
    x110 d80 0.7516358546788329
    x110 r88 0.7272973657389621
    x110 d88 0.7272973657384045
    x110 r90 -0.00017414800366455374
    x110 d90 -0.0001741480036644497
    x110 r92 -0.03192678357433398
    x110 d92 -0.03192678357435928
    x110 r95 0.4676625545319768
    x110 d95 0.4676625545322813
    x110 r96 0.5993195706666417
    x110 d96 0.5993195706669409
    x111 OBJ 0.38098731427195576
    x111 r2 -0.2982052026622797
    x111 d2 -0.29820520266210787
    x111 r6 -0.8681780141782938
    x111 d6 -0.8681780141787703
    x111 r7 0.7508066482881175
    x111 d7 0.7508066482877527
    x111 r9 0.5754523401264318
    x111 d9 0.5754523401265523
    x111 r12 0.35192566783782153
    x111 d12 0.3519256678375057
    x111 r14 0.7027890055042805
    x111 d14 0.7027890055044048
    x111 r16 -0.7985538071970284
    x111 d16 -0.798553807197663
    x111 r18 0.8782808278025596
    x111 d18 0.8782808278019969
    x111 r22 0.5010775191046872
    x111 d22 0.5010775191042305
    x111 r25 0.30606479433263445
    x111 d25 0.30606479433234235
    x111 r36 -0.05173236183421315
    x111 d36 -0.05173236183424985
    x111 r38 -0.8516441249035174
    x111 d38 -0.8516441249028502
    x111 r45 0.04036933050292135
    x111 d45 0.040369330502915635
    x111 r48 0.3902722338689322
    x111 d48 0.39027223386899673
    x111 r53 0.6679941881218034
    x111 d53 0.6679941881213098
    x111 r55 0.399071360022323
    x111 d55 0.3990713600224132
    x111 r57 -0.21918905438659042
    x111 d57 -0.2191890543866644
    x111 r61 -0.6983444388395341
    x111 d61 -0.6983444388398526
    x111 r70 0.0753410489968993
    x111 d70 0.07534104899695747
    x111 r76 0.23288090903442016
    x111 d76 0.23288090903424744
    x111 r80 0.08342740458988684
    x111 d80 0.08342740458990558
    x111 r85 -0.07752076591479407
    x111 d85 -0.07752076591481913
    x111 r89 0.30965936591919685
    x111 d89 0.3096593659195046
    x111 r91 0.035504975371730474
    x111 d91 0.03550497537171473
    x111 r92 0.23584548442176478
    x111 d92 0.23584548442157863
    x111 r93 0.028302361396476794
    x111 d93 0.028302361396499758
    x111 r95 0.639872998103185
    x111 d95 0.6398729981032593
    x111 r98 -0.2623761074780433
    x111 d98 -0.262376107478141
    x112 OBJ 0.030982866141556764
    x112 r9 -0.8611510437178758
    x112 d9 -0.8611510437178025
    x112 r12 -0.26058688585248024
    x112 d12 -0.2605868858523698
    x112 r29 -0.19820069421005004
    x112 d29 -0.19820069421006337
    x112 r37 0.6816142004364287
    x112 d37 0.6816142004369521
    x112 r40 -0.7088289964692447
    x112 d40 -0.7088289964691141
    x112 r41 0.8257215723726241
    x112 d41 0.825721572372182
    x112 r49 0.6510763219528566
    x112 d49 0.6510763219531859
    x112 r54 0.047776349863044576
    x112 d54 0.0477763498630004
    x112 r57 0.1755665862467053
    x112 d57 0.1755665862465308
    x112 r58 -0.3448052664716039
    x112 d58 -0.34480526647189236
    x112 r60 -0.5036117644623446
    x112 d60 -0.5036117644620501
    x112 r65 -0.6926661844736532
    x112 d65 -0.6926661844736769
    x112 r69 -0.27287919571813024
    x112 d69 -0.2728791957182005
    x112 r71 -0.2623454142126225
    x112 d71 -0.26234541421266483
    x112 r74 0.22539230448399805
    x112 d74 0.22539230448414804
    x112 r76 -0.44689235217036805
    x112 d76 -0.44689235217035406
    x112 r82 -0.6801367283663375
    x112 d82 -0.6801367283665606
    x112 r87 -0.1740665640898047
    x112 d87 -0.17406656408992022
    x112 r92 0.46995140624703224
    x112 d92 0.46995140624733767
    x112 r95 -0.4204769283874128
    x112 d95 -0.42047692838734296
    x113 OBJ 0.23518549881825535
    x113 r0 -0.8849469751181074
    x113 d0 -0.8849469751183144
    x113 r1 0.2021217942409519
    x113 d1 0.2021217942409789
    x113 r2 0.7930744828810052
    x113 d2 0.7930744828811996
    x113 r4 0.6664619615773817
    x113 d4 0.6664619615770107
    x113 r6 -0.7477348474140344
    x113 d6 -0.7477348474145423
    x113 r14 -0.07088557480672608
    x113 d14 -0.07088557480676874
    x113 r25 0.371745690811774
    x113 d25 0.37174569081150055
    x113 r26 0.34782443302770494
    x113 d26 0.3478244330275449
    x113 r33 -0.2567576089355039
    x113 d33 -0.25675760893540306
    x113 r35 -0.24717323720555884
    x113 d35 -0.24717323720560214
    x113 r38 -0.719312600417481
    x113 d38 -0.7193126004176947
    x113 r42 -0.16851520807731446
    x113 d42 -0.1685152080774819
    x113 r44 0.8925042883952821
    x113 d44 0.8925042883945233
    x113 r48 0.4552180556041203
    x113 d48 0.45521805560392425
    x113 r52 0.7652584870123325
    x113 d52 0.7652584870130558
    x113 r62 -0.9611514253197424
    x113 d62 -0.9611514253190664
    x113 r67 -0.32957576155210466
    x113 d67 -0.3295757615518493
    x113 r70 0.8493364082804093
    x113 d70 0.8493364082801866
    x113 r77 -0.4860435172768054
    x113 d77 -0.4860435172768142
    x113 r79 0.3729228099551436
    x113 d79 0.37292280995527916
    x113 r83 -0.9518605668018578
    x113 d83 -0.9518605668023672
    x113 r85 0.5049234609755269
    x113 d85 0.5049234609750465
    x113 r88 -0.7681521681568602
    x113 d88 -0.7681521681564535
    x113 r94 -0.07883187154821525
    x113 d94 -0.07883187154826732
    x113 r95 0.4805394608202076
    x113 d95 0.48053946082026466
    x113 r96 -0.3948243161776235
    x113 d96 -0.3948243161773981
    x114 OBJ 0.3524001648990027
    x114 r1 -0.3969573975149685
    x114 d1 -0.3969573975148677
    x114 r2 0.6312533088982528
    x114 d2 0.6312533088977198
    x114 r9 0.10313686896790686
    x114 d9 0.10313686896787291
    x114 r11 -0.5005051938718519
    x114 d11 -0.5005051938718768
    x114 r13 0.8203864194342796
    x114 d13 0.8203864194340545
    x114 r15 -0.0959393551626182
    x114 d15 -0.09593935516264823
    x114 r16 -0.5576205008567672
    x114 d16 -0.5576205008564751
    x114 r22 0.7549418524581548
    x114 d22 0.7549418524575878
    x114 r23 -0.3232623626436679
    x114 d23 -0.3232623626434175
    x114 r24 0.6766986221125397
    x114 d24 0.6766986221122934
    x114 r28 0.3761569171740595
    x114 d28 0.37615691717403055
    x114 r29 0.7421191655633796
    x114 d29 0.7421191655631597
    x114 r35 -0.4408975536170856
    x114 d35 -0.440897553617001
    x114 r37 -0.7104261617636687
    x114 d37 -0.7104261617640222
    x114 r41 -0.987822782571776
    x114 d41 -0.9878227825709099
    x114 r45 0.9750360673010119
    x114 d45 0.9750360673018104
    x114 r53 -0.3709106055908018
    x114 d53 -0.37091060559112266
    x114 r58 0.5258126194512212
    x114 d58 0.525812619451262
    x114 r59 -0.4122381725576332
    x114 d59 -0.4122381725573973
    x114 r63 -0.45567723566244656
    x114 d63 -0.45567723566268886
    x114 r64 0.4073287613374781
    x114 d64 0.40732876133778245
    x114 r65 0.008239675562074611
    x114 d65 0.00823967556207194
    x114 r76 -0.11150412015800559
    x114 d76 -0.11150412015807519
    x114 r80 -0.5312252205592074
    x114 d80 -0.5312252205587439
    x114 r81 0.8667211646750004
    x114 d81 0.8667211646747724
    x114 r83 -0.18679671389243313
    x114 d83 -0.18679671389251334
    x114 r87 0.2789262727355555
    x114 d87 0.2789262727353471
    x114 r92 0.4121279864536993
    x114 d92 0.4121279864538016
    x114 r94 0.5590543852412857
    x114 d94 0.5590543852415876
    x114 r99 0.9132610257290152
    x114 d99 0.9132610257292189
    x115 OBJ -0.8920142135524196
    x115 r2 0.004435866539594269
    x115 d2 0.004435866539597913
    x115 r5 0.28314870031067585
    x115 d5 0.28314870031071776
    x115 r6 -0.19324369960482057
    x115 d6 -0.19324369960474186
    x115 r10 0.7432535610112441
    x115 d10 0.743253561011856
    x115 r18 -0.36917971075378486
    x115 d18 -0.36917971075360034
    x115 r22 -0.9046439778281752
    x115 d22 -0.9046439778289074
    x115 r24 -0.3738984803971992
    x115 d24 -0.37389848039721935
    x115 r25 0.676707896731066
    x115 d25 0.6767078967314839
    x115 r29 0.16064251791862105
    x115 d29 0.16064251791861972
    x115 r34 -0.647506625371445
    x115 d34 -0.6475066253712136
    x115 r43 -0.5457986349116175
    x115 d43 -0.5457986349120942
    x115 r44 0.20179041123824426
    x115 d44 0.20179041123836788
    x115 r46 -0.2312630923560124
    x115 d46 -0.23126309235607997
    x115 r51 -0.9214128196458928
    x115 d51 -0.9214128196467323
    x115 r55 -0.2624626333030191
    x115 d55 -0.26246263330290875
    x115 r56 0.40283312003561167
    x115 d56 0.40283312003546706
    x115 r58 -0.32833908188913985
    x115 d58 -0.3283390818889024
    x115 r59 0.030946679467878324
    x115 d59 0.03094667946788945
    x115 r64 0.29681470585916725
    x115 d64 0.29681470585946007
    x115 r69 -0.5057389484084571
    x115 d69 -0.505738948408875
    x115 r72 0.7165021750541352
    x115 d72 0.7165021750545567
    x115 r81 0.05644951933338804
    x115 d81 0.05644951933336498
    x115 r84 0.02177825943498246
    x115 d84 0.021778259434977788
    x115 r88 0.8920170385010344
    x115 d88 0.8920170385008751
    x115 r89 -0.8417681637261651
    x115 d89 -0.841768163725787
    x115 r91 0.5844758309684921
    x115 d91 0.5844758309681732
    x115 r92 -0.4704545732838523
    x115 d92 -0.47045457328401946
    x115 r94 -0.019452027287465423
    x115 d94 -0.01945202728747265
    x115 r95 -0.8151809686849696
    x115 d95 -0.8151809686857517
    x116 OBJ 0.7990660201159043
    x116 r0 0.8766994180803256
    x116 d0 0.8766994180805759
    x116 r3 0.3089793969400758
    x116 d3 0.3089793969400663
    x116 r5 0.35687784289525015
    x116 d5 0.35687784289552127
    x116 r7 -0.31526395686738407
    x116 d7 -0.315263956867361
    x116 r11 -0.5384396978620842
    x116 d11 -0.538439697861804
    x116 r22 -0.8477657620250236
    x116 d22 -0.8477657620250999
    x116 r27 0.7094558856593891
    x116 d27 0.7094558856597485
    x116 r28 -0.8095925092941689
    x116 d28 -0.8095925092948422
    x116 r29 -0.23644017060886324
    x116 d29 -0.23644017060884973
    x116 r32 -0.6226125532866948
    x116 d32 -0.6226125532870668
    x116 r34 -0.8085684821094468
    x116 d34 -0.8085684821093102
    x116 r36 -0.9014094187714095
    x116 d36 -0.9014094187709368
    x116 r38 0.4982012675373928
    x116 d38 0.49820126753776317
    x116 r40 0.38576346506931003
    x116 d40 0.3857634650693163
    x116 r41 0.539045558120848
    x116 d41 0.5390455581205114
    x116 r47 -0.03050823062608754
    x116 d47 -0.03050823062609018
    x116 r52 0.4339503657339543
    x116 d52 0.43395036573369217
    x116 r55 0.4127452591469616
    x116 d55 0.41274525914680615
    x116 r59 -0.44016370414009787
    x116 d59 -0.4401637041401009
    x116 r60 0.28908931941381
    x116 d60 0.2890893194138075
    x116 r68 0.8208448365096959
    x116 d68 0.8208448365093843
    x116 r73 -0.3959354467152212
    x116 d73 -0.3959354467154568
    x116 r78 0.7085408086898535
    x116 d78 0.7085408086895348
    x116 r79 -0.10110606624684104
    x116 d79 -0.10110606624677713
    x116 r91 0.8497284125317721
    x116 d91 0.8497284125312478
    x116 r96 -0.4577052934693695
    x116 d96 -0.4577052934694341
    x116 r98 -0.1890070453957069
    x116 d98 -0.18900704539555255
    x117 OBJ 0.5599389814121456
    x117 r2 -0.47426467216214196
    x117 d2 -0.4742646721618049
    x117 r4 0.702365082461534
    x117 d4 0.7023650824609113
    x117 r5 0.08450887808695162
    x117 d5 0.08450887808703013
    x117 r7 0.0035497320289825662
    x117 d7 0.0035497320289791133
    x117 r16 -0.6340806376648584
    x117 d16 -0.6340806376649356
    x117 r17 -0.3334286324054787
    x117 d17 -0.333428632405706
    x117 r21 0.5012091283921931
    x117 d21 0.5012091283917186
    x117 r26 -0.033800521175498366
    x117 d26 -0.033800521175483905
    x117 r28 0.08829238772597736
    x117 d28 0.08829238772591988
    x117 r33 0.5276326207063617
    x117 d33 0.5276326207060867
    x117 r35 -0.44777513035906136
    x117 d35 -0.4477751303590928
    x117 r37 0.4090319920427794
    x117 d37 0.409031992042961
    x117 r38 -0.8828014787110559
    x117 d38 -0.8828014787110126
    x117 r39 -0.5301603981188299
    x117 d39 -0.5301603981185571
    x117 r40 0.3505685679563939
    x117 d40 0.350568567956104
    x117 r42 -0.2305805323443555
    x117 d42 -0.2305805323442459
    x117 r43 0.7232871926633544
    x117 d43 0.7232871926630917
    x117 r44 0.949837564090356
    x117 d44 0.9498375640903167
    x117 r45 0.42681361260948236
    x117 d45 0.42681361260971595
    x117 r48 0.5648597894566965
    x117 d48 0.5648597894563586
    x117 r49 0.03970115449361433
    x117 d49 0.039701154493618884
    x117 r51 -0.2984121073690016
    x117 d51 -0.2984121073691248
    x117 r58 -0.13603255365430056
    x117 d58 -0.13603255365417397
    x117 r60 -0.9973198098817662
    x117 d60 -0.9973198098820503
    x117 r67 -0.48452930281440354
    x117 d67 -0.48452930281429113
    x117 r72 0.4492920769876827
    x117 d72 0.44929207698737467
    x117 r73 -0.03657573289914673
    x117 d73 -0.03657573289918085
    x117 r76 -0.14646083953496292
    x117 d76 -0.14646083953485511
    x117 r81 0.46881164386548524
    x117 d81 0.46881164386575025
    x117 r82 -0.9196845853725946
    x117 d82 -0.9196845853727812
    x117 r83 0.22096607842535398
    x117 d83 0.22096607842552052
    x117 r84 0.0700833807836605
    x117 d84 0.07008338078360103
    x117 r88 0.5199917365283189
    x117 d88 0.519991736527866
    x117 r89 0.24422845375050173
    x117 d89 0.24422845375058735
    x117 r90 0.7341920316471644
    x117 d90 0.7341920316472396
    x117 r91 -0.8142617217540746
    x117 d91 -0.8142617217534297
    x117 r93 0.972365977401354
    x117 d93 0.972365977401029
    x117 r95 0.9087535336904926
    x117 d95 0.9087535336909567
    x117 r97 0.17586513288745342
    x117 d97 0.17586513288761438
    x117 r99 0.06669393051023098
    x117 d99 0.06669393051027862
    x118 OBJ 0.7490263682689531
    x118 r9 0.026729517865754282
    x118 d9 0.026729517865738975
    x118 r19 -0.14828053670708896
    x118 d19 -0.1482805367071477
    x118 r21 -0.3507937938299439
    x118 d21 -0.35079379382965903
    x118 r23 0.9877790441847119
    x118 d23 0.9877790441846585
    x118 r25 -0.4721720628462813
    x118 d25 -0.4721720628459173
    x118 r26 -0.756141998714845
    x118 d26 -0.7561419987146825
    x118 r28 0.6957062539645573
    x118 d28 0.695706253964347
    x118 r29 -0.6574956410952688
    x118 d29 -0.6574956410948575
    x118 r37 -0.2439848170940675
    x118 d37 -0.24398481709390543
    x118 r38 -0.9596756013847438
    x118 d38 -0.9596756013846041
    x118 r39 -0.7682783685150114
    x118 d39 -0.768278368514613
    x118 r40 0.6795867500757271
    x118 d40 0.6795867500763817
    x118 r43 0.5398118239520322
    x118 d43 0.5398118239523241
    x118 r44 -0.8319614962568103
    x118 d44 -0.8319614962565545
    x118 r49 -0.3819478925484825
    x118 d49 -0.38194789254853917
    x118 r50 -0.9128931253354173
    x118 d50 -0.9128931253352913
    x118 r52 0.06958273120057501
    x118 d52 0.06958273120059481
    x118 r54 -0.8938739239259044
    x118 d54 -0.8938739239261657
    x118 r60 -0.225898304939945
    x118 d60 -0.22589830493993823
    x118 r64 -0.827555427273797
    x118 d64 -0.8275554272737866
    x118 r68 -0.36675416638936476
    x118 d68 -0.3667541663896308
    x118 r70 -0.714675032268195
    x118 d70 -0.7146750322681517
    x118 r72 0.5758413969678087
    x118 d72 0.575841396967477
    x118 r76 0.9274748861429123
    x118 d76 0.927474886143269
    x118 r79 -0.9413340461455308
    x118 d79 -0.9413340461456738
    x118 r89 0.863966812694885
    x118 d89 0.863966812695551
    x118 r90 0.14508887787648028
    x118 d90 0.14508887787642538
    x118 r94 -0.7639238446541672
    x118 d94 -0.763923844654503
    x119 OBJ 0.5957462423931321
    x119 r0 0.7124572727442977
    x119 d0 0.7124572727436956
    x119 r9 0.2936219527796826
    x119 d9 0.29362195277959674
    x119 r14 -0.7267458044706232
    x119 d14 -0.726745804470129
    x119 r16 -0.04991062601824958
    x119 d16 -0.04991062601824122
    x119 r23 -0.8766763290321551
    x119 d23 -0.8766763290329275
    x119 r26 0.4702056623648021
    x119 d26 0.4702056623649453
    x119 r27 -0.0012073000908223719
    x119 d27 -0.0012073000908227039
    x119 r30 0.13096254581949984
    x119 d30 0.13096254581944622
    x119 r33 -0.22801807195062884
    x119 d33 -0.22801807195078488
    x119 r37 -0.8379605079752399
    x119 d37 -0.8379605079757931
    x119 r39 -0.36183700062898194
    x119 d39 -0.36183700062876684
    x119 r43 0.0017640339626339152
    x119 d43 0.0017640339626351564
    x119 r45 -0.11196179761989655
    x119 d45 -0.11196179761996052
    x119 r46 0.3548622018808043
    x119 d46 0.35486220188070555
    x119 r49 -0.6390388934318829
    x119 d49 -0.6390388934313632
    x119 r52 0.8873873903207761
    x119 d52 0.8873873903214005
    x119 r55 0.7868144779811266
    x119 d55 0.7868144779808101
    x119 r56 0.7838118304662265
    x119 d56 0.7838118304667909
    x119 r57 -0.3709648919706148
    x119 d57 -0.37096489197055915
    x119 r59 0.04994583297671418
    x119 d59 0.04994583297673099
    x119 r62 -0.6130390763557989
    x119 d62 -0.6130390763558218
    x119 r66 -0.29593257117771854
    x119 d66 -0.2959325711775996
    x119 r68 -0.9508782796797386
    x119 d68 -0.9508782796795159
    x119 r69 -0.46257843786915664
    x119 d69 -0.4625784378690818
    x119 r70 0.7844502785928866
    x119 d70 0.7844502785921481
    x119 r71 0.7222249394027858
    x119 d71 0.7222249394032982
    x119 r73 0.16399880427866909
    x119 d73 0.16399880427863683
    x119 r74 0.26400624059284605
    x119 d74 0.26400624059307304
    x119 r75 -0.8733026992766226
    x119 d75 -0.8733026992769912
    x119 r78 -0.2125835491340089
    x119 d78 -0.21258354913411434
    x119 r80 0.5515674180305203
    x119 d80 0.5515674180300776
    x119 r81 0.4518933715085385
    x119 d81 0.45189337150835085
    x119 r84 0.06351406057503395
    x119 d84 0.06351406057500698
    x119 r86 0.5990696447423831
    x119 d86 0.5990696447418267
    x119 r89 -0.3784281523525048
    x119 d89 -0.37842815235234434
    x119 r92 -0.03388506244846612
    x119 d92 -0.033885062448462226
    x119 r94 -0.6800768126833869
    x119 d94 -0.6800768126833532
    x119 r96 -0.5545755211267283
    x119 d96 -0.5545755211266706
    x119 r98 -0.8656269113653561
    x119 d98 -0.8656269113658708
    x120 OBJ -0.21524218621746272
    x120 r0 0.7255499381076924
    x120 d0 0.7255499381071808
    x120 r1 -0.5058832313227528
    x120 d1 -0.5058832313229936
    x120 r2 -0.6358072250565074
    x120 d2 -0.6358072250559058
    x120 r5 0.04061000069479981
    x120 d5 0.04061000069479873
    x120 r6 -0.44695794319520243
    x120 d6 -0.44695794319492155
    x120 r7 -0.6354296263989656
    x120 d7 -0.6354296263995062
    x120 r9 0.15598088260278398
    x120 d9 0.15598088260289145
    x120 r10 -0.32254186746618707
    x120 d10 -0.3225418674663772
    x120 r12 0.5323824562174426
    x120 d12 0.5323824562177278
    x120 r13 -0.9531543716585622
    x120 d13 -0.9531543716593495
    x120 r15 -0.5323902818064883
    x120 d15 -0.5323902818065224
    x120 r18 -0.8926210133252896
    x120 d18 -0.8926210133254295
    x120 r24 0.9105521161696772
    x120 d24 0.9105521161689049
    x120 r25 0.9331632537703136
    x120 d25 0.9331632537699398
    x120 r32 -0.05854056963147802
    x120 d32 -0.05854056963142977
    x120 r33 0.6815795041089938
    x120 d33 0.6815795041085603
    x120 r36 -0.31128631276049346
    x120 d36 -0.31128631276036833
    x120 r39 -0.40946407699228615
    x120 d39 -0.4094640769925531
    x120 r41 -0.6079317676092082
    x120 d41 -0.6079317676086428
    x120 r45 -0.8762029656202799
    x120 d45 -0.8762029656204201
    x120 r46 -0.37856652957944736
    x120 d46 -0.3785665295797868
    x120 r51 0.7395694250646019
    x120 d51 0.7395694250644693
    x120 r53 0.2848647005064582
    x120 d53 0.28486470050651813
    x120 r54 -0.9324695732204253
    x120 d54 -0.9324695732209115
    x120 r60 -0.7023472311759698
    x120 d60 -0.7023472311765949
    x120 r61 0.7491465286068515
    x120 d61 0.7491465286066282
    x120 r65 0.7146239549194762
    x120 d65 0.714623954918931
    x120 r66 0.8586182954694239
    x120 d66 0.8586182954698798
    x120 r68 0.8486402869803829
    x120 d68 0.848640286980959
    x120 r69 -0.015908955634625688
    x120 d69 -0.015908955634634035
    x120 r79 0.36021065720962575
    x120 d79 0.36021065720960393
    x120 r83 0.25769433515813955
    x120 d83 0.2576943351579855
    x120 r86 -0.2252826726071746
    x120 d86 -0.2252826726073913
    x120 r88 0.6817429251697644
    x120 d88 0.6817429251699473
    x120 r89 -0.25588829076715003
    x120 d89 -0.25588829076714686
    x120 r95 0.5541988021010751
    x120 d95 0.5541988021006123
    x120 r98 0.4064189257838131
    x120 d98 0.40641892578400873
    x121 OBJ -0.20204233535945404
    x121 r2 0.872807521793219
    x121 d2 0.8728075217925324
    x121 r3 0.08671982911052534
    x121 d3 0.0867198291105943
    x121 r6 0.3592492759137018
    x121 d6 0.35924927591380107
    x121 r10 -0.17358876665250533
    x121 d10 -0.1735887666524971
    x121 r14 -0.6281326586255576
    x121 d14 -0.628132658625561
    x121 r18 -0.30836748632748434
    x121 d18 -0.30836748632745115
    x121 r21 -0.13018948338524994
    x121 d21 -0.13018948338526712
    x121 r22 0.03167221136444143
    x121 d22 0.03167221136442017
    x121 r23 0.8999924983866447
    x121 d23 0.8999924983864488
    x121 r24 -0.9301069722069046
    x121 d24 -0.9301069722075238
    x121 r26 -0.4287060777240874
    x121 d26 -0.42870607772379116
    x121 r29 0.9461184058076317
    x121 d29 0.9461184058079584
    x121 r30 0.5493909751486561
    x121 d30 0.5493909751482221
    x121 r32 0.6044384750377911
    x121 d32 0.6044384750377907
    x121 r37 0.8221681618895638
    x121 d37 0.8221681618899168
    x121 r38 -0.6994482714120214
    x121 d38 -0.6994482714122234
    x121 r46 0.02209042558760932
    x121 d46 0.022090425587598016
    x121 r48 0.732739801179136
    x121 d48 0.7327398011796792
    x121 r61 -0.6653535750534645
    x121 d61 -0.6653535750535805
    x121 r62 0.20188493236721938
    x121 d62 0.20188493236737354
    x121 r64 0.026538215301378676
    x121 d64 0.026538215301356416
    x121 r67 -0.8907204228341234
    x121 d67 -0.8907204228348653
    x121 r69 0.07200951735451167
    x121 d69 0.07200951735447596
    x121 r73 -0.9633172076113852
    x121 d73 -0.9633172076119207
    x121 r79 0.599910050038668
    x121 d79 0.5999100500382335
    x121 r87 0.7304415161901359
    x121 d87 0.7304415161904184
    x121 r90 -0.20166941587281761
    x121 d90 -0.20166941587287487
    x121 r93 -0.72143842089113
    x121 d93 -0.7214384208904676
    x122 OBJ -0.7929258125793515
    x122 r3 0.5635834031004645
    x122 d3 0.5635834030999392
    x122 r4 0.10734871752206177
    x122 d4 0.10734871752210765
    x122 r12 0.6431487063278398
    x122 d12 0.6431487063273703
    x122 r20 0.7945143575992584
    x122 d20 0.7945143575991136
    x122 r21 0.9948865447216673
    x122 d21 0.9948865447218685
    x122 r26 0.8523100905795709
    x122 d26 0.8523100905803865
    x122 r29 -0.5538157372140027
    x122 d29 -0.5538157372143729
    x122 r30 0.4274612497331072
    x122 d30 0.4274612497332861
    x122 r34 0.7816822994346959
    x122 d34 0.781682299434452
    x122 r35 0.5229982038525245
    x122 d35 0.5229982038525167
    x122 r38 -0.18582540672774672
    x122 d38 -0.1858254067276318
    x122 r39 0.01765486624120216
    x122 d39 0.017654866241218085
    x122 r46 0.31898248328710355
    x122 d46 0.318982483286845
    x122 r47 -0.49749790110766523
    x122 d47 -0.4974979011075713
    x122 r50 -0.30460955252190525
    x122 d50 -0.3046095525218144
    x122 r55 0.5771914500688493
    x122 d55 0.5771914500686511
    x122 r56 -0.65010585187621
    x122 d56 -0.6501058518766756
    x122 r60 0.0488434167695877
    x122 d60 0.04884341676958603
    x122 r64 0.16892646977023196
    x122 d64 0.16892646977011228
    x122 r65 0.3626656037920113
    x122 d65 0.3626656037918793
    x122 r67 0.19129932964150154
    x122 d67 0.19129932964147858
    x122 r68 -0.030527249744262797
    x122 d68 -0.030527249744266443
    x122 r72 0.8632546907198952
    x122 d72 0.8632546907195995
    x122 r74 0.6167112611380616
    x122 d74 0.6167112611385139
    x122 r77 0.9708379640541931
    x122 d77 0.970837964054019
    x122 r81 -0.23518790816219526
    x122 d81 -0.2351879081623504
    x122 r86 0.44819936051283094
    x122 d86 0.44819936051247167
    x122 r87 -0.48513637667288556
    x122 d87 -0.48513637667241893
    x122 r95 -0.6413663209315059
    x122 d95 -0.641366320931974
    x122 r96 -0.01726972634052637
    x122 d96 -0.017269726340512062
    x123 OBJ 0.2685791313714181
    x123 r5 -0.3891765125460387
    x123 d5 -0.3891765125459921
    x123 r22 0.15970740834355857
    x123 d22 0.15970740834362457
    x123 r24 0.5043076912136357
    x123 d24 0.5043076912139254
    x123 r25 -0.43343614241812367
    x123 d25 -0.4334361424181462
    x123 r28 -0.146906362109402
    x123 d28 -0.14690636210943603
    x123 r29 -0.2710844763742666
    x123 d29 -0.2710844763743499
    x123 r30 0.1910878051717413
    x123 d30 0.19108780517176394
    x123 r35 0.30767794391512027
    x123 d35 0.3076779439149935
    x123 r41 0.8421319426880247
    x123 d41 0.8421319426871847
    x123 r43 0.416964598656387
    x123 d43 0.41696459865649393
    x123 r50 0.30788009631244595
    x123 d50 0.30788009631252333
    x123 r51 -0.746556308633544
    x123 d51 -0.7465563086333133
    x123 r52 -0.031642639972470965
    x123 d52 -0.03164263997250166
    x123 r53 -0.5360771468874688
    x123 d53 -0.5360771468876997
    x123 r54 -0.6269821524997026
    x123 d54 -0.6269821524995098
    x123 r56 -0.5589030830678494
    x123 d56 -0.5589030830679719
    x123 r59 -0.41514150439451725
    x123 d59 -0.41514150439492054
    x123 r64 0.5520667492342017
    x123 d64 0.552066749233714
    x123 r65 0.617520944544389
    x123 d65 0.6175209445442386
    x123 r72 0.006643695800961691
    x123 d72 0.0066436958009656825
    x123 r73 0.19970557342904782
    x123 d73 0.19970557342887518
    x123 r74 0.5934621771368773
    x123 d74 0.5934621771368753
    x123 r82 0.5516876899863818
    x123 d82 0.5516876899864149
    x123 r84 0.6899174104656962
    x123 d84 0.6899174104650304
    x123 r85 -0.10182690350393608
    x123 d85 -0.10182690350386181
    x123 r88 -0.5251195692585056
    x123 d88 -0.525119569258192
    x123 r89 0.7840232987225295
    x123 d89 0.7840232987232213
    x123 r92 0.3288984644817903
    x123 d92 0.32889846448178744
    x123 r95 0.45943408715942025
    x123 d95 0.4594340871591196
    x124 OBJ -0.8755043567626248
    x124 r1 -0.003379510568849442
    x124 d1 -0.003379510568847409
    x124 r2 0.5697386304190881
    x124 d2 0.569738630419577
    x124 r4 0.5003682929603843
    x124 d4 0.5003682929604377
    x124 r9 -0.6606049587913481
    x124 d9 -0.6606049587915056
    x124 r14 0.8598229024280049
    x124 d14 0.8598229024281328
    x124 r16 0.8599026482008987
    x124 d16 0.859902648200097
    x124 r18 0.5605847433013704
    x124 d18 0.5605847433011518
    x124 r24 -0.752145063688948
    x124 d24 -0.7521450636890697
    x124 r33 -0.15469657996677433
    x124 d33 -0.15469657996685654
    x124 r36 0.2578746750207239
    x124 d36 0.2578746750207377
    x124 r38 0.6308956683795968
    x124 d38 0.63089566837925
    x124 r39 0.4542901919863176
    x124 d39 0.4542901919861529
    x124 r44 0.595178141185533
    x124 d44 0.5951781411853034
    x124 r45 -0.4522518253364578
    x124 d45 -0.45225182533618374
    x124 r51 0.5336327137201546
    x124 d51 0.533632713719818
    x124 r53 0.036359487540372326
    x124 d53 0.03635948754039176
    x124 r54 -0.2395647583430689
    x124 d54 -0.2395647583431955
    x124 r55 0.4561309395701787
    x124 d55 0.4561309395705773
    x124 r58 -0.029710368520545094
    x124 d58 -0.029710368520549355
    x124 r63 0.5818164815610916
    x124 d63 0.5818164815613719
    x124 r68 -0.46331010486569424
    x124 d68 -0.46331010486526947
    x124 r71 -0.49826876080816307
    x124 d71 -0.4982687608079973
    x124 r76 -0.1532668388937224
    x124 d76 -0.1532668388938673
    x124 r77 -0.27854574383984554
    x124 d77 -0.27854574383967046
    x124 r81 0.32409384940536445
    x124 d81 0.3240938494055737
    x124 r84 0.2979974669746024
    x124 d84 0.2979974669748933
    x124 r85 0.10136069422985794
    x124 d85 0.10136069422994698
    x124 r87 -0.4276194070734074
    x124 d87 -0.42761940707342033
    x124 r92 0.7549485466324974
    x124 d92 0.7549485466319719
    x124 r99 -0.2569103396567427
    x124 d99 -0.2569103396569384
    x125 OBJ -0.8653047683139503
    x125 r0 -0.7415504002093423
    x125 d0 -0.7415504002089773
    x125 r2 0.06144246531384545
    x125 d2 0.06144246531382638
    x125 r3 0.14912099326826156
    x125 d3 0.14912099326832662
    x125 r5 0.1885783219200654
    x125 d5 0.1885783219201124
    x125 r7 0.6902236260263195
    x125 d7 0.6902236260264081
    x125 r8 0.9967099373784649
    x125 d8 0.9967099373792431
    x125 r11 0.6508829720526668
    x125 d11 0.650882972052238
    x125 r16 -0.9233825521240437
    x125 d16 -0.9233825521239409
    x125 r30 0.6803954428883572
    x125 d30 0.6803954428880461
    x125 r31 -0.8002626587198589
    x125 d31 -0.8002626587204833
    x125 r32 -0.5790302710730602
    x125 d32 -0.579030271072992
    x125 r38 0.26464212481660043
    x125 d38 0.2646421248166958
    x125 r41 -0.5471125938425017
    x125 d41 -0.5471125938420807
    x125 r42 0.8807228370449185
    x125 d42 0.8807228370447464
    x125 r45 0.11319630416697657
    x125 d45 0.11319630416701087
    x125 r48 -0.9526772061053925
    x125 d48 -0.9526772061054947
    x125 r50 -0.22872387309089803
    x125 d50 -0.2287238730908761
    x125 r55 -0.3633441715884236
    x125 d55 -0.36334417158848
    x125 r58 -0.81740116163988
    x125 d58 -0.8174011616404925
    x125 r70 0.8832618750857664
    x125 d70 0.883261875085222
    x125 r72 -0.5872139808101025
    x125 d72 -0.5872139808101408
    x125 r73 0.9453077477027827
    x125 d73 0.9453077477027553
    x125 r75 0.009464797643417233
    x125 d75 0.009464797643421665
    x125 r77 -0.5988025528870675
    x125 d77 -0.5988025528867457
    x125 r80 -0.7277359218105073
    x125 d80 -0.7277359218098899
    x125 r81 -0.3957536537604014
    x125 d81 -0.3957536537602741
    x125 r82 -0.9338757401938191
    x125 d82 -0.9338757401944066
    x125 r83 0.10485119942776477
    x125 d83 0.10485119942768863
    x125 r84 0.7615953656641739
    x125 d84 0.761595365663842
    x125 r85 -0.858206174053465
    x125 d85 -0.8582061740537131
    x125 r87 -0.6273797844053681
    x125 d87 -0.6273797844054642
    x125 r91 -0.39502319446805934
    x125 d91 -0.3950231944683165
    x125 r92 -0.9268512437997662
    x125 d92 -0.9268512438002775
    x125 r96 0.9738462560795322
    x125 d96 0.973846256079163
    x125 r97 0.5098803811967276
    x125 d97 0.5098803811966954
    x125 r99 0.4505655932983712
    x125 d99 0.4505655932981895
    x126 OBJ -0.5824736291076711
    x126 r4 0.21379640784205
    x126 d4 0.2137964078418981
    x126 r8 0.2156598642625127
    x126 d8 0.21565986426248676
    x126 r15 -0.8782584169243979
    x126 d15 -0.878258416924095
    x126 r20 -0.3246995884465609
    x126 d20 -0.3246995884465992
    x126 r24 -0.057721955629139954
    x126 d24 -0.05772195562916196
    x126 r25 0.18353565997558063
    x126 d25 0.18353565997558993
    x126 r29 0.14840157468573856
    x126 d29 0.14840157468559323
    x126 r33 -0.31560510963839983
    x126 d33 -0.31560510963820804
    x126 r35 -0.9324121514948511
    x126 d35 -0.9324121514946979
    x126 r36 0.5088803180799373
    x126 d36 0.508880318079656
    x126 r38 0.3077905186339718
    x126 d38 0.3077905186342755
    x126 r39 0.7812830230961223
    x126 d39 0.7812830230965945
    x126 r41 -0.20928391638436716
    x126 d41 -0.2092839163843825
    x126 r43 0.5946530632295353
    x126 d43 0.5946530632289808
    x126 r44 0.3377032588863855
    x126 d44 0.33770325888668673
    x126 r45 0.8250550827789127
    x126 d45 0.8250550827790423
    x126 r54 -0.2225700022377013
    x126 d54 -0.22257000223764728
    x126 r55 -0.6872416941860973
    x126 d55 -0.6872416941862717
    x126 r60 0.2996415827079648
    x126 d60 0.2996415827077289
    x126 r61 0.555084529467671
    x126 d61 0.5550845294680068
    x126 r62 0.08925148614722844
    x126 d62 0.08925148614717299
    x126 r66 0.9617745256514136
    x126 d66 0.9617745256519185
    x126 r69 0.662703298126798
    x126 d69 0.6627032981266068
    x126 r70 -0.2654867792212585
    x126 d70 -0.2654867792214967
    x126 r73 0.31161945468416374
    x126 d73 0.3116194546843729
    x126 r74 -0.9465242514060004
    x126 d74 -0.946524251405162
    x126 r76 0.2338552591899694
    x126 d76 0.2338552591897656
    x126 r83 -0.06858953533831502
    x126 d83 -0.06858953533837037
    x126 r84 -0.3228052427540913
    x126 d84 -0.32280524275406774
    x126 r86 -0.9444412889044329
    x126 d86 -0.944441288905156
    x126 r92 0.5493826613320361
    x126 d92 0.5493826613321677
    x127 OBJ -0.6753936244558052
    x127 r0 -0.7810970698414323
    x127 d0 -0.7810970698418124
    x127 r1 0.3347100976753592
    x127 d1 0.3347100976751901
    x127 r6 0.6934286117632174
    x127 d6 0.6934286117636969
    x127 r12 -0.9699904829932051
    x127 d12 -0.9699904829924418
    x127 r14 0.8252194979925291
    x127 d14 0.825219497992629
    x127 r19 -0.966140369722855
    x127 d19 -0.9661403697235987
    x127 r25 0.9424807314279842
    x127 d25 0.9424807314270991
    x127 r26 -0.491349146105158
    x127 d26 -0.49134914610516095
    x127 r30 -0.3854860391720394
    x127 d30 -0.3854860391718445
    x127 r31 -0.4357409733884088
    x127 d31 -0.43574097338858797
    x127 r33 -0.6585136288730447
    x127 d33 -0.6585136288728338
    x127 r38 -0.6060691518429162
    x127 d38 -0.6060691518424479
    x127 r45 -0.540078139981979
    x127 d45 -0.5400781399816017
    x127 r46 -0.8363198174508022
    x127 d46 -0.8363198174511939
    x127 r52 -0.010827064473753811
    x127 d52 -0.010827064473751346
    x127 r57 0.04144009591865383
    x127 d57 0.0414400959186372
    x127 r59 -0.6213373860691727
    x127 d59 -0.6213373860696786
    x127 r60 0.9233083150700552
    x127 d60 0.9233083150693522
    x127 r63 -0.09675040848719352
    x127 d63 -0.09675040848718762
    x127 r64 -0.31106435364388796
    x127 d64 -0.3110643536439954
    x127 r66 0.28713781708462105
    x127 d66 0.28713781708481684
    x127 r69 -0.30947157593361374
    x127 d69 -0.3094715759335548
    x127 r72 0.8686435322437087
    x127 d72 0.8686435322431802
    x127 r77 0.8188936087513767
    x127 d77 0.8188936087517955
    x127 r82 0.006844928321963595
    x127 d82 0.006844928321958044
    x127 r83 0.6659896370444485
    x127 d83 0.6659896370450531
    x127 r95 0.7266963278728467
    x127 d95 0.7266963278723131
    x127 r96 0.4601376627002114
    x127 d96 0.4601376627006165
    x127 r98 0.5805062076606651
    x127 d98 0.5805062076604556
    x128 OBJ -0.3198926955353132
    x128 r0 -0.8992405655809348
    x128 d0 -0.8992405655805831
    x128 r5 -0.06716544046628248
    x128 d5 -0.06716544046634913
    x128 r8 0.2218154479562786
    x128 d8 0.22181544795627475
    x128 r10 0.6895889443090661
    x128 d10 0.6895889443095102
    x128 r13 0.2621422475317887
    x128 d13 0.26214224753180915
    x128 r14 0.8128733485440651
    x128 d14 0.8128733485439231
    x128 r15 0.9239602030566421
    x128 d15 0.923960203056325
    x128 r17 0.23931177221628075
    x128 d17 0.23931177221623154
    x128 r18 -0.8676095281122846
    x128 d18 -0.8676095281123297
    x128 r22 -0.7877481231476882
    x128 d22 -0.7877481231483574
    x128 r26 0.2563835004914554
    x128 d26 0.2563835004915736
    x128 r27 0.5425465262151372
    x128 d27 0.5425465262152286
    x128 r28 0.3293951794494574
    x128 d28 0.3293951794497837
    x128 r29 -0.28948384423193874
    x128 d29 -0.2894838442318837
    x128 r31 -0.25620640021081287
    x128 d31 -0.25620640021060104
    x128 r32 -0.2283127503898048
    x128 d32 -0.2283127503896093
    x128 r33 0.23800931093569422
    x128 d33 0.2380093109359191
    x128 r35 -0.1559948535126061
    x128 d35 -0.15599485351258438
    x128 r39 0.922619441850266
    x128 d39 0.9226194418498994
    x128 r40 -0.0840316930607401
    x128 d40 -0.08403169306072761
    x128 r42 0.29667446095012084
    x128 d42 0.2966744609502866
    x128 r43 0.5461939234463702
    x128 d43 0.5461939234461237
    x128 r48 -0.08455582279001361
    x128 d48 -0.0845558227899834
    x128 r49 -0.6037565094927531
    x128 d49 -0.6037565094923695
    x128 r54 -0.32512640566128725
    x128 d54 -0.32512640566125917
    x128 r57 -0.20021413381636521
    x128 d57 -0.20021413381642786
    x128 r62 -0.036839673440723475
    x128 d62 -0.03683967344069218
    x128 r67 -0.6063436036867755
    x128 d67 -0.6063436036871239
    x128 r71 0.2637945113337743
    x128 d71 0.2637945113338334
    x128 r74 0.1254513782549478
    x128 d74 0.12545137825504984
    x128 r76 0.1884125438636992
    x128 d76 0.18841254386359582
    x128 r82 0.26432168686864066
    x128 d82 0.26432168686858326
    x128 r87 0.3088553149624733
    x128 d87 0.30885531496266316
    x128 r91 -0.9767497464016761
    x128 d91 -0.97674974640093
    x128 r98 -0.17254902084998713
    x128 d98 -0.17254902084991044
    x128 r99 0.46664153383888785
    x128 d99 0.4666415338386776
    x129 OBJ -0.8948487922194661
    x129 r0 -0.3760151918430463
    x129 d0 -0.37601519184309723
    x129 r1 -0.9318051532533351
    x129 d1 -0.9318051532528605
    x129 r4 -0.4905307652594397
    x129 d4 -0.49053076525980344
    x129 r7 -0.3414552878102741
    x129 d7 -0.341455287810607
    x129 r16 0.5621507612750396
    x129 d16 0.5621507612755069
    x129 r22 -0.47315328426811676
    x129 d22 -0.4731532842684623
    x129 r33 0.7343007060487643
    x129 d33 0.7343007060482141
    x129 r38 -0.09792427505911938
    x129 d38 -0.09792427505915167
    x129 r40 -0.815974313190742
    x129 d40 -0.8159743131904662
    x129 r44 0.4890318497186512
    x129 d44 0.4890318497184901
    x129 r47 -0.3571664794175382
    x129 d47 -0.3571664794174722
    x129 r49 0.016351806393019697
    x129 d49 0.016351806393007533
    x129 r50 0.4414530363448752
    x129 d50 0.4414530363447151
    x129 r59 0.16578902629811276
    x129 d59 0.16578902629805256
    x129 r62 -0.3534608893133315
    x129 d62 -0.3534608893129829
    x129 r63 0.07615076417269506
    x129 d63 0.0761507641727098
    x129 r64 0.032680549314493046
    x129 d64 0.03268054931450865
    x129 r69 0.6335049205205938
    x129 d69 0.6335049205207172
    x129 r77 0.8148107888965697
    x129 d77 0.8148107888968266
    x129 r80 0.30438899907138395
    x129 d80 0.3043889990710991
    x129 r81 -0.2382378120111046
    x129 d81 -0.23823781201097124
    x129 r82 0.9100447229394413
    x129 d82 0.9100447229398375
    x129 r85 0.7313683070500074
    x129 d85 0.7313683070498981
    x129 r87 -0.7791468145872995
    x129 d87 -0.7791468145871251
    x129 r91 -0.6074827000196008
    x129 d91 -0.6074827000198169
    x130 OBJ -0.9995334361972867
    x130 r5 -0.7521599007899693
    x130 d5 -0.7521599007897336
    x130 r6 -0.7695365805791585
    x130 d6 -0.7695365805798152
    x130 r7 0.7879690100389858
    x130 d7 0.7879690100382861
    x130 r8 -0.6031586577977703
    x130 d8 -0.6031586577977845
    x130 r9 -0.8119736297944868
    x130 d9 -0.8119736297941492
    x130 r12 -0.8598977506399632
    x130 d12 -0.8598977506392248
    x130 r17 0.3673717480528531
    x130 d17 0.36737174805288825
    x130 r23 0.050833757079490116
    x130 d23 0.05083375707949592
    x130 r30 -0.8596496555831834
    x130 d30 -0.8596496555835682
    x130 r41 -0.6089022771406774
    x130 d41 -0.6089022771406246
    x130 r42 -0.34689412467286806
    x130 d42 -0.3468941246727007
    x130 r45 -0.2259635301242222
    x130 d45 -0.2259635301240219
    x130 r47 0.7469680442664575
    x130 d47 0.7469680442660473
    x130 r51 -0.6319907375549407
    x130 d51 -0.6319907375554235
    x130 r52 -0.5563789121245364
    x130 d52 -0.5563789121247925
    x130 r58 0.23000616123621564
    x130 d58 0.2300061612361028
    x130 r59 -0.7312324044467278
    x130 d59 -0.7312324044471116
    x130 r61 0.6364927961803535
    x130 d61 0.6364927961800475
    x130 r64 0.7166131445494248
    x130 d64 0.7166131445492969
    x130 r65 0.5283289051095656
    x130 d65 0.5283289051093912
    x130 r68 -0.5535060119017043
    x130 d68 -0.5535060119013944
    x130 r70 0.1717871437424996
    x130 d70 0.17178714374242868
    x130 r77 -0.1536872933626816
    x130 d77 -0.1536872933627194
    x130 r79 0.688192842457136
    x130 d79 0.6881928424566335
    x130 r85 -0.8065772921182544
    x130 d85 -0.8065772921186227
    x130 r87 0.7172550500518668
    x130 d87 0.7172550500524332
    x130 r89 0.00025364481246681336
    x130 d89 0.0002536448124666185
    x130 r92 0.7064638376284504
    x130 d92 0.7064638376281444
    x130 r97 0.363900885733907
    x130 d97 0.3639008857337543
    x130 r98 -0.8282451196338241
    x130 d98 -0.8282451196346211
    x131 OBJ -0.6974701354411441
    x131 r5 -0.4128010732592915
    x131 d5 -0.4128010732593163
    x131 r8 0.6861146482949347
    x131 d8 0.6861146482953802
    x131 r10 0.3431003220330917
    x131 d10 0.34310032203283664
    x131 r11 0.06183683951800001
    x131 d11 0.06183683951804511
    x131 r12 -0.6535650776955428
    x131 d12 -0.6535650776951036
    x131 r25 -0.5174655158207468
    x131 d25 -0.5174655158203437
    x131 r30 0.26882757766190113
    x131 d30 0.26882757766212523
    x131 r33 -0.7976104820484631
    x131 d33 -0.7976104820485934
    x131 r35 0.36452006402128845
    x131 d35 0.36452006402157894
    x131 r39 -0.9387925070857646
    x131 d39 -0.9387925070859168
    x131 r45 0.5970504441944926
    x131 d45 0.5970504441945234
    x131 r46 -0.6384897239787235
    x131 d46 -0.6384897239791101
    x131 r49 0.2203108802981737
    x131 d49 0.22031088029799673
    x131 r55 -0.7430537218336604
    x131 d55 -0.7430537218340226
    x131 r56 -0.9125673372075476
    x131 d56 -0.9125673372076011
    x131 r64 -0.5309359259484594
    x131 d64 -0.5309359259485877
    x131 r67 -0.7946795970331424
    x131 d67 -0.7946795970328613
    x131 r72 0.2416066132695749
    x131 d72 0.24160661326936667
    x131 r78 0.15231578477525964
    x131 d78 0.15231578477527352
    x131 r80 -0.24391772509132315
    x131 d80 -0.24391772509116685
    x131 r81 -0.2001386834915737
    x131 d81 -0.20013868349160654
    x131 r82 -0.980486575675318
    x131 d82 -0.9804865756756797
    x131 r87 0.8008291237248626
    x131 d87 0.8008291237246081
    x131 r91 0.5036548686861058
    x131 d91 0.5036548686861696
    x131 r95 0.2539324231121318
    x131 d95 0.253932423111903
    x131 r96 -0.2574358457733801
    x131 d96 -0.2574358457735985
    x131 r97 0.12831536391088627
    x131 d97 0.12831536391101303
    x131 r99 -0.5882388217780234
    x131 d99 -0.5882388217775887
    x132 OBJ -0.797071263954807
    x132 r0 0.00017719972367880032
    x132 d0 0.00017719972367862753
    x132 r2 0.9859092166379282
    x132 d2 0.985909216637222
    x132 r7 -0.6605443832400464
    x132 d7 -0.660544383240197
    x132 r9 -0.007742326401634303
    x132 d9 -0.0077423264016279235
    x132 r13 -0.4479757065507677
    x132 d13 -0.44797570655056684
    x132 r16 0.14567227917842174
    x132 d16 0.14567227917836428
    x132 r17 -0.7285166202621212
    x132 d17 -0.7285166202627448
    x132 r20 -0.7537036915270374
    x132 d20 -0.7537036915275631
    x132 r23 -0.7073808978560852
    x132 d23 -0.7073808978559725
    x132 r24 0.8347087959183623
    x132 d24 0.8347087959180951
    x132 r25 0.10278752034814875
    x132 d25 0.10278752034818507
    x132 r34 -0.04413367717489902
    x132 d34 -0.04413367717492617
    x132 r36 0.4072335373245144
    x132 d36 0.4072335373243178
    x132 r40 0.8977488516668697
    x132 d40 0.8977488516674922
    x132 r42 -0.7855349270911862
    x132 d42 -0.7855349270916032
    x132 r43 -0.9526965058542485
    x132 d43 -0.952696505854009
    x132 r44 -0.35248677843008536
    x132 d44 -0.35248677843014053
    x132 r45 0.27909792093091323
    x132 d45 0.2790979209311462
    x132 r46 -0.1319910309164074
    x132 d46 -0.13199103091648554
    x132 r50 0.6777444098264689
    x132 d50 0.6777444098264469
    x132 r52 0.924939295670784
    x132 d52 0.9249392956701239
    x132 r55 0.6373096897513948
    x132 d55 0.6373096897508372
    x132 r62 -0.30420769895498556
    x132 d62 -0.3042076989548346
    x132 r63 -0.1224650861936527
    x132 d63 -0.1224650861936415
    x132 r64 0.43464558953940013
    x132 d64 0.43464558953983173
    x132 r67 -0.15117867561425857
    x132 d67 -0.15117867561420123
    x132 r68 -0.9873682978748008
    x132 d68 -0.9873682978740644
    x132 r70 0.6255471999571169
    x132 d70 0.6255471999576658
    x132 r72 -0.898363657867574
    x132 d72 -0.898363657868245
    x132 r73 -0.7513997459036341
    x132 d73 -0.751399745904163
    x132 r85 -0.19753481916390392
    x132 d85 -0.19753481916405985
    x132 r86 0.5017432296031532
    x132 d86 0.5017432296034186
    x132 r94 -0.7018248856280582
    x132 d94 -0.7018248856282057
    x132 r95 -0.03980595648800156
    x132 d95 -0.039805956488010275
    x132 r96 -0.6923198562748927
    x132 d96 -0.6923198562755034
    x132 r97 -0.49557862133161734
    x132 d97 -0.4955786213311682
    x133 OBJ -0.272780155930858
    x133 r0 -0.30599795574428224
    x133 d0 -0.3059979557440134
    x133 r1 0.5941284342424751
    x133 d1 0.5941284342420632
    x133 r4 0.6131499015555546
    x133 d4 0.6131499015552682
    x133 r5 -0.5131986180554204
    x133 d5 -0.5131986180557446
    x133 r12 -0.5400601897457908
    x133 d12 -0.5400601897458253
    x133 r15 -0.32617125701561345
    x133 d15 -0.32617125701583854
    x133 r19 -0.969292370210094
    x133 d19 -0.9692923702103923
    x133 r20 0.13990897536616043
    x133 d20 0.13990897536607624
    x133 r25 -0.6233009867070789
    x133 d25 -0.6233009867069602
    x133 r29 -0.2843749043457753
    x133 d29 -0.2843749043459267
    x133 r38 0.3373783043185037
    x133 d38 0.337378304318506
    x133 r40 0.07888695268035306
    x133 d40 0.07888695268032062
    x133 r42 -0.08534848539466378
    x133 d42 -0.08534848539472345
    x133 r48 -0.2563031993292957
    x133 d48 -0.25630319932919066
    x133 r51 0.5574368632188869
    x133 d51 0.5574368632193684
    x133 r52 -0.5869483164802995
    x133 d52 -0.5869483164802995
    x133 r58 -0.522314352481078
    x133 d58 -0.522314352481281
    x133 r65 0.11227798092718144
    x133 d65 0.11227798092707823
    x133 r69 -0.6159252608050747
    x133 d69 -0.6159252608047839
    x133 r70 0.16088116901132365
    x133 d70 0.16088116901122718
    x133 r72 0.8089729633411449
    x133 d72 0.8089729633418847
    x133 r74 -0.836999605781225
    x133 d74 -0.8369996057809618
    x133 r76 0.3350389679608117
    x133 d76 0.335038967960983
    x133 r78 0.341175727242194
    x133 d78 0.3411757272423778
    x133 r79 -0.8296433937442655
    x133 d79 -0.8296433937447117
    x133 r80 0.7928644888933298
    x133 d80 0.7928644888931599
    x133 r83 -0.41350851061620864
    x133 d83 -0.4135085106160546
    x133 r86 -0.42215255563085274
    x133 d86 -0.4221525556309865
    x133 r88 0.1069589517139371
    x133 d88 0.1069589517140193
    x133 r91 -0.25078506752074325
    x133 d91 -0.2507850675208368
    x133 r92 -0.7076762934404495
    x133 d92 -0.7076762934408453
    x133 r94 -0.40188896665329676
    x133 d94 -0.4018889666535029
    x133 r95 -0.4151163192625551
    x133 d95 -0.4151163192627999
    x134 OBJ -0.9489982266677086
    x134 r0 -0.4991024876095451
    x134 d0 -0.4991024876093143
    x134 r3 0.3687205491036569
    x134 d3 0.3687205491037493
    x134 r5 0.0926291985387715
    x134 d5 0.09262919853871049
    x134 r6 -0.920002928249096
    x134 d6 -0.920002928248486
    x134 r8 0.38837873277842005
    x134 d8 0.38837873277855245
    x134 r9 -0.06437246134921759
    x134 d9 -0.06437246134918811
    x134 r12 0.4221991268589651
    x134 d12 0.4221991268592463
    x134 r15 0.5913199296151925
    x134 d15 0.5913199296150017
    x134 r22 0.5838143945157293
    x134 d22 0.5838143945158989
    x134 r25 0.8402003793595187
    x134 d25 0.8402003793588335
    x134 r34 0.5452097444981414
    x134 d34 0.5452097444980772
    x134 r39 -0.9319011797726888
    x134 d39 -0.9319011797721194
    x134 r42 0.5864054329113553
    x134 d42 0.5864054329109636
    x134 r43 0.24322996939056662
    x134 d43 0.24322996939053657
    x134 r44 -0.03744915680806127
    x134 d44 -0.03744915680805497
    x134 r48 0.9241990222638785
    x134 d48 0.9241990222635773
    x134 r54 -0.9669178849360527
    x134 d54 -0.9669178849364134
    x134 r57 0.17151066212241384
    x134 d57 0.17151066212252736
    x134 r59 -0.5746871267853277
    x134 d59 -0.5746871267849941
    x134 r65 -0.09082423640666071
    x134 d65 -0.09082423640671432
    x134 r66 -0.6762006721885356
    x134 d66 -0.6762006721888149
    x134 r67 0.2963808156335148
    x134 d67 0.29638081563325624
    x134 r69 0.26114374828951914
    x134 d69 0.2611437482893431
    x134 r70 0.5435781512234463
    x134 d70 0.5435781512236906
    x134 r73 -0.008056435396474937
    x134 d73 -0.008056435396479796
    x134 r87 -0.7255542713679541
    x134 d87 -0.7255542713684912
    x134 r88 0.38493169064537014
    x134 d88 0.38493169064546046
    x134 r93 0.22810374290042912
    x134 d93 0.22810374290045474
    x134 r94 0.13663329328739282
    x134 d94 0.13663329328737975
    x134 r95 0.21687234867847383
    x134 d95 0.21687234867853103
    x134 r96 0.5588966608528232
    x134 d96 0.558896660852897
    x134 r97 -0.7257158372290251
    x134 d97 -0.7257158372286293
    x134 r98 -0.8852480465210906
    x134 d98 -0.8852480465208616
    x134 r99 0.31746859564676
    x134 d99 0.31746859564700036
    x135 OBJ 0.7486647547476393
    x135 r0 0.46616076686462726
    x135 d0 0.4661607668647876
    x135 r4 0.15918085755466826
    x135 d4 0.15918085755464018
    x135 r6 -0.6038246191000987
    x135 d6 -0.6038246191004424
    x135 r9 0.07093520525192076
    x135 d9 0.07093520525194931
    x135 r18 0.10665159411287561
    x135 d18 0.10665159411293408
    x135 r20 -0.10476701486753215
    x135 d20 -0.10476701486760735
    x135 r28 0.8920989290151451
    x135 d28 0.8920989290142982
    x135 r33 -0.28965344165686946
    x135 d33 -0.289653441656739
    x135 r36 0.2110497229083257
    x135 d36 0.2110497229084214
    x135 r40 0.9872361205395268
    x135 d40 0.9872361205401016
    x135 r43 0.5521706706375573
    x135 d43 0.5521706706376374
    x135 r45 0.06981897584734398
    x135 d45 0.06981897584731997
    x135 r46 -0.22448455135455148
    x135 d46 -0.22448455135450518
    x135 r50 -0.306167087878803
    x135 d50 -0.3061670878788297
    x135 r52 -0.9338106287033561
    x135 d52 -0.9338106287026752
    x135 r53 -0.2903314965682069
    x135 d53 -0.2903314965683524
    x135 r56 0.8916515024652989
    x135 d56 0.8916515024651914
    x135 r63 0.8094774844858936
    x135 d63 0.8094774844861553
    x135 r69 0.12948803092641703
    x135 d69 0.12948803092629446
    x135 r70 0.3062653638749868
    x135 d70 0.3062653638749517
    x135 r85 -0.5786034579488664
    x135 d85 -0.5786034579483612
    x135 r88 -0.9601254455302612
    x135 d88 -0.9601254455298225
    x135 r90 0.9346473157700406
    x135 d90 0.9346473157701446
    x135 r95 -0.20634074933894797
    x135 d95 -0.2063407493390506
    x135 r98 0.02025740479153937
    x135 d98 0.020257404791524835
    x135 r99 0.24552246130727418
    x135 d99 0.24552246130725802
    x136 OBJ 0.22813797557695747
    x136 r1 0.9397174447836547
    x136 d1 0.9397174447843767
    x136 r2 0.9809964950225423
    x136 d2 0.9809964950216176
    x136 r12 -0.7715445893634416
    x136 d12 -0.771544589362931
    x136 r13 -0.9886571794348125
    x136 d13 -0.988657179434481
    x136 r14 0.8274949113972572
    x136 d14 0.8274949113973293
    x136 r16 0.28669013317861847
    x136 d16 0.28669013317866787
    x136 r19 -0.0695509810213879
    x136 d19 -0.06955098102133414
    x136 r20 0.8177975049473112
    x136 d20 0.8177975049465336
    x136 r23 0.8700380013234468
    x136 d23 0.8700380013234562
    x136 r24 -0.35805608148290546
    x136 d24 -0.35805608148263884
    x136 r25 0.9417271922086288
    x136 d25 0.9417271922085884
    x136 r26 -0.02768957456767973
    x136 d26 -0.027689574567674877
    x136 r37 -0.5546822582487656
    x136 d37 -0.5546822582483193
    x136 r42 -0.4974266009948969
    x136 d42 -0.49742660099512376
    x136 r43 0.3802452005973491
    x136 d43 0.38024520059711003
    x136 r45 -0.5190421319947163
    x136 d45 -0.5190421319948593
    x136 r47 -0.08126134231534987
    x136 d47 -0.0812613423153352
    x136 r48 0.7367806570686961
    x136 d48 0.7367806570687226
    x136 r49 -0.9139759457945542
    x136 d49 -0.9139759457952266
    x136 r51 -0.742318225855048
    x136 d51 -0.7423182258553568
    x136 r56 0.35778748204179855
    x136 d56 0.35778748204168753
    x136 r65 0.9469557518281322
    x136 d65 0.9469557518288767
    x136 r68 0.00030498205575080206
    x136 d68 0.0003049820557507726
    x136 r76 -0.26543479189161867
    x136 d76 -0.26543479189164065
    x136 r89 -0.3850249206476837
    x136 d89 -0.3850249206479835
    x136 r94 -0.7317721245960258
    x136 d94 -0.7317721245963167
    x136 r95 -0.170530108177956
    x136 d95 -0.17053010817809267
    x137 OBJ -0.7028990293382171
    x137 r0 -0.050478722964532485
    x137 d0 -0.050478722964551886
    x137 r3 0.9689366908967836
    x137 d3 0.9689366908964708
    x137 r18 -0.9123078721937654
    x137 d18 -0.9123078721941742
    x137 r23 0.7686334208334178
    x137 d23 0.7686334208327157
    x137 r24 -0.6078633914290612
    x137 d24 -0.6078633914288486
    x137 r25 -0.7189692543957427
    x137 d25 -0.7189692543955593
    x137 r26 0.4942495551316066
    x137 d26 0.49424955513113933
    x137 r28 -0.6630683561821431
    x137 d28 -0.6630683561823967
    x137 r30 0.2187242542255523
    x137 d30 0.21872425422548744
    x137 r32 -0.6948595425176922
    x137 d32 -0.6948595425178818
    x137 r33 0.002952819701979026
    x137 d33 0.0029528197019805373
    x137 r43 0.9984147718847276
    x137 d43 0.998414771884172
    x137 r44 0.35181212179480403
    x137 d44 0.35181212179491794
    x137 r60 -0.4164980124023141
    x137 d60 -0.4164980124023955
    x137 r61 0.4880003252539735
    x137 d61 0.4880003252537031
    x137 r62 0.5105649060223578
    x137 d62 0.5105649060222311
    x137 r66 0.28937014367743585
    x137 d66 0.289370143677652
    x137 r73 0.8866290712825713
    x137 d73 0.8866290712827652
    x137 r76 0.3049193067978686
    x137 d76 0.30491930679788953
    x137 r78 -0.18379557840024208
    x137 d78 -0.18379557840013086
    x137 r79 0.35971584807869417
    x137 d79 0.35971584807899615
    x137 r86 -0.6742025889507772
    x137 d86 -0.6742025889512379
    x137 r87 -0.8922724025116944
    x137 d87 -0.892272402512577
    x137 r88 -0.09248684468962787
    x137 d88 -0.09248684468971391
    x137 r90 0.12544155261468837
    x137 d90 0.1254415526145834
    x137 r91 -0.5168516343618761
    x137 d91 -0.5168516343619246
    x137 r98 0.48619776594964925
    x137 d98 0.48619776594953745
    x138 OBJ -0.49548448688584545
    x138 r6 -0.3781660999438825
    x138 d6 -0.3781660999441324
    x138 r7 0.15832328026648979
    x138 d7 0.15832328026656076
    x138 r9 -0.19256303377014516
    x138 d9 -0.19256303377012285
    x138 r15 -0.025593160938804926
    x138 d15 -0.025593160938800697
    x138 r16 0.10136660654064267
    x138 d16 0.10136660654068531
    x138 r19 0.7853174840687911
    x138 d19 0.7853174840680757
    x138 r21 -0.8057878448706919
    x138 d21 -0.8057878448700156
    x138 r23 0.2993858240530163
    x138 d23 0.29938582405324554
    x138 r29 0.29611073624534634
    x138 d29 0.29611073624512785
    x138 r34 0.5621833528510218
    x138 d34 0.5621833528505399
    x138 r36 -0.5901859923079518
    x138 d36 -0.5901859923082933
    x138 r38 0.0927531249644884
    x138 d38 0.09275312496440262
    x138 r40 0.821861910620413
    x138 d40 0.8218619106202883
    x138 r45 0.915293590075893
    x138 d45 0.9152935900751684
    x138 r46 -0.27921905542967185
    x138 d46 -0.27921905542977327
    x138 r50 -0.171809139741663
    x138 d50 -0.1718091397415052
    x138 r51 -0.9541563276310971
    x138 d51 -0.9541563276318946
    x138 r57 0.22428291028222125
    x138 d57 0.2242829102823472
    x138 r61 -0.9297440615607928
    x138 d61 -0.9297440615600714
    x138 r64 0.09301795042861438
    x138 d64 0.09301795042857317
    x138 r67 -0.17634637814732934
    x138 d67 -0.17634637814723086
    x138 r71 0.45575195461528106
    x138 d71 0.45575195461545737
    x138 r72 -0.977359374642518
    x138 d72 -0.9773593746433104
    x138 r77 0.35328923919973954
    x138 d77 0.3532892392000103
    x138 r78 -0.8600033670991671
    x138 d78 -0.8600033670997339
    x138 r85 0.3800323049927654
    x138 d85 0.38003230499301316
    x138 r86 -0.4879190319798943
    x138 d86 -0.48791903197999675
    x138 r87 -0.7753395081897811
    x138 d87 -0.7753395081892384
    x138 r89 0.6714490108250575
    x138 d89 0.6714490108250057
    x138 r93 0.2143843220093571
    x138 d93 0.21438432200952512
    x138 r94 0.8599244668695345
    x138 d94 0.8599244668687684
    x138 r99 -0.659277440968447
    x138 d99 -0.659277440967918
    x139 OBJ -0.3052209078925969
    x139 r0 0.6378402806834278
    x139 d0 0.637840280683652
    x139 r1 -0.5571143736687012
    x139 d1 -0.5571143736687885
    x139 r3 -0.4512855651700991
    x139 d3 -0.45128556517042556
    x139 r5 0.4207196737351082
    x139 d5 0.42071967373495517
    x139 r9 -0.74577328699228
    x139 d9 -0.7457732869925201
    x139 r11 -0.5752560016801953
    x139 d11 -0.5752560016798645
    x139 r12 -0.32928611228840365
    x139 d12 -0.32928611228818877
    x139 r18 0.4734804243299422
    x139 d18 0.47348042432979404
    x139 r22 -0.5681984172411831
    x139 d22 -0.5681984172415322
    x139 r23 -0.4793193414439023
    x139 d23 -0.47931934144397864
    x139 r30 0.3328809773819148
    x139 d30 0.3328809773819717
    x139 r31 -0.5740084032309272
    x139 d31 -0.5740084032306819
    x139 r45 -0.9367179230553611
    x139 d45 -0.9367179230560697
    x139 r46 -0.08861732865481375
    x139 d46 -0.08861732865476242
    x139 r55 -0.5981625771313257
    x139 d55 -0.5981625771314496
    x139 r57 0.17418396068449438
    x139 d57 0.17418396068463377
    x139 r58 0.3481183646892303
    x139 d58 0.34811836468940516
    x139 r60 0.22747163839046025
    x139 d60 0.22747163839027465
    x139 r62 -0.17452966319267493
    x139 d62 -0.17452966319269148
    x139 r63 -0.28755511246038057
    x139 d63 -0.2875551124601392
    x139 r64 -0.6615816209180483
    x139 d64 -0.6615816209180934
    x139 r65 -0.1685479558955436
    x139 d65 -0.16854795589542668
    x139 r67 -0.11491294818833331
    x139 d67 -0.11491294818843767
    x139 r71 0.744111781563983
    x139 d71 0.7441117815632854
    x139 r79 0.9728003007027441
    x139 d79 0.9728003007023425
    x139 r80 0.3091831941348422
    x139 d80 0.30918319413479983
    x139 r81 0.005195863022671832
    x139 d81 0.005195863022676349
    x139 r82 -0.8330688908399824
    x139 d82 -0.833068890839332
    x139 r83 0.6361582462770463
    x139 d83 0.6361582462765685
    x139 r85 -0.1790980846198975
    x139 d85 -0.17909808461974175
    x139 r90 0.2843975115939643
    x139 d90 0.2843975115939924
    x139 r93 -0.5967980397181363
    x139 d93 -0.5967980397178863
    x140 OBJ -0.2716731209434351
    x140 r6 0.6789307479210935
    x140 d6 0.6789307479214226
    x140 r7 -0.08118458276571539
    x140 d7 -0.08118458276568766
    x140 r8 0.4924129195113196
    x140 d8 0.4924129195115564
    x140 r9 0.7430545320331239
    x140 d9 0.7430545320335803
    x140 r10 0.4082198869513567
    x140 d10 0.40821988695103734
    x140 r11 0.81306944617129
    x140 d11 0.8130694461706119
    x140 r13 -0.4887559826361494
    x140 d13 -0.4887559826364636
    x140 r14 -0.07335153995646237
    x140 d14 -0.07335153995639124
    x140 r16 0.6778379466018869
    x140 d16 0.6778379466012946
    x140 r17 0.9436000892201515
    x140 d17 0.9436000892193291
    x140 r19 -0.4903556432493774
    x140 d19 -0.49035564324904823
    x140 r21 -0.9025355299724469
    x140 d21 -0.9025355299729393
    x140 r22 0.22095863720954023
    x140 d22 0.22095863720935796
    x140 r25 0.5776820481070961
    x140 d25 0.5776820481076732
    x140 r27 -0.9904396636769865
    x140 d27 -0.9904396636770081
    x140 r29 -0.16562879579749157
    x140 d29 -0.16562879579749337
    x140 r30 0.9437582873320554
    x140 d30 0.9437582873315282
    x140 r31 -0.431033268079551
    x140 d31 -0.4310332680794603
    x140 r32 -0.04713988139564007
    x140 d32 -0.04713988139566718
    x140 r33 0.2626639976611811
    x140 d33 0.26266399766095366
    x140 r36 0.7726609472981858
    x140 d36 0.7726609472989323
    x140 r39 0.39799462050775225
    x140 d39 0.397994620508078
    x140 r45 0.6782591113803362
    x140 d45 0.6782591113808618
    x140 r46 -0.39747691903028737
    x140 d46 -0.39747691903010274
    x140 r48 0.38226968924268645
    x140 d48 0.38226968924242466
    x140 r54 -0.1028949900573044
    x140 d54 -0.10289499005734322
    x140 r57 0.05851350652358511
    x140 d57 0.058513506523634885
    x140 r59 -0.539893067990372
    x140 d59 -0.5398930679902056
    x140 r60 0.5610541972785963
    x140 d60 0.5610541972788893
    x140 r63 -0.4022364681084727
    x140 d63 -0.40223646810847813
    x140 r67 0.1749369023544285
    x140 d67 0.17493690235440357
    x140 r71 -0.2616995708751626
    x140 d71 -0.2616995708750439
    x140 r72 0.8766872804342833
    x140 d72 0.8766872804348074
    x140 r76 -0.347646552582652
    x140 d76 -0.3476465525828732
    x140 r78 0.6693521621076146
    x140 d78 0.6693521621075763
    x140 r79 -0.7757413989029214
    x140 d79 -0.7757413989030623
    x140 r85 0.6643386101369828
    x140 d85 0.6643386101375285
    x140 r91 -0.8476093694630247
    x140 d91 -0.8476093694621818
    x140 r92 -0.8612738824584965
    x140 d92 -0.8612738824577357
    x140 r99 -0.28550173375246835
    x140 d99 -0.2855017337524498
    x141 OBJ -0.7543155384756102
    x141 r1 0.9038537684618981
    x141 d1 0.9038537684615843
    x141 r2 0.48718944129317876
    x141 d2 0.4871894412927322
    x141 r3 -0.1628350032056025
    x141 d3 -0.16283500320555894
    x141 r4 -0.615371926245267
    x141 d4 -0.6153719262448433
    x141 r11 -0.47962059927898393
    x141 d11 -0.4796205992787588
    x141 r17 -0.8479832549800996
    x141 d17 -0.8479832549798105
    x141 r18 -0.10863409959447434
    x141 d18 -0.10863409959456516
    x141 r28 -0.02815904327226182
    x141 d28 -0.02815904327225964
    x141 r31 -0.1687117504077107
    x141 d31 -0.16871175040770436
    x141 r32 0.20349217211213166
    x141 d32 0.20349217211201914
    x141 r33 -0.7159895312819191
    x141 d33 -0.7159895312821727
    x141 r35 0.34601196821918134
    x141 d35 0.34601196821945196
    x141 r40 -0.6885350473776575
    x141 d40 -0.6885350473771296
    x141 r41 0.9067564774699302
    x141 d41 0.9067564774706679
    x141 r43 0.942921658814448
    x141 d43 0.9429216588135467
    x141 r52 0.6026284712481722
    x141 d52 0.6026284712485053
    x141 r54 -0.4105780160493495
    x141 d54 -0.41057801604947075
    x141 r56 0.6319121949945079
    x141 d56 0.6319121949950621
    x141 r57 0.8495378724064719
    x141 d57 0.8495378724065537
    x141 r60 -0.10297524921564238
    x141 d60 -0.10297524921568482
    x141 r62 -0.6842283505811038
    x141 d62 -0.6842283505809534
    x141 r68 -0.18693029201433387
    x141 d68 -0.1869302920144508
    x141 r72 0.6994855211543953
    x141 d72 0.6994855211544347
    x141 r73 0.8653545532460734
    x141 d73 0.865354553246346
    x141 r76 0.8372465843672892
    x141 d76 0.8372465843669685
    x141 r79 -0.9148907882998911
    x141 d79 -0.9148907882997682
    x141 r91 0.4029039450085621
    x141 d91 0.40290394500821375
    x141 r92 0.8092738640989652
    x141 d92 0.8092738640990904
    x141 r98 -0.08939474199422293
    x141 d98 -0.08939474199413971
    x141 r99 -0.8776136631485854
    x141 d99 -0.8776136631486378
    x142 OBJ 0.6978738529692299
    x142 r2 0.6396485942022021
    x142 d2 0.6396485942024486
    x142 r4 0.40212831332976195
    x142 d4 0.4021283133295779
    x142 r7 -0.708342660561754
    x142 d7 -0.708342660561178
    x142 r13 0.2058430936170228
    x142 d13 0.2058430936168829
    x142 r16 -0.5031784295167532
    x142 d16 -0.50317842951718
    x142 r18 -0.6281396378914501
    x142 d18 -0.628139637891816
    x142 r29 0.06018095232376397
    x142 d29 0.06018095232378603
    x142 r33 0.060876897148153475
    x142 d33 0.06087689714812395
    x142 r34 0.0029170962307247805
    x142 d34 0.002917096230724629
    x142 r35 -0.7650935419961211
    x142 d35 -0.765093541995797
    x142 r37 -0.8894802854190831
    x142 d37 -0.8894802854183168
    x142 r38 -0.2339519771769738
    x142 d38 -0.23395197717681537
    x142 r40 -0.8200983265689072
    x142 d40 -0.820098326569029
    x142 r43 -0.9261847487534285
    x142 d43 -0.9261847487532469
    x142 r45 -0.3096380559959706
    x142 d45 -0.30963805599584715
    x142 r48 0.4058508563488359
    x142 d48 0.405850856348796
    x142 r49 -0.3728907229011704
    x142 d49 -0.3728907229014761
    x142 r50 -0.5336531936565634
    x142 d50 -0.5336531936563712
    x142 r52 0.2192931541152241
    x142 d52 0.21929315411523925
    x142 r53 0.14951620957592193
    x142 d53 0.14951620957606196
    x142 r58 -0.23231515092932242
    x142 d58 -0.2323151509290913
    x142 r64 0.6128956057445805
    x142 d64 0.61289560574464
    x142 r70 -0.8619601810717408
    x142 d70 -0.8619601810720315
    x142 r71 0.37092979966283934
    x142 d71 0.3709297996629676
    x142 r73 0.14368005661209637
    x142 d73 0.14368005661205596
    x142 r77 -0.5169392807429325
    x142 d77 -0.5169392807425662
    x142 r80 0.234922329648257
    x142 d80 0.23492232964827275
    x142 r81 -0.8241455168912035
    x142 d81 -0.824145516890522
    x142 r83 -0.6720754164457272
    x142 d83 -0.6720754164457889
    x142 r84 -0.6362281365362097
    x142 d84 -0.6362281365357265
    x142 r85 0.4397789980554889
    x142 d85 0.4397789980555526
    x142 r86 -0.16054988660388148
    x142 d86 -0.16054988660374375
    x142 r89 0.15856135273245875
    x142 d89 0.15856135273251143
    x142 r90 0.8407201903387809
    x142 d90 0.8407201903389376
    x142 r91 0.7687202747552286
    x142 d91 0.7687202747554195
    x142 r92 -0.41244043429861876
    x142 d92 -0.412440434298843
    x142 r95 0.6280077984536132
    x142 d95 0.6280077984534831
    x142 r97 0.3873590423529769
    x142 d97 0.3873590423530669
    x143 OBJ 0.9862054434094278
    x143 r1 -0.5533517228804121
    x143 d1 -0.5533517228802971
    x143 r2 0.27847568640049136
    x143 d2 0.2784756864005659
    x143 r6 -0.1301353473941429
    x143 d6 -0.1301353473940978
    x143 r9 0.8866249926934286
    x143 d9 0.8866249926927561
    x143 r10 -0.8653763715695668
    x143 d10 -0.8653763715696765
    x143 r16 -0.49464518079879394
    x143 d16 -0.4946451807984073
    x143 r17 -0.03849873329311282
    x143 d17 -0.03849873329308631
    x143 r18 0.6313168222100669
    x143 d18 0.6313168222101448
    x143 r22 -0.980412288348443
    x143 d22 -0.9804122883483714
    x143 r24 0.6943180454708451
    x143 d24 0.6943180454711783
    x143 r31 0.5116250440865855
    x143 d31 0.5116250440860998
    x143 r33 -0.4425544942208923
    x143 d33 -0.4425544942212971
    x143 r36 0.12469934531026317
    x143 d36 0.1246993453103017
    x143 r43 -0.2654359828145578
    x143 d43 -0.26543598281435477
    x143 r46 -0.8211626932413807
    x143 d46 -0.8211626932421069
    x143 r49 0.5762161788247877
    x143 d49 0.5762161788246147
    x143 r50 -0.014733766827553563
    x143 d50 -0.014733766827546268
    x143 r62 -0.33021601078875484
    x143 d62 -0.330216010789075
    x143 r63 0.5177452601537251
    x143 d63 0.5177452601536324
    x143 r64 -0.6504165367521875
    x143 d64 -0.6504165367518387
    x143 r67 0.018418900644051384
    x143 d67 0.01841890064406465
    x143 r69 0.06536917913512319
    x143 d69 0.06536917913507981
    x143 r74 0.17585084956200236
    x143 d74 0.1758508495620518
    x143 r77 -0.7099591728384655
    x143 d77 -0.7099591728389743
    x143 r79 0.4765697920917986
    x143 d79 0.4765697920918264
    x143 r80 0.5436977757420784
    x143 d80 0.5436977757421141
    x143 r85 -0.4386813587482734
    x143 d85 -0.43868135874866704
    x143 r87 -0.6706956286189016
    x143 d87 -0.670695628619413
    x143 r88 0.38438603668499716
    x143 d88 0.3843860366848324
    x143 r91 -0.533420554529437
    x143 d91 -0.5334205545289828
    x143 r93 0.3024631234440438
    x143 d93 0.3024631234439849
    x143 r95 -0.571444481430935
    x143 d95 -0.571444481430495
    x143 r98 -0.5108955826202426
    x143 d98 -0.510895582620123
    x144 OBJ -0.06802108168013254
    x144 r7 -0.4533238699513238
    x144 d7 -0.45332386995101204
    x144 r11 -0.1240159032602679
    x144 d11 -0.1240159032603731
    x144 r12 -0.8900392215367829
    x144 d12 -0.8900392215372547
    x144 r13 0.17102168085476155
    x144 d13 0.17102168085482652
    x144 r14 0.3677457737883323
    x144 d14 0.36774577378800727
    x144 r16 -0.021286380553391604
    x144 d16 -0.021286380553383156
    x144 r21 0.4440171737248879
    x144 d21 0.4440171737246574
    x144 r25 -0.8020978637025744
    x144 d25 -0.8020978637018492
    x144 r30 0.46465170697305225
    x144 d30 0.4646517069730199
    x144 r33 0.7901478438416583
    x144 d33 0.7901478438413879
    x144 r40 -0.07062637873000766
    x144 d40 -0.07062637872997662
    x144 r46 -0.14389541297021813
    x144 d46 -0.14389541297031916
    x144 r47 -0.16791947886262504
    x144 d47 -0.1679194788624743
    x144 r49 0.12572973560462875
    x144 d49 0.12572973560461745
    x144 r52 0.08443783842179298
    x144 d52 0.08443783842171822
    x144 r57 0.09794444790437251
    x144 d57 0.09794444790427838
    x144 r60 0.3390211914566881
    x144 d60 0.33902119145652054
    x144 r61 0.3291855219041704
    x144 d61 0.32918552190427314
    x144 r63 -0.9661743255242379
    x144 d63 -0.9661743255249694
    x144 r64 0.8870358917848187
    x144 d64 0.8870358917842681
    x144 r66 0.43414722148912155
    x144 d66 0.4341472214889334
    x144 r68 0.9398572309482847
    x144 d68 0.9398572309482977
    x144 r71 -0.5501327665251776
    x144 d71 -0.5501327665246489
    x144 r73 0.8769450694142287
    x144 d73 0.876945069414924
    x144 r75 0.15897900676458865
    x144 d75 0.1589790067645239
    x144 r76 0.7542935472230652
    x144 d76 0.7542935472231445
    x144 r79 -0.4034947914841742
    x144 d79 -0.4034947914840314
    x144 r80 0.4817587520365483
    x144 d80 0.4817587520367236
    x144 r81 0.20089014335904554
    x144 d81 0.20089014335919234
    x144 r82 -0.9451317562244781
    x144 d82 -0.9451317562242432
    x144 r84 0.14960968520183493
    x144 d84 0.14960968520169318
    x144 r87 -0.3979410174810183
    x144 d87 -0.39794101748125527
    x144 r91 -0.21972070032824154
    x144 d91 -0.2197207003281567
    x144 r94 0.4917359666660053
    x144 d94 0.4917359666664762
    x144 r98 0.15848951790358212
    x144 d98 0.15848951790355484
    x144 r99 0.7011492070888883
    x144 d99 0.7011492070886631
    x145 OBJ -0.032330687167461125
    x145 r3 -0.5511454000548217
    x145 d3 -0.5511454000547936
    x145 r5 -0.5568388076304782
    x145 d5 -0.556838807631011
    x145 r8 0.259027090540084
    x145 d8 0.2590270905400331
    x145 r12 -0.6750807126528451
    x145 d12 -0.6750807126527448
    x145 r16 -0.3997547787737443
    x145 d16 -0.39975477877391685
    x145 r19 0.596528408049215
    x145 d19 0.5965284080489264
    x145 r22 -0.4715814261224891
    x145 d22 -0.47158142612278175
    x145 r33 0.3488000357697014
    x145 d33 0.34880003576981955
    x145 r35 -0.382322419526111
    x145 d35 -0.38232241952607704
    x145 r38 0.9853571572569919
    x145 d38 0.9853571572566078
    x145 r43 0.8094621562033695
    x145 d43 0.809462156202938
    x145 r48 -0.2316535749764861
    x145 d48 -0.2316535749764168
    x145 r53 0.9125673904562908
    x145 d53 0.9125673904557127
    x145 r55 0.4464781574085941
    x145 d55 0.4464781574088466
    x145 r57 0.8498157089015834
    x145 d57 0.8498157089019399
    x145 r61 0.6401666582401524
    x145 d61 0.6401666582396025
    x145 r62 0.04152103972256893
    x145 d62 0.04152103972257437
    x145 r69 -0.41897572474725986
    x145 d69 -0.41897572474756967
    x145 r71 -0.5068854972689132
    x145 d71 -0.5068854972692466
    x145 r72 0.5007486016858125
    x145 d72 0.500748601686144
    x145 r75 -0.6070871723043365
    x145 d75 -0.6070871723045201
    x145 r81 -0.9784713515814609
    x145 d81 -0.9784713515814679
    x145 r82 0.89380571004817
    x145 d82 0.8938057100473308
    x145 r83 -0.3627826319605134
    x145 d83 -0.3627826319605572
    x145 r84 0.0424992162423532
    x145 d84 0.04249921624232164
    x145 r85 -0.0403958629438832
    x145 d85 -0.04039586294392297
    x145 r87 -0.9042012191183593
    x145 d87 -0.9042012191181261
    x145 r91 -0.9045347238471313
    x145 d91 -0.9045347238469323
    x145 r99 0.9076864747731519
    x145 d99 0.9076864747729679
    x146 OBJ -0.8282306768876688
    x146 r6 0.6685491467074105
    x146 d6 0.6685491467069887
    x146 r7 0.13792166968474895
    x146 d7 0.1379216696846504
    x146 r10 -0.573836313130133
    x146 d10 -0.5738363131301419
    x146 r12 0.24810603338969073
    x146 d12 0.24810603338961035
    x146 r23 0.9061793165440222
    x146 d23 0.9061793165437451
    x146 r24 0.3920931807277446
    x146 d24 0.39209318072779403
    x146 r39 -0.3979566982456353
    x146 d39 -0.39795669824564756
    x146 r42 -0.2974734763080864
    x146 d42 -0.2974734763079617
    x146 r44 -0.26346901139037837
    x146 d44 -0.2634690113904087
    x146 r47 -0.05438851717006865
    x146 d47 -0.054388517170021536
    x146 r48 0.012081744301189579
    x146 d48 0.012081744301186846
    x146 r51 -0.09477141124341504
    x146 d51 -0.09477141124338367
    x146 r55 -0.8091812521620407
    x146 d55 -0.8091812521613633
    x146 r56 0.1213960599297077
    x146 d56 0.12139605992968186
    x146 r59 -0.12559967668513505
    x146 d59 -0.12559967668502384
    x146 r61 -0.6115380734709301
    x146 d61 -0.6115380734714475
    x146 r63 0.2233633843299867
    x146 d63 0.22336338432980093
    x146 r65 -0.7381846008317774
    x146 d65 -0.7381846008321259
    x146 r67 -0.9490141599198354
    x146 d67 -0.949014159919027
    x146 r68 -0.2364531789261839
    x146 d68 -0.23645317892595197
    x146 r74 -0.10701965758594523
    x146 d74 -0.10701965758587113
    x146 r77 -0.7877760176067201
    x146 d77 -0.7877760176065064
    x146 r79 0.5677008933757992
    x146 d79 0.5677008933758255
    x146 r82 0.3037970300637056
    x146 d82 0.30379703006370257
    x146 r85 -0.44338342610683146
    x146 d85 -0.4433834261067211
    x146 r86 0.014820581032649827
    x146 d86 0.014820581032647433
    x146 r87 0.5352636893323477
    x146 d87 0.535263689332086
    x146 r88 -0.6738723440629051
    x146 d88 -0.6738723440634589
    x146 r89 -0.8769613361395807
    x146 d89 -0.8769613361401267
    x146 r92 0.9964382039705706
    x146 d92 0.9964382039698242
    x146 r95 -0.19131419281608286
    x146 d95 -0.1913141928161783
    x146 r96 0.7380971954671771
    x146 d96 0.7380971954674902
    x146 r97 0.8088339467921635
    x146 d97 0.8088339467917971
    x147 OBJ -0.7956247665036631
    x147 r1 -0.21308004775109324
    x147 d1 -0.21308004775130313
    x147 r4 -0.9108110826817433
    x147 d4 -0.9108110826823619
    x147 r10 -0.8123199290075644
    x147 d10 -0.8123199290070922
    x147 r14 -0.7258037492799561
    x147 d14 -0.7258037492798438
    x147 r15 -0.6844038612809324
    x147 d15 -0.6844038612815578
    x147 r20 -0.7526587320908569
    x147 d20 -0.7526587320909127
    x147 r21 0.12922517092272745
    x147 d21 0.12922517092275052
    x147 r22 0.585769717936325
    x147 d22 0.5857697179361392
    x147 r23 -0.7348695131976299
    x147 d23 -0.7348695131973131
    x147 r26 0.8430434516283611
    x147 d26 0.8430434516281682
    x147 r32 -0.5764330636398893
    x147 d32 -0.5764330636395956
    x147 r34 -0.889552084316916
    x147 d34 -0.8895520843162904
    x147 r38 -0.6946576132372313
    x147 d38 -0.6946576132374984
    x147 r40 0.4413531640966104
    x147 d40 0.4413531640963468
    x147 r41 -0.4387508420587929
    x147 d41 -0.43875084205878034
    x147 r42 0.6602636873953729
    x147 d42 0.6602636873950732
    x147 r47 0.8555004644903799
    x147 d47 0.8555004644899277
    x147 r50 0.9848192072970201
    x147 d50 0.9848192072965815
    x147 r51 0.15160519508820736
    x147 d51 0.1516051950880807
    x147 r55 -0.23095305516959974
    x147 d55 -0.23095305516979886
    x147 r56 -0.5336159001001304
    x147 d56 -0.5336159000997125
    x147 r57 -0.7094671771986665
    x147 d57 -0.7094671771992087
    x147 r59 -0.537453319819472
    x147 d59 -0.5374533198197805
    x147 r60 0.23258637606181054
    x147 d60 0.23258637606202553
    x147 r61 0.06405176064051599
    x147 d61 0.06405176064046031
    x147 r64 0.7779044730811389
    x147 d64 0.7779044730815833
    x147 r65 0.40496680240227634
    x147 d65 0.40496680240244187
    x147 r68 -0.3353754759567984
    x147 d68 -0.3353754759570139
    x147 r71 0.24195496158430596
    x147 d71 0.24195496158432622
    x147 r72 0.5438027680018835
    x147 d72 0.5438027680015781
    x147 r76 0.17243771216893022
    x147 d76 0.1724377121690741
    x147 r77 0.28256584172184596
    x147 d77 0.28256584172177635
    x147 r84 -0.30038932637521354
    x147 d84 -0.3003893263755062
    x147 r94 -0.42236496440482174
    x147 d94 -0.42236496440497534
    x148 OBJ -0.3147283235139964
    x148 r1 0.9482394098658433
    x148 d1 0.9482394098658572
    x148 r2 -0.9324136939400807
    x148 d2 -0.9324136939404479
    x148 r6 -0.914080442859049
    x148 d6 -0.9140804428596437
    x148 r9 0.500084074903689
    x148 d9 0.500084074903872
    x148 r12 0.5834794620887855
    x148 d12 0.5834794620883459
    x148 r15 0.844148288289724
    x148 d15 0.8441482882894891
    x148 r19 0.18748713757761504
    x148 d19 0.18748713757762564
    x148 r25 -0.44142939613914467
    x148 d25 -0.44142939613886234
    x148 r26 0.8466340856038832
    x148 d26 0.8466340856040042
    x148 r38 0.8218075492860437
    x148 d38 0.8218075492854401
    x148 r42 0.8475578213369852
    x148 d42 0.8475578213367344
    x148 r45 -0.7312497293458935
    x148 d45 -0.7312497293462134
    x148 r46 -0.7371348886118927
    x148 d46 -0.7371348886125492
    x148 r47 -0.3038151520713088
    x148 d47 -0.30381515207102117
    x148 r48 0.7614877183587536
    x148 d48 0.7614877183585494
    x148 r49 0.8965563950390614
    x148 d49 0.8965563950391937
    x148 r50 -0.6110599161296053
    x148 d50 -0.6110599161294306
    x148 r54 0.48247015305240804
    x148 d54 0.48247015305205926
    x148 r58 -0.03240474085709577
    x148 d58 -0.032404740857075905
    x148 r63 0.6467280490838694
    x148 d63 0.646728049084342
    x148 r68 -0.34953757917856443
    x148 d68 -0.3495375791782194
    x148 r72 0.20557078239585924
    x148 d72 0.20557078239567786
    x148 r73 0.1000582810382562
    x148 d73 0.10005828103827173
    x148 r74 0.45606433958052883
    x148 d74 0.45606433958042875
    x148 r75 -0.7017097288757987
    x148 d75 -0.7017097288758313
    x148 r84 0.6326536966909639
    x148 d84 0.6326536966907613
    x148 r88 -0.2592602515383733
    x148 d88 -0.2592602515382494
    x148 r91 -0.03325853526964373
    x148 d91 -0.033258535269668404
    x148 r92 -0.22256437770773463
    x148 d92 -0.22256437770781604
    x148 r93 0.18345798643397893
    x148 d93 0.18345798643386235
    x148 r97 0.6228791489538585
    x148 d97 0.6228791489538693
    x148 r99 -0.712031451343689
    x148 d99 -0.712031451343822
    x149 OBJ -0.4704862165656398
    x149 r1 -0.8963189168295476
    x149 d1 -0.8963189168290661
    x149 r2 0.2321041021588146
    x149 d2 0.23210410215892455
    x149 r3 0.6029747122653053
    x149 d3 0.602974712265336
    x149 r5 -0.29469419773974304
    x149 d5 -0.2946941977399352
    x149 r9 -0.47165164354208744
    x149 d9 -0.47165164354165495
    x149 r11 -0.4857417946965745
    x149 d11 -0.48574179469653656
    x149 r13 0.6767050687135874
    x149 d13 0.6767050687129401
    x149 r20 -0.15494442106073825
    x149 d20 -0.15494442106076142
    x149 r21 -0.7028770500122841
    x149 d21 -0.7028770500123257
    x149 r25 0.7015411213493596
    x149 d25 0.7015411213487629
    x149 r31 0.09765173160233309
    x149 d31 0.09765173160241548
    x149 r34 -0.49293629582207155
    x149 d34 -0.49293629582159426
    x149 r38 0.12699420854506616
    x149 d38 0.12699420854503402
    x149 r40 -0.19288637947735987
    x149 d40 -0.19288637947754883
    x149 r43 0.37250969286596103
    x149 d43 0.37250969286560237
    x149 r44 0.6340718484265382
    x149 d44 0.6340718484265786
    x149 r48 -0.06073454136671774
    x149 d48 -0.06073454136666247
    x149 r53 0.6568003268119635
    x149 d53 0.6568003268117869
    x149 r55 0.2676397059933897
    x149 d55 0.26763970599338527
    x149 r56 -0.6038512032836265
    x149 d56 -0.60385120328373
    x149 r57 -0.7561001703679395
    x149 d57 -0.7561001703685617
    x149 r59 0.7080036523984807
    x149 d59 0.7080036523980874
    x149 r64 0.8385563952474062
    x149 d64 0.83855639524742
    x149 r65 -0.40869525502212123
    x149 d65 -0.4086952550223392
    x149 r71 0.3082794195975165
    x149 d71 0.3082794195974405
    x149 r72 -0.7593383170849004
    x149 d72 -0.7593383170850525
    x149 r76 0.01255156128024515
    x149 d76 0.012551561280256984
    x149 r79 -0.6598959813060941
    x149 d79 -0.6598959813056378
    x149 r83 0.4119143200451598
    x149 d83 0.41191432004502065
    x149 r85 0.2193077746349703
    x149 d85 0.21930777463479642
    x149 r86 -0.26311509885562767
    x149 d86 -0.263115098855657
    x149 r89 -0.980836200636966
    x149 d89 -0.9808362006370942
    x149 r91 -0.5484733380285354
    x149 d91 -0.5484733380290483
    x149 r92 -0.5258636612699723
    x149 d92 -0.5258636612696488
    x149 r94 -0.6142631620729877
    x149 d94 -0.6142631620728821
    x150 OBJ 0.657710756243121
    x150 r1 -0.2133566074126667
    x150 d1 -0.21335660741279833
    x150 r4 0.2654849210893191
    x150 d4 0.2654849210892312
    x150 r7 0.12125687156080578
    x150 d7 0.12125687156087059
    x150 r9 -0.21346504056094018
    x150 d9 -0.21346504056107807
    x150 r11 0.3822946826553626
    x150 d11 0.3822946826555395
    x150 r14 -0.26467963905764713
    x150 d14 -0.2646796390575078
    x150 r16 -0.5530752709007578
    x150 d16 -0.5530752709002261
    x150 r17 -0.39032118573186914
    x150 d17 -0.39032118573158325
    x150 r24 -0.39863364673529267
    x150 d24 -0.3986336467350014
    x150 r30 0.930955824079047
    x150 d30 0.9309558240791969
    x150 r31 0.493369465880249
    x150 d31 0.4933694658802797
    x150 r32 0.9523023576707821
    x150 d32 0.9523023576712978
    x150 r39 0.3820540015566576
    x150 d39 0.38205400155672664
    x150 r41 0.5596161253609149
    x150 d41 0.5596161253604526
    x150 r42 0.3947726313807536
    x150 d42 0.3947726313809737
    x150 r49 0.08888244623325514
    x150 d49 0.08888244623328988
    x150 r52 0.3872514342770068
    x150 d52 0.3872514342773747
    x150 r53 0.7033852338015143
    x150 d53 0.7033852338014763
    x150 r57 -0.9224868316048369
    x150 d57 -0.9224868316047086
    x150 r58 0.16674970246393572
    x150 d58 0.16674970246393242
    x150 r65 -0.23994824246167124
    x150 d65 -0.2399482424618239
    x150 r70 0.32467653277411435
    x150 d70 0.3246765327737939
    x150 r71 0.37943784504508193
    x150 d71 0.37943784504502387
    x150 r77 -0.46058371170574364
    x150 d77 -0.4605837117061721
    x150 r81 0.4238611000128347
    x150 d81 0.4238611000127946
    x150 r84 0.2800066730501469
    x150 d84 0.28000667305027416
    x150 r86 0.9125421567857515
    x150 d86 0.9125421567859292
    x150 r90 -0.05636884992456648
    x150 d90 -0.05636884992451292
    x150 r93 0.13404433991900988
    x150 d93 0.13404433991889889
    x150 r97 0.9154947139423375
    x150 d97 0.915494713941803
    x150 r99 -0.8171938661518752
    x150 d99 -0.8171938661519882
    x151 OBJ -0.677122778947137
    x151 r3 -0.7414016287115379
    x151 d3 -0.7414016287119392
    x151 r5 0.11330639310893065
    x151 d5 0.11330639310893349
    x151 r6 -0.5110858577330553
    x151 d6 -0.5110858577328714
    x151 r11 -0.4809600320714369
    x151 d11 -0.48096003207102755
    x151 r13 0.8882543593903371
    x151 d13 0.888254359389792
    x151 r16 -0.3414292074787053
    x151 d16 -0.34142920747862027
    x151 r22 0.21324317448570573
    x151 d22 0.21324317448555385
    x151 r23 0.35321715216638916
    x151 d23 0.35321715216616806
    x151 r25 0.4512431438993072
    x151 d25 0.4512431438993535
    x151 r35 -0.9797910555470306
    x151 d35 -0.9797910555464859
    x151 r39 -0.4954711163401777
    x151 d39 -0.49547111634046925
    x151 r41 -0.2997521540421251
    x151 d41 -0.2997521540419128
    x151 r42 -0.272859249131733
    x151 d42 -0.27285924913180837
    x151 r43 -0.1762143829892766
    x151 d43 -0.1762143829893974
    x151 r45 -0.13436932705843874
    x151 d45 -0.13436932705850319
    x151 r46 0.530179848965487
    x151 d46 0.5301798489655422
    x151 r47 0.47030261833769593
    x151 d47 0.47030261833745
    x151 r51 0.2690291923595247
    x151 d51 0.26902919235951356
    x151 r52 0.8552643285820711
    x151 d52 0.8552643285820597
    x151 r53 0.026598660273197794
    x151 d53 0.02659866027320369
    x151 r54 -0.001051986793817905
    x151 d54 -0.0010519867938183034
    x151 r61 0.07035178128251829
    x151 d61 0.07035178128256755
    x151 r62 0.6551556579909652
    x151 d62 0.6551556579914597
    x151 r67 -0.583267414751186
    x151 d67 -0.5832674147513742
    x151 r70 0.03993196250548059
    x151 d70 0.0399319625054892
    x151 r73 0.7899128702570615
    x151 d73 0.7899128702564332
    x151 r77 0.08763830566257247
    x151 d77 0.08763830566254731
    x151 r79 -0.26016136117487676
    x151 d79 -0.26016136117474997
    x151 r84 -0.8866416814044111
    x151 d84 -0.8866416814040383
    x151 r86 0.6393305754155105
    x151 d86 0.6393305754158671
    x151 r90 -0.04750230379082887
    x151 d90 -0.047502303790870955
    x151 r93 0.02269229941795836
    x151 d93 0.022692299417945053
    x151 r95 0.9307990209305683
    x151 d95 0.930799020930914
    x152 OBJ -0.9538085579095037
    x152 r4 0.19442477867541874
    x152 d4 0.19442477867528957
    x152 r6 0.5828751820109992
    x152 d6 0.582875182010846
    x152 r9 0.7810098397843865
    x152 d9 0.781009839783893
    x152 r12 0.8579409567947733
    x152 d12 0.857940956794332
    x152 r16 0.39432174697972244
    x152 d16 0.394321746979428
    x152 r18 0.9475271308809732
    x152 d18 0.9475271308809269
    x152 r19 -0.8789912547971854
    x152 d19 -0.8789912547977516
    x152 r24 0.26364408157780383
    x152 d24 0.26364408157766717
    x152 r25 -0.06707516715039641
    x152 d25 -0.06707516715045819
    x152 r28 -0.5587911601051192
    x152 d28 -0.5587911601051516
    x152 r31 -0.9324908604558932
    x152 d31 -0.932490860455453
    x152 r33 0.4075751105452279
    x152 d33 0.40757511054484374
    x152 r35 -0.3305082568906601
    x152 d35 -0.33050825689095936
    x152 r43 0.8514737841636488
    x152 d43 0.8514737841631849
    x152 r49 -0.918786432051413
    x152 d49 -0.9187864320506511
    x152 r51 0.5178187727544932
    x152 d51 0.51781877275501
    x152 r57 -0.8561908275648691
    x152 d57 -0.8561908275642215
    x152 r61 -0.13247946998225113
    x152 d61 -0.13247946998232546
    x152 r64 0.8671753253847503
    x152 d64 0.867175325385506
    x152 r69 0.306356954019845
    x152 d69 0.306356954020061
    x152 r71 -0.7827108003954129
    x152 d71 -0.7827108003959394
    x152 r73 0.7072325978143057
    x152 d73 0.7072325978142991
    x152 r76 -0.7473120675925251
    x152 d76 -0.7473120675923344
    x152 r77 0.7440086295911892
    x152 d77 0.7440086295908257
    x152 r78 0.4541863381942559
    x152 d78 0.4541863381943608
    x152 r87 -0.280739427768778
    x152 d87 -0.2807394277689771
    x152 r89 0.7328488371747652
    x152 d89 0.732848837174882
    x152 r93 0.036107486855001314
    x152 d93 0.03610748685500191
    x152 r98 0.025810575536942215
    x152 d98 0.025810575536938687
    x153 OBJ 0.9019711457494042
    x153 r0 -0.7403628376982343
    x153 d0 -0.7403628376979245
    x153 r2 -0.5454807190221633
    x153 d2 -0.5454807190216896
    x153 r5 0.9750210376998933
    x153 d5 0.9750210376991338
    x153 r6 0.8289627782354239
    x153 d6 0.8289627782355087
    x153 r9 0.15703423645531767
    x153 d9 0.1570342364552459
    x153 r10 0.6771907501505401
    x153 d10 0.6771907501502041
    x153 r13 -0.8607297852980595
    x153 d13 -0.8607297852973012
    x153 r20 -0.556347126643502
    x153 d20 -0.5563471266431086
    x153 r21 -0.4716385012506943
    x153 d21 -0.4716385012505434
    x153 r25 0.5292189946538464
    x153 d25 0.5292189946541402
    x153 r33 -0.03800265012183823
    x153 d33 -0.03800265012187163
    x153 r35 0.7183466988194454
    x153 d35 0.7183466988189227
    x153 r38 0.3476166883291787
    x153 d38 0.34761668832926246
    x153 r39 -0.34242158148388135
    x153 d39 -0.34242158148389756
    x153 r47 -0.7917664272204052
    x153 d47 -0.7917664272199281
    x153 r56 0.8040612591121801
    x153 d56 0.8040612591119792
    x153 r57 -0.9472690012118066
    x153 d57 -0.9472690012117958
    x153 r64 0.7458952283276559
    x153 d64 0.7458952283274048
    x153 r69 0.07344202377310793
    x153 d69 0.07344202377307976
    x153 r71 0.41997251836882366
    x153 d71 0.4199725183686388
    x153 r74 0.2705917991243507
    x153 d74 0.27059179912444464
    x153 r78 0.8431529875174837
    x153 d78 0.843152987517728
    x153 r82 -0.5792266435195121
    x153 d82 -0.5792266435189747
    x153 r83 -0.7780949110435302
    x153 d83 -0.7780949110442424
    x153 r88 0.9110830314347225
    x153 d88 0.9110830314340401
    x153 r89 0.8173632675965916
    x153 d89 0.8173632675969625
    x153 r92 -0.27340738733241254
    x153 d92 -0.2734073873324787
    x153 r93 0.29442246966162156
    x153 d93 0.29442246966183044
    x153 r94 0.4157854826368852
    x153 d94 0.41578548263693016
    x153 r95 0.6822711970095174
    x153 d95 0.6822711970094842
    x153 r96 -0.25716888285983974
    x153 d96 -0.2571688828600124
    x153 r98 0.6920020317331577
    x153 d98 0.6920020317333041
    x154 OBJ 0.05651479008424953
    x154 r0 0.48177839636585507
    x154 d0 0.481778396365871
    x154 r5 0.5442571941284209
    x154 d5 0.5442571941288502
    x154 r9 0.19058803878650288
    x154 d9 0.19058803878667735
    x154 r12 -0.6921572858253862
    x154 d12 -0.6921572858260392
    x154 r14 0.772156046261613
    x154 d14 0.7721560462620096
    x154 r15 0.5454708603650207
    x154 d15 0.5454708603649138
    x154 r19 0.6178959972423423
    x154 d19 0.6178959972424483
    x154 r20 -0.45266416242092267
    x154 d20 -0.4526641624213047
    x154 r28 0.28639681592809296
    x154 d28 0.2863968159282879
    x154 r31 -0.49718897542652174
    x154 d31 -0.49718897542605583
    x154 r33 -0.031265176505077985
    x154 d33 -0.03126517650508634
    x154 r40 -0.05937258253486055
    x154 d40 -0.05937258253491244
    x154 r47 -0.4294688368401318
    x154 d47 -0.4294688368400071
    x154 r52 0.07238808553309117
    x154 d52 0.07238808553314244
    x154 r60 -0.5823141518039368
    x154 d60 -0.5823141518044828
    x154 r62 0.7924949901656766
    x154 d62 0.7924949901652553
    x154 r68 -0.6608144675309151
    x154 d68 -0.6608144675314358
    x154 r72 0.8764620428560703
    x154 d72 0.8764620428561303
    x154 r76 -0.48185506722909643
    x154 d76 -0.4818550672290712
    x154 r82 0.37559634813175724
    x154 d82 0.37559634813206805
    x154 r86 0.20160058868061803
    x154 d86 0.20160058868079503
    x154 r89 -0.14161323566626471
    x154 d89 -0.14161323566636788
    x154 r91 -0.7740063482854054
    x154 d91 -0.7740063482847175
    x154 r98 0.6965889995603822
    x154 d98 0.6965889995601175
    x154 r99 0.4221937744680473
    x154 d99 0.4221937744680104
    x155 OBJ -0.7067949222018186
    x155 r0 -0.6735069594472485
    x155 d0 -0.6735069594472008
    x155 r2 -0.9947690134179419
    x155 d2 -0.9947690134181219
    x155 r4 -0.9328418492578898
    x155 d4 -0.9328418492578731
    x155 r5 -0.8664023636888825
    x155 d5 -0.8664023636892114
    x155 r6 0.38935412084956456
    x155 d6 0.38935412084946275
    x155 r10 0.25848260170200144
    x155 d10 0.2584826017017539
    x155 r16 -0.9266651077061636
    x155 d16 -0.9266651077061142
    x155 r20 0.05628948537291545
    x155 d20 0.05628948537290863
    x155 r21 -0.39550189349131526
    x155 d21 -0.3955018934916683
    x155 r22 -0.5547969165673656
    x155 d22 -0.5547969165677714
    x155 r26 -0.8423792784510495
    x155 d26 -0.8423792784503594
    x155 r34 -0.5021906253868385
    x155 d34 -0.5021906253863874
    x155 r38 -0.5429556192938307
    x155 d38 -0.5429556192941073
    x155 r40 0.1153307380739117
    x155 d40 0.11533073807390515
    x155 r43 0.20345429162714068
    x155 d43 0.2034542916271438
    x155 r44 -0.9981267939949825
    x155 d44 -0.9981267939941953
    x155 r46 0.6116520806859842
    x155 d46 0.6116520806862414
    x155 r58 -0.36716298723617413
    x155 d58 -0.3671629872359737
    x155 r61 0.04490077992613051
    x155 d61 0.04490077992615333
    x155 r63 0.18647432328809876
    x155 d63 0.18647432328826571
    x155 r64 -0.2062806514286828
    x155 d64 -0.20628065142862975
    x155 r66 0.6945073342012316
    x155 d66 0.6945073342014914
    x155 r71 0.59845978450714
    x155 d71 0.5984597845070626
    x155 r72 0.29311197524354093
    x155 d72 0.2931119752436989
    x155 r73 -0.32116341296381834
    x155 d73 -0.32116341296358164
    x155 r74 -0.4873303161431404
    x155 d74 -0.4873303161430949
    x155 r78 -0.3267091000164202
    x155 d78 -0.3267091000161183
    x155 r81 0.1091713802221046
    x155 d81 0.10917138022204669
    x155 r84 0.1615561128263494
    x155 d84 0.1615561128264381
    x155 r86 0.28027599242914913
    x155 d86 0.2802759924292924
    x155 r92 -0.4837179503490825
    x155 d92 -0.48371795034941084
    x155 r97 -0.6272011933228379
    x155 d97 -0.6272011933226054
    x155 r98 -0.7132991909076294
    x155 d98 -0.7132991909075265
    x156 OBJ 0.08634485176422868
    x156 r0 0.682537963701513
    x156 d0 0.682537963701467
    x156 r8 0.22503532119674574
    x156 d8 0.22503532119653896
    x156 r10 -0.4498784318064073
    x156 d10 -0.4498784318067752
    x156 r13 -0.08005857211951528
    x156 d13 -0.0800585721195642
    x156 r15 0.8055787126960345
    x156 d15 0.80557871269549
    x156 r18 -0.3311154636164837
    x156 d18 -0.33111546361637084
    x156 r25 -0.9142336327666725
    x156 d25 -0.914233632765963
    x156 r29 0.08464028604880536
    x156 d29 0.08464028604881114
    x156 r30 -0.5118712308925231
    x156 d30 -0.5118712308923236
    x156 r31 -0.17882035218690806
    x156 d31 -0.1788203521869335
    x156 r34 -0.3401312366843865
    x156 d34 -0.3401312366843053
    x156 r36 0.11562359966983671
    x156 d36 0.11562359966980215
    x156 r37 0.5386986135964504
    x156 d37 0.5386986135960211
    x156 r45 -0.20959283445195487
    x156 d45 -0.20959283445192614
    x156 r54 -0.19901527134548203
    x156 d54 -0.1990152713455937
    x156 r58 0.2653214710308125
    x156 d58 0.26532147103060333
    x156 r71 0.7217678694450222
    x156 d71 0.7217678694452258
    x156 r73 0.790059450487663
    x156 d73 0.7900594504870604
    x156 r74 -0.8068975486536685
    x156 d74 -0.80689754865304
    x156 r81 0.27078882151008665
    x156 d81 0.27078882151034883
    x156 r82 -0.1458946398752694
    x156 d82 -0.14589463987530715
    x156 r87 -0.9954474259739063
    x156 d87 -0.9954474259735292
    x156 r88 0.8971150058974537
    x156 d88 0.897115005897587
    x156 r89 -0.6288228718109876
    x156 d89 -0.6288228718111881
    x156 r93 -0.5793332339445973
    x156 d93 -0.5793332339451195
    x156 r94 0.6038808270197276
    x156 d94 0.603880827019375
    x156 r95 -0.07770058648634914
    x156 d95 -0.07770058648632193
    x156 r96 -0.3742136527153235
    x156 d96 -0.3742136527150258
    x156 r99 -0.9619981399587205
    x156 d99 -0.9619981399583107
    x157 OBJ -0.945915017155663
    x157 r1 0.8717631030797597
    x157 d1 0.871763103080027
    x157 r2 -0.28569690087269084
    x157 d2 -0.2856969008726128
    x157 r3 0.9277284167150177
    x157 d3 0.927728416714481
    x157 r7 0.5906305944627195
    x157 d7 0.590630594462235
    x157 r8 0.8174940920028402
    x157 d8 0.8174940920031343
    x157 r9 -0.5084994871459421
    x157 d9 -0.5084994871458021
    x157 r10 -0.10859721019498259
    x157 d10 -0.10859721019502823
    x157 r18 0.6862164783317823
    x157 d18 0.6862164783312802
    x157 r22 -0.78632294701435
    x157 d22 -0.7863229470146718
    x157 r27 0.9786002349818417
    x157 d27 0.978600234982147
    x157 r29 0.8274333293735621
    x157 d29 0.8274333293732815
    x157 r34 0.9223237311879922
    x157 d34 0.9223237311879012
    x157 r36 0.939285603590108
    x157 d36 0.93928560359005
    x157 r39 0.5004446371303855
    x157 d39 0.5004446371303753
    x157 r45 0.7964800586256588
    x157 d45 0.7964800586262651
    x157 r49 0.4531281413567041
    x157 d49 0.4531281413571322
    x157 r50 0.42823849404072045
    x157 d50 0.42823849404052844
    x157 r51 0.8812015241192246
    x157 d51 0.8812015241193919
    x157 r52 -0.42584090721966184
    x157 d52 -0.42584090722001755
    x157 r55 0.818157443842402
    x157 d55 0.818157443841612
    x157 r60 -0.13793950039597758
    x157 d60 -0.13793950039593839
    x157 r62 0.5809085209796749
    x157 d62 0.5809085209793797
    x157 r63 -0.04042977971809325
    x157 d63 -0.04042977971813027
    x157 r74 -0.6523420716378905
    x157 d74 -0.6523420716377145
    x157 r75 0.8864478762283208
    x157 d75 0.8864478762291474
    x157 r80 -0.2521499084729364
    x157 d80 -0.2521499084728711
    x157 r82 0.2080958926457006
    x157 d82 0.20809589264584588
    x157 r84 -0.7880684357880705
    x157 d84 -0.7880684357877341
    x157 r86 -0.9349999239404676
    x157 d86 -0.9349999239409594
    x157 r95 -0.6533809134810389
    x157 d95 -0.6533809134810584
    x158 OBJ 0.05621888187661295
    x158 r2 0.16718183906607287
    x158 d2 0.16718183906617903
    x158 r5 -0.2242256129632887
    x158 d5 -0.22422561296343244
    x158 r12 0.5943033854984539
    x158 d12 0.5943033854979985
    x158 r14 0.1645803493650626
    x158 d14 0.16458034936497765
    x158 r17 -0.3286883833003511
    x158 d17 -0.328688383300222
    x158 r18 -0.11072256132049363
    x158 d18 -0.11072256132057902
    x158 r22 0.5927113202021999
    x158 d22 0.592711320201616
    x158 r23 0.33928547042407553
    x158 d23 0.33928547042436985
    x158 r26 0.1181141303842348
    x158 d26 0.1181141303843482
    x158 r30 -0.5254445369778542
    x158 d30 -0.5254445369779644
    x158 r33 -0.09943352717990117
    x158 d33 -0.09943352717998355
    x158 r36 0.7912061207943575
    x158 d36 0.7912061207944933
    x158 r43 -0.8304356101991839
    x158 d43 -0.8304356101993137
    x158 r48 0.7267276025715266
    x158 d48 0.7267276025720859
    x158 r50 0.15937287223123242
    x158 d50 0.15937287223118998
    x158 r61 0.6565293933775282
    x158 d61 0.6565293933781589
    x158 r63 -0.21301550839847372
    x158 d63 -0.21301550839837946
    x158 r65 0.08620753338403775
    x158 d65 0.08620753338401681
    x158 r71 0.675439358088253
    x158 d71 0.675439358088025
    x158 r73 0.8003976496212737
    x158 d73 0.8003976496205158
    x158 r75 -0.01807628763598057
    x158 d75 -0.01807628763596719
    x158 r77 0.12671947054081278
    x158 d77 0.126719470540928
    x158 r80 -0.5270915424353881
    x158 d80 -0.5270915424356779
    x158 r86 0.011482191537949715
    x158 d86 0.011482191537960816
    x158 r87 -0.7069812524870993
    x158 d87 -0.7069812524865646
    x158 r90 -0.4351705684550129
    x158 d90 -0.4351705684546845
    x159 OBJ 0.9570024854379455
    x159 r0 -0.5155741320150269
    x159 d0 -0.5155741320146335
    x159 r1 0.328859727462788
    x159 d1 0.32885972746311093
    x159 r6 -0.8201328314984357
    x159 d6 -0.8201328314989793
    x159 r11 -0.86617674625399
    x159 d11 -0.8661767462539086
    x159 r17 -0.8124537044424167
    x159 d17 -0.8124537044427429
    x159 r24 0.020436348846983643
    x159 d24 0.020436348846982623
    x159 r25 0.6768691956769759
    x159 d25 0.6768691956770295
    x159 r26 -0.47534508495735106
    x159 d26 -0.4753450849574338
    x159 r35 -0.09067814006987884
    x159 d35 -0.09067814006987548
    x159 r37 0.16226629506593282
    x159 d37 0.1622662950658416
    x159 r39 -0.16326076799470823
    x159 d39 -0.16326076799477737
    x159 r56 0.1056875983128418
    x159 d56 0.10568759831280304
    x159 r62 -0.3936916781821589
    x159 d62 -0.3936916781821899
    x159 r64 -0.20087984162665462
    x159 d64 -0.20087984162674138
    x159 r68 0.6969294069870178
    x159 d68 0.6969294069872264
    x159 r74 -0.260573762481644
    x159 d74 -0.2605737624816113
    x159 r75 0.8686095802690146
    x159 d75 0.8686095802687128
    x159 r76 -0.5809174187370505
    x159 d76 -0.5809174187365972
    x159 r84 -0.561200992580478
    x159 d84 -0.5612009925810066
    x159 r86 -0.6114928772272921
    x159 d86 -0.6114928772268624
    x159 r89 -0.6848750363014551
    x159 d89 -0.6848750363016801
    x159 r91 0.7930593508007373
    x159 d91 0.7930593508009611
    x159 r93 -0.11535570136101159
    x159 d93 -0.11535570136100458
    x160 OBJ 0.7266500605793378
    x160 r0 -0.08109411321055848
    x160 d0 -0.08109411321062233
    x160 r2 0.24785911781298653
    x160 d2 0.24785911781314493
    x160 r4 0.5583815765354705
    x160 d4 0.5583815765352673
    x160 r9 0.2364965792425835
    x160 d9 0.23649657924245304
    x160 r10 0.6547830919561304
    x160 d10 0.6547830919567136
    x160 r11 -0.27699811645621875
    x160 d11 -0.2769981164561178
    x160 r12 0.17243235040083293
    x160 d12 0.17243235040075003
    x160 r15 -0.959510395050728
    x160 d15 -0.9595103950510397
    x160 r17 -0.15423695953648298
    x160 d17 -0.15423695953650776
    x160 r19 0.177145391819703
    x160 d19 0.17714539181967812
    x160 r20 0.46963537594580096
    x160 d20 0.4696353759455052
    x160 r24 0.17857053428699476
    x160 d24 0.17857053428682135
    x160 r30 0.22393362541627893
    x160 d30 0.22393362541629772
    x160 r34 0.8241199149845284
    x160 d34 0.8241199149837054
    x160 r36 0.15435596362634474
    x160 d36 0.1543559636263733
    x160 r38 0.4508221334192657
    x160 d38 0.45082213341971267
    x160 r55 -0.5705162145895957
    x160 d55 -0.5705162145901364
    x160 r56 0.8096253215453013
    x160 d56 0.8096253215460215
    x160 r57 0.499249492573834
    x160 d57 0.49924949257348894
    x160 r58 -0.4963557757695236
    x160 d58 -0.4963557757696744
    x160 r60 0.24333665397887017
    x160 d60 0.24333665397869758
    x160 r63 -0.3051153909405846
    x160 d63 -0.3051153909404631
    x160 r65 -0.23638307116501678
    x160 d65 -0.23638307116494137
    x160 r67 -0.2559011768787245
    x160 d67 -0.25590117687875474
    x160 r68 -0.10592891190412179
    x160 d68 -0.10592891190410053
    x160 r69 -0.11149581322416946
    x160 d69 -0.11149581322415907
    x160 r70 -0.12417990110125654
    x160 d70 -0.12417990110125166
    x160 r72 0.8209420519674977
    x160 d72 0.8209420519674739
    x160 r76 0.23623926687601227
    x160 d76 0.23623926687602811
    x160 r81 0.16722255394677754
    x160 d81 0.16722255394668525
    x160 r82 0.8316344526184107
    x160 d82 0.8316344526177227
    x160 r84 -0.8418291691143649
    x160 d84 -0.841829169114535
    x160 r85 -0.21898263851815036
    x160 d85 -0.21898263851802818
    x160 r88 0.6682055064545092
    x160 d88 0.6682055064550332
    x160 r92 0.629800304515939
    x160 d92 0.6298003045156984
    x160 r96 -0.22646003535034143
    x160 d96 -0.22646003535038753
    x161 OBJ 0.39239357181560375
    x161 r0 -0.10835078353251948
    x161 d0 -0.10835078353245431
    x161 r5 -0.5496658833428218
    x161 d5 -0.5496658833433609
    x161 r10 -0.5510580644883287
    x161 d10 -0.5510580644888583
    x161 r11 -0.7742746960752405
    x161 d11 -0.7742746960747842
    x161 r12 0.4155250855112518
    x161 d12 0.4155250855114518
    x161 r13 -0.6022558625388577
    x161 d13 -0.6022558625384323
    x161 r16 0.8957946420911682
    x161 d16 0.8957946420903007
    x161 r23 -0.08685218417865204
    x161 d23 -0.08685218417871127
    x161 r24 -0.5876489257589259
    x161 d24 -0.5876489257583909
    x161 r27 0.5292831381389891
    x161 d27 0.5292831381389855
    x161 r32 -0.058829763591320416
    x161 d32 -0.058829763591323775
    x161 r34 0.5393700738670195
    x161 d34 0.5393700738666277
    x161 r37 0.7969061606088634
    x161 d37 0.7969061606092845
    x161 r38 -0.785448604440171
    x161 d38 -0.7854486044407016
    x161 r43 -0.35926837363393793
    x161 d43 -0.35926837363360825
    x161 r52 0.8806555839067951
    x161 d52 0.8806555839069494
    x161 r53 -0.3925246959249189
    x161 d53 -0.39252469592491923
    x161 r56 -0.3607691009242706
    x161 d56 -0.3607691009243901
    x161 r57 0.9101570692765546
    x161 d57 0.9101570692761829
    x161 r60 -0.28835952260520403
    x161 d60 -0.2883595226051846
    x161 r63 0.4312994344018395
    x161 d63 0.43129943440154167
    x161 r65 -0.024347731736506395
    x161 d65 -0.024347731736522226
    x161 r68 0.724969059040226
    x161 d68 0.7249690590400096
    x161 r70 0.874138215747938
    x161 d70 0.8741382157475763
    x161 r74 -0.5100153589136569
    x161 d74 -0.5100153589141112
    x161 r78 0.7074890986256726
    x161 d78 0.7074890986256914
    x161 r80 -0.2920826580652387
    x161 d80 -0.29208265806544864
    x161 r86 -0.8333108236458737
    x161 d86 -0.8333108236450448
    x161 r90 0.7013583434677986
    x161 d90 0.7013583434676391
    x161 r91 0.10257203233379109
    x161 d91 0.102572032333873
    x161 r94 -0.2181310650053323
    x161 d94 -0.21813106500542642
    x161 r98 0.5525334736170768
    x161 d98 0.5525334736174713
    x162 OBJ -0.4777696055412761
    x162 r0 0.9235730667252267
    x162 d0 0.92357306672611
    x162 r2 0.8731818318590934
    x162 d2 0.8731818318597766
    x162 r8 -0.7158208628617215
    x162 d8 -0.7158208628617986
    x162 r13 -0.1797438359775103
    x162 d13 -0.17974383597741253
    x162 r19 0.8573444443658886
    x162 d19 0.8573444443654465
    x162 r24 0.7896426412312014
    x162 d24 0.7896426412311222
    x162 r31 -0.5691776077832273
    x162 d31 -0.5691776077837201
    x162 r32 -0.665512679832694
    x162 d32 -0.6655126798320531
    x162 r34 -0.45879351686067893
    x162 d34 -0.4587935168610476
    x162 r38 0.1527829379540484
    x162 d38 0.15278293795395406
    x162 r39 0.6444026994349552
    x162 d39 0.6444026994349221
    x162 r41 -0.5110880999409544
    x162 d41 -0.5110880999411592
    x162 r50 0.6104420659654268
    x162 d50 0.6104420659656519
    x162 r55 -0.48819004195794213
    x162 d55 -0.48819004195785276
    x162 r61 -0.7664180096666457
    x162 d61 -0.7664180096664571
    x162 r72 0.04986084584010131
    x162 d72 0.049860845840077675
    x162 r73 -0.8595666799131605
    x162 d73 -0.8595666799131771
    x162 r74 -0.4686637274238632
    x162 d74 -0.46866372742421086
    x162 r75 0.03156457578755245
    x162 d75 0.03156457578755267
    x162 r76 -0.3638428595836378
    x162 d76 -0.36384285958378254
    x162 r81 0.8879132404834482
    x162 d81 0.8879132404829555
    x162 r84 0.8394130188646503
    x162 d84 0.8394130188642838
    x162 r90 -0.46370811367316955
    x162 d90 -0.4637081136732211
    x162 r92 0.09894590136735126
    x162 d92 0.0989459013673776
    x162 r94 0.37726138887558425
    x162 d94 0.3772613888758595
    x162 r95 0.3117308971229775
    x162 d95 0.3117308971230046
    x162 r97 -0.4958121945616054
    x162 d97 -0.49581219456199416
    x163 OBJ -0.2666004164776423
    x163 r1 -0.9942585516237914
    x163 d1 -0.9942585516230006
    x163 r2 -0.7013738386205868
    x163 d2 -0.7013738386199779
    x163 r3 0.0965354241372276
    x163 d3 0.09653542413721508
    x163 r14 -0.590853922690431
    x163 d14 -0.5908539226908138
    x163 r15 -0.25646753439203374
    x163 d15 -0.2564675343921182
    x163 r18 0.4086356344882529
    x163 d18 0.40863563448834145
    x163 r22 0.13092822508989066
    x163 d22 0.1309282250897764
    x163 r30 -0.043045617898261224
    x163 d30 -0.04304561789822192
    x163 r31 -0.4618482347910762
    x163 d31 -0.4618482347912782
    x163 r34 0.06992783030071403
    x163 d34 0.06992783030072015
    x163 r35 -0.11569061585245044
    x163 d35 -0.11569061585233756
    x163 r37 0.10492311892646256
    x163 d37 0.10492311892651868
    x163 r41 0.6192219971343051
    x163 d41 0.6192219971348997
    x163 r43 0.18602217478551952
    x163 d43 0.18602217478553668
    x163 r45 0.008501933382393023
    x163 d45 0.008501933382385316
    x163 r46 0.5174852651649358
    x163 d46 0.5174852651647932
    x163 r48 0.4795929049399985
    x163 d48 0.4795929049398096
    x163 r49 -0.24643091314822962
    x163 d49 -0.2464309131479982
    x163 r50 -0.5480801338969241
    x163 d50 -0.5480801338966321
    x163 r53 0.5993569014716889
    x163 d53 0.5993569014713894
    x163 r55 0.17238524430357804
    x163 d55 0.17238524430369054
    x163 r60 -0.7288820126495805
    x163 d60 -0.7288820126492743
    x163 r64 0.8537197751057262
    x163 d64 0.8537197751062171
    x163 r65 0.827947446553799
    x163 d65 0.8279474465541866
    x163 r68 0.21773494557890172
    x163 d68 0.21773494557880504
    x163 r69 0.1772126896063564
    x163 d69 0.17721268960632205
    x163 r73 0.6261578075296141
    x163 d73 0.626157807529104
    x163 r74 -0.3054022236607168
    x163 d74 -0.3054022236609304
    x163 r77 -0.4959869384766693
    x163 d77 -0.4959869384769021
    x163 r79 0.2103375976220867
    x163 d79 0.2103375976219465
    x163 r84 -0.3073481688228745
    x163 d84 -0.3073481688227308
    x163 r85 -0.11650146048972299
    x163 d85 -0.11650146048976158
    x163 r90 -0.5637343824986165
    x163 d90 -0.5637343824989336
    x163 r91 0.6202000104966185
    x163 d91 0.6202000104961777
    x163 r93 -0.4557536908892863
    x163 d93 -0.455753690889002
    x163 r95 -0.0888579349674794
    x163 d95 -0.08885793496755033
    x164 OBJ -0.6659159309313274
    x164 r1 -0.29706627994502854
    x164 d1 -0.29706627994501356
    x164 r2 0.2764201930864396
    x164 d2 0.27642019308664295
    x164 r3 0.6674889545053484
    x164 d3 0.6674889545052448
    x164 r5 -0.32596844929094915
    x164 d5 -0.32596844929120217
    x164 r12 -0.8133550163380108
    x164 d12 -0.8133550163386482
    x164 r14 -0.43152953005956385
    x164 d14 -0.43152953005934075
    x164 r18 0.4461828266620307
    x164 d18 0.4461828266616725
    x164 r19 -0.5421291822267151
    x164 d19 -0.5421291822272375
    x164 r21 0.9609922847476218
    x164 d21 0.960992284747421
    x164 r30 -0.9684719130111268
    x164 d30 -0.9684719130103883
    x164 r34 0.14312309412391833
    x164 d34 0.14312309412405574
    x164 r36 -0.3799280806537868
    x164 d36 -0.379928080654104
    x164 r40 -0.3038688902692761
    x164 d40 -0.303868890269463
    x164 r43 -0.5675074204964063
    x164 d43 -0.567507420496749
    x164 r46 0.7996285699990753
    x164 d46 0.7996285699989107
    x164 r47 -0.5455107600856841
    x164 d47 -0.5455107600857851
    x164 r50 0.3562641322604465
    x164 d50 0.3562641322607691
    x164 r57 0.6116707169410927
    x164 d57 0.6116707169407021
    x164 r61 0.31830335129295784
    x164 d61 0.31830335129308734
    x164 r64 -0.2002295661880733
    x164 d64 -0.2002295661881123
    x164 r68 -0.0947268597851385
    x164 d68 -0.0947268597851179
    x164 r69 -0.9521642503940151
    x164 d69 -0.9521642503941331
    x164 r76 0.7165096515291145
    x164 d76 0.7165096515285746
    x164 r77 -0.2826062461890295
    x164 d77 -0.282606246189014
    x164 r79 -0.703398507107108
    x164 d79 -0.7033985071071326
    x164 r83 -0.2465533079865183
    x164 d83 -0.24655330798657776
    x164 r90 -0.5354559599770774
    x164 d90 -0.5354559599773886
    x164 r98 0.6897068348061361
    x164 d98 0.6897068348062363
    x164 r99 -0.21353452737512568
    x164 d99 -0.2135345273751336
    x165 OBJ 0.5438758168040625
    x165 r0 0.9313335401175702
    x165 d0 0.9313335401183827
    x165 r11 0.5388699986045049
    x165 d11 0.5388699986046805
    x165 r13 -0.562978365338767
    x165 d13 -0.5629783653382688
    x165 r20 -0.9198199049005804
    x165 d20 -0.9198199049004178
    x165 r27 -0.4986075144359068
    x165 d27 -0.49860751443580476
    x165 r28 0.8033369595019664
    x165 d28 0.8033369595013171
    x165 r35 -0.8694291291451315
    x165 d35 -0.8694291291450633
    x165 r36 -0.012868000111317723
    x165 d36 -0.01286800011131945
    x165 r41 -0.15996996281939868
    x165 d41 -0.15996996281947845
    x165 r46 0.1352858906661243
    x165 d46 0.13528589066623992
    x165 r47 -0.19218535756308364
    x165 d47 -0.19218535756327246
    x165 r56 -0.29416829258896215
    x165 d56 -0.29416829258894095
    x165 r59 0.69252102803844
    x165 d59 0.692521028038898
    x165 r60 -0.9196603131693779
    x165 d60 -0.9196603131699577
    x165 r61 -0.10953075806216162
    x165 d61 -0.10953075806218007
    x165 r69 -0.5414454293123903
    x165 d69 -0.5414454293121076
    x165 r72 0.1764200121292827
    x165 d72 0.1764200121294106
    x165 r74 -0.8090816323747139
    x165 d74 -0.80908163237391
    x165 r76 0.42914984590696603
    x165 d76 0.4291498459071348
    x165 r78 -0.4120858086623742
    x165 d78 -0.4120858086625577
    x165 r81 -0.07349806316010521
    x165 d81 -0.07349806316015332
    x165 r82 0.14911909392746492
    x165 d82 0.14911909392743902
    x165 r83 0.6615465831471858
    x165 d83 0.6615465831474544
    x165 r95 0.8151553231727231
    x165 d95 0.8151553231734479
    x165 r99 0.694205279127406
    x165 d99 0.6942052791280308
    x166 OBJ 0.06518479498575802
    x166 r1 0.9285424315751338
    x166 d1 0.9285424315757264
    x166 r4 -0.9242589572244411
    x166 d4 -0.9242589572251863
    x166 r10 0.5869364711713037
    x166 d10 0.5869364711712294
    x166 r11 -0.7998222968736497
    x166 d11 -0.7998222968734277
    x166 r13 -0.6137551875452438
    x166 d13 -0.613755187544954
    x166 r21 -0.7762476355944314
    x166 d21 -0.7762476355943122
    x166 r23 -0.7755288111904288
    x166 d23 -0.7755288111902403
    x166 r24 0.10801232983481701
    x166 d24 0.10801232983473791
    x166 r28 -0.7656370741469434
    x166 d28 -0.7656370741470938
    x166 r31 -0.463869343033553
    x166 d31 -0.4638693430338859
    x166 r34 -0.736730945387045
    x166 d34 -0.7367309453871075
    x166 r35 -0.8317020303753866
    x166 d35 -0.83170203037532
    x166 r37 -0.4650991699364426
    x166 d37 -0.46509916993662387
    x166 r38 -0.5793046202480134
    x166 d38 -0.579304620248082
    x166 r45 0.5087339168735432
    x166 d45 0.5087339168733275
    x166 r46 0.3695984784520103
    x166 d46 0.3695984784521916
    x166 r47 0.19643112958580522
    x166 d47 0.1964311295858856
    x166 r50 -0.002519405989463097
    x166 d50 -0.0025194059894609712
    x166 r53 0.5443560613582294
    x166 d53 0.544356061358028
    x166 r54 -0.6613336864494563
    x166 d54 -0.6613336864497892
    x166 r58 0.8757752692300111
    x166 d58 0.8757752692293956
    x166 r66 0.7021803822959967
    x166 d66 0.7021803822955232
    x166 r69 -0.1892446892192332
    x166 d69 -0.18924468921905943
    x166 r72 0.5743146176943414
    x166 d72 0.5743146176945474
    x166 r73 0.9377614481073278
    x166 d73 0.9377614481069556
    x166 r76 0.9944833651354961
    x166 d76 0.9944833651357518
    x166 r84 0.015024585714365157
    x166 d84 0.015024585714353585
    x166 r90 -0.8983540683224889
    x166 d90 -0.8983540683226616
    x166 r93 0.9972302392555534
    x166 d93 0.997230239254679
    x166 r95 0.6556324970658665
    x166 d95 0.6556324970661825
    x166 r99 -0.2789303121651525
    x166 d99 -0.2789303121649301
    x167 OBJ 0.5581097826763544
    x167 r1 -0.28674155818325175
    x167 d1 -0.28674155818344704
    x167 r3 -0.2477030055604652
    x167 d3 -0.247703005560492
    x167 r4 -0.6385292056470808
    x167 d4 -0.6385292056465881
    x167 r9 0.8806165297536386
    x167 d9 0.8806165297543253
    x167 r10 0.6788102533504901
    x167 d10 0.6788102533508055
    x167 r12 -0.6145544956089528
    x167 d12 -0.6145544956094496
    x167 r17 -0.23294470268387424
    x167 d17 -0.23294470268369805
    x167 r21 0.31607067048857607
    x167 d21 0.3160706704886015
    x167 r23 -0.6323289481860865
    x167 d23 -0.632328948186217
    x167 r24 0.8657254983521665
    x167 d24 0.8657254983528399
    x167 r30 0.8690418962783153
    x167 d30 0.8690418962781662
    x167 r40 -0.010515533443520297
    x167 d40 -0.01051553344352387
    x167 r47 -0.36804842049442166
    x167 d47 -0.36804842049465736
    x167 r50 0.4483497671126937
    x167 d50 0.4483497671125094
    x167 r51 0.9220890455528041
    x167 d51 0.9220890455534257
    x167 r52 0.01627228566978922
    x167 d52 0.016272285669787227
    x167 r58 0.1538465728696028
    x167 d58 0.15384657286963882
    x167 r59 0.6899461462838246
    x167 d59 0.6899461462839636
    x167 r65 -0.12442298929554485
    x167 d65 -0.124422989295532
    x167 r66 0.7567830970848812
    x167 d66 0.7567830970856373
    x167 r67 0.9210758806949471
    x167 d67 0.9210758806944236
    x167 r70 -0.056558092919505754
    x167 d70 -0.05655809291952218
    x167 r72 0.08411924909534174
    x167 d72 0.08411924909530974
    x167 r73 0.5713416915902125
    x167 d73 0.5713416915900593
    x167 r74 -0.025501869347542172
    x167 d74 -0.025501869347564755
    x167 r78 0.10380105755406688
    x167 d78 0.10380105755399499
    x167 r81 0.24372533662163498
    x167 d81 0.24372533662146365
    x167 r83 0.21331764750053184
    x167 d83 0.2133176475006278
    x167 r84 0.521271573681596
    x167 d84 0.5212715736813328
    x167 r85 -0.5134427270957502
    x167 d85 -0.5134427270960514
    x167 r88 -0.0068914278822806985
    x167 d88 -0.006891427882279244
    x167 r92 0.8830258962433868
    x167 d92 0.8830258962437029
    x167 r94 0.9523391540279338
    x167 d94 0.952339154028811
    x167 r98 0.011859126871136105
    x167 d98 0.011859126871132424
    x168 OBJ -0.34067000990447527
    x168 r0 -0.23674678677483563
    x168 d0 -0.23674678677460717
    x168 r2 -0.977007924673996
    x168 d2 -0.9770079246748058
    x168 r3 -0.14779106261106412
    x168 d3 -0.1477910626111607
    x168 r4 -0.8980049932776382
    x168 d4 -0.8980049932784978
    x168 r6 0.396510365694299
    x168 d6 0.3965103656940923
    x168 r8 -0.6552955485514234
    x168 d8 -0.6552955485517762
    x168 r15 -0.9592431101291055
    x168 d15 -0.9592431101290024
    x168 r16 -0.18737638137240564
    x168 d16 -0.18737638137227489
    x168 r17 0.24141444204359752
    x168 d17 0.24141444204374307
    x168 r20 0.7200424895720212
    x168 d20 0.7200424895721528
    x168 r21 -0.9600564515442775
    x168 d21 -0.9600564515449297
    x168 r23 0.3239677958755933
    x168 d23 0.32396779587562735
    x168 r28 0.5070001104002926
    x168 d28 0.507000110400107
    x168 r29 0.6635501928009864
    x168 d29 0.6635501928003453
    x168 r33 -0.4706894953528624
    x168 d33 -0.47068949535309185
    x168 r39 -0.45370907601356714
    x168 d39 -0.4537090760136365
    x168 r41 0.8876578235462789
    x168 d41 0.8876578235458077
    x168 r43 0.6889275728412292
    x168 d43 0.688927572840869
    x168 r50 0.8128317980517075
    x168 d50 0.8128317980520753
    x168 r51 -0.13060952410740811
    x168 d51 -0.13060952410744714
    x168 r58 -0.7802929169764516
    x168 d58 -0.7802929169772242
    x168 r60 0.44242444338156806
    x168 d60 0.4424244433812407
    x168 r62 0.14226657916292207
    x168 d62 0.14226657916278104
    x168 r68 -0.12295801383267979
    x168 d68 -0.12295801383268293
    x168 r71 -0.13708854043182805
    x168 d71 -0.1370885404318229
    x168 r72 0.3092972118473645
    x168 d72 0.30929721184717796
    x168 r83 0.014249413552532397
    x168 d83 0.014249413552529943
    x168 r84 0.8901096225399623
    x168 d84 0.890109622540291
    x168 r89 0.08893734019206301
    x168 d89 0.08893734019197884
    x168 r93 -0.23323988255978811
    x168 d93 -0.23323988255991426
    x168 r94 -0.44412401017400427
    x168 d94 -0.44412401017429104
    x168 r95 0.47554402235679927
    x168 d95 0.475544022356468
    x168 r99 0.22601862826189434
    x168 d99 0.22601862826172342
    x169 OBJ -0.5539166537936298
    x169 r3 -0.9946098952675377
    x169 d3 -0.9946098952671257
    x169 r7 -0.32556735468278686
    x169 d7 -0.3255673546829913
    x169 r12 0.2679213651614569
    x169 d12 0.2679213651614423
    x169 r13 -0.04057462751971208
    x169 d13 -0.04057462751973102
    x169 r17 0.08459792326380833
    x169 d17 0.08459792326380956
    x169 r24 0.0378244662404541
    x169 d24 0.03782446624042601
    x169 r25 0.09459019446743233
    x169 d25 0.09459019446740546
    x169 r41 0.997311432829606
    x169 d41 0.9973114328292977
    x169 r44 -0.6316021653271733
    x169 d44 -0.631602165326575
    x169 r45 0.05214950453192868
    x169 d45 0.052149504531888734
    x169 r49 0.043563908354385505
    x169 d49 0.043563908354351866
    x169 r52 0.22043620357088578
    x169 d52 0.22043620357096502
    x169 r63 -0.09349498185502059
    x169 d63 -0.09349498185507554
    x169 r65 -0.7442567766611465
    x169 d65 -0.7442567766610776
    x169 r73 -0.0834062267663791
    x169 d73 -0.08340622676645358
    x169 r74 -0.2487557454710292
    x169 d74 -0.24875574547112972
    x169 r81 0.7769072837173099
    x169 d81 0.7769072837175629
    x169 r85 -0.33704183899755624
    x169 d85 -0.33704183899789153
    x169 r87 -0.9067916723877547
    x169 d87 -0.90679167238827
    x169 r88 -0.6534389779950422
    x169 d88 -0.6534389779944907
    x169 r93 -0.2651047709735519
    x169 d93 -0.2651047709737727
    x169 r98 0.5865972825127737
    x169 d98 0.5865972825129743
    x169 r99 -0.4958287300557267
    x169 d99 -0.4958287300553945
    x170 OBJ 0.62302249354719
    x170 r9 -0.5103240140070793
    x170 d9 -0.5103240140071919
    x170 r10 0.5561789001977202
    x170 d10 0.5561789001975913
    x170 r12 -0.4829343482657833
    x170 d12 -0.4829343482662241
    x170 r19 0.4402425813363118
    x170 d19 0.4402425813365349
    x170 r21 -0.4821639453527311
    x170 d21 -0.48216394535320134
    x170 r22 0.16408821703053178
    x170 d22 0.16408821703055057
    x170 r26 0.42264118297181597
    x170 d26 0.4226411829717813
    x170 r27 -0.9925442076122584
    x170 d27 -0.9925442076129268
    x170 r28 0.8167555325946094
    x170 d28 0.8167555325950265
    x170 r30 -0.1765513896488191
    x170 d30 -0.1765513896486947
    x170 r31 -0.8875559311616246
    x170 d31 -0.8875559311622877
    x170 r32 -0.9834739309595018
    x170 d32 -0.9834739309591215
    x170 r35 0.4055301543672163
    x170 d35 0.4055301543668223
    x170 r45 0.2601657098037442
    x170 d45 0.26016570980391424
    x170 r48 -0.4816432515843081
    x170 d48 -0.4816432515845467
    x170 r50 0.6518921869542242
    x170 d50 0.651892186954425
    x170 r55 0.22240508784693325
    x170 d55 0.22240508784714638
    x170 r59 0.2968988603727323
    x170 d59 0.2968988603729235
    x170 r65 0.7167404824050707
    x170 d65 0.7167404824052245
    x170 r67 -0.2091486312013906
    x170 d67 -0.20914863120151567
    x170 r68 0.8513633724047889
    x170 d68 0.851363372405614
    x170 r77 0.48287592938772206
    x170 d77 0.4828759293878641
    x170 r78 0.15005258729722426
    x170 d78 0.15005258729720428
    x170 r82 -0.635293362700805
    x170 d82 -0.6352933627003652
    x170 r86 0.07279109886848167
    x170 d86 0.07279109886845046
    x170 r89 0.6064786381818661
    x170 d89 0.6064786381814821
    x170 r92 0.0899697190879798
    x170 d92 0.08996971908803919
    x170 r97 -0.7299470140233932
    x170 d97 -0.7299470140235684
    x170 r98 0.3983675428149729
    x170 d98 0.3983675428147488
    x171 OBJ 0.9698521011817816
    x171 r0 0.009471279028625323
    x171 d0 0.009471279028624546
    x171 r1 -0.053071898285808716
    x171 d1 -0.053071898285852695
    x171 r3 -0.5100655458211494
    x171 d3 -0.5100655458214837
    x171 r10 0.009338561714560711
    x171 d10 0.009338561714566537
    x171 r15 -0.5996196164467311
    x171 d15 -0.5996196164466183
    x171 r23 -0.5085041398641008
    x171 d23 -0.508504139863796
    x171 r26 -0.9842514369773703
    x171 d26 -0.9842514369764427
    x171 r31 0.23260194941563972
    x171 d31 0.23260194941571652
    x171 r34 -0.7546469130115117
    x171 d34 -0.7546469130121973
    x171 r40 0.759828871381103
    x171 d40 0.7598288713808032
    x171 r46 -0.5407177224763837
    x171 d46 -0.540717722476859
    x171 r49 -0.84405869922682
    x171 d49 -0.8440586992271958
    x171 r52 0.2339981735444192
    x171 d52 0.23399817354441835
    x171 r60 0.26362773814412765
    x171 d60 0.26362773814412305
    x171 r67 0.3980066331790748
    x171 d67 0.3980066331791414
    x171 r74 -0.5806037820927379
    x171 d74 -0.5806037820921996
    x171 r76 0.05287515585111224
    x171 d76 0.05287515585112598
    x171 r77 0.2052507172403364
    x171 d77 0.2052507172401741
    x171 r78 0.4976803775782688
    x171 d78 0.49768037757830125
    x171 r82 -0.3099180123447334
    x171 d82 -0.30991801234466887
    x171 r88 0.2884651112418395
    x171 d88 0.28846511124181684
    x171 r91 -0.6130873016546867
    x171 d91 -0.6130873016546129
    x172 OBJ 0.7052575974933211
    x172 r0 -0.4716626283966858
    x172 d0 -0.4716626283969875
    x172 r6 0.5238446323468697
    x172 d6 0.5238446323463891
    x172 r11 0.8646185168718117
    x172 d11 0.864618516871154
    x172 r18 0.7545887492938794
    x172 d18 0.7545887492945217
    x172 r21 -0.9950594035621665
    x172 d21 -0.995059403562703
    x172 r23 -0.7112062320017161
    x172 d23 -0.711206232001052
    x172 r24 0.8195700877281242
    x172 d24 0.8195700877285328
    x172 r31 0.005382904281010514
    x172 d31 0.005382904281005746
    x172 r35 -0.8417979203737613
    x172 d35 -0.841797920373175
    x172 r36 0.659918471248756
    x172 d36 0.6599184712493652
    x172 r37 -0.14647602296669704
    x172 d37 -0.14647602296665857
    x172 r39 0.8050853574472789
    x172 d39 0.8050853574469553
    x172 r41 0.37671346367820435
    x172 d41 0.37671346367815717
    x172 r48 0.8378469913437936
    x172 d48 0.8378469913445392
    x172 r55 0.97381777793011
    x172 d55 0.9738177779292018
    x172 r58 -0.30025843446950584
    x172 d58 -0.30025843446922557
    x172 r70 0.7506741358633213
    x172 d70 0.7506741358628026
    x172 r75 -0.046315318969614605
    x172 d75 -0.046315318969634076
    x172 r83 -0.42740621927290046
    x172 d83 -0.4274062192725767
    x172 r84 -0.274484911437729
    x172 d84 -0.27448491143795845
    x172 r87 0.6026091844417987
    x172 d87 0.60260918444127
    x172 r89 -0.731562368424064
    x172 d89 -0.73156236842469
    x172 r95 0.403023912800867
    x172 d95 0.40302391280088745
    x172 r98 -0.2427509272129058
    x172 d98 -0.24275092721279826
    x172 r99 -0.953924301584951
    x172 d99 -0.9539243015846328
    x173 OBJ 0.612157169571335
    x173 r0 -0.2009776594221484
    x173 d0 -0.20097765942233656
    x173 r6 0.40547963716351343
    x173 d6 0.4054796371635676
    x173 r9 -0.31136137589548984
    x173 d9 -0.31136137589573515
    x173 r10 0.26002020051678265
    x173 d10 0.2600202005169602
    x173 r17 0.462998053912026
    x173 d17 0.4629980539116956
    x173 r18 0.09054262477922537
    x173 d18 0.09054262477929548
    x173 r20 -0.457748467188809
    x173 d20 -0.45774846718874407
    x173 r21 -0.5124780557108028
    x173 d21 -0.5124780557108425
    x173 r25 -0.37619607451714665
    x173 d25 -0.37619607451750575
    x173 r27 0.08357028740816097
    x173 d27 0.0835702874081277
    x173 r36 -0.5295085454090627
    x173 d36 -0.5295085454090392
    x173 r38 -0.018809006731165256
    x173 d38 -0.018809006731169246
    x173 r42 -0.6815320412951937
    x173 d42 -0.6815320412950354
    x173 r47 0.8490912875105345
    x173 d47 0.849091287510635
    x173 r52 0.7133392009065307
    x173 d52 0.7133392009060762
    x173 r54 0.06399572615629556
    x173 d54 0.06399572615631223
    x173 r55 0.03564744603052428
    x173 d55 0.035647446030508144
    x173 r57 0.13069861291475804
    x173 d57 0.13069861291484736
    x173 r61 -0.8335173243617937
    x173 d61 -0.8335173243609613
    x173 r62 -0.1758964582107878
    x173 d62 -0.17589645821086083
    x173 r64 0.8322012907927667
    x173 d64 0.8322012907935724
    x173 r68 -0.2120266395277326
    x173 d68 -0.21202663952762296
    x173 r71 -0.8125300577528136
    x173 d71 -0.8125300577534438
    x173 r73 0.823422873088252
    x173 d73 0.8234228730890293
    x173 r74 -0.09550024014493541
    x173 d74 -0.0955002401449323
    x173 r76 -0.17898583253584732
    x173 d76 -0.17898583253581749
    x173 r77 0.7314050197363444
    x173 d77 0.7314050197360392
    x173 r78 0.30422057480815146
    x173 d78 0.30422057480796855
    x173 r79 -0.0815902857015689
    x173 d79 -0.08159028570158788
    x173 r82 -0.11318976608918985
    x173 d82 -0.11318976608920842
    x173 r86 -0.9280423208930628
    x173 d86 -0.9280423208925213
    x173 r87 0.9750807499132343
    x173 d87 0.9750807499126679
    x173 r90 0.48804872781675823
    x173 d90 0.48804872781721326
    x173 r92 -0.6024201593178153
    x173 d92 -0.60242015931837
    x173 r95 -0.11146439405749864
    x173 d95 -0.11146439405742724
    x173 r98 0.599189270426469
    x173 d98 0.599189270425886
    x173 r99 -0.4972419313380203
    x173 d99 -0.4972419313377483
    x174 OBJ 0.6366658866507464
    x174 r0 -0.9550117060594849
    x174 d0 -0.9550117060593883
    x174 r1 -0.27150227520883385
    x174 d1 -0.2715022752085843
    x174 r4 0.19613636493447517
    x174 d4 0.19613636493430134
    x174 r7 -0.5303706527257988
    x174 d7 -0.5303706527257173
    x174 r9 -0.6035987149939159
    x174 d9 -0.6035987149937884
    x174 r12 0.44872041081647285
    x174 d12 0.4487204108165662
    x174 r15 0.17199033159406918
    x174 d15 0.17199033159397722
    x174 r22 0.01520878465569675
    x174 d22 0.015208784655710558
    x174 r24 0.6374906077644262
    x174 d24 0.6374906077648019
    x174 r31 -0.42504017018273466
    x174 d31 -0.425040170182574
    x174 r33 0.3154206056847053
    x174 d33 0.31542060568442787
    x174 r36 0.903021411827224
    x174 d36 0.9030214118271268
    x174 r38 -0.6030667052163832
    x174 d38 -0.6030667052164466
    x174 r44 -0.7003582496406877
    x174 d44 -0.7003582496408981
    x174 r52 0.5608393340147901
    x174 d52 0.5608393340142307
    x174 r54 0.20370139446843272
    x174 d54 0.20370139446847071
    x174 r56 -0.7729045656716669
    x174 d56 -0.7729045656723218
    x174 r61 -0.9434656635139451
    x174 d61 -0.9434656635140295
    x174 r62 0.41699382271388297
    x174 d62 0.4169938227137314
    x174 r63 0.9001758922570191
    x174 d63 0.9001758922573995
    x174 r66 0.9965207205793194
    x174 d66 0.9965207205802167
    x174 r70 0.7371501653705919
    x174 d70 0.7371501653702598
    x174 r71 0.2894503937575288
    x174 d71 0.2894503937577163
    x174 r72 0.007413337662174557
    x174 d72 0.007413337662175573
    x174 r77 -0.3218548310242926
    x174 d77 -0.3218548310243105
    x174 r81 0.6395449856235187
    x174 d81 0.6395449856228923
    x174 r84 0.4185235530684439
    x174 d84 0.4185235530685302
    x174 r89 -0.6639559305513292
    x174 d89 -0.6639559305509196
    x174 r92 0.09738940794955075
    x174 d92 0.09738940794947543
    x174 r93 -0.05163729447570331
    x174 d93 -0.05163729447568644
    x174 r99 -0.46312960985718177
    x174 d99 -0.4631296098573063
    x175 OBJ 0.47974604075142824
    x175 r6 0.0928069675519494
    x175 d6 0.0928069675519732
    x175 r8 -0.23747582194562433
    x175 d8 -0.2374758219457525
    x175 r9 -0.33787899153533907
    x175 d9 -0.33787899153533885
    x175 r11 0.6575243291929105
    x175 d11 0.6575243291935472
    x175 r12 -0.41838833374583495
    x175 d12 -0.41838833374565815
    x175 r13 0.18393506868167897
    x175 d13 0.18393506868175996
    x175 r16 0.11483537418562872
    x175 d16 0.11483537418556498
    x175 r23 0.6206717800084178
    x175 d23 0.62067178000871
    x175 r27 0.4801161138268577
    x175 d27 0.4801161138267672
    x175 r30 -0.8950560506307359
    x175 d30 -0.8950560506308187
    x175 r33 -0.010132826770059555
    x175 d33 -0.010132826770064494
    x175 r35 -0.6257682948699648
    x175 d35 -0.6257682948699647
    x175 r37 0.31338487482853195
    x175 d37 0.3133848748288065
    x175 r38 -0.2317757689659321
    x175 d38 -0.23177576896597718
    x175 r46 0.04843435412574082
    x175 d46 0.048434354125707034
    x175 r48 -0.44715597705309906
    x175 d48 -0.4471559770529922
    x175 r52 0.7808558097803884
    x175 d52 0.7808558097808007
    x175 r60 -0.27710727932513746
    x175 d60 -0.2771072793250865
    x175 r62 0.4177594470537833
    x175 d62 0.41775944705396245
    x175 r64 0.09140723698657438
    x175 d64 0.09140723698660948
    x175 r71 0.8301661308685011
    x175 d71 0.8301661308692018
    x175 r74 -0.4169061398322689
    x175 d74 -0.4169061398326154
    x175 r80 0.4015784897722814
    x175 d80 0.4015784897720072
    x175 r82 -0.7854220517740838
    x175 d82 -0.785422051774601
    x175 r85 -0.2679679587939636
    x175 d85 -0.267967958793778
    x175 r98 0.34663668572810047
    x175 d98 0.3466366857283978
    x176 OBJ -0.5465210199368302
    x176 r0 0.17116656836326682
    x176 d0 0.1711665683631876
    x176 r1 -0.17839634048919328
    x176 d1 -0.17839634048911968
    x176 r2 0.8070069402515825
    x176 d2 0.8070069402522996
    x176 r4 0.9185932143026161
    x176 d4 0.9185932143033418
    x176 r7 -0.9855350123529825
    x176 d7 -0.9855350123530586
    x176 r11 0.7100252689253026
    x176 d11 0.7100252689252764
    x176 r13 -0.6616193617446062
    x176 d13 -0.6616193617451492
    x176 r17 0.1982925902253745
    x176 d17 0.19829259022550155
    x176 r19 -0.17914508378251037
    x176 d19 -0.1791450837824535
    x176 r20 -0.9874879631104589
    x176 d20 -0.9874879631094772
    x176 r30 0.30109877503870464
    x176 d30 0.3010987750387607
    x176 r32 0.583373313261426
    x176 d32 0.5833733132619437
    x176 r33 -0.19764475869601061
    x176 d33 -0.1976447586959635
    x176 r37 0.9437718764696803
    x176 d37 0.9437718764690226
    x176 r38 0.8684835163635987
    x176 d38 0.8684835163633952
    x176 r41 -0.5260185048975703
    x176 d41 -0.5260185048975002
    x176 r47 -0.1723507017776682
    x176 d47 -0.17235070177775835
    x176 r52 0.3930447157948025
    x176 d52 0.39304471579512984
    x176 r53 -0.08735766364126984
    x176 d53 -0.08735766364130022
    x176 r55 0.9792674636672694
    x176 d55 0.9792674636672516
    x176 r57 -0.32530357125152043
    x176 d57 -0.32530357125182346
    x176 r59 -0.4036787005241347
    x176 d59 -0.4036787005242907
    x176 r68 0.6101434628368472
    x176 d68 0.6101434628372461
    x176 r70 0.15534494630493567
    x176 d70 0.15534494630480497
    x176 r72 0.39770175705045596
    x176 d72 0.3977017570503664
    x176 r83 0.852239424661789
    x176 d83 0.852239424661059
    x176 r85 0.1353033510908921
    x176 d85 0.13530335109077343
    x176 r86 -0.8166954975983436
    x176 d86 -0.816695497598307
    x176 r87 0.6491801205160654
    x176 d87 0.6491801205162785
    x176 r93 0.8221422042652602
    x176 d93 0.8221422042644743
    x176 r96 -0.42141516663045
    x176 d96 -0.4214151666305212
    x176 r98 0.5622760885625504
    x176 d98 0.5622760885622498
    x176 r99 -0.38679070492074175
    x176 d99 -0.3867907049206126
    x177 OBJ 0.03527744848701109
    x177 r2 0.06305480040945466
    x177 d2 0.06305480040940512
    x177 r4 0.128952357667802
    x177 d4 0.1289523576678454
    x177 r13 0.40268081997997407
    x177 d13 0.40268081998033406
    x177 r15 -0.3493308497067169
    x177 d15 -0.3493308497069195
    x177 r16 -0.2621114716053734
    x177 d16 -0.262111471605154
    x177 r18 0.5681489653695329
    x177 d18 0.5681489653690028
    x177 r34 0.8281058966393011
    x177 d34 0.8281058966396181
    x177 r35 -0.12789344020158278
    x177 d35 -0.12789344020157611
    x177 r37 0.38776668496255917
    x177 d37 0.3877666849623479
    x177 r46 0.6149280530394432
    x177 d46 0.6149280530393363
    x177 r47 0.6849098776093405
    x177 d47 0.6849098776095206
    x177 r48 -0.38258625869559304
    x177 d48 -0.38258625869547735
    x177 r51 0.8642488635236465
    x177 d51 0.8642488635234938
    x177 r54 -0.3198520944955896
    x177 d54 -0.3198520944954257
    x177 r56 0.6878381804907376
    x177 d56 0.6878381804903031
    x177 r58 -0.8990575066176989
    x177 d58 -0.8990575066172444
    x177 r61 0.9334605667439813
    x177 d61 0.9334605667442938
    x177 r71 -0.21406360498292698
    x177 d71 -0.21406360498293192
    x177 r72 0.3037359015437777
    x177 d72 0.3037359015436842
    x177 r75 0.6552565087642193
    x177 d75 0.6552565087638467
    x177 r76 0.2575912630963326
    x177 d76 0.2575912630961481
    x177 r78 0.8848591377223083
    x177 d78 0.8848591377228048
    x177 r83 -0.2356747449739902
    x177 d83 -0.23567474497378507
    x177 r85 0.784227162442513
    x177 d85 0.7842271624424786
    x177 r87 -0.9160551046409657
    x177 d87 -0.916055104641701
    x177 r94 -0.05490300507025281
    x177 d94 -0.054903005070226385
    x177 r99 0.7514126782305999
    x177 d99 0.7514126782303407
    x178 OBJ -0.28887491329008363
    x178 r5 0.7416519538068251
    x178 d5 0.7416519538067078
    x178 r8 -0.6923111870494223
    x178 d8 -0.6923111870488936
    x178 r21 0.6745527730677878
    x178 d21 0.6745527730680804
    x178 r25 0.0315369250857378
    x178 d25 0.03153692508575086
    x178 r32 0.1291058724460532
    x178 d32 0.12910587244599536
    x178 r35 -0.8168087129791253
    x178 d35 -0.8168087129788041
    x178 r36 0.8000328307164308
    x178 d36 0.8000328307156771
    x178 r42 -0.7567697123994692
    x178 d42 -0.7567697123997454
    x178 r50 0.22776462831575262
    x178 d50 0.22776462831566405
    x178 r57 -0.9956687186725441
    x178 d57 -0.9956687186731931
    x178 r63 -0.10678870881790403
    x178 d63 -0.10678870881784579
    x178 r64 0.46647798024800924
    x178 d64 0.466477980247977
    x178 r65 0.9018954849876668
    x178 d65 0.9018954849870109
    x178 r66 0.07825063023638124
    x178 d66 0.07825063023636901
    x178 r67 0.3669051055481285
    x178 d67 0.366905105548036
    x178 r68 0.9079557582995741
    x178 d68 0.9079557583002726
    x178 r76 -0.2792114882323449
    x178 d76 -0.27921148823250946
    x178 r82 0.9691203228619443
    x178 d82 0.9691203228628626
    x178 r86 -0.029335788877977054
    x178 d86 -0.029335788877949364
    x178 r91 -0.746031804560255
    x178 d91 -0.746031804560465
    x179 OBJ -0.9420396985172692
    x179 r1 -0.930291228532037
    x179 d1 -0.9302912285313285
    x179 r2 -0.8832416398563689
    x179 d2 -0.8832416398558491
    x179 r5 0.5313547484568708
    x179 d5 0.5313547484565057
    x179 r6 -0.881233793973162
    x179 d6 -0.8812337939737256
    x179 r8 -0.7943941002372759
    x179 d8 -0.7943941002368321
    x179 r10 0.7353077960280421
    x179 d10 0.7353077960275036
    x179 r11 -0.9803892844073063
    x179 d11 -0.9803892844066788
    x179 r14 0.9457741020107577
    x179 d14 0.9457741020099871
    x179 r28 -0.2550578354441335
    x179 d28 -0.25505783544424293
    x179 r36 0.4019563290526931
    x179 d36 0.4019563290525517
    x179 r37 -0.0763809077044737
    x179 d37 -0.07638090770446468
    x179 r38 -0.2617934251337186
    x179 d38 -0.26179342513358145
    x179 r40 -0.9099161916532412
    x179 d40 -0.9099161916525669
    x179 r41 -0.31229454287997416
    x179 d41 -0.3122945428798383
    x179 r43 -0.9850179835093362
    x179 d43 -0.9850179835095941
    x179 r44 0.8734184251680626
    x179 d44 0.8734184251671927
    x179 r47 0.9379414004972833
    x179 d47 0.9379414004963611
    x179 r49 -0.3602309228895191
    x179 d49 -0.36023092288939584
    x179 r53 0.14989550484276526
    x179 d53 0.1498955048426382
    x179 r64 -0.8578026259794498
    x179 d64 -0.8578026259791842
    x179 r66 -0.6014219705833252
    x179 d66 -0.6014219705834299
    x179 r67 -0.3843285128746252
    x179 d67 -0.3843285128745592
    x179 r71 0.07180055734202817
    x179 d71 0.07180055734201565
    x179 r73 -0.1836700714004107
    x179 d73 -0.18367007140027522
    x179 r74 0.2993715704231916
    x179 d74 0.29937157042313856
    x179 r75 -0.20729923398972794
    x179 d75 -0.20729923398970762
    x179 r78 -0.5785301505349891
    x179 d78 -0.5785301505347062
    x179 r79 0.7137406740278451
    x179 d79 0.7137406740279497
    x179 r83 0.6752552675054251
    x179 d83 0.6752552675053651
    x179 r86 0.972415393157765
    x179 d86 0.9724153931578375
    x179 r87 -0.5679077945206057
    x179 d87 -0.5679077945210733
    x179 r98 -0.8390645306786935
    x179 d98 -0.8390645306780712
    x179 r99 0.42078961408525584
    x179 d99 0.4207896140848709
    x180 OBJ -0.944125849155871
    x180 r1 0.8401534417570218
    x180 d1 0.8401534417565002
    x180 r3 0.6557997549264027
    x180 d3 0.6557997549262765
    x180 r11 0.8097745640499239
    x180 d11 0.8097745640491317
    x180 r12 -0.3777256906726858
    x180 d12 -0.37772569067265954
    x180 r14 -0.9803177683109641
    x180 d14 -0.9803177683109199
    x180 r16 0.25407848489650053
    x180 d16 0.2540784848962925
    x180 r17 0.7569848063776985
    x180 d17 0.7569848063781841
    x180 r19 -0.7515569579297552
    x180 d19 -0.7515569579290727
    x180 r20 0.6876981539127507
    x180 d20 0.68769815391219
    x180 r22 -0.48802743657291203
    x180 d22 -0.4880274365730269
    x180 r24 0.6737518944681768
    x180 d24 0.6737518944679282
    x180 r26 0.8236314077697329
    x180 d26 0.8236314077693153
    x180 r27 0.6856655340836999
    x180 d27 0.6856655340839458
    x180 r30 0.2159410931214385
    x180 d30 0.21594109312149254
    x180 r32 0.4670227859326608
    x180 d32 0.4670227859324639
    x180 r33 0.787933633188566
    x180 d33 0.7879336331880944
    x180 r34 -0.24610734140918056
    x180 d34 -0.2461073414091251
    x180 r42 -0.6693486910758355
    x180 d42 -0.6693486910762527
    x180 r44 -0.6014794797355072
    x180 d44 -0.6014794797355297
    x180 r45 0.3543704516966868
    x180 d45 0.35437045169685566
    x180 r46 -0.3244310373910142
    x180 d46 -0.32443103739128515
    x180 r47 -0.7324572071575399
    x180 d47 -0.7324572071573443
    x180 r49 0.8150223297655368
    x180 d49 0.8150223297657635
    x180 r52 -0.11860103224138396
    x180 d52 -0.1186010322414349
    x180 r55 -0.37393289098858573
    x180 d55 -0.37393289098843513
    x180 r61 0.33636540966304507
    x180 d61 0.33636540966291495
    x180 r65 0.7102553756395564
    x180 d65 0.7102553756390348
    x180 r66 0.19734533567918233
    x180 d66 0.19734533567908186
    x180 r73 0.6413228336314156
    x180 d73 0.6413228336318576
    x180 r77 0.8693324910907059
    x180 d77 0.8693324910911919
    x180 r80 0.4966060707953308
    x180 d80 0.49660607079553437
    x180 r82 0.7491217561541246
    x180 d82 0.7491217561538918
    x180 r83 0.20899037469475545
    x180 d83 0.2089903746949427
    x180 r93 0.5761224191262087
    x180 d93 0.5761224191262736
    x180 r95 -0.8517537773503185
    x180 d95 -0.8517537773497604
    x181 OBJ -0.4411629219019404
    x181 r1 0.49457360897737335
    x181 d1 0.4945736089778412
    x181 r2 0.10184591497182693
    x181 d2 0.1018459149717479
    x181 r11 0.3184951195367225
    x181 d11 0.31849511953681997
    x181 r15 -0.5743799441977118
    x181 d15 -0.5743799441976627
    x181 r18 0.5423795713304824
    x181 d18 0.5423795713307
    x181 r21 -0.5334455358945747
    x181 d21 -0.533445535894722
    x181 r23 -0.2709430385289122
    x181 d23 -0.2709430385287295
    x181 r24 0.6037182888389594
    x181 d24 0.6037182888390102
    x181 r37 -0.20752930121744506
    x181 d37 -0.20752930121734572
    x181 r45 0.4085643789626179
    x181 d45 0.40856437896239656
    x181 r46 0.691299685044912
    x181 d46 0.6912996850455022
    x181 r51 -0.6431116045317056
    x181 d51 -0.6431116045316897
    x181 r54 -0.3553906364849395
    x181 d54 -0.35539063648529184
    x181 r56 0.36588150186935087
    x181 d56 0.36588150186911633
    x181 r60 0.4981701238119125
    x181 d60 0.4981701238122305
    x181 r62 -0.3587520025207882
    x181 d62 -0.35875200252079864
    x181 r63 0.44597702994957644
    x181 d63 0.44597702994975685
    x181 r66 0.4280608138219306
    x181 d66 0.42806081382202793
    x181 r73 -0.47641439432309896
    x181 d73 -0.47641439432305865
    x181 r75 0.6860701091668255
    x181 d75 0.6860701091671986
    x181 r76 0.5475155493479178
    x181 d76 0.5475155493482211
    x181 r80 0.9013820984487562
    x181 d80 0.901382098448647
    x181 r81 0.8162712453633449
    x181 d81 0.8162712453633513
    x181 r88 -0.19514101591039323
    x181 d88 -0.19514101591054683
    x181 r91 -0.5832741239985337
    x181 d91 -0.5832741239990119
    x181 r92 0.4305610816240806
    x181 d92 0.4305610816241936
    x181 r93 0.5744506150965933
    x181 d93 0.5744506150970758
    x181 r95 -0.09310713165845708
    x181 d95 -0.09310713165838477
    x182 OBJ -0.4816512734644869
    x182 r6 -0.3788944164337156
    x182 d6 -0.3788944164338714
    x182 r7 -0.8673494436768459
    x182 d7 -0.8673494436769994
    x182 r12 -0.6853080978688546
    x182 d12 -0.6853080978691507
    x182 r14 0.0149272480991689
    x182 d14 0.014927248099165541
    x182 r17 0.8401508629738721
    x182 d17 0.8401508629733963
    x182 r18 -0.05635498795713523
    x182 d18 -0.05635498795710572
    x182 r19 -0.3878004918127329
    x182 d19 -0.3878004918131067
    x182 r25 0.9215187237383538
    x182 d25 0.9215187237385457
    x182 r26 -0.24456169221961765
    x182 d26 -0.24456169221953808
    x182 r28 -0.08753810893403391
    x182 d28 -0.08753810893401917
    x182 r30 0.5512440975020751
    x182 d30 0.5512440975025
    x182 r35 -0.29047104901917464
    x182 d35 -0.2904710490189156
    x182 r37 0.4151929217400143
    x182 d37 0.4151929217402102
    x182 r41 0.7377468823170616
    x182 d41 0.737746882316552
    x182 r53 -0.38432139758439754
    x182 d53 -0.3843213975846488
    x182 r54 -0.0780422412395585
    x182 d54 -0.07804224123963217
    x182 r57 -0.19142673354903939
    x182 d57 -0.19142673354907322
    x182 r62 0.26773484781416945
    x182 d62 0.2677348478143523
    x182 r65 0.7645914868230754
    x182 d65 0.7645914868232067
    x182 r69 0.35063673283661645
    x182 d69 0.35063673283665625
    x182 r70 -0.947029461239058
    x182 d70 -0.9470294612393393
    x182 r75 0.7513431401904835
    x182 d75 0.7513431401900142
    x182 r78 0.7898630161750015
    x182 d78 0.7898630161749554
    x182 r79 -0.19068872391711356
    x182 d79 -0.19068872391704172
    x182 r81 -0.6448882019492688
    x182 d81 -0.644888201948672
    x182 r82 0.04298239530435355
    x182 d82 0.04298239530437918
    x182 r83 0.7524106473897654
    x182 d83 0.7524106473890203
    x182 r87 -0.6468461787485877
    x182 d87 -0.6468461787487437
    x182 r88 -0.5438094187429452
    x182 d88 -0.5438094187426824
    x182 r90 0.010901240611439045
    x182 d90 0.010901240611437574
    x182 r92 0.9633239895101382
    x182 d92 0.9633239895092515
    x182 r94 -0.3246221104581055
    x182 d94 -0.32462211045802253
    x182 r96 0.566432097509554
    x182 d96 0.5664320975096182
    x182 r98 0.03785782230270107
    x182 d98 0.03785782230270175
    x182 r99 0.6395401821937674
    x182 d99 0.639540182193982
    x183 OBJ 0.38504388340024676
    x183 r2 -0.6009634655973601
    x183 d2 -0.6009634655968006
    x183 r3 0.6626559994392127
    x183 d3 0.6626559994392177
    x183 r4 0.9315369760264247
    x183 d4 0.9315369760258866
    x183 r6 0.41394563744132595
    x183 d6 0.41394563744166146
    x183 r12 0.542647590322604
    x183 d12 0.542647590322858
    x183 r14 0.6736719345637316
    x183 d14 0.67367193456351
    x183 r18 -0.4820277647356772
    x183 d18 -0.4820277647357116
    x183 r22 0.5301589490964345
    x183 d22 0.5301589490968333
    x183 r28 -0.05114980721395357
    x183 d28 -0.05114980721391797
    x183 r30 0.6004700090109596
    x183 d30 0.6004700090110896
    x183 r35 0.10523425239906326
    x183 d35 0.10523425239902626
    x183 r39 -0.2632610376895379
    x183 d39 -0.26326103768935494
    x183 r41 0.2656912405176952
    x183 d41 0.2656912405174435
    x183 r49 0.5912378102576243
    x183 d49 0.5912378102576941
    x183 r50 0.10474241358901226
    x183 d50 0.10474241358896695
    x183 r51 -0.7908558210166721
    x183 d51 -0.7908558210162631
    x183 r55 0.2981777875907454
    x183 d55 0.2981777875908716
    x183 r57 0.24938566881480928
    x183 d57 0.24938566881499932
    x183 r61 0.8706755150933849
    x183 d61 0.8706755150930031
    x183 r63 -0.2458186379761913
    x183 d63 -0.2458186379760683
    x183 r64 -0.914512122868087
    x183 d64 -0.9145121228689049
    x183 r67 0.3849046864665848
    x183 d67 0.3849046864664109
    x183 r68 -0.2517203484876962
    x183 d68 -0.25172034848776415
    x183 r69 -0.4316415477801834
    x183 d69 -0.43164154778058317
    x183 r71 0.09875637390922143
    x183 d71 0.09875637390915588
    x183 r74 -0.8114132270778411
    x183 d74 -0.8114132270779435
    x183 r77 -0.3415905894117981
    x183 d77 -0.3415905894120836
    x183 r80 -0.44070628679651613
    x183 d80 -0.44070628679682633
    x183 r85 0.8484973494145187
    x183 d85 0.8484973494146141
    x183 r86 0.52776745234505
    x183 d86 0.5277674523447834
    x183 r89 0.9147850441942091
    x183 d89 0.9147850441941181
    x183 r91 -0.26536033174818097
    x183 d91 -0.26536033174834345
    x183 r92 0.5988300105167657
    x183 d92 0.5988300105166064
    x183 r97 0.8234681389643264
    x183 d97 0.8234681389648721
    x183 r99 -0.48279426128832137
    x183 d99 -0.48279426128823316
    x184 OBJ 0.9130301526826756
    x184 r1 0.9153792106175782
    x184 d1 0.9153792106177304
    x184 r8 -0.20890348716825158
    x184 d8 -0.2089034871680749
    x184 r11 -0.712681211808452
    x184 d11 -0.7126812118084729
    x184 r16 -0.3995490605528311
    x184 d16 -0.399549060552587
    x184 r21 0.6398957443858015
    x184 d21 0.6398957443863893
    x184 r28 0.4533130681391184
    x184 d28 0.4533130681393584
    x184 r34 0.1983071417183433
    x184 d34 0.19830714171816488
    x184 r35 -0.33778012621135023
    x184 d35 -0.33778012621124737
    x184 r40 0.7558498431441063
    x184 d40 0.7558498431442292
    x184 r42 0.5630600978842091
    x184 d42 0.5630600978838669
    x184 r43 -0.6011905798108246
    x184 d43 -0.6011905798110945
    x184 r45 -0.03576127725621836
    x184 d45 -0.03576127725622977
    x184 r46 -0.11937567194101817
    x184 d46 -0.11937567194109434
    x184 r47 0.8144040403025141
    x184 d47 0.8144040403019127
    x184 r55 -0.015534407389751648
    x184 d55 -0.015534407389747387
    x184 r56 -0.7577847165528002
    x184 d56 -0.7577847165535173
    x184 r57 -0.4505291183150639
    x184 d57 -0.45052911831543635
    x184 r62 -0.46114116657771964
    x184 d62 -0.4611411665774456
    x184 r70 0.16756919355019573
    x184 d70 0.16756919355006616
    x184 r71 -0.016323165580522048
    x184 d71 -0.016323165580534274
    x184 r74 0.5704014733791145
    x184 d74 0.570401473378879
    x184 r75 -0.92338221645006
    x184 d75 -0.9233822164492
    x184 r76 -0.4641296431588364
    x184 d76 -0.4641296431590163
    x184 r80 0.9863564135623941
    x184 d80 0.9863564135622821
    x184 r82 0.19685613954551462
    x184 d82 0.19685613954564524
    x184 r86 -0.47857004789383284
    x184 d86 -0.4785700478935971
    x184 r89 0.9914681034159591
    x184 d89 0.9914681034167128
    x184 r96 0.5488755838271595
    x184 d96 0.5488755838269883
    x184 r97 -0.6343173407721587
    x184 d97 -0.6343173407727486
    x184 r98 0.22043437443172964
    x184 d98 0.2204343744317411
    x185 OBJ -0.1055446444665531
    x185 r0 0.44831154672365137
    x185 d0 0.4483115467233912
    x185 r3 -0.9770418821312568
    x185 d3 -0.9770418821308106
    x185 r4 -0.9227366605145682
    x185 d4 -0.9227366605145265
    x185 r6 -0.5165768264848021
    x185 d6 -0.5165768264852618
    x185 r9 0.2503112264025886
    x185 d9 0.2503112264028168
    x185 r10 -0.04424641168708576
    x185 d10 -0.04424641168704266
    x185 r11 0.9654031851476044
    x185 d11 0.9654031851466862
    x185 r13 0.7286817853839493
    x185 d13 0.7286817853840234
    x185 r17 0.1539386282642532
    x185 d17 0.15393862826438853
    x185 r20 0.9313846830000558
    x185 d20 0.931384683000453
    x185 r23 0.5479950169102912
    x185 d23 0.5479950169103623
    x185 r26 -0.8797499275350225
    x185 d26 -0.8797499275352856
    x185 r28 0.8715398867241493
    x185 d28 0.8715398867244993
    x185 r32 -0.780579591903727
    x185 d32 -0.7805795919036507
    x185 r34 -0.5317896535211979
    x185 d34 -0.5317896535208232
    x185 r36 -0.6814585983270112
    x185 d36 -0.6814585983269877
    x185 r44 0.5908286144808441
    x185 d44 0.5908286144805833
    x185 r49 -0.41793746490073036
    x185 d49 -0.4179374649007141
    x185 r50 -0.4234662874193931
    x185 d50 -0.4234662874195748
    x185 r53 -0.4301910771002446
    x185 d53 -0.43019107709988974
    x185 r57 0.004653286473508267
    x185 d57 0.004653286473507546
    x185 r62 0.056862229260288055
    x185 d62 0.05686222926033803
    x185 r70 -0.30688098414291054
    x185 d70 -0.30688098414315473
    x185 r71 -0.767574087929431
    x185 d71 -0.7675740879287043
    x185 r76 0.024355688094184202
    x185 d76 0.0243556880941935
    x185 r84 -0.893105926508001
    x185 d84 -0.8931059265087613
    x185 r85 -0.11033298117520385
    x185 d85 -0.11033298117527134
    x185 r91 -0.9420676086769249
    x185 d91 -0.9420676086764687
    x185 r92 -0.9126582764910047
    x185 d92 -0.9126582764913912
    x185 r94 -0.9330577826154791
    x185 d94 -0.9330577826158497
    x185 r99 -0.40127758674432257
    x185 d99 -0.40127758674428887
    x186 OBJ 0.8740424025524847
    x186 r1 0.43327149286236377
    x186 d1 0.4332714928627366
    x186 r4 -0.2959781578290943
    x186 d4 -0.29597815782896775
    x186 r10 -0.09206178830291512
    x186 d10 -0.09206178830286246
    x186 r15 0.9727784007704867
    x186 d15 0.9727784007711325
    x186 r19 0.1717836213682662
    x186 d19 0.1717836213681824
    x186 r21 0.002125955425364756
    x186 d21 0.002125955425366757
    x186 r22 0.673666571096242
    x186 d22 0.6736665710957099
    x186 r25 0.14079092715328034
    x186 d25 0.14079092715321181
    x186 r27 0.9370882275637533
    x186 d27 0.9370882275646228
    x186 r28 0.26253479014913483
    x186 d28 0.26253479014916825
    x186 r29 0.7782001824113007
    x186 d29 0.7782001824116184
    x186 r36 0.08280292120783694
    x186 d36 0.08280292120775605
    x186 r39 -0.6044779615552276
    x186 d39 -0.6044779615548931
    x186 r43 -0.7984121712721217
    x186 d43 -0.7984121712722185
    x186 r48 0.3048997074084854
    x186 d48 0.304899707408593
    x186 r49 0.6861491489839464
    x186 d49 0.6861491489839708
    x186 r50 0.412311282322557
    x186 d50 0.41231128232245495
    x186 r51 0.031486290849908505
    x186 d51 0.03148629084990161
    x186 r52 0.08051716009419851
    x186 d52 0.08051716009420375
    x186 r55 0.0026223259563304957
    x186 d55 0.0026223259563303816
    x186 r59 -0.6332011307495071
    x186 d59 -0.6332011307491044
    x186 r64 0.6527490840081622
    x186 d64 0.6527490840082022
    x186 r65 0.31367325594555573
    x186 d65 0.31367325594561535
    x186 r67 0.2646408382562233
    x186 d67 0.2646408382562158
    x186 r74 -0.8838975397186508
    x186 d74 -0.883897539719489
    x186 r78 -0.5195171554474203
    x186 d78 -0.519517155447483
    x186 r80 -0.5229624772701142
    x186 d80 -0.5229624772697835
    x186 r82 -0.7945696644622326
    x186 d82 -0.794569664462892
    x186 r88 -0.9906241607528603
    x186 d88 -0.9906241607536913
    x186 r91 -0.4531082353345084
    x186 d91 -0.4531082353341102
    x186 r99 -0.886273754027816
    x186 d99 -0.8862737540279333
    x187 OBJ 0.9760761164057203
    x187 r0 0.6705790864677874
    x187 d0 0.6705790864683849
    x187 r13 0.6989978072708409
    x187 d13 0.6989978072714309
    x187 r15 0.713162801003167
    x187 d15 0.7131628010029886
    x187 r16 0.2852276920241692
    x187 d16 0.28522769202417925
    x187 r17 0.5224847138425761
    x187 d17 0.5224847138429005
    x187 r19 0.564601938810469
    x187 d19 0.5646019388108617
    x187 r30 -0.7211853218054409
    x187 d30 -0.7211853218058326
    x187 r32 0.37457320918209747
    x187 d32 0.374573209182387
    x187 r37 0.47778610826762535
    x187 d37 0.4777861082679451
    x187 r43 -0.405253801263076
    x187 d43 -0.40525380126296046
    x187 r45 0.6654386065824036
    x187 d45 0.6654386065824188
    x187 r46 0.9688408464254443
    x187 d46 0.9688408464261917
    x187 r47 0.41198709110775433
    x187 d47 0.41198709110790754
    x187 r49 -0.6609710593785574
    x187 d49 -0.660971059378973
    x187 r50 -0.6444613852264442
    x187 d50 -0.6444613852268379
    x187 r53 -0.01757478013704339
    x187 d53 -0.017574780137040745
    x187 r61 0.7614710396589344
    x187 d61 0.7614710396583187
    x187 r62 0.6566782920781287
    x187 d62 0.65667829207876
    x187 r63 -0.7557062292292094
    x187 d63 -0.7557062292296388
    x187 r67 -0.6694287145446165
    x187 d67 -0.6694287145451051
    x187 r69 0.1469968135285631
    x187 d69 0.14699681352865993
    x187 r75 -0.09386494140270107
    x187 d75 -0.09386494140263596
    x187 r78 0.7689431846759598
    x187 d78 0.7689431846754421
    x187 r91 -0.13404218827999603
    x187 d91 -0.13404218828002532
    x187 r94 -0.8147958979472993
    x187 d94 -0.8147958979470475
    x187 r98 -0.5973408258062587
    x187 d98 -0.5973408258061397
    x187 r99 0.8601924071866045
    x187 d99 0.8601924071862517
    x188 OBJ 0.9100012626426663
    x188 r1 -0.9924567681316725
    x188 d1 -0.9924567681314188
    x188 r2 -0.3812350174223307
    x188 d2 -0.3812350174225958
    x188 r3 -0.7969761255608929
    x188 d3 -0.7969761255609031
    x188 r9 0.4348886157773839
    x188 d9 0.4348886157773898
    x188 r15 0.17448710263614897
    x188 d15 0.17448710263623046
    x188 r19 -0.4760006710708673
    x188 d19 -0.4760006710705029
    x188 r20 0.08583125446765627
    x188 d20 0.08583125446759307
    x188 r21 -0.3612894388405603
    x188 d21 -0.3612894388407482
    x188 r28 0.2543035077866662
    x188 d28 0.2543035077867912
    x188 r32 0.41028625216071823
    x188 d32 0.41028625216097203
    x188 r33 -0.9520279900672328
    x188 d33 -0.9520279900679764
    x188 r36 0.06089820209847385
    x188 d36 0.06089820209846649
    x188 r38 -0.5514080164199242
    x188 d38 -0.5514080164201086
    x188 r47 -0.4146678243504349
    x188 d47 -0.414667824350322
    x188 r55 -0.10111167353802597
    x188 d55 -0.10111167353800796
    x188 r57 -0.7257956327883377
    x188 d57 -0.7257956327881595
    x188 r58 -0.8509112993378325
    x188 d58 -0.8509112993371531
    x188 r59 -0.4898624645053338
    x188 d59 -0.4898624645055646
    x188 r63 -0.5856786049320799
    x188 d63 -0.5856786049315663
    x188 r66 0.7770583330951233
    x188 d66 0.7770583330953367
    x188 r68 -0.24805980617860168
    x188 d68 -0.24805980617879833
    x188 r69 -0.562883847928924
    x188 d69 -0.5628838479290529
    x188 r70 0.2758354669208525
    x188 d70 0.27583546692111666
    x188 r72 -0.6530196700201572
    x188 d72 -0.6530196700201577
    x188 r77 -0.027694955801542465
    x188 d77 -0.027694955801567778
    x188 r81 -0.37387270723413524
    x188 d81 -0.37387270723424326
    x188 r84 -0.5025728470169204
    x188 d84 -0.5025728470166588
    x188 r86 -0.5593763952666952
    x188 d86 -0.5593763952665542
    x188 r94 -0.5434904227171269
    x188 d94 -0.5434904227173846
    x188 r95 0.7598193144418441
    x188 d95 0.7598193144413671
    x189 OBJ -0.27072822927626783
    x189 r3 -0.5327171208610615
    x189 d3 -0.5327171208615675
    x189 r11 -0.8704018250720953
    x189 d11 -0.8704018250720436
    x189 r22 -0.8576048972220411
    x189 d22 -0.8576048972221714
    x189 r32 -0.8248582616725351
    x189 d32 -0.8248582616723454
    x189 r35 0.36944583551673404
    x189 d35 0.3694458355164412
    x189 r36 -0.3961085928270056
    x189 d36 -0.39610859282670136
    x189 r37 -0.2442321747709535
    x189 d37 -0.24423217477107248
    x189 r40 -0.668993481500572
    x189 d40 -0.6689934815001584
    x189 r41 0.6204290728844344
    x189 d41 0.6204290728849061
    x189 r43 0.3750787750101505
    x189 d43 0.3750787750101593
    x189 r47 -0.30232426214467223
    x189 d47 -0.30232426214463226
    x189 r50 0.3723505536396463
    x189 d50 0.37235055363995007
    x189 r54 0.4469437694086962
    x189 d54 0.44694376940848085
    x189 r58 0.5885492995807697
    x189 d58 0.5885492995807411
    x189 r61 -0.34854193825686175
    x189 d61 -0.348541938256535
    x189 r71 0.27997074446099934
    x189 d71 0.27997074446112413
    x189 r78 0.7930623034022837
    x189 d78 0.7930623034027583
    x189 r79 -0.5903704285518341
    x189 d79 -0.5903704285519974
    x189 r80 -0.3441241945776381
    x189 d80 -0.34412419457772125
    x189 r83 -0.22664867048601112
    x189 d83 -0.22664867048603468
    x189 r92 -0.7475244335952633
    x189 d92 -0.7475244335959228
    x189 r94 -0.2873623926755706
    x189 d94 -0.28736239267581054
    x189 r95 -0.13940759739073716
    x189 d95 -0.13940759739070818
    x190 OBJ -0.5590753540075251
    x190 r2 0.7787048477576086
    x190 d2 0.7787048477580945
    x190 r4 0.572746478219841
    x190 d4 0.5727464782195636
    x190 r6 0.7693706409292715
    x190 d6 0.7693706409292629
    x190 r9 0.931499414035079
    x190 d9 0.931499414035989
    x190 r11 0.7050990451981938
    x190 d11 0.7050990451985328
    x190 r14 -0.9015185240668102
    x190 d14 -0.9015185240672883
    x190 r15 0.5927991203982792
    x190 d15 0.5927991203977205
    x190 r16 -0.11675183891994889
    x190 d16 -0.11675183891986413
    x190 r18 0.07027489679663779
    x190 d18 0.07027489679668475
    x190 r23 -0.5802524259242143
    x190 d23 -0.5802524259236539
    x190 r37 0.4018701962885749
    x190 d37 0.401870196288433
    x190 r38 -0.6391641167296223
    x190 d38 -0.6391641167300995
    x190 r39 -0.11485748597235101
    x190 d39 -0.11485748597245925
    x190 r42 -0.38565289338506026
    x190 d42 -0.38565289338534164
    x190 r45 0.11222064046636504
    x190 d45 0.11222064046638021
    x190 r51 -0.9244953749339109
    x190 d51 -0.9244953749347607
    x190 r52 0.39347569691249196
    x190 d52 0.3934756969127585
    x190 r53 -0.6229450039299624
    x190 d53 -0.6229450039304278
    x190 r54 0.1082700507229668
    x190 d54 0.10827005072300078
    x190 r57 0.1852425575577099
    x190 d57 0.1852425575576349
    x190 r63 0.3714340774920095
    x190 d63 0.3714340774922929
    x190 r66 -0.3732143119300202
    x190 d66 -0.3732143119296936
    x190 r68 -0.8586379888202609
    x190 d68 -0.8586379888204757
    x190 r69 -0.940628682182959
    x190 d69 -0.9406286821822432
    x190 r70 0.9819054577379087
    x190 d70 0.9819054577373612
    x190 r72 -0.392962338137802
    x190 d72 -0.39296233813807147
    x190 r82 0.24617110803008724
    x190 d82 0.2461711080299635
    x190 r84 -0.6846632845279228
    x190 d84 -0.6846632845280821
    x191 OBJ -0.5463083465385441
    x191 r6 0.1265370434637516
    x191 d6 0.1265370434637515
    x191 r7 -0.6425131812060292
    x191 d7 -0.6425131812060998
    x191 r8 0.36035987929288216
    x191 d8 0.36035987929311103
    x191 r10 -0.1942452614669763
    x191 d10 -0.19424526146700946
    x191 r11 0.9261566900516982
    x191 d11 0.9261566900517669
    x191 r12 0.2184244739339023
    x191 d12 0.2184244739337405
    x191 r19 -0.6152675979722375
    x191 d19 -0.6152675979724259
    x191 r22 0.7125907969995353
    x191 d22 0.7125907969990817
    x191 r23 0.3740516585680542
    x191 d23 0.3740516585676965
    x191 r26 -0.741473049756668
    x191 d26 -0.7414730497561847
    x191 r28 -0.046383166367750084
    x191 d28 -0.04638316636779173
    x191 r29 -0.1995017234146117
    x191 d29 -0.19950172341447858
    x191 r34 0.7106227223725323
    x191 d34 0.7106227223729478
    x191 r35 0.6778933122359774
    x191 d35 0.6778933122361123
    x191 r36 0.04591023178828335
    x191 d36 0.045910231788262
    x191 r37 0.7408286394422612
    x191 d37 0.74082863944238
    x191 r41 -0.5488314777511747
    x191 d41 -0.5488314777516963
    x191 r49 0.912280947003417
    x191 d49 0.9122809470032439
    x191 r54 0.024530316301620392
    x191 d54 0.02453031630163277
    x191 r56 0.6584011060573274
    x191 d56 0.6584011060568165
    x191 r57 -0.7993471884341663
    x191 d57 -0.7993471884336735
    x191 r59 -0.18557931937425054
    x191 d59 -0.18557931937436611
    x191 r63 -0.9927474754083634
    x191 d63 -0.9927474754082027
    x191 r64 0.9315192516536426
    x191 d64 0.9315192516539951
    x191 r72 0.2057844632914747
    x191 d72 0.20578446329150307
    x191 r76 0.05097496845157412
    x191 d76 0.05097496845153713
    x191 r77 -0.16337760972898296
    x191 d77 -0.16337760972910195
    x191 r78 0.49774984642763775
    x191 d78 0.49774984642714054
    x191 r84 -0.30741086185395883
    x191 d84 -0.3074108618540221
    x191 r95 -0.20681283952336438
    x191 d95 -0.20681283952349425
    x191 r96 0.8991945118794156
    x191 d96 0.8991945118786048
    x191 r98 -0.40528741499501253
    x191 d98 -0.4052874149951225
    x191 r99 -0.7482739502118538
    x191 d99 -0.7482739502118528
    x192 OBJ -0.6065876731613655
    x192 r0 0.04751456905703466
    x192 d0 0.04751456905700717
    x192 r3 0.8081745416296171
    x192 d3 0.8081745416298669
    x192 r5 -0.2186310957950115
    x192 d5 -0.21863109579491966
    x192 r10 -0.6115841407112754
    x192 d10 -0.6115841407111273
    x192 r12 -0.9018491905178072
    x192 d12 -0.9018491905172547
    x192 r15 0.5523407565656262
    x192 d15 0.5523407565653166
    x192 r19 -0.5726058077041145
    x192 d19 -0.5726058077039501
    x192 r20 -0.2535187718915728
    x192 d20 -0.2535187718914488
    x192 r26 0.10891800032616161
    x192 d26 0.10891800032615837
    x192 r27 0.2469430440556002
    x192 d27 0.24694304405552342
    x192 r29 0.2159581574409375
    x192 d29 0.21595815744098124
    x192 r30 -0.6739574652944009
    x192 d30 -0.6739574652938826
    x192 r33 -0.11728906286225005
    x192 d33 -0.11728906286228846
    x192 r36 0.7640926097567431
    x192 d36 0.76409260975733
    x192 r37 0.6709193651641534
    x192 d37 0.6709193651639052
    x192 r45 -0.32259073321583775
    x192 d45 -0.32259073321578385
    x192 r46 -0.9216457971656347
    x192 d46 -0.9216457971652002
    x192 r50 -0.5671858341948408
    x192 d50 -0.5671858341944455
    x192 r52 -0.9126339478398262
    x192 d52 -0.9126339478395183
    x192 r53 0.11970222691541266
    x192 d53 0.11970222691533723
    x192 r61 0.48565164292550556
    x192 d61 0.48565164292518626
    x192 r67 0.09423717281550936
    x192 d67 0.09423717281553766
    x192 r68 0.052271635036675645
    x192 d68 0.05227163503671447
    x192 r70 0.917244565339856
    x192 d70 0.9172445653406089
    x192 r71 0.5045844497744423
    x192 d71 0.5045844497745239
    x192 r72 -0.7345545010634829
    x192 d72 -0.7345545010629771
    x192 r73 -0.01576699735968412
    x192 d73 -0.01576699735969133
    x192 r80 0.6697678132630589
    x192 d80 0.6697678132629046
    x192 r81 0.022222746349992217
    x192 d81 0.022222746349991867
    x192 r82 0.017453389939814157
    x192 d82 0.01745338993982375
    x192 r83 -0.27720654544676315
    x192 d83 -0.27720654544680084
    x192 r84 -0.6831016082723211
    x192 d84 -0.6831016082720135
    x192 r93 -0.5806679740016913
    x192 d93 -0.580667974002078
    x192 r97 0.9777451864641471
    x192 d97 0.9777451864635878
    x193 OBJ -0.591253273447554
    x193 r1 -0.5322674794903195
    x193 d1 -0.5322674794907093
    x193 r2 0.6888649528719106
    x193 d2 0.6888649528720956
    x193 r9 0.6568580522191265
    x193 d9 0.6568580522187186
    x193 r18 -0.3785200208699735
    x193 d18 -0.37852002086986036
    x193 r25 0.9925324193360545
    x193 d25 0.9925324193359288
    x193 r35 0.3103356711663343
    x193 d35 0.3103356711661605
    x193 r36 0.8628326356232605
    x193 d36 0.8628326356239774
    x193 r37 0.05792119360478565
    x193 d37 0.05792119360479132
    x193 r40 0.7719432690188273
    x193 d40 0.7719432690192208
    x193 r45 0.10508798355629456
    x193 d45 0.1050879835563085
    x193 r56 -0.5978869817303649
    x193 d56 -0.597886981730654
    x193 r59 0.5504811080721663
    x193 d59 0.5504811080720958
    x193 r60 0.855199709986374
    x193 d60 0.8551997099862048
    x193 r71 0.4321059865964372
    x193 d71 0.4321059865966258
    x193 r72 -0.2877265850540349
    x193 d72 -0.28772658505421495
    x193 r75 0.9567340425886657
    x193 d75 0.956734042588658
    x193 r76 0.14422237590828102
    x193 d76 0.14422237590839396
    x193 r77 -0.0979684360251536
    x193 d77 -0.09796843602522272
    x193 r80 -0.13432333656771345
    x193 d80 -0.13432333656784062
    x193 r81 0.5654477568691414
    x193 d81 0.5654477568688131
    x193 r85 -0.6077099316792283
    x193 d85 -0.6077099316791351
    x193 r89 0.8905846045508212
    x193 d89 0.8905846045517075
    x193 r92 0.9565868592114857
    x193 d92 0.9565868592118278
    x193 r93 -0.08434494611560694
    x193 d93 -0.0843449461156535
    x193 r97 0.3350126413440988
    x193 d97 0.33501264134411
    x193 r98 0.009644035081122437
    x193 d98 0.009644035081121381
    x194 OBJ 0.24813279487563644
    x194 r3 0.7822707099918436
    x194 d3 0.7822707099923004
    x194 r4 -0.7104048681604482
    x194 d4 -0.7104048681600243
    x194 r8 -0.2584524225684066
    x194 d8 -0.2584524225682007
    x194 r11 0.5759583374437613
    x194 d11 0.575958337443455
    x194 r12 0.8633316849088382
    x194 d12 0.8633316849096293
    x194 r13 0.10844034928673407
    x194 d13 0.10844034928664506
    x194 r16 0.34069787083556347
    x194 d16 0.34069787083578235
    x194 r21 -0.9677093595907473
    x194 d21 -0.9677093595901985
    x194 r24 -0.47786749161033737
    x194 d24 -0.47786749161080766
    x194 r26 0.05103865972569843
    x194 d26 0.05103865972567503
    x194 r28 -0.3317508341453843
    x194 d28 -0.3317508341452148
    x194 r40 0.7776447431632225
    x194 d40 0.7776447431633702
    x194 r45 0.9660217393392958
    x194 d45 0.9660217393394118
    x194 r51 -0.892569767872071
    x194 d51 -0.8925697678728225
    x194 r58 0.8300959277776703
    x194 d58 0.8300959277781393
    x194 r59 -0.15022638696428126
    x194 d59 -0.15022638696436688
    x194 r61 0.0858938328663057
    x194 d61 0.08589383286622895
    x194 r66 -0.00827281124193302
    x194 d66 -0.008272811241925936
    x194 r67 -0.7327296363773643
    x194 d67 -0.732729636377421
    x194 r74 -0.9341535170910424
    x194 d74 -0.9341535170907219
    x194 r78 0.7981357358352783
    x194 d78 0.7981357358347303
    x194 r79 -0.04711442640883812
    x194 d79 -0.04711442640883161
    x194 r81 0.6074526944655043
    x194 d81 0.6074526944651496
    x194 r84 -0.8312802372912291
    x194 d84 -0.8312802372908061
    x194 r85 0.8203374967494586
    x194 d85 0.8203374967488537
    x194 r86 -0.5688398703813233
    x194 d86 -0.5688398703815067
    x194 r95 0.1671896400137789
    x194 d95 0.16718964001392772
    x194 r96 0.9538338790953205
    x194 d96 0.9538338790954056
    x194 r99 -0.6568321657894542
    x194 d99 -0.6568321657892107
    x195 OBJ 0.8006166757682285
    x195 r11 -0.26753975203289815
    x195 d11 -0.2675397520328976
    x195 r14 -0.16851664558012414
    x195 d14 -0.16851664558003054
    x195 r15 -0.23936606255254866
    x195 d15 -0.23936606255276918
    x195 r16 0.5813258483306516
    x195 d16 0.5813258483305549
    x195 r18 -0.3030435902562847
    x195 d18 -0.3030435902562837
    x195 r26 -0.9276612030530902
    x195 d26 -0.9276612030532103
    x195 r30 0.7464845305029912
    x195 d30 0.746484530503548
    x195 r32 0.4119491744190058
    x195 d32 0.41194917441914264
    x195 r33 -0.5967516058096265
    x195 d33 -0.5967516058094465
    x195 r34 0.7890039940393345
    x195 d34 0.7890039940395904
    x195 r35 -0.6057334675232255
    x195 d35 -0.605733467523264
    x195 r40 0.4119842117155854
    x195 d40 0.4119842117153547
    x195 r42 0.7111673757387436
    x195 d42 0.7111673757387734
    x195 r52 -0.8722503038249951
    x195 d52 -0.8722503038246121
    x195 r53 0.05872223347878447
    x195 d53 0.05872223347878665
    x195 r57 0.46106201751894926
    x195 d57 0.46106201751924064
    x195 r60 0.49445711467650066
    x195 d60 0.4944571146761235
    x195 r63 -0.7228181409099892
    x195 d63 -0.7228181409105495
    x195 r66 -0.6966845904552446
    x195 d66 -0.6966845904557982
    x195 r71 -0.3194034204826737
    x195 d71 -0.31940342048235815
    x195 r74 -0.5662341273118703
    x195 d74 -0.5662341273115018
    x195 r78 0.257762789794471
    x195 d78 0.25776278979461287
    x195 r82 0.3809193012749026
    x195 d82 0.38091930127456997
    x195 r84 0.7075357517015743
    x195 d84 0.7075357517012851
    x195 r86 -0.7129277691222742
    x195 d86 -0.7129277691223529
    x195 r91 -0.08605678452946686
    x195 d91 -0.08605678452951088
    x195 r93 -0.8495658747040293
    x195 d93 -0.8495658747039411
    x195 r95 -0.27915577954048953
    x195 d95 -0.2791557795405454
    x195 r97 -0.08477454395475803
    x195 d97 -0.08477454395467551
    x196 OBJ 0.6808710545585797
    x196 r6 0.33306479684697243
    x196 d6 0.3330647968467443
    x196 r10 0.4074739775518488
    x196 d10 0.4074739775514487
    x196 r15 0.24987629317030002
    x196 d15 0.24987629317039112
    x196 r17 -0.08005143876737386
    x196 d17 -0.0800514387673305
    x196 r20 -0.9489041704679322
    x196 d20 -0.9489041704685158
    x196 r22 -0.27001312032937186
    x196 d22 -0.2700131203292811
    x196 r25 -0.8177736063993886
    x196 d25 -0.8177736063994322
    x196 r27 0.6888248803312595
    x196 d27 0.6888248803311675
    x196 r28 -0.043856136124391876
    x196 d28 -0.04385613612440851
    x196 r30 -0.5415807776741945
    x196 d30 -0.54158077767466
    x196 r33 0.49087799266962695
    x196 d33 0.4908779926692067
    x196 r36 0.3631756358330398
    x196 d36 0.36317563583275975
    x196 r39 -0.8376370749434745
    x196 d39 -0.837637074943626
    x196 r41 -0.48031352204584254
    x196 d41 -0.4803135220463018
    x196 r42 -0.5152720235561898
    x196 d42 -0.5152720235563297
    x196 r44 0.40290560157478605
    x196 d44 0.40290560157498057
    x196 r46 -0.6126528059972718
    x196 d46 -0.6126528059975339
    x196 r53 -0.7241492283306445
    x196 d53 -0.7241492283302223
    x196 r54 0.008792600516286608
    x196 d54 0.008792600516286128
    x196 r60 0.23978611513622927
    x196 d60 0.23978611513599776
    x196 r64 0.3742807402358106
    x196 d64 0.3742807402354377
    x196 r67 -0.6270885466983567
    x196 d67 -0.6270885466978696
    x196 r71 0.47905586422997115
    x196 d71 0.4790558642296
    x196 r75 -0.9652349254678922
    x196 d75 -0.9652349254678291
    x196 r76 0.7395547864385625
    x196 d76 0.7395547864388409
    x196 r80 0.04721297720530493
    x196 d80 0.04721297720527262
    x196 r86 0.7314294810263691
    x196 d86 0.7314294810266051
    x196 r87 -0.07334269885148359
    x196 d87 -0.07334269885142168
    x196 r90 -0.7890132552491713
    x196 d90 -0.7890132552493477
    x196 r92 -0.734734617008844
    x196 d92 -0.7347346170095493
    x196 r96 -0.7482780099947282
    x196 d96 -0.7482780099940132
    x196 r97 0.8911523237160655
    x196 d97 0.8911523237156304
    x197 OBJ -0.04105314747692357
    x197 r8 -0.5982942879079596
    x197 d8 -0.5982942879074669
    x197 r10 -0.4687859833065642
    x197 d10 -0.4687859833068739
    x197 r11 -0.5034155263120055
    x197 d11 -0.5034155263121111
    x197 r12 -0.7608302267638711
    x197 d12 -0.760830226763273
    x197 r29 -0.9738598846626987
    x197 d29 -0.9738598846627462
    x197 r30 0.11920326154386318
    x197 d30 0.11920326154388497
    x197 r33 0.7773359882936681
    x197 d33 0.7773359882938999
    x197 r35 0.013591274830836442
    x197 d35 0.013591274830842145
    x197 r36 0.9441017603760362
    x197 d36 0.9441017603762021
    x197 r37 0.4312885560692665
    x197 d37 0.4312885560692932
    x197 r38 -0.17579693597368684
    x197 d38 -0.17579693597375093
    x197 r39 0.744417469806772
    x197 d39 0.7444174698060548
    x197 r40 -0.34318220008824274
    x197 d40 -0.3431822000884327
    x197 r45 0.5014345913292146
    x197 d45 0.5014345913290333
    x197 r50 0.4216950319049573
    x197 d50 0.4216950319051038
    x197 r51 -0.44911893978741735
    x197 d51 -0.44911893978751855
    x197 r53 0.11855191259362496
    x197 d53 0.11855191259353319
    x197 r55 -0.5354458163659588
    x197 d55 -0.5354458163662562
    x197 r56 -0.9281824485677936
    x197 d56 -0.9281824485673974
    x197 r60 0.3500949034258509
    x197 d60 0.3500949034258004
    x197 r65 0.6718404408212504
    x197 d65 0.6718404408215776
    x197 r69 0.5230233522208352
    x197 d69 0.5230233522207486
    x197 r73 0.9247161788024139
    x197 d73 0.9247161788023911
    x197 r87 0.22938029329233744
    x197 d87 0.2293802932925352
    x197 r89 -0.3929660360484617
    x197 d89 -0.3929660360480899
    x197 r98 0.8977262406545423
    x197 d98 0.8977262406544684
    x198 OBJ 0.30595608568201804
    x198 r1 -0.14012383200525869
    x198 d1 -0.14012383200524442
    x198 r2 -0.7894366195585321
    x198 d2 -0.7894366195590453
    x198 r4 0.1829306698036215
    x198 d4 0.18293066980357184
    x198 r7 -0.03096837819729359
    x198 d7 -0.03096837819730333
    x198 r13 -0.26830356303078373
    x198 d13 -0.2683035630310118
    x198 r18 0.4633114380450114
    x198 d18 0.46331143804516456
    x198 r20 0.12128601433115382
    x198 d20 0.12128601433124153
    x198 r21 0.5387019085216582
    x198 d21 0.538701908521732
    x198 r23 -0.7407693387277314
    x198 d23 -0.7407693387272338
    x198 r26 0.3115456484840402
    x198 d26 0.3115456484841574
    x198 r27 -0.9253422201494605
    x198 d27 -0.9253422201492792
    x198 r31 -0.1681579809261078
    x198 d31 -0.1681579809261353
    x198 r39 -0.42911069184989814
    x198 d39 -0.4291106918496299
    x198 r40 0.06610200238029607
    x198 d40 0.0661020023803579
    x198 r46 -0.3161467736276633
    x198 d46 -0.31614677362741384
    x198 r49 -0.5462017480431443
    x198 d49 -0.5462017480434342
    x198 r51 0.6893124168190401
    x198 d51 0.6893124168193251
    x198 r52 0.08522288876211959
    x198 d52 0.08522288876216821
    x198 r56 -0.7790527204660909
    x198 d56 -0.7790527204654761
    x198 r57 -0.23393668698559011
    x198 d57 -0.23393668698550651
    x198 r58 0.8693676212537134
    x198 d58 0.8693676212541631
    x198 r63 0.4036920272522633
    x198 d63 0.4036920272522769
    x198 r66 0.6744838578557033
    x198 d66 0.6744838578550694
    x198 r72 0.7218955337943371
    x198 d72 0.7218955337941687
    x198 r73 -0.2022945285668749
    x198 d73 -0.20229452856678148
    x198 r75 -0.8931175302818941
    x198 d75 -0.8931175302827159
    x198 r76 0.5792794870086273
    x198 d76 0.5792794870091813
    x198 r79 0.14167994079257706
    x198 d79 0.14167994079269877
    x198 r81 0.8913265817100673
    x198 d81 0.8913265817094419
    x198 r82 -0.5705329699550974
    x198 d82 -0.5705329699551955
    x198 r87 -0.40280511530869
    x198 d87 -0.40280511530871765
    x198 r93 0.6070842866138577
    x198 d93 0.6070842866140803
    x198 r99 0.8334196543638162
    x198 d99 0.8334196543632597
    x199 OBJ 0.5992874896993203
    x199 r2 -0.9223648738374335
    x199 d2 -0.9223648738376762
    x199 r8 -0.6431410863021045
    x199 d8 -0.6431410863024304
    x199 r11 -0.23845414918281138
    x199 d11 -0.23845414918288343
    x199 r14 -0.5945417137715363
    x199 d14 -0.5945417137717384
    x199 r16 0.4622662461160083
    x199 d16 0.4622662461157789
    x199 r18 0.5024388371251336
    x199 d18 0.5024388371248244
    x199 r21 -0.30749024277793424
    x199 d21 -0.30749024277789705
    x199 r27 -0.46441089634586774
    x199 d27 -0.46441089634559846
    x199 r28 -0.787260865874396
    x199 d28 -0.787260865874879
    x199 r30 0.8497430043775305
    x199 d30 0.8497430043780873
    x199 r32 -0.39455627873199806
    x199 d32 -0.3945562787316253
    x199 r33 -0.1692254628079135
    x199 d33 -0.16922546280776443
    x199 r35 -0.144454118577386
    x199 d35 -0.14445411857724566
    x199 r36 -0.723185890925027
    x199 d36 -0.7231858909250074
    x199 r37 -0.07593426844475726
    x199 d37 -0.0759342684447045
    x199 r40 0.08762999876975464
    x199 d40 0.08762999876975114
    x199 r41 0.1384380879395597
    x199 d41 0.1384380879395265
    x199 r42 -0.1430896885440096
    x199 d42 -0.14308968854411278
    x199 r43 -0.2827991453726082
    x199 d43 -0.2827991453727029
    x199 r46 -0.3473661699586581
    x199 d46 -0.34736616995862907
    x199 r49 -0.09797050847475886
    x199 d49 -0.09797050847477626
    x199 r61 0.7034345489860121
    x199 d61 0.7034345489853452
    x199 r65 -0.04478597960824682
    x199 d65 -0.04478597960820879
    x199 r66 -0.8987852725955205
    x199 d66 -0.8987852725954135
    x199 r67 -0.8495463940003762
    x199 d67 -0.8495463939996166
    x199 r73 -0.9717693706066755
    x199 d73 -0.9717693706064984
    x199 r75 0.22300423111043077
    x199 d75 0.22300423111022522
    x199 r81 -0.7549895342403541
    x199 d81 -0.7549895342410724
    x199 r82 0.3306777973025832
    x199 d82 0.3306777973028561
    x199 r89 -0.3904742162764685
    x199 d89 -0.39047421627670276
    x199 r91 0.5626743804016168
    x199 d91 0.5626743804021433
    x199 r94 0.8043116232650924
    x199 d94 0.8043116232657054
RHS
    RHS r0 3.773304541197115
    RHS d0 3.7733045412008885
    RHS r1 4.712397679583448
    RHS d1 4.712397679588161
    RHS r2 2.34206422839385
    RHS d2 2.3420642283961923
    RHS r3 4.355212071449868
    RHS d3 4.355212071454224
    RHS r4 1.4216797492124251
    RHS d4 1.4216797492138469
    RHS r5 1.7368463437817772
    RHS d5 1.7368463437835142
    RHS r6 4.324683851192158
    RHS d6 4.324683851196483
    RHS r7 2.103488114408597
    RHS d7 2.1034881144107005
    RHS r8 3.872722105522756
    RHS d8 3.8727221055266288
    RHS r9 2.7412836368627764
    RHS d9 2.741283636865518
    RHS r10 4.8920575766632055
    RHS d10 4.892057576668098
    RHS r11 4.0591518291857795
    RHS d11 4.059151829189839
    RHS r12 2.4513547326853864
    RHS d12 2.4513547326878378
    RHS r13 4.164065966803437
    RHS d13 4.164065966807602
    RHS r14 1.716959831302181
    RHS d14 1.716959831303898
    RHS r15 2.548945193284869
    RHS d15 2.548945193287418
    RHS r16 1.2725491522420271
    RHS d16 1.2725491522433
    RHS r17 3.4931895057460305
    RHS d17 3.493189505749524
    RHS r18 1.5908778596949325
    RHS d18 1.5908778596965234
    RHS r19 4.612733693373803
    RHS d19 4.612733693378416
    RHS r20 3.3102313743764875
    RHS d20 3.310231374379798
    RHS r21 1.8012231458299786
    RHS d21 1.80122314583178
    RHS r22 1.4129409526897998
    RHS d22 1.412940952691213
    RHS r23 4.495122828682254
    RHS d23 4.49512282868675
    RHS r24 3.2925701195208164
    RHS d24 3.2925701195241093
    RHS r25 2.019003299862185
    RHS d25 2.0190032998642042
    RHS r26 3.153671509951921
    RHS d26 3.1536715099550747
    RHS r27 3.1159291823371653
    RHS d27 3.1159291823402815
    RHS r28 4.368301802284565
    RHS d28 4.368301802288934
    RHS r29 2.765768834718037
    RHS d29 2.765768834720803
    RHS r30 3.809759513986328
    RHS d30 3.809759513990138
    RHS r31 2.7294683196197926
    RHS d31 2.7294683196225225
    RHS r32 2.0910442450940105
    RHS d32 2.0910442450961018
    RHS r33 1.5593423966573048
    RHS d33 1.5593423966588642
    RHS r34 4.826218046080323
    RHS d34 4.826218046085149
    RHS r35 1.808290908070512
    RHS d35 1.8082909080723206
    RHS r36 1.4222253749699871
    RHS d36 1.4222253749714096
    RHS r37 4.751165358614324
    RHS d37 4.751165358619076
    RHS r38 2.363266422378197
    RHS d38 2.3632664223805606
    RHS r39 3.788484159179289
    RHS d39 3.788484159183078
    RHS r40 2.127260933363355
    RHS d40 2.127260933365483
    RHS r41 2.753002271193499
    RHS d41 2.7530022711962525
    RHS r42 1.5595893476752107
    RHS d42 1.5595893476767704
    RHS r43 1.0433858102474365
    RHS d43 1.0433858102484799
    RHS r44 4.688946694006826
    RHS d44 4.688946694011515
    RHS r45 2.497987432616624
    RHS d45 2.497987432619122
    RHS r46 4.351120015955857
    RHS d46 4.351120015960208
    RHS r47 4.797561635023633
    RHS d47 4.797561635028431
    RHS r48 2.736195283325607
    RHS d48 2.7361952833283434
    RHS r49 4.723041149355744
    RHS d49 4.723041149360467
    RHS r50 2.2633586049726038
    RHS d50 2.2633586049748673
    RHS r51 2.0983016206832517
    RHS d51 2.09830162068535
    RHS r52 3.320948621645403
    RHS d52 3.3209486216487245
    RHS r53 3.719133430319546
    RHS d53 3.7191334303232653
    RHS r54 1.082597041878305
    RHS d54 1.0825970418793878
    RHS r55 4.176379981538014
    RHS d55 4.176379981542191
    RHS r56 4.154235040732755
    RHS d56 4.15423504073691
    RHS r57 1.0336142968389628
    RHS d57 1.0336142968399964
    RHS r58 3.441267549912013
    RHS d58 3.441267549915455
    RHS r59 4.781047826285915
    RHS d59 4.781047826290696
    RHS r60 3.1343898600081506
    RHS d60 3.1343898600112854
    RHS r61 2.955909767089642
    RHS d61 2.9559097670925985
    RHS r62 1.6256191273461686
    RHS d62 1.6256191273477945
    RHS r63 1.176250852688828
    RHS d63 1.1762508526900044
    RHS r64 1.3739112706830117
    RHS d64 1.3739112706843857
    RHS r65 1.677366562510619
    RHS d65 1.6773665625122967
    RHS r66 1.290355837397223
    RHS d66 1.2903558373985136
    RHS r67 2.1626827536083635
    RHS d67 2.162682753610526
    RHS r68 4.189652454577214
    RHS d68 4.189652454581404
    RHS r69 1.4249357809279277
    RHS d69 1.4249357809293528
    RHS r70 4.9200949682632125
    RHS d70 4.920094968268133
    RHS r71 1.0093328561186055
    RHS d71 1.0093328561196149
    RHS r72 2.569902189580709
    RHS d72 2.5699021895832788
    RHS r73 1.148675921855749
    RHS d73 1.1486759218568978
    RHS r74 3.3800307857842733
    RHS d74 3.3800307857876537
    RHS r75 3.777936904953837
    RHS d75 3.7779369049576155
    RHS r76 1.753834698128161
    RHS d76 1.7538346981299149
    RHS r77 3.834291221371429
    RHS d77 3.834291221375264
    RHS r78 3.083314945758935
    RHS d78 3.0833149457620186
    RHS r79 3.1722602816996086
    RHS d79 3.172260281702781
    RHS r80 4.461281557525509
    RHS d80 4.46128155752997
    RHS r81 1.4590935830331775
    RHS d81 1.4590935830346368
    RHS r82 2.6594809507556096
    RHS d82 2.6594809507582693
    RHS r83 4.932974318799478
    RHS d83 4.932974318804412
    RHS r84 1.6892369283032589
    RHS d84 1.6892369283049482
    RHS r85 4.234996884329937
    RHS d85 4.234996884334173
    RHS r86 2.3773016869341097
    RHS d86 2.3773016869364874
    RHS r87 1.5091877582812807
    RHS d87 1.50918775828279
    RHS r88 3.2822651439912387
    RHS d88 3.2822651439945214
    RHS r89 1.3510490995223945
    RHS d89 1.3510490995237456
    RHS r90 1.7197011976336025
    RHS d90 1.7197011976353225
    RHS r91 3.1802128643747904
    RHS d91 3.180212864377971
    RHS r92 2.3146516684077256
    RHS d92 2.3146516684100407
    RHS r93 3.083621662993625
    RHS d93 3.0836216629967086
    RHS r94 4.110636292393664
    RHS d94 4.110636292397776
    RHS r95 4.337446606012449
    RHS d95 4.337446606016787
    RHS r96 3.5722773547465545
    RHS d96 3.572277354750127
    RHS r97 3.206269640259624
    RHS d97 3.2062696402628306
    RHS r98 3.1844460402041563
    RHS d98 3.184446040207341
    RHS r99 4.50583169008865
    RHS d99 4.5058316900931565
BOUNDS
 UP BND x0 10.0
 UP BND x1 10.0
 UP BND x2 10.0
 UP BND x3 10.0
 UP BND x4 10.0
 UP BND x5 10.0
 UP BND x6 10.0
 UP BND x7 10.0
 UP BND x8 10.0
 UP BND x9 10.0
 UP BND x10 10.0
 UP BND x11 10.0
 UP BND x12 10.0
 UP BND x13 10.0
 UP BND x14 10.0
 UP BND x15 10.0
 UP BND x16 10.0
 UP BND x17 10.0
 UP BND x18 10.0
 UP BND x19 10.0
 UP BND x20 10.0
 UP BND x21 10.0
 UP BND x22 10.0
 UP BND x23 10.0
 UP BND x24 10.0
 UP BND x25 10.0
 UP BND x26 10.0
 UP BND x27 10.0
 UP BND x28 10.0
 UP BND x29 10.0
 UP BND x30 10.0
 UP BND x31 10.0
 UP BND x32 10.0
 UP BND x33 10.0
 UP BND x34 10.0
 UP BND x35 10.0
 UP BND x36 10.0
 UP BND x37 10.0
 UP BND x38 10.0
 UP BND x39 10.0
 UP BND x40 10.0
 UP BND x41 10.0
 UP BND x42 10.0
 UP BND x43 10.0
 UP BND x44 10.0
 UP BND x45 10.0
 UP BND x46 10.0
 UP BND x47 10.0
 UP BND x48 10.0
 UP BND x49 10.0
 UP BND x50 10.0
 UP BND x51 10.0
 UP BND x52 10.0
 UP BND x53 10.0
 UP BND x54 10.0
 UP BND x55 10.0
 UP BND x56 10.0
 UP BND x57 10.0
 UP BND x58 10.0
 UP BND x59 10.0
 UP BND x60 10.0
 UP BND x61 10.0
 UP BND x62 10.0
 UP BND x63 10.0
 UP BND x64 10.0
 UP BND x65 10.0
 UP BND x66 10.0
 UP BND x67 10.0
 UP BND x68 10.0
 UP BND x69 10.0
 UP BND x70 10.0
 UP BND x71 10.0
 UP BND x72 10.0
 UP BND x73 10.0
 UP BND x74 10.0
 UP BND x75 10.0
 UP BND x76 10.0
 UP BND x77 10.0
 UP BND x78 10.0
 UP BND x79 10.0
 UP BND x80 10.0
 UP BND x81 10.0
 UP BND x82 10.0
 UP BND x83 10.0
 UP BND x84 10.0
 UP BND x85 10.0
 UP BND x86 10.0
 UP BND x87 10.0
 UP BND x88 10.0
 UP BND x89 10.0
 UP BND x90 10.0
 UP BND x91 10.0
 UP BND x92 10.0
 UP BND x93 10.0
 UP BND x94 10.0
 UP BND x95 10.0
 UP BND x96 10.0
 UP BND x97 10.0
 UP BND x98 10.0
 UP BND x99 10.0
 UP BND x100 10.0
 UP BND x101 10.0
 UP BND x102 10.0
 UP BND x103 10.0
 UP BND x104 10.0
 UP BND x105 10.0
 UP BND x106 10.0
 UP BND x107 10.0
 UP BND x108 10.0
 UP BND x109 10.0
 UP BND x110 10.0
 UP BND x111 10.0
 UP BND x112 10.0
 UP BND x113 10.0
 UP BND x114 10.0
 UP BND x115 10.0
 UP BND x116 10.0
 UP BND x117 10.0
 UP BND x118 10.0
 UP BND x119 10.0
 UP BND x120 10.0
 UP BND x121 10.0
 UP BND x122 10.0
 UP BND x123 10.0
 UP BND x124 10.0
 UP BND x125 10.0
 UP BND x126 10.0
 UP BND x127 10.0
 UP BND x128 10.0
 UP BND x129 10.0
 UP BND x130 10.0
 UP BND x131 10.0
 UP BND x132 10.0
 UP BND x133 10.0
 UP BND x134 10.0
 UP BND x135 10.0
 UP BND x136 10.0
 UP BND x137 10.0
 UP BND x138 10.0
 UP BND x139 10.0
 UP BND x140 10.0
 UP BND x141 10.0
 UP BND x142 10.0
 UP BND x143 10.0
 UP BND x144 10.0
 UP BND x145 10.0
 UP BND x146 10.0
 UP BND x147 10.0
 UP BND x148 10.0
 UP BND x149 10.0
 UP BND x150 10.0
 UP BND x151 10.0
 UP BND x152 10.0
 UP BND x153 10.0
 UP BND x154 10.0
 UP BND x155 10.0
 UP BND x156 10.0
 UP BND x157 10.0
 UP BND x158 10.0
 UP BND x159 10.0
 UP BND x160 10.0
 UP BND x161 10.0
 UP BND x162 10.0
 UP BND x163 10.0
 UP BND x164 10.0
 UP BND x165 10.0
 UP BND x166 10.0
 UP BND x167 10.0
 UP BND x168 10.0
 UP BND x169 10.0
 UP BND x170 10.0
 UP BND x171 10.0
 UP BND x172 10.0
 UP BND x173 10.0
 UP BND x174 10.0
 UP BND x175 10.0
 UP BND x176 10.0
 UP BND x177 10.0
 UP BND x178 10.0
 UP BND x179 10.0
 UP BND x180 10.0
 UP BND x181 10.0
 UP BND x182 10.0
 UP BND x183 10.0
 UP BND x184 10.0
 UP BND x185 10.0
 UP BND x186 10.0
 UP BND x187 10.0
 UP BND x188 10.0
 UP BND x189 10.0
 UP BND x190 10.0
 UP BND x191 10.0
 UP BND x192 10.0
 UP BND x193 10.0
 UP BND x194 10.0
 UP BND x195 10.0
 UP BND x196 10.0
 UP BND x197 10.0
 UP BND x198 10.0
 UP BND x199 10.0
ENDATA
