NAME          SHARE1B
ROWS
 N  000000
 E  000002
 E  000003
 E  000004
 E  000005
 E  000006
 E  000007
 E  000008
 E  000009
 E  000010
 E  000011
 E  000012
 E  000013
 E  000014
 E  000015
 L  000016
 E  000017
 E  000018
 L  000019
 L  000020
 E  000021
 E  000022
 L  000023
 E  000024
 E  000025
 L  000026
 L  000027
 E  000028
 E  000029
 L  000030
 E  000031
 E  000032
 L  000033
 E  000034
 E  000035
 E  000036
 E  000037
 E  000038
 E  000039
 E  000040
 E  000041
 L  000042
 L  000043
 L  000044
 E  000045
 E  000046
 E  000047
 E  000048
 E  000049
 E  000050
 E  000051
 E  000052
 L  000053
 L  000054
 L  000055
 E  000056
 E  000057
 E  000058
 E  000059
 E  000060
 E  000061
 E  000062
 E  000063
 E  000064
 E  000065
 E  000066
 E  000067
 E  000068
 E  000069
 E  000070
 L  000071
 E  000072
 E  000073
 L  000074
 E  000075
 L  000076
 E  000077
 E  000078
 L  000079
 E  000080
 E  000081
 L  000082
 L  000083
 E  000084
 E  000085
 L  000086
 E  000087
 E  000088
 L  000089
 E  000090
 E  000091
 E  000092
 E  000093
 E  000094
 E  000095
 E  000096
 E  000097
 L  000098
 L  000099
 L  000100
 E  000101
 E  000102
 E  000103
 E  000104
 E  000105
 E  000106
 E  000107
 E  000108
 L  000109
 L  000110
 L  000111
 E  000112
 E  000113
 E  000114
 E  000115
 E  000116
 E  000117
 E  000118
COLUMNS
    CCC001  000014  -4.9680191942107e-07  000015  0.004182190041613742
    CCC001  000016  4.7799739204253813e-08  000017  0.02271876139925102
    CCC001  000018  -0.0001595065287482302  000020  -4.490608768787572e-09
    CCC002  000002  3.4608015736910197e-06  000014  2.1674100325229677e-08
    CCC002  000016  -2.210493318734559e-09  000017  -0.0009569791992038633
    CCC002  000018  2.335686779040341e-05  000019  -0.0002016037729849019
    CCC003  000005  8.449309973147884e-11  000014  9.430817443924525e-08
    CCC003  000016  -8.293498985524024e-09  000017  -0.0032816288441005095
    CCC003  000018  2.4882914967936733e-05  000019  -3.575437559736784e-05
    CCC004  000008  1038.6178106246628  000014  64.3011402115298
    CCC004  000016  -6.595050733338702  000017  -3177083.729050144
    CCC004  000018  13899.57149413767  000019  -402504.5965091395
    CCC005  000011  1.460464850353071e-08  000014  3.671645585994768e-06
    CCC005  000016  -3.6245189613763943e-07  000017  -0.2444585480252547
    CCC005  000018  0.0001400605489835421  000019  0.07522012576695875
    CCC005  000020  2.3705803085983435e-07
    CCC006  000014  0.2601308421084992  000016  -0.026580223330632393
    CCC006  000017  -22333.08942517089  000018  4.961544857739359
    CCC006  000019  5953.4623622327  000062  7974546.198280516
    CCC007  000021  -0.48461971651595703  000022  29869.431919359733
    CCC007  000023  2.1415504351480905e-05  000024  157023.37655035424
    CCC007  000025  -0.01736994749045897  000027  -3.718843840863503e-05
    CCC008  000002  3.1822599656856134e-05  000021  0.00021814348164814402
    CCC008  000023  -9.855719244069623e-09  000024  -59.160688128980965
    CCC008  000025  2.624327256757771e-05  000026  -5.18222779878502e-05
    CCC009  000005  0.04283328593186527  000021  52330.115446983815
    CCC009  000023  -2.01976536158167  000024  -12075623177.052866
    CCC009  000025  1541.3662231095439  000026  1249.100864286187
    CCC010  000008  1.832090103615998e-05  000021  0.0012415149183085496
    CCC010  000023  -5.619846666524591e-08  000024  -395.76999556713525
    CCC010  000025  2.995966188671004e-05  000026  -0.0001821041785585185
    CCC011  000011  0.0002916255008950815  000021  80.2485783486261
    CCC011  000023  -0.00352204015537763  000024  -30163418.483247276
    CCC011  000025  0.34173908003924675  000026  50.55818306132423
    CCC011  000027  0.05131720143293254
    CCC012  000021  391.01823453476106  000023  -0.01773349780043637
    CCC012  000024  -202786775.36916333  000025  0.8325768163017397
    CCC012  000026  273.52914635696385  000062  10951382.215711653
    CCC013  000000  -0.23542929369114735  000028  -0.1100789051053952
    CCC013  000029  1.6681619556554264e-07  000030  1.597777263551337e-05
    CCC013  000031  0.001283742186808555  000032  -434.40174852030077
    CCC014  000002  0.16608731578075714  000028  0.5058727159649604
    CCC014  000030  -7.511133574036982e-05  000031  -0.005246667200849309
    CCC014  000032  6700.497421745987  000033  -0.22855060851203374
    CCC015  000005  7.328370958496492e-05  000028  39.781023316326525
    CCC015  000030  -0.0051062036818189495  000031  -0.3171585228485702
    CCC015  000032  129009.03677288492  000033  10.509570509284387
    CCC016  000008  0.03407554308126667  000028  1.0259970332088097
    CCC016  000030  -0.00015290822164735514  000031  -0.011859596850138153
    CCC016  000032  2725.970221785796  000033  -0.19795901729811213
    CCC017  000011  1.2101173736829143e-07  000028  0.014795769294222714
    CCC017  000030  -2.1126783251224252e-06  000031  -0.00023779600497929066
    CCC017  000032  6.937210720945842  000033  0.02803107418327838
    CCC018  000028  12749.330128096999  000030  -1.8841584641503353
    CCC018  000031  -257.3940554147316  000032  2988854.039649268
    CCC018  000033  26523.255531643375  000062  803639153.9197167
    CCC019  000028  913.8329078047044  000030  -0.13581155293655878
    CCC019  000031  -11.069530198747705  000032  2320845.550183346
    CCC019  000033  -154.56377404016138  000113  0.20753499238234613
    CCC020  000000  -32.834757525238594  000034  -15.683484853596655
    CCC020  000035  248161.53681960725  000036  31676.27015004659
    CCC020  000037  -0.02029453449269039  000040  -4520460.648897075
    CCC020  000041  -0.026738999789211335  000042  -40.693813357905256
    CCC020  000043  476152.07605468587  000044  0.04689660981899249
    CCC021  000036  -543.0552683596432  000038  -2.177931871172203e-06
    CCC022  000036  -325309.2715588935  000114  -156113.57636041453
    CCC023  000000  0.018051883622815172  000039  -241015.52875785233
    CCC024  000000  0.011000994773513495  000034  0.011676917179558606
    CCC024  000036  19.296097884146125  000037  -0.00132835244617274
    CCC024  000041  0.00016716762732536282  000042  0.06059600818777262
    CCC024  000043  -709.0246088630487  000044  -3.8795787342920845e-05
    CCC024  000114  11.317849147281903
    CCC025  000000  22056.89599103486  000007  2992.146962428527
    CCC025  000034  442.4889614283823  000036  549971.9564962389
    CCC025  000037  -44.48534753357008  000041  0.35128820610891354
    CCC025  000042  769.2421335468854  000043  -19156893.282596458
    CCC025  000044  -1.4701403962355015  000114  329909.4758932292
    CCC026  000010  3.046619079522338  000034  0.5981664096635891
    CCC026  000036  811.051975142193  000037  -0.0329175966453787
    CCC026  000041  0.00015569809909672346  000042  0.24832921977782174
    CCC026  000043  -4721.701006888565  000044  -0.0016793263423536006
    CCC026  000114  445.9789597282175
    CCC027  000011  0.3674827011390403  000034  24097.46798121659
    CCC027  000036  -34035085.32900578  000037  -801.8301867525779
    CCC027  000041  3.763430942064781  000044  -80.06224835941346
    CCC027  000114  17966511.540477734
    CCC028  000012  106011.55144851952  000034  0.9807043344585922
    CCC028  000036  2288.2505194737637  000037  -0.059128802598970506
    CCC028  000041  0.0014678011662970594  000042  2.707481780194824
    CCC028  000043  -37634.684716954136  000044  -0.003127992463425135
    CCC028  000114  1023.6664723120913
    CCC029  000034  187.14770746552918  000036  422921.65783937415
    CCC029  000037  -7.478008669037223  000041  0.42867531195525627
    CCC029  000042  736.1554518505395  000043  -9693188.349486368
    CCC029  000044  -0.6217859173702115  000067  0.000498723229076838
    CCC029  000114  446505.52644940605
    CCC030  000000  -1047.0423474027334  000045  -15256.345312633144
    CCC030  000046  216299506.83906382  000047  12079869.005795784
    CCC030  000048  -1.5523351368600284  000051  -11.153253287133401
    CCC030  000052  -3871371.7974341055  000053  -0.024413463510520213
    CCC030  000054  4541.692176497467  000055  2.447525988577547
    CCC031  000000  4.8040922461932e-05  000045  0.0014814799837575203
    CCC031  000047  -1.446577066889454  000048  -5.289150269655268e-06
    CCC031  000052  2.953757310744321  000053  4.7413789847927776e-09
    CCC031  000054  -0.000882049522869359  000055  -2.6407669781551057e-07
    CCC031  000116  1.6847905506803553e-10
    CCC032  000003  0.05900360213796223  000045  0.00207792045629417
    CCC032  000047  4.565172835046618  000048  -6.3057676194698765e-06
    CCC032  000052  0.8210540514491642  000053  6.450739960589332e-09
    CCC032  000054  -0.0012186032451483454  000055  -3.7039337583873577e-07
    CCC032  000116  2.363083395126606e-10
    CCC033  000004  4.60017593764812e-05  000045  2.8638000473516336
    CCC033  000047  4552.999450268576  000048  -0.00814108436051094
    CCC033  000052  887.6160336401242  000053  8.038058592958883e-06
    CCC033  000054  -1.5857065559713124  000055  -0.0005104779463779126
    CCC033  000116  2.5052407632464757e-07
    CCC034  000006  0.2654845816280165  000045  0.0005401593135969164
    CCC034  000047  0.020285901314975947  000048  -1.31617804537362e-06
    CCC034  000052  0.16546071992524522  000053  1.6682382107064138e-09
    CCC034  000054  -0.00031517018431171116  000055  -9.628445162463533e-08
    CCC034  000116  7.087937925283897e-11
    CCC035  000009  0.9627814655827399  000045  228.46788644716946
    CCC035  000047  297447.06525783916  000048  -0.7973188797944184
    CCC035  000052  26916.88859178456  000053  0.000584957122540743
    CCC035  000054  -133.30560830539488  000055  -0.04072484655299433
    CCC035  000116  1.998627881683031e-05
    CCC036  000010  398388.2693962729  000045  2323550.798353194
    CCC036  000047  1716150488.4113498  000048  -5952.017436716634
    CCC036  000052  92653363.29572546  000053  1.1898193748084802
    CCC036  000054  -462057.2826522849  000055  -393.46859041284733
    CCC036  000116  0.20326328931000157
    CCC037  000069  -158187328.04549178  000070  51.15244658605916
    CCC037  000071  224580.39581250265  000072  61472.11165810875
    CCC037  000073  -96039289071.69301  000075  326437916823.59546
    CCC037  000076  -19.624918334416297
    CCC038  000056  7.908518660887104e-08  000069  4.119461571287753
    CCC038  000071  -0.0061993545307562825  000072  -0.0015947027315273185
    CCC038  000073  8567.861293285006  000074  -0.000168911203582725
    CCC038  000075  -18891.082706690988
    CCC039  000058  7.7452387372538185  000069  79586.6269582326
    CCC039  000071  -112.42511282338079  000072  -23.69932784194951
    CCC039  000073  54538202.798433766  000074  -2.0620228036260126
    CCC039  000075  -324676807.22457767
    CCC040  000059  1.5925118484086795e-09  000069  0.007594187132976295
    CCC040  000071  -9.595584932187031e-06  000072  -2.080487218032432e-06
    CCC040  000073  1.460787841011751  000074  3.558295129920538e-08
    CCC041  000061  0.0028734317635541844  000069  182.97886474073832
    CCC041  000071  -0.2753638635858269  000072  -0.0800966207010383
    CCC041  000073  73693.91071077912  000074  -0.0051684825575125555
    CCC041  000075  -123264.8121199493
    CCC042  000062  1474354.752198233  000069  42408.4830955966
    CCC042  000071  -62.61613113121849  000072  -25.2568197089135
    CCC042  000073  1529536.5564734417  000074  4.344606305712101
    CCC043  000077  -52856571.791379265  000078  296.36102111632596
    CCC043  000079  511219.39512590016  000080  3423749.5060253986
    CCC043  000081  -0.08672812914254727  000083  -132346570.37384115
    CCC044  000056  0.2980208371704083  000077  626338336.8628497
    CCC044  000079  -6152210.54570162  000080  -35745067.697689146
    CCC044  000081  3.520665025222062  000082  -27895576707.978626
    CCC045  000058  2477.594444055074  000077  1027194205.0852321
    CCC045  000079  -9489852.333320767  000080  -40546795.448422655
    CCC045  000081  1.9023789175341999  000082  -26334710948.578144
    CCC046  000061  0.00544383428204656  000077  13986.916718591776
    CCC046  000079  -137.649984254669  000080  -911.3148332687119
    CCC046  000081  1.522426742663151e-05  000082  -395094.7197344759
    CCC047  000062  14462.830529800163  000077  16784.990282140716
    CCC047  000079  -163.60603911526417  000080  -1516.703113150317
    CCC047  000081  1.6361079574919072e-06  000082  2239568.194762166
    CCC048  000000  -0.0001398089942484984  000084  -0.0007143645795975101
    CCC048  000085  9.759307091333248e-11  000086  1.175298546808119e-08
    CCC048  000087  8.237702369466515e-07  000088  -1.5646051361323814e-07
    CCC049  000056  1.567676934979378e-06  000084  0.4921739404482358
    CCC049  000086  -8.267733506719626e-06  000087  -0.0005201586447719814
    CCC049  000088  0.0003692820336702989  000089  -1.4432594706084405e-05
    CCC050  000058  6.642814835528259e-07  000084  4.114093627593558e-05
    CCC050  000086  -6.496874621970954e-10  000087  -3.5106222911404025e-08
    CCC050  000088  1.0170504292029621e-08  000089  -4.598361122139401e-10
    CCC051  000061  6.95884560324068e-06  000084  0.002670877537225416
    CCC051  000086  -4.4866462630574486e-08  000087  -3.167743770600795e-06
    CCC051  000088  3.880540704851707e-07  000089  -3.488022872186075e-08
    CCC052  000062  3.8911657064309497  000084  0.0006746013477373705
    CCC052  000086  -1.1056343560859359e-08  000087  -1.0826410815862752e-06
    CCC052  000088  8.777319756287676e-09  000089  9.327959881627756e-08
    CCC053  000000  -0.096954585680269  000090  -4.6701378977424296e-08
    CCC053  000091  716.6508047673061  000092  5.936624814234689
    CCC053  000093  -2.7986905672786545e-06  000096  -2.4570395267805435e-05
    CCC053  000097  -0.044592817453596494  000098  -0.02705517473096759
    CCC053  000099  3.4387122669047745e-05  000100  31974.568450435465
    CCC054  000000  1983.5534246301243  000095  -322928.34762858367
    CCC055  000092  -29.913947431293437  000094  -6.864862068875843e-06
    CCC056  000092  -0.0021649204554923386  000115  -2.1771154504567993e-07
    CCC057  000000  0.0028414793536206038  000090  3.0415386571371064e-09
    CCC057  000092  0.20562050439226054  000093  -7.491354382994989e-06
    CCC057  000097  0.024386526079722862  000098  0.00352406552532918
    CCC057  000099  -4.479086707747269e-06  000100  -2313.80000897209
    CCC057  000115  2.5272960106437825e-05
    CCC058  000000  883617.9659120466  000061  941.0713478682009
    CCC058  000090  0.017876198869055913  000092  991593.4019058641
    CCC058  000093  -38.190899848779345  000097  8729.992946330543
    CCC058  000098  7663.50660179875  000099  -16.11100857309451
    CCC058  000100  -13599021339.594278  000115  114.2600990942191
    CCC059  000063  1.63836996909086e-10  000090  3.829651832990533e-12
    CCC059  000092  0.0009780673910535984  000093  -7.825982117040714e-09
    CCC059  000097  8.932503262735374e-07  000098  1.0338697962322216e-06
    CCC059  000099  -3.947784719466821e-09  000100  -2.913344015779852
    CCC059  000115  2.4478156745688833e-08
    CCC060  000064  563528.1496176214  000090  4.4167150438879565e-06
    CCC060  000092  -895.7642273755805  000093  -0.0038114221385697773
    CCC060  000100  -3359942.601483907  000115  0.07622239023865755
    CCC061  000066  0.00021277044794651382  000090  6.669292278474445e-06
    CCC061  000092  1095.9646855832814  000093  -0.010431468178262522
    CCC061  000097  1.2153004869058275  000098  0.7186432214445623
    CCC061  000099  -0.0017678620978266802  000100  -4160313.7175324606
    CCC061  000115  0.07673114424244944
    CCC062  000067  1.1286077501187279e-11  000090  4.2709111538784e-12
    CCC062  000092  0.000394845995256377  000093  -3.596019523530779e-09
    CCC062  000097  5.478947229230096e-06  000098  3.7509422438696263e-06
    CCC062  000099  -5.364950229469562e-09  000100  -3.249024714176887
    CCC062  000115  8.735543572578728e-08
    CCC063  000000  -8.697076348128538  000068  -120040.61282268194
    CCC063  000101  -49798.201106581306  000102  491.67114592442675
    CCC063  000103  0.02438650744584812  000104  -0.032252456936534675
    CCC063  000107  -0.00021969375186448956  000108  -558079.7029608096
    CCC063  000109  -267.54205927092335  000110  242628.59964722
    CCC063  000111  1.7682177313278253
    CCC064  000000  0.0008973500294711336  000101  10.87427823047926
    CCC064  000103  -5.034739984920134e-06  000104  -0.000981226787439046
    CCC064  000108  957.5195794392899  000109  0.11684465407257043
    CCC064  000110  -105.9641047510345  000111  -0.0004290224491659938
    CCC064  000117  3.3773680515814073
    CCC065  000057  11237202109.623718  000101  390342598.09817445
    CCC065  000103  481.93812832047894  000104  -34365.08752658835
    CCC065  000108  8467784104.251232  000109  4194250.402452637
    CCC065  000110  -3803682697.5543523  000111  -15400.17037457348
    CCC065  000117  121233850.38033494
    CCC066  000060  31112745.559716664  000101  151319773.78723875
    CCC066  000103  26.946287639942742  000104  -9850.255927522718
    CCC066  000108  2362026860.909338  000109  1625938.4069236084
    CCC066  000110  -1474531368.486709  000111  -5970.012775237234
    CCC066  000117  54227744.385875724
    CCC067  000063  0.06542437323978235  000101  17313170.57995884
    CCC067  000103  11.921107395454799  000104  -1296.1585240707184
    CCC067  000108  44348723.47017974  000109  130221.60819384112
    CCC067  000110  -160272328.2338814  000111  -683.0558026576455
    CCC067  000117  4136292.150154968
    CCC068  000066  3.319422401501846e-08  000101  12.044096980762662
    CCC068  000103  5.276095026918031e-06  000104  -0.0006504837987308562
    CCC068  000108  18.31818252836603  000109  0.020059234176603408
    CCC068  000110  -34.97428466159283  000111  -0.0004457143938109264
    CCC068  000117  5.179422591655303
    CCC069  000000  4.884115725064791  000068  898834.2308233809
    CCC069  000101  37287.65351618105  000103  -0.015493341646474458
    CCC069  000104  -1.2279578132304325  000108  17908.979615443866
    CCC069  000109  9.215126404755644  000110  -36334.85128267452
    CCC069  000111  -1.2063087663204977  000117  12471.758361885353
    CCC070  000101  423.3025490619337  000103  0.0003065439277260549
    CCC070  000104  -0.031690741143774556  000108  8234.015774699974
    CCC070  000109  4.129953279592252  000110  -3906.242450341193
    CCC070  000111  -0.0167005379564171  000112  4.116350330152538e-08
    CCC070  000117  101.13127475635528
    CCC079  000085  -1.2084223930031562e-11
    CCC085  000002  0.0027685429595683594  000034  0.004522520189561361
    CCC085  000036  12.289692424801336  000037  -0.0005144766092189175
    CCC085  000041  1.995315176554593e-05  000042  0.0234690943013425
    CCC085  000043  -274.60827709666046  000044  -1.5025775110868853e-05
    CCC085  000114  4.3834515980464515
    CCC086  000000  0.1288523546349568  000008  0.00016007467506460693
    CCC086  000034  0.002584939630816502  000036  4.016044551698136
    CCC086  000037  -0.0002764161275842611  000041  2.28765543000401e-06
    CCC086  000042  0.004292558266883949  000043  -98.8835531647089
    CCC086  000044  -8.588291470200883e-06  000114  1.9272708545438737
    CCC087  000013  61439011.052468225  000045  17527790.367884424
    CCC087  000047  -1535947585.0025313  000048  -31210.461960927787
    CCC087  000052  190618372.4431107  000055  -2399.510656401327
    CCC087  000116  2.1466536724105247
    CCC088  000045  13.560583821280746  000047  27161.237632174114
    CCC088  000048  -0.04308821587980824  000052  1155.2143678453926
    CCC088  000053  2.6821048097454275e-05  000054  -7.0241668870722105
    CCC088  000055  -0.002417200525984548  000116  1.1862744186316387e-06
    CCC088  000118  40830.673957564235
    CCC089  000047  -6029092932.055625  000049  -207235557752.01587
    CCC090  000047  -952.9952876485071  000116  -1.2108313484344588e-07
    CCC091  000000  9.72681278102466e-07  000050  -2.331834893189018e-07
    CCC092  000057  151.21210811258948
    CCC093  000058  0.00018708248217465267
    CCC094  000059  0.04382845896189962
    CCC095  000063  5.5076125506663045
    CCC096  000056  1.5843060083448997  000090  0.024617104392360308
    CCC096  000092  2403869.5140709896  000093  -46.61752684693499
    CCC096  000097  62083.61238915313  000098  28522.500846398376
    CCC096  000099  -36.252093922368175  000100  -18727053240.060974
    CCC096  000115  204.55011998096472
    CCC097  000058  0.37431211112262924  000090  1.1473389970674822e-06
    CCC097  000092  271.8083721881746  000093  -0.002406495085596045
    CCC097  000097  0.9533678868818509  000098  1.3293593346063488
    CCC097  000099  -0.0016896154974016444  000100  -872819.0830254175
    CCC097  000115  0.0073334979354319485
    CCC098  000065  270060.7393429708  000090  0.007975089731145467
    CCC098  000092  -2115122.2875412093  000097  290.64944310989944
    CCC098  000100  -5642232842.513757  000115  137.6317909657522
    CCC099  000103  -2.1223424623288444e-08  000105  -0.0008797709953186756
    CCC100  000103  -618.117026701243  000117  -452335436.1616214
    CCC101  000000  5.371026436452901  000106  -2450869.160815914
    CCC104  000029  -3.0893039151459913e-06
    CCC105  000035  -4.404641505958712
    CCC106  000046  -2436556272.1477747
    CCC107  000091  -303.5253208460973
    CCC108  000102  -920967.4003192289
    CCC110  000021  3847005.8896216964  000023  -173.31107531984844
    CCC110  000024  -1329764059153.3477  000025  88738.53618770513
    CCC110  000026  -530170.6061874141  000113  388.1911199243669
    CCC111  000006  1611.1116213955559  000034  0.11282880451500756
    CCC111  000036  511.54100319014634  000037  -0.008760073745244418
    CCC111  000041  0.0002481635450711432  000042  0.5515523064661645
    CCC111  000043  -6611.201727133934  000044  -0.0003748662629707616
    CCC111  000114  126.18379781626625
    CCC112  000012  14217.228900369353  000045  3.821097054423128
    CCC112  000047  -3080.5277197236815  000048  -0.007230262353053257
    CCC112  000052  796.4751775132019  000053  7.728834885303169e-06
    CCC112  000054  -1.6607647187742551  000055  -0.0006790746517792994
    CCC112  000116  4.679752468710341e-07
    CCC113  000064  59345931652.02147  000069  1559272902.3140495
    CCC113  000071  -2235855.116887112  000072  -789345.2192022639
    CCC113  000074  142510.071688841  000076  1488.0411698766377
    CCC114  000064  128650317.42619939  000077  136382640.29900402
    CCC114  000079  -1292096.5332106673  000080  -10702097.943111122
    CCC114  000082  16333227811.224142  000083  3104417395.359077
    CCC115  000064  28.30549760898307  000084  0.004482483585563275
    CCC115  000086  -7.177332859947182e-08  000087  -6.070832467877518e-06
    CCC115  000089  5.625128040286996e-07
    CCC116  000060  0.1575445648552767  000090  6.76816671135869e-11
    CCC116  000092  0.014665252102334912  000093  -1.2025992396080356e-07
    CCC116  000097  9.619878160882321e-05  000098  7.841906898408542e-05
    CCC116  000099  -9.967062388481653e-08  000100  -51.48770396430442
    CCC116  000115  6.489059039822152e-07
    CCC117  000058  4.298937871112895e-05  000101  1.4917936976123463
    CCC117  000103  8.855044975117036e-07  000104  -0.00011463149217664778
    CCC117  000108  13.613448625252747  000109  0.016029396604603254
    CCC117  000110  -14.536742603997256  000111  -5.8855675037462754e-05
    CCC117  000117  0.3564046534738914
    CCC120  000075  -22438798383.201797
    CCC124  000000  47645.707953611025  000014  36.645188700179645
    CCC124  000016  -3.843135724697875  000017  -1874824.809323525
    CCC124  000018  128139.63202184293  000019  -365270.6342585835
    CCC125  000007  0.0007700700452015198  000014  4.3660115766603703e-07
    CCC125  000016  -4.4738019318319716e-08  000017  -0.02118973522313787
    CCC125  000018  8.466200373095643e-05  000019  -0.0024973096726082634
    CCC126  000000  496.909148678366  000014  63.696991475403465
    CCC126  000016  -6.496314585937927  000017  -3035629.0648283823
    CCC126  000018  74311.9759825539  000019  -569023.3008559584
    CCC126  000056  1.0782972166472446
    CCC127  000000  34819.50331047236  000014  4463.386539458781
    CCC127  000016  -433.7386617397736  000017  -234610060.82170257
    CCC127  000019  94628007.81600319  000020  288.17640461987025
    CCC127  000064  149795303025.9371
    CCC128  000014  0.5932157741948207  000016  -0.060500758312869184
    CCC128  000017  -31181.343500918523  000018  122.57442719877272
    CCC128  000019  -3532.212839447874  000113  0.06552056616183624
    CCC129  000000  0.16028399035617563  000021  0.13493528457345919
    CCC129  000023  -6.229913766573736e-06  000024  -44619.680350259725
    CCC129  000025  0.052673753500553575  000026  -0.03491074256476182
    CCC130  000007  52.042608115147054  000021  32.29653355695155
    CCC130  000023  -0.0014633259236544623  000024  -10126455.222795742
    CCC130  000025  0.6991362147188876  000026  -4.22830554087922
    CCC131  000000  2.238501936885044e-06  000021  0.00031408095842948834
    CCC131  000023  -1.4095571859324932e-08  000024  -93.0244442512418
    CCC131  000025  4.09056901485584e-05  000026  -7.247286296497481e-05
    CCC131  000056  4.8575688622810375e-09
    CCC132  000000  8.893373013633903e-08  000021  1.247816262191837e-05
    CCC132  000023  -5.401388382572967e-10  000024  -3.8590474515146123
    CCC132  000026  8.06348608903454e-06  000027  7.979510640051578e-09
    CCC132  000064  0.38259750393949815
    CCC133  000000  4473857.29286924  000028  1673461.4615729158
    CCC133  000030  -255.43996828269204  000031  -19873.663850051013
    CCC133  000032  71924108944.05118  000033  -868700.0505330845
    CCC134  000007  848.2708855371629  000028  233.8996783588643
    CCC134  000030  -0.03482649733783177  000031  -2.6110771402478363
    CCC134  000032  557475.1965031825  000033  -35.11571315708408
    CCC135  000000  0.125061552474517  000028  7.796616159548268
    CCC135  000030  -0.0011662868142674264  000031  -0.08598609682866581
    CCC135  000032  106925.02484371889  000033  -3.353675790865824
    CCC135  000056  0.0002713846672002844
    CCC136  000000  9586.253538218913  000028  597628.4298952207
    CCC136  000030  -85.25204685118518  000031  -8043.612417610733
    CCC136  000032  140103372.40896252  000033  1163143.7859836954
    CCC136  000064  41240558224.995636
    CCC137  000037  0.016033726238004083  000038  1.584699031381345e-06
    CCC137  000039  432241.3083743776  000040  92856.30779286803
    CCC138  000037  2885.6015255079137  000038  0.3142317319454048
    CCC138  000039  97238483456.53687  000040  16711418134.671045
    CCC139  000037  818.812086780342  000038  0.09473857842486587
    CCC139  000039  32006932359.397884  000040  4741996091.612242
    CCC140  000037  3.888850232846579e-05  000038  3.957197106799085e-09
    CCC140  000039  917.3204511510961  000040  197.06351176182025
    CCC141  000037  0.00012004135980836733  000038  1.342729615083533e-08
    CCC141  000039  3539.4907152158144  000040  608.2973245072858
    CCC142  000037  0.00037403565387874856  000038  4.464654352158513e-08
    CCC142  000039  12793.249279792164  000040  1895.3874555236137
    CCC143  000037  9.884128961655423e-05  000038  1.0373483916527863e-08
    CCC143  000039  2072.458003541411  000040  445.2161201075097
    CCC144  000037  1.398658569093877  000038  0.0001625640388643119
    CCC144  000039  36658024.659854636  000040  6300052.780602376
    CCC145  000037  0.00016628123280703152  000038  2.0589552303461912e-08
    CCC145  000039  5055.4354966886785  000040  748.9894719528344
    CCC146  000037  0.015218568942890025  000038  1.654996276561256e-06
    CCC146  000039  287186.2621121762  000040  61694.83441752481
    CCC147  000037  5.334666827246235e-06  000038  6.375981022690107e-10
    CCC147  000039  125.83665319320524  000040  21.62630322303605
    CCC148  000037  11869.375210033135  000038  1.5240997670676015
    CCC148  000039  324777329182.77155  000040  48117476812.07451
    CCC149  000037  0.002760731404825704  000038  3.1088270064411254e-07
    CCC149  000039  47361.0492683378  000040  10174.344938926833
    CCC150  000037  0.04937961571735637  000038  6.183588310743613e-06
    CCC150  000039  1058899.8302919625  000040  181982.65951618558
    CCC151  000037  1.569643885794985  000038  0.0002100674020777754
    CCC151  000039  39045078.001597025  000040  5784734.54441828
    CCC152  000035  2255335943.6622744  000091  -2205717165.445834
    CCC153  000003  184.64396188283726  000034  0.22381917688297506
    CCC153  000036  1972.592219479928  000037  -0.021642196699685035
    CCC153  000041  0.0006350166041222828  000042  1.1034094909731353
    CCC153  000043  -13182.632269123844  000044  -0.0007436244563608112
    CCC153  000114  216.93668296841267
    CCC154  000004  96.38978608934704  000034  206543.2744444288
    CCC154  000036  1353581687.7325625  000037  -18708.78667976068
    CCC154  000041  459.66185098731034  000042  819951.7718618744
    CCC154  000043  -10998760878.66797  000044  -684.1677304678129
    CCC154  000114  153993860.55026275
    CCC155  000009  0.25706094801022344  000034  2.099642423639866
    CCC155  000036  12395.871137066646  000037  -0.23347867778306072
    CCC155  000041  0.0017761923250824384  000042  4.6852159214001325
    CCC155  000043  -101992.54651079359  000044  -0.006975923500280088
    CCC155  000097  0.9414379067979062  000114  1565.4445464812602
    CCC156  000013  492.22407286983275  000034  4.833454057898401
    CCC156  000036  19114.857211694023  000037  -0.27423673117170333
    CCC156  000041  0.00037743323432823703  000044  -0.006262944630214981
    CCC156  000114  5045.195264955088
    CCC157  000034  3.8409360180014414  000036  28752.020820382204
    CCC157  000037  -0.388876947760905  000041  0.002349450092265367
    CCC157  000042  4.285399833325671  000043  -144131.41719340906
    CCC157  000044  -0.012761256645119226  000114  2863.712542224344
    CCC157  000118  335995.48565170646
    CCC158  000012  -0.36360643125423847  000046  1.3855100758932701
    CCC159  000005  1.3175406747636697e-06  000045  11.144105194609768
    CCC159  000047  16461.840719119842  000048  -0.031928635710369094
    CCC159  000052  1676.5234469139118  000053  2.9781088059943057e-05
    CCC159  000054  -6.263461013271719  000055  -0.001986458495670706
    CCC159  000116  9.74881840275882e-07
    CCC160  000045  0.009179962383310841  000047  14.020126018404104
    CCC160  000048  -2.7939936005176122e-05  000052  4.0432771502092875
    CCC160  000053  2.6676916686002542e-08  000054  -0.005175926038758195
    CCC160  000055  -1.6363462070589216e-06  000112  3.507974729478513e-10
    CCC160  000116  8.03059417119835e-10
    CCC161  000048  1.4497935770058176e-07  000051  4.7499287074486585e-08
    CCC162  000048  506.01314087991943  000049  2316128628.595921
    CCC162  000050  25.856269858513166  000051  165.7840386612602
    CCC163  000048  1.5215174446117137e-05  000049  122.04405562603466
    CCC163  000050  1.5549305922729652e-06  000051  4.984916131281842e-06
    CCC164  000048  0.0625218152833034  000049  666356.3365135037
    CCC164  000050  0.009584223001786617  000051  0.020483893015258783
    CCC165  000048  65.52931600807008  000049  834575511.907907
    CCC165  000050  13.393673337432368  000051  21.469234256716398
    CCC166  000048  0.6811089286009648  000051  0.202863917643356
    CCC167  000048  0.0011676021532053338  000049  5482.301008014151
    CCC167  000050  5.4238326172105206e-05  000051  0.0003477627984331146
    CCC168  000048  0.23751641364963033  000049  1960378.6614951345
    CCC168  000050  0.02206657923573014  000051  0.07074273754792124
    CCC169  000048  0.6619292509608389  000049  7271548.118033629
    CCC169  000050  0.0922452939588513  000051  0.19715137390500756
    CCC170  000048  368.7896965648491  000049  4864679137.582469
    CCC170  000050  68.52517630696201  000051  109.84164131473378
    CCC171  000048  2.9282667809922607e-06  000051  7.994849902947943e-07
    CCC172  000048  0.8257550503259413  000049  3989025.0365667576
    CCC172  000050  0.035162040425027206  000051  0.22545034922398943
    CCC173  000048  0.00014970264994617008  000049  1275.105551306732
    CCC173  000050  1.2749181799283423e-05  000051  4.087230795233854e-05
    CCC174  000048  0.00032832388729283664  000049  3729.714891549856
    CCC174  000050  4.194175182919903e-05  000051  8.964006338142328e-05
    CCC175  000048  288.6893884895706  000049  3936753944.11692
    CCC175  000050  49.171520994463954  000051  78.81892266543608
    CCC176  000048  0.20923177688419922  000051  0.05273090328143169
    CCC177  000048  0.9307057170215658  000049  4620119.456746982
    CCC177  000050  0.03658247679303055  000051  0.23455783762187185
    CCC178  000048  222.83194592187857  000049  1954977715.2989876
    CCC178  000050  17.517340532773527  000051  56.158438089081415
    CCC179  000048  15063.16307168321  000049  176813560508.58286
    CCC179  000050  1776.2257287822713  000051  3796.240737777458
    CCC180  000048  0.035240370417100875  000049  552463.7794914502
    CCC180  000050  0.0055406559103859925  000051  0.008881330511734066
    CCC181  000048  4.079237930907926  000051  0.9546230610167987
    CCC182  000048  0.21226676214574947  000049  1081673.5422106017
    CCC182  000050  0.007747436692044  000051  0.04967465729232401
    CCC183  000048  0.2547898331280566  000049  2300892.2754395218
    CCC183  000050  0.018598937318134442  000051  0.059625904283187724
    CCC184  000048  37.412476385343055  000049  453772584.3767131
    CCC184  000050  4.096507470477387  000051  8.755265893314968
    CCC185  000048  0.04879709096300574  000049  714292.4394404407
    CCC185  000050  0.007124099301655451  000051  0.011419492839794135
    CCC186  000000  25.085643781192584  000069  17013.094134048042
    CCC186  000071  -26.327520246994624  000072  -7.396599276942792
    CCC186  000073  112494648.35412271  000074  -0.759103555391698
    CCC186  000075  -78018877.66671209
    CCC187  000000  5.450493378566378  000077  149145.76384002584
    CCC187  000079  -1507.1224227640068  000080  -9859.425416225704
    CCC187  000081  0.0026652823309938874  000082  -7360055.29952544
    CCC188  000059  282.4704111291321  000077  54348634472.11503
    CCC188  000079  -445292905.5765133  000080  -1938544537.4990163
    CCC188  000081  28.253888533815527  000082  683451776636.6776
    CCC189  000000  2458.185124019613  000084  10048.22553588742
    CCC189  000086  -0.17385158778217188  000087  -11.799512659985275
    CCC189  000088  23.968757669091378  000089  -0.3466917508738217
    CCC190  000059  46.922939733458776  000084  1348654.0769826346
    CCC190  000086  -18.985419897307356  000087  -1066.3637678411815
    CCC190  000088  93.58667397864802  000089  34.14928617936357
    CCC191  000112  0.4507428730144719
    CCC192  000093  2.7655492549064716e-06  000096  1.3873965432282153e-06
    CCC193  000093  0.01098599877587172  000094  5.834060328249123e-05
    CCC193  000095  42.48723634942998  000096  0.005511359704952822
    CCC194  000093  442.46434162650513  000094  5.5049763044376245
    CCC194  000095  3422371.9558695434  000096  221.97163799750223
    CCC195  000093  25.50769814981238  000094  0.38186077571504967
    CCC195  000095  295945.3087873668  000096  12.796478737803307
    CCC196  000093  9.381820060154877e-08  000094  1.5848042830607666e-09
    CCC196  000095  0.0014513295128307342  000096  4.7065893682982705e-08
    CCC197  000093  6.984402641367925e-08  000096  3.065889734547916e-08
    CCC198  000093  0.0004898722907297295  000094  3.858806490043773e-06
    CCC198  000095  1.6577149874265116  000096  0.00021503548757229122
    CCC199  000093  1.799778299881065e-08  000094  2.3017967753265506e-10
    CCC199  000095  0.00012180805153577888  000096  7.900348959530705e-09
    CCC200  000093  1.8721080759011221e-06  000094  2.891388617944958e-08
    CCC200  000095  0.01900549392708379  000096  8.21784943765121e-07
    CCC201  000093  1.8285844360904168e-08  000094  3.1802238682047246e-10
    CCC201  000095  0.00024751527145709423  000096  8.026797049411938e-09
    CCC202  000093  0.2947705430074508  000096  0.11501614901509981
    CCC203  000093  6.967075932363573  000094  0.05837511487201576
    CCC203  000095  20956.802025847246  000096  2.718474632711143
    CCC204  000093  158.5387874608043  000094  2.089190008927295
    CCC204  000095  953761.9553707968  000096  61.860050930544276
    CCC205  000093  1.9461567773051713e-07  000094  3.0928352678584075e-09
    CCC205  000095  0.001756198268363455  000096  7.59368475633673e-08
    CCC206  000093  1.0696875255822436  000094  0.01918754338456339
    CCC206  000095  12870.380584780261  000096  0.4173800359652996
    CCC207  000093  0.25389491948963083  000096  0.08916024659937684
    CCC208  000093  1.5751568398802725e-07  000094  1.3718259720561446e-09
    CCC208  000095  0.00042642315565589393  000096  5.5314762721022436e-08
    CCC209  000093  119.0062669383782  000094  1.6178608541670847
    CCC209  000095  644342.5391791231  000096  41.79141563141995
    CCC210  000093  1236.269686181123  000094  20.308194362271255
    CCC210  000095  10040410.087603973  000096  434.140668528599
    CCC211  000093  1.3080664233351583e-06  000094  2.4312477217357898e-08
    CCC211  000095  0.014164679933421591  000096  4.5935351958742397e-07
    CCC212  000093  897.4661155903588  000096  286.51187428774483
    CCC213  000093  0.00020047074765180487  000094  1.7936728364754451e-06
    CCC213  000095  0.49337291180405857  000096  6.399935178811911e-05
    CCC214  000093  0.00234475685037337  000094  3.2827249465244736e-05
    CCC214  000095  11.54123011254014  000096  0.0007485526955049316
    CCC215  000093  2520.1475600271992  000094  42.90709063008039
    CCC215  000095  18606792.578428116  000096  804.5453620609503
    CCC216  000093  32.53153434952943  000094  0.6261136275799101
    CCC216  000095  320249.7724078614  000096  10.385540710702637
    CCC217  000057  57.10910126551953  000090  1.7522794128760263e-10
    CCC217  000092  0.06976053430834137  000093  -4.2108804419582006e-07
    CCC217  000097  0.0003461278638367077  000098  0.00020302709140882367
    CCC217  000099  -2.5804740005704285e-07  000100  -133.30174553988556
    CCC217  000115  1.4560159409130212e-06
    CCC218  000062  35544.231225710326  000090  3.0498076957371914e-07
    CCC218  000092  -109.43374807643549  000093  -4.751940384655239e-05
    CCC218  000097  0.013337904975235673  000099  -0.00024701952064652976
    CCC218  000100  -232009.0542726172  000115  0.0052632698742708
    CCC219  000059  0.00218887078749706  000101  35250.1571218085
    CCC219  000103  0.02929348864192187  000104  -2.3681522331927924
    CCC219  000108  90295.38889226312  000109  356.03879061651946
    CCC219  000110  -343494.1853222306  000111  -1.3907229906529497
    CCC219  000117  8421.620264253896
    CCC220  000067  6.272300592702496e-08  000101  268.71635230906423
    CCC220  000103  -0.0004083344899485618  000104  -0.008288912461343168
    CCC220  000108  3785.831676519026  000109  2.4629269625854917
    CCC220  000110  -2429.967160083658  000111  -0.010601655131046417
    CCC220  000117  205.43700342644487
    CCC221  000104  0.00028073948512175707  000107  2.2565263436220596e-08
    CCC222  000104  0.00834976640100121  000105  1.1588956039823375
    CCC222  000106  84.01617066381436  000107  6.711370806560402e-07
    CCC223  000104  582.341213559125  000105  141640.13529146684
    CCC223  000106  11719149.119450705  000107  0.046807391158500286
    CCC224  000104  2.1535880965927922e-06  000105  0.0006959959389368955
    CCC224  000106  0.06500884565149151  000107  1.7310098973662e-10
    CCC225  000104  5.597195537003083  000105  2161.5714344628545
    CCC225  000106  225278.12774221008  000107  0.00044989108582903963
    CCC226  000104  0.2668439816552133  000107  1.9498519450930605e-05
    CCC227  000104  2.2789980865844775e-06  000105  0.00032447486537684874
    CCC227  000106  0.020846820790538807  000107  1.6652835205149137e-10
    CCC228  000104  0.013144221237449488  000105  3.2896546700890337
    CCC228  000106  240.46990313973353  000107  9.604595609613472e-07
    CCC229  000104  42.45072163116902  000105  14140.654038460041
    CCC229  000106  1164936.37026302  000107  0.0031019107730931974
    CCC230  000104  1.9404729995670305  000105  776.1615709932851
    CCC230  000106  71000.83691861173  000107  0.00014179203252540057
    CCC231  000104  8.91329463392311e-06  000107  5.970269358794083e-10
    CCC232  000104  998959.0394813977  000105  146329643.76186156
    CCC232  000106  8376353412.829749  000107  66.91189721708022
    CCC233  000104  4354.170435915583  000105  1124582.144542116
    CCC233  000106  73020151.87701409  000107  0.291649400184499
    CCC234  000104  690081.294185081  000105  237707300.1159549
    CCC234  000106  17359164616.032726  000107  46.22276470105628
    CCC235  000104  2.7283738775943507e-05  000105  0.011281853192507385
    CCC235  000106  0.9151055423824933  000107  1.8275090894831367e-09
    CCC236  000104  0.0025123614788491143  000107  1.5533727508880725e-07
    CCC237  000104  4.8794305025020484e-06  000105  0.0007344784712046025
    CCC237  000106  0.037767161208916884  000107  3.0169123536756736e-10
    CCC238  000104  3641.4975206085664  000105  968753.9528620056
    CCC238  000106  56370932.56361514  000107  0.22515084188964135
    CCC239  000104  0.0028751733084737114  000105  1.023369644283189
    CCC239  000106  66.76217672678452  000107  1.777696366173269e-07
    CCC240  000104  5.861078922787269e-05  000105  0.027861854858557036
    CCC240  000106  1.8146077696697251  000107  3.6238576200558555e-09
    CCC241  000104  0.20537412043773468  000107  1.179110725235856e-05
    CCC242  000104  152216.36106874814  000105  23520397.52294145
    CCC242  000106  1094011424.579945  000107  8.739170422738304
    CCC243  000104  11837.044996841432  000105  3241355.017601374
    CCC243  000106  170150729.7755283  000107  0.6795981246871219
    CCC244  000104  0.002232562977999345  000105  0.8114461685312294
    CCC244  000106  48.13771765813759  000107  1.2817773468793177e-07
    CCC245  000104  0.00010912164642749206  000105  0.04843531645289615
    CCC245  000106  3.1371221075698124  000107  6.264981361030827e-09
    CCC250  000000  10716626.681707762  000068  59166109748.636246
RHS
    RHS  000002  138.77372367906563  000003  205218.99045587197
    RHS  000004  0.04119368852306207  000005  0.0013574733400238
    RHS  000006  12260479.585186576  000007  3825.494955173228
    RHS  000008  43.605109977892546  000009  40.03468500417449
    RHS  000010  20745.54334052039  000011  0.006577517219473157
    RHS  000012  239843674.02806085  000013  56999.03507798749
    RHS  000015  21618.71944103136  000016  7.400063390597017e-10
    RHS  000017  0.0002695156892156367  000018  2.444933228376619e-06
    RHS  000019  1.5986309027180235e-05  000020  4.965775681237783e-10
    RHS  000021  0.0008418512932802102  000022  37773971.336021766
    RHS  000023  3.6223646535144986e-10  000024  2.0027258735751645
    RHS  000025  2.987524228005578e-07  000026  5.032478048920785e-07
    RHS  000027  5.38345392315289e-09  000029  0.0013457005016278977
    RHS  000030  5.190557896301067e-10  000031  2.9614510177793867e-08
    RHS  000032  0.014615028890107278  000033  5.88526529292814e-07
    RHS  000035  73644095.37398228  000036  0.05666872914811869
    RHS  000037  2.8526807972301306e-07  000038  2.9545210230316643e-10
    RHS  000039  3.2043042216812103  000040  57.82267376506158
    RHS  000041  2.6108945942831204e-09  000042  1.041055448463892e-05
    RHS  000043  0.12181230319075727  000044  6.665218881355961e-09
    RHS  000046  2425761717.171775  000047  0.7296211913935792
    RHS  000048  2.601036131635939e-07  000049  28.84081812764057
    RHS  000050  5.274118953973968e-08  000051  4.260860437899146e-06
    RHS  000052  0.010564102116615386  000053  1.8653276877352383e-10
    RHS  000054  3.4701115482203544e-05  000055  1.0389162682436201e-08
    RHS  000056  0.01627506586740054  000057  79780724.78033468
    RHS  000058  170.28346157178595  000059  0.10524249885103425
    RHS  000060  1987263.5569603394  000061  83.60411813424699
    RHS  000062  35838588.562391944  000063  0.020252525316350623
    RHS  000064  26844802.539176915  000065  7398.782651737074
    RHS  000066  0.11655006332529444  000067  0.0032290150543002557
    RHS  000070  0.18158631313215728  000071  9.628490506631435e-06
    RHS  000072  2.0195470893656026e-06  000073  4.076748559141411
    RHS  000074  6.310052958491966e-08  000075  31.101006753992518
    RHS  000076  6.472184208678719e-09  000078  227.68325828039593
    RHS  000079  0.0025769915405975865  000080  0.01301370594839617
    RHS  000081  4.4454396491799397e-10  000082  3.120025974781372
    RHS  000083  6.228681451937693  000085  0.002593378923378174
    RHS  000086  6.42941397860854e-10  000087  3.2000607669696224e-08
    RHS  000088  8.864173607699422e-09  000089  4.274715802684365e-10
    RHS  000091  65678324.682672076  000092  0.002337910349266836
    RHS  000093  6.061858910590178e-09  000094  1.0730400669437975e-09
    RHS  000095  3.907270783256676e-05  000096  1.0643711114922948e-07
    RHS  000097  1.4746010969746124e-06  000098  2.344019791798024e-06
    RHS  000099  2.9792487729518984e-09  000100  1.5390159394911958
    RHS  000102  362308.1957511517  000103  1.359509875799817e-07
    RHS  000104  2.5141865638618603e-06  000105  0.00845332959553715
    RHS  000106  0.10038885895627622  000107  1.0104257710087317e-08
    RHS  000108  0.1833390179878088  000109  0.00024609838852661685
    RHS  000110  0.22318175895919737  000111  9.036077364388298e-07
    RHS  000112  0.001280647640217934  000113  0.15800508828112705
    RHS  000118  43521724.56749527
ENDATA
