NAME          ADLITTLE
ROWS
 N  .Z....
 L  ....01
 E  ....02
 L  ....03
 L  ....04
 L  ....05
 L  ....06
 L  ....07
 L  ....08
 L  ....09
 E  ....10
 L  ....11
 L  ....12
 L  ....13
 L  ....14
 L  ....15
 L  ....16
 L  ....17
 L  ....18
 L  ....19
 L  ....20
 L  ....21
 L  ....22
 L  ....23
 L  ....24
 E  ....25
 L  ....26
 L  ....27
 E  ....28
 L  ....29
 L  ....30
 E  ....31
 E  ....32
 E  ....33
 L  ....34
 L  ....35
 E  ....36
 L  ....37
 L  ....38
 L  ....39
 E  ....40
 L  ....41
 E  ....42
 E  ....43
 E  ....44
 L  ....45
 L  ....46
 L  ....47
 L  ....48
 E  ....49
 E  ....50
 G  ....51
 L  ....52
 L  ....53
 E  ....54
 L  ....55
 L  ....56
COLUMNS
    ...100  .Z....  -25.22708216522149  ....01  2.513817712270614e-07
    ...100  ....04  0.4979742136367974  ....05  1.0358574788781645e-08
    ...100  ....55  0.006467431293407499
    ...101  .Z....  -80.1938098907531  ....01  1.0075758944690184e-06
    ...101  ....04  1.5829991418484755  ....05  9.046330437881997e-09
    ...101  ....55  0.020559173360922646
    ...102  .Z....  0.01643671750489706  ....01  -3.207577691991123e-10
    ...103  .Z....  -2321.082634986142  ....05  8.36088145133042e-06
    ...103  ....30  3.4608015736910197e-06  ....49  -1.8650934955812029
    ...103  ....52  -3.554210712900035e-07  ....53  -9.486925887426398e-07
    ...103  ....55  0.26479076660094647
    ...104  ....34  856.8596937653467  ....35  0.04475969088107423
    ...104  ....40  3.9911042443767624  ....51  4524224.503553212
    ...105  ....35  1.2623183397607305  ....40  112.55761566717877
    ...105  ....46  1637557.8130088341  ....51  167465470.16389084
    ...106  .Z....  -108.7996504283199  ....06  29869.431919359733
    ...106  ....30  1.6222343648769336e-07  ....49  0.033129615881834364
    ...106  ....52  -1.6660194569695802e-08  ....53  -4.446951627801624e-08
    ...107  .Z....  -0.003270995282123592  ....06  1.879548057561471
    ...107  ....38  0.0725460341511762
    ...108  ....06  1550.1463537685886  ....50  -1.2866559220616747e-07
    ...109  .Z....  0.011194136639596643  ....31  -1.60396119689652e-07
    ...109  ....42  0.03704682572903265
    ...110  .Z....  0.06370892923612513  ....32  -0.0017291140292447294
    ...110  ....43  0.0015754550702380592  ....56  4.339973440937566e-06
    ...111  .Z....  1615.9106204656252  ....33  -2.6079928693486146e-05
    ...111  ....44  4.465555220088333e-06  ....56  0.1100789051053952
    ...112  .Z....  0.13208071539296065  ....07  0.04328169218148333
    ...112  ....31  -1.4903437239928878e-06
    ...113  .Z....  60.31738803865004  ....07  19.76547912019465
    ...113  ....32  -1.2891683418359676
    ...114  .Z....  2.62482832064595  ....07  0.8601332228209043
    ...114  ....33  -3.336059164661606e-08
    ...115  .Z....  4785.803642076123  ....08  2.917123920752579
    ...115  ....31  -0.050844953747630144  ....42  -3305.4354148543275
    ...116  .Z....  1.7799855476957567  ....08  0.0010849668745549804
    ...116  ....32  -0.035820325799335494  ....43  -0.009186193596488815
    ...117  .Z....  1533791.3777606615  ....08  934.9024431701735
    ...117  ....33  -0.018354606712747475  ....44  -0.0008845814385682327
    ...118  .Z....  112136.21429789587  ....09  0.20753499238234613
    ...118  ....31  -0.9712749437585141  ....42  -318910.49300897727
    ...119  .Z....  3588.3699295439314  ....09  0.006641140247650696
    ...119  ....32  -58.87264911203591  ....43  -76.25449424012643
    ...120  .Z....  920.8114930504252  ....09  0.0017041827869106383
    ...120  ....33  -8.983650270827258e-06  ....44  -2.1867109518825895e-06
    ...121  .Z....  15331938.821393725  ....11  17988436.612527683
    ...121  ....31  -67.09360484005245  ....42  -114444321.80810468
    ...122  .Z....  1.3778448250621531  ....11  1.6165779544427357
    ...122  ....32  -0.01142100792868383  ....43  -0.07684981022160887
    ...123  .Z....  279283514.2852474  ....11  327673743.8212303
    ...123  ....33  -1.376623439691072  ....44  -1.740765228199589
    ...124  .Z....  0.013054472971415602  ....12  2.7180860427433653e-06
    ...124  ....31  -6.56963486688787e-09  ....42  -0.15418043043690097
    ...125  .Z....  609061.5159537863  ....12  126.81336192667338
    ...125  ....32  -580.5814063871958  ....43  -53749.74239813702
    ...126  .Z....  0.033326094406779805  ....12  6.93886243164003e-06
    ...126  ....33  -1.8890876984204826e-11  ....44  -3.286639427043728e-10
    ...127  .Z....  363.4160678221002  ....13  2.177931871172203e-06
    ...127  ....31  -0.0009645226771285086  ....42  -3390.8238944469817
    ...128  .Z....  51456.13921130538  ....13  0.00030837372223903797
    ...128  ....32  -258.6816308820979  ....43  -3587.4315664726114
    ...129  .Z....  737390.1190877903  ....13  0.00441913713797302
    ...129  ....33  -0.0022044052781014455  ....44  -0.005745080969394077
    ...130  .Z....  -14215.85835296695  ....14  241015.52875785233
    ...130  ....30  2.1196257392021022e-05  ....49  -3.84777320156023
    ...130  ....52  -2.176835726983337e-06  ....53  -5.810426246265642e-06
    ...131  .Z....  -5.256030836234226  ....14  186.51076188075248
    ...131  ....38  116.5713061797917
    ...132  .Z....  111607.89371463639  ....17  2992.146962428527
    ...132  ....31  0.2886021967457506  ....42  -1727552.4819657942
    ...133  ....14  291391.03991110687  ....50  -0.0003916457685551467
    ...134  .Z....  150.87403052472476  ....17  4.044850745935204
    ...134  ....32  0.7389912352994438  ....43  -17.45002879122326
    ...135  .Z....  6078044.606034246  ....17  162949.0719711116
    ...135  ....33  0.01770330753424638  ....44  -0.07855936255759025
    ...136  .Z....  109512708.30395184  ....15  106011.55144851952
    ...136  ....31  174.6123724728721  ....42  -1563678410.5080817
    ...137  .Z....  47110.51412734352  ....15  45.604375688669386
    ...137  ....32  142.2814925377253  ....43  -5026.27309964275
    ...138  .Z....  0.0026997559642742202  ....15  2.6134438891853796e-06
    ...138  ....33  4.848649752379126e-12  ....44  -3.2188827684359145e-11
    ...139  .Z....  130618.532838491  ....16  15256.345312633144
    ...139  ....31  -0.21076870518378985  ....42  -1366783.8898048692
    ...140  .Z....  412336537.02901256  ....16  48161225.342413165
    ...140  ....32  -1260297.9220545257  ....43  -32239788.70037683
    ...141  .Z....  3640809.7450539595  ....16  425249.38445622154
    ...141  ....33  -0.006617365481089697  ....44  -0.03181198470489088
    ...142  ....10  -0.00011082651950833807
    ...143  ....02  0.00019705512174185115  ....03  5.113587168835925e-07
    ...143  ....10  1.7951603438619016e-07  ....28  9.573321245143367e-11
    ...143  ....34  1.1725622905430928e-07  ....54  1.0783033742375126e-10
    ...144  ....02  0.0005386239030048242  ....03  9.377181826017777e-07
    ...144  ....10  6.233002126240077e-07  ....28  2.6061456385668493e-10
    ...144  ....46  2.180480101006575e-05  ....54  2.933090749461369e-10
    ...145  .Z....  847355.8315597294  ....18  0.05900360213796223
    ...145  ....31  5.163800323454297  ....42  -16665839.139545063
    ...146  .Z....  0.4793447391774496  ....18  3.3378027534537434e-08
    ...146  ....32  0.0055331399859863545  ....43  -0.07044572547732487
    ...147  .Z....  25.15743727714953  ....18  1.7517781369125304e-06
    ...147  ....33  1.72685481859057e-07  ....44  -4.1316687154211683e-07
    ...148  .Z....  2031000.0060507671  ....01  -0.4570363365097545
    ...148  ....06  2565462955.8104873  ....14  -286569740.3651779
    ...148  ....20  0.4733590090427534  ....28  1.3996492479773934
    ...148  ....50  -0.14311088454247842  ....54  1.019501309708788
    ...149  .Z....  9.775340264822974  ....01  -2.490798244121261e-06
    ...149  ....14  -1888.0470006377698  ....20  2.276273412776822e-06
    ...149  ....28  1.0903407689148835e-05  ....50  -4.773281130018204e-07
    ...149  ....54  7.516908438368939e-06
    ...150  .Z....  156.01342883477636  ....01  -3.9752884715367564e-05
    ...150  ....14  -35031.69620242868  ....20  3.632909039194263e-05
    ...150  ....28  0.00018989995947661257  ....50  -7.6181077661951026e-06
    ...150  ....54  0.0001429796704219251
    ...151  .Z....  81327.24951521416  ....26  270373405.5500717
    ...151  ....28  2.27797604975859  ....50  -1.116015589412721
    ...151  ....54  0.6080043709932463
    ...152  ....28  2.423227468288052  ....50  -1.2556674507466756
    ...152  ....54  1.0671750798684574
    ...153  .Z....  0.003947528546351246  ....03  -0.00025113668058642104
    ...153  ....21  0.00021115967296221977  ....50  2.0070708148523046e-09
    ...154  .Z....  0.036351847608580845  ....21  0.0019445189977651848
    ...154  ....37  -271.69512766075184
    ...155  .Z....  -808626175.6038054  ....01  4.017857505706157
    ...155  ....14  7274967368.545845  ....29  20.129144478720054
    ...155  ....55  58675.46489421726
    ...156  .Z....  -0.3385213700419312  ....14  3.0038551065821557
    ...156  ....29  8.426817944175663e-09  ....47  1.581703732177421e-08
    ...156  ....55  2.8072867803406976e-05
    ...157  .Z....  0.006562455076831645  ....02  0.06666004381476016
    ...157  ....03  5.474146910286246e-05  ....10  7.385704081908235e-05
    ...157  ....22  0.0003644129662457901  ....28  2.409189126980612e-08
    ...157  ....34  4.9581972909548584e-05  ....50  8.614761404350923e-10
    ...157  ....54  2.5887258971644965e-08
    ...158  .Z....  122.0437051723806  ....02  1239.694388587625
    ...158  ....03  0.8144332128966887  ....10  1.6787696897658386
    ...158  ....22  6.777083895097092  ....28  0.0004449953328866797
    ...158  ....46  62.73229173837411  ....50  1.60337335742823e-05
    ...158  ....54  0.0004742733293484753
    ...159  .Z....  0.040959242796078196  ....19  1.5925118484086795e-09
    ...159  ....28  -1.2234051806788455e-07  ....31  7.157169801100009e-06
    ...159  ....34  -1.678468930434357e-05  ....35  -8.701877415626169e-10
    ...159  ....50  9.187591513329953e-10  ....54  -5.1333078452334876e-08
    ...159  ....55  -0.0001790030223525671
    ...160  .Z....  4.6221894611800245  ....01  -1.5134594220847608e-08
    ...160  ....06  -1061.0125216971255  ....19  1.1925627889968141e-07
    ...160  ....27  0.0019510601674532914  ....28  -8.940255307622822e-06
    ...160  ....32  1.015219561952232  ....34  -0.0012569323053536329
    ...160  ....35  -6.516457136979737e-08  ....50  1.1753653266384416e-07
    ...160  ....54  -4.981101257362205e-06  ....55  -0.01340475700629475
    ...161  .Z....  190.09393818892352  ....01  -8.886023396678706e-07
    ...161  ....06  -62295.572344996166  ....24  1711077.934370103
    ...161  ....27  0.11455322847332249  ....28  -0.0005249121098098934
    ...161  ....33  3.544560424018658e-05  ....34  -0.07379867415294443
    ...161  ....35  -3.826028616141709e-06  ....50  6.900960567391526e-06
    ...161  ....54  -0.00029245701383375037  ....55  -0.7870378461858553
    ...162  ....28  -0.020068015717962337  ....34  23.99684549795484
    ...162  ....54  -0.02553152541297163
    ...163  ....28  -0.00015939611929529463  ....35  4.6937583900365404e-05
    ...163  ....54  -0.0002612892446106662
    ...164  .Z....  -31387.756964478598  ....35  0.0007883816852426643
    ...164  ....48  3353.6210140841413
    ...165  ....35  1.3599979460748725e-10  ....50  -1.914545561561372e-10
    ...166  ....28  3.1190598322404237  ....34  3853.503281625164
    ...166  ....35  0.03811093907417046  ....36  142570610.45851475
    ...166  ....37  2006028682.628488  ....54  3.510034196429537
    ...167  ....28  1.5364452819653942  ....35  0.019090255417979533
    ...167  ....36  71415437.00755824  ....37  674136754.050208
    ...167  ....46  132905.85383803985  ....54  1.7288775583885445
    ...168  .Z....  -4962595.866917374  ....06  136344229.3357944
    ...168  ....35  0.011484206370874061  ....39  191.877626230617
    ...168  ....55  8397.298635838517
    ...169  .Z....  -81.09189380939719  ....35  1.3136133748151116e-07
    ...169  ....39  0.0031353993974040173  ....46  0.17041009208573543
    ...169  ....55  0.09919306043800714
    ...170  .Z....  -0.02310343629956436  ....34  7.164556866575589e-07
    ...170  ....35  3.742542133573868e-11  ....39  8.932890434385414e-07
    ...170  ....55  2.8260538082571772e-05
    ...171  .Z....  -67855.15959147118  ....22  16.861941166908455
    ...171  ....28  -0.0005308420872277599  ....34  5.7129126053320025
    ...171  ....41  0.0002282698995202866  ....50  3.9874383535980364e-05
    ...171  ....54  -0.0006753636448569922
    ...172  .Z....  -0.01073712134427626  ....41  3.590419959564245e-11
    ...172  ....46  5.41261047292546e-05
    ...173  .Z....  0.004736089935115041  ....22  0.00026401038015486995
    ...173  ....28  -8.31148797543224e-09  ....34  4.0997035749897035e-05
    ...173  ....35  2.141557900969799e-09  ....40  1.5276568108298825e-07
    ...173  ....50  6.244925137722967e-10  ....51  0.3246969049816083
    ...173  ....54  -1.1108044929105387e-08
    ...174  .Z....  0.0013118976939395146  ....22  7.313091889013197e-05
    ...174  ....28  -2.3022835413936675e-09  ....35  5.932118921326993e-10
    ...174  ....40  4.231611888109205e-08  ....46  0.0007695513390986505
    ...174  ....50  1.7298452941655684e-10  ....51  0.10493127900066149
    ...174  ....54  -3.1177796707214772e-09
    ...175  .Z....  0.3467658448762497  ....19  1.4453128128627297e-08
    ...175  ....28  -8.831390219593909e-07  ....35  -9.945603121215217e-09
    ...175  ....42  74.84454218922212  ....46  -0.012974456665532246
    ...175  ....50  8.361699142148158e-09  ....54  -4.927416081807663e-07
    ...175  ....55  -0.003903853448644194
    ...176  .Z....  0.00018381277951542768  ....01  -3.313435949214975e-13
    ...176  ....06  -0.03526676615362352  ....19  5.131274790553116e-12
    ...176  ....27  6.158733027658334e-08  ....28  -3.064339534773541e-10
    ...176  ....35  -3.5309742028547976e-12  ....43  0.0001985495347747988
    ...176  ....46  -4.606304034425836e-06  ....50  4.487483433873335e-12
    ...176  ....54  -1.9992845205256147e-10  ....55  -1.3859798798410246e-06
    ...177  .Z....  3.0193999083882655e-05  ....01  -7.801367126540957e-14
    ...177  ....06  -0.008303434692783778  ....24  0.2754066922002332
    ...177  ....27  1.4500517927470138e-08  ....28  -7.214878475863089e-11
    ...177  ....35  -8.313553209725368e-13  ....44  5.224123345525143e-12
    ...177  ....46  -1.084537906264239e-06  ....50  1.0565620183547184e-12
    ...177  ....54  -4.707244314991522e-11  ....55  -3.2632403457808436e-07
    ...178  .Z....  -0.11519443517565067  ....05  8.751715722089273e-11
    ...178  ....45  1.0783297910057346e-09  ....47  4.365703875998498e-09
    ...178  ....55  0.00012485601634391137
    ...179  .Z....  -39.75138012891029  ....05  8.71213668623716e-09
    ...179  ....45  3.8097061648382343e-07  ....47  7.711949122140687e-07
    ...179  ....55  0.055621235933612796
    ...180  .Z....  -0.00339875548693894  ....05  5.389501296961624e-13
    ...180  ....45  3.3387435056628074e-11  ....55  5.256198108014377e-06
    ...181  ....28  -3.22529226739964  ....46  261350.84698474905
    ...181  ....54  -4.18228796190121
    ...182  .Z....  -44186.505601143195  ....30  6.588336227902391e-05
    ...182  ....47  0.013064659118183122  ....49  -37.74830289443473
    ...182  ....52  -6.766159429482708e-06  ....53  -1.8060283487705285e-05
    ...182  ....55  5.040828152856169
    ...183  .Z....  0.10790108860850517  ....02  0.006403809654798954
    ...183  ....03  8.414130643728574e-06  ....10  7.095201323095945e-06
    ...184  .Z....  1.7029937783876716  ....28  -1.1057924631778889e-07
    ...184  ....54  -1.176879151666452e-07
    ...185  .Z....  13.31564790568075  ....28  -1.5319870688168127e-06
    ...185  ....54  -7.871244106893026e-07
    ...186  .Z....  41.25474833564522  ....36  53.65314235800605
    ...186  ....37  764.4783447049234
    ...187  .Z....  0.06256422423198986  ....40  1.4222447667662501e-08
    ...187  ....51  0.02418336215943286
    ...188  .Z....  15390159.394911958  ....49  -158198.47573355303
    ...188  ....52  0.10604939633152183
    ...189  .Z....  826480593.5958852  ....49  -3620190.523728383
    ...189  ....53  10.134184824773142
    ...190  .Z....  -738.4741780355117  ....30  1.1010864322332668e-06
    ...190  ....49  0.5684118275655253  ....52  -1.1308054246804247e-07
    ...190  ....53  -3.018354319316535e-07  ....55  1.0530707781015436
    ...191  .Z....  58.92173237708006  ....05  -1.7043305068697788e-06
    ...191  ....23  6.864862068875843e-06  ....28  -1.72810358774243e-06
    ...191  ....47  -5.207185835735455e-05  ....50  -6.2682782302967264e-06
    ...191  ....54  -2.832784656530411e-06  ....55  1.4242294965479385
    ...192  .Z....  -0.01520334501762258  ....38  0.33718862050590037
    ...192  ....55  4.537696578967515e-05
    ...193  .Z....  1.0176648897618854  ....55  0.03485090904126169
    ...194  .Z....  -1.8311755834443892  ....48  0.19565172892305477
    ...194  ....55  0.004051974954407719
    ...195  .Z....  137844.40268227927  ....05  -0.025893762684845372
    ...195  ....25  0.7647647531887164  ....28  -0.026622147311252488
    ...195  ....47  -0.7889768747546705  ....50  -0.05660730760137524
    ...195  ....54  -0.043572833355301786  ....55  19290.06131197444
    ...196  ....50  -8.152665800942478e-11  ....55  5.101908954852961e-06
RHS
    ZZZZ0001  ....02  5556.717713339694  ....03  7.877153214460204
    ZZZZ0001  ....04  1515.058959047708  ....07  15784.231201315859
    ZZZZ0001  ....08  13.71458027234479  ....09  0.011043366385240063
    ZZZZ0001  ....10  6.154051487450631  ....11  113337.45829623738
    ZZZZ0001  ....12  27.58796938429314  ....13  0.0008863563069094993
    ZZZZ0001  ....15  15.154504565080552  ....16  3497.015076911297
    ZZZZ0001  ....17  1817.7883829546545  ....18  0.0012121645568037194
    ZZZZ0001  ....19  0.000462459060193512  ....20  0.0003846127801211187
    ZZZZ0001  ....21  1.4442735759947152  ....22  13.59627638906508
    ZZZZ0001  ....23  0.00014486040903741266  ....24  120400359.2549492
    ZZZZ0001  ....26  108512.06710861925  ....27  7.824216743997378
    ZZZZ0001  ....28  -0.05453271492010761  ....29  0.0002006377104690403
    ZZZZ0001  ....30  2.5644208167654152e-05  ....36  98424.30210986265
    ZZZZ0001  ....37  1402401.5043446452  ....38  312425.2362777256
    ZZZZ0001  ....39  0.9814046500347644  ....40  0.02143452759217958
    ZZZZ0001  ....41  3.406463143641258e-05  ....45  0.0002178443735246806
    ZZZZ0001  ....48  4060.276255899604  ....50  0.00013458634807882224
    ZZZZ0001  ....51  36527.70816101463  ....54  -0.031305396880484365
    ZZZZ0001  ....56  3.1488668031190956
ENDATA
