NAME          SCFXM1
ROWS
 N  .COSTA
 E  1DT001
 E  1DT002
 E  1DT003
 E  1DT004
 E  1DT005
 E  1DT006
 E  1DT007
 E  1DT008
 L  1DT009
 E  1DT010
 E  1DT011
 E  1DT012
 E  1DT013
 E  1DT014
 E  1DT015
 E  1DT016
 L  1DT017
 E  1DT018
 E  1DT021
 E  1DT022
 E  1DT023
 E  1DT024
 L  1DT025
 E  1DT026
 L  1DT027
 L  1DT028
 L  1DT029
 L  1DT030
 E  1DT031
 L  1DT032
 L  1DT033
 E  1DT034
 E  1DT035
 E  1DT036
 E  1DT037
 L  1DT038
 L  1DT039
 L  1DT040
 L  1DT041
 L  1DT042
 E  1DT043
 E  1DT044
 L  1DT045
 L  1DT047
 L  1DT048
 L  1DT049
 E  1DT050
 L  1DT051
 E  1DT052
 L  1DT053
 L  1DT055
 E  1DT056
 L  1DT057
 E  1DT059
 L  1DT060
 L  1DT062
 L  1DT063
 L  1DT064
 L  1DT066
 L  1DT067
 E  1DT068
 E  1DT069
 L  1DT070
 E  1DT071
 E  1DT072
 E  1DT073
 L  1DT074
 E  1DT075
 L  1DT076
 L  1DT077
 E  1DT078
 E  1DT079
 E  1DT080
 E  1DT081
 E  1DT082
 E  1DT083
 E  1DT084
 E  1DT087
 E  1DT088
 E  1DT089
 E  1DT090
 E  1DT091
 E  1DT092
 E  1DT094
 L  1DT095
 L  1DT096
 L  1DT097
 L  1DT098
 L  1DT099
 E  1DT100
 E  1DT101
 E  1DT102
 E  1DT019
 E  1DT020
 E  1DT046
 L  1DT093
 E  SCROW1
 E  SCROW2
 E  SCROW3
 E  SCROW4
 E  SCROW5
 E  1MS001
 E  1MS002
 E  1MS003
 E  1MS004
 E  1MS005
 E  1MS006
 E  1MS007
 E  1MS008
 E  1MS009
 E  1MS010
 E  1MS011
 E  1MS012
 E  1MS013
 E  1MS014
 E  1MS015
 E  1MS016
 E  1MS017
 E  1MS018
 E  1MS019
 E  1MS020
 E  1MS021
 L  1MS022
 E  1MS023
 E  1MS024
 E  1MS025
 E  1MS026
 E  1MS027
 E  1MS028
 E  1MS029
 E  1MS030
 E  1MS031
 E  1MS032
 E  1MS033
 E  1MS034
 E  1MS035
 E  1MS036
 L  1MS037
 E  1MS038
 E  1MS039
 E  1MS040
 E  1MS041
 L  1MS043
 L  1MS044
 L  1MS045
 L  1MS046
 L  1MS047
 L  1MS048
 L  1MS049
 L  1MS050
 L  1MS051
 L  1MS052
 L  1MS053
 L  1MS054
 E  1MS055
 E  1MS059
 L  1MS060
 L  1MS061
 L  1MS062
 L  1MS063
 L  1MS064
 E  1MS065
 E  1MS067
 E  1MS068
 E  1MS069
 E  1MS070
 E  1MS071
 E  1MS072
 E  1MS073
 E  1MS074
 L  1MS075
 L  1MS076
 L  1MS078
 L  1MS077
 E  1MS042
 E  1MS056
 E  1MS057
 E  1MS058
 E  SCROW6
 E  1DT054
 E  1DT058
 E  1DT061
 E  1DT065
 E  1PD004
 E  1PD009
 E  1PD010
 E  1PD011
 E  1PD012
 E  1PD013
 E  1PD014
 E  1PD015
 E  1PD016
 E  1PD017
 E  1PD018
 E  1PD019
 E  1PD020
 L  1PD021
 L  1PD022
 L  1PD023
 L  1PD024
 E  1PD025
 E  1PD026
 E  1PD027
 E  1PD028
 E  1PD029
 E  1PD030
 E  1PD031
 E  1PD032
 E  1PD033
 E  1PD034
 L  1PD035
 L  1PD036
 L  1PD037
 L  1PD038
 E  1PD039
 E  1PD040
 E  1PD049
 E  1PD050
 E  1PD051
 E  1PD052
 E  1PD053
 E  1PD054
 E  1PD055
 E  1PD056
 E  1PD057
 E  1PD058
 E  1PD059
 E  1PD060
 E  1PD061
 E  1PD062
 E  1PD063
 E  1PD064
 E  1PD065
 E  1PD066
 E  1PD067
 E  1PD068
 E  1PD069
 E  1PD070
 E  1PD071
 E  1PD072
 E  1RB045
 E  1RB038
 E  1RB039
 E  1RB040
 E  1RB041
 L  1RB001
 L  1RB002
 L  1RB003
 L  1RB004
 L  1RB005
 L  1RB006
 L  1RB059
 L  1RB060
 L  1RB061
 L  1RB063
 L  1RB064
 L  1RB065
 L  1RB066
 L  1RB067
 L  1RB068
 E  1RB070
 L  1RB073
 E  1RB076
 L  1RB077
 L  1RB079
 E  1RB080
 E  1RB083
 L  1RB084
 E  1RB086
 E  1RB087
 E  1RB088
 L  1RB092
 L  1RB007
 L  1RB008
 L  1RB009
 L  1RB010
 L  1RB011
 L  1RB012
 L  1RB013
 L  1RB014
 L  1RB015
 L  1RB016
 L  1RB017
 L  1RB018
 L  1RB019
 L  1RB020
 L  1RB021
 L  1RB022
 L  1RB023
 L  1RB024
 L  1RB025
 L  1RB026
 L  1RB027
 L  1RB028
 L  1RB029
 L  1RB030
 E  1RB031
 E  1RB032
 L  1RB033
 L  1RB034
 L  1RB035
 L  1RB036
 L  1RB037
 E  1RB042
 L  1RB043
 L  1RB044
 L  1RB046
 L  1RB047
 L  1RB048
 L  1RB049
 L  1RB050
 L  1RB051
 L  1RB052
 L  1RB053
 L  1RB054
 L  1RB055
 L  1RB056
 L  1RB057
 L  1RB058
 L  1RB062
 E  1RB069
 L  1RB071
 L  1RB072
 L  1RB078
 L  1RB081
 L  1RB082
 L  1RB085
 L  1RB089
 L  1RB090
 L  1RB091
COLUMNS
    1D1IK  1DT012  4.9680191942107e-07  1DT060  -0.0005436847054097864
    1D1IK  SCROW4  4.779973920425381e-10
    1D1IN  SCROW4  -1.994433184956156e-05  1DT098  0.06589478641321361
    1D1MK  1DT011  6.098399842834654e-06  1DT060  -12.245124232062036
    1D1MK  SCROW4  9.087914621011326e-06
    1D1YK  1DT010  4.505013588191854e-07  1DT060  2.877442648896683
    1D1YK  SCROW4  1.1829970018280706e-06
    1D2ID  1DT015  8.449309973147884e-11  1DT062  -4.2804827354448904e-07
    1D2ID  1DT063  0.7688523030101743  1DT064  -4.7266151106066116e-09
    1D2ID  SCROW5  5.853609345739174e-09
    1D2IK  1DT012  0.2601308421084992  1DT062  -1.400439179177874
    1D2IK  1DT063  -8482920.944162272  1DT064  -0.006466990455882964
    1D2IK  SCROW5  0.016146048182305354
    1D2IN  SCROW5  -112.55761566717877  1DT099  1984918.5612228292
    1D2LC  1DT043  29869.431919359733  1DT062  837.9823842129578
    1D2LC  1DT063  21689860934.03155  1DT064  162.70790990501715
    1D2LC  SCROW5  247.70161741236916
    1D2MD  1DT014  0.0725460341511762  1DT062  -786.210538558685
    1D2MD  1DT063  3348705846.0127797  1DT064  -12.253919924953546
    1D2MD  SCROW5  9.560686636240272
    1D2MK  1DT011  1.4835375158538778e-08  1DT062  -0.00013138475263084278
    1D2MK  1DT063  -561.9781756883101  1DT064  -1.4623621993153442e-06
    1D2MK  SCROW5  1.4261953340198343e-06
    1D2PB  1DT059  1.394979602054307e-09  1DT062  -1.268333164208111e-06
    1D2PB  1DT063  -13.539803773364918  1DT064  -5.94554477584644e-09
    1D2PB  SCROW5  1.237013479914536e-08
    1D2US  1DT026  31.282265571905512  1DT062  -237.0745607791086
    1D2US  1DT063  -909452150.4204756  1DT064  -0.38033810550079034
    1D2US  SCROW5  2.9674532433572542
    1D2YD  1DT013  0.001405783763613601  1DT062  0.8573749683941202
    1D2YD  1DT063  199235.8416071228  1DT064  -0.0021580287066236027
    1D2YD  SCROW5  0.004550609186725283
    1D2YK  1DT010  0.00013089092245690992  1DT062  0.42122559938658877
    1D2YK  1DT063  -17474293.945130903  1DT064  -0.005683883296221032
    1D2YK  SCROW5  0.02217324227877053
    1D4BY  1DT093  -0.1100789051053952  1DT101  -6.912241263476814e-05
    1DAOU  1DT009  -2.105906866183577e-11  1DT016  -5.1938030617779996e-05
    1DAOU  1DT021  9.291807561809463e-07  1DT024  1.742892489164374e-07
    1DAOU  1DT025  -0.0026141169211947694  1DT026  -2.2355155859893316e-07
    1DAOU  1DT033  8.123011541190515e-05  1DT082  -1.1714088915235993e-09
    1DAOU  1DT083  1.0093884526067909  1DT084  -0.00036898433995825685
    1DAOU  1DT088  -1.2830183228348248e-09  1DT089  -3.1718281129897706e-05
    1DAOU  1DT100  -4.966710848408905e-05
    1DASP  1DT018  2482404.25252882  1DT020  1.393490196729638
    1DASP  1DT031  327673743.8212303  1DT102  0.05119280319481022
    1DBZS  1DT035  126.81336192667338  1DT049  0.08119056632084921
    1DBZS  1DT102  0.28464498010654254
    1DC2P  1DT001  2.177931871172203e-06  1DT021  -3.9957172873217527e-07
    1DC3A  1DT046  -120816.29674532481  1DT047  11250.237165641152
    1DC3A  1DT091  20838846.32251417  1DT092  4.920652567725948
    1DC3A  1DT100  -985.3978009185897
    1DC3P  1DT021  -18.196250138919964  1DT090  2992.146962428527
    1DC3R  1DT001  -0.6033122819055877  1DT002  2.7114801348543414
    1DC3R  1DT090  -104.85759736459454
    1DC4A  1DT046  -1002983.1374600036  1DT047  90349.27032477743
    1DC4A  1DT092  37.39866659497006  1DT094  1211526301.8125143
    1DC4A  1DT100  -8190.729366815519
    1DC65  .COSTA  4.888549859703404  1DT001  -0.009009014033294578
    1DC65  1DT002  -0.005247428448055946  1DT003  -2.645053789942825
    1DC65  1DT004  -1.0715119945660059e-07  1DT005  -1.4075926481372676
    1DC65  1DT006  -2.193901012330644  1DT016  -33.936991279390185
    1DC65  1DT021  0.002102397527112508  1DT025  5.199031049564281
    1DC65  1DT042  -20197.672547532733  1DT043  -0.007598178797673467
    1DC65  1DT044  -285.3431658258969  1DT045  0.0012715294816392352
    1DC75  1DT001  -0.0011307250558150535  1DT002  -0.0005335935550653338
    1DC75  1DT003  -0.2663168085591528  1DT004  -1.070602611618692e-08
    1DC75  1DT005  -0.167298799307001  1DT006  -0.22350439787922274
    1DC75  1DT016  -3.2693114158220857  1DT021  0.00018324498481343463
    1DC75  1DT025  0.4531475867127954  1DT042  -1848.4507611358902
    1DC75  1DT043  -0.0005396170780783213  1DT044  -9.326442207185226
    1DC75  1DT045  0.00011082651950833807  1DT100  -0.0010599296479873066
    1DC8U  1DT084  -25808.680148445277  1DT089  825.8803130260142
    1DCKP  1DT017  6.472895150425221e-07  1DT021  -0.20691463176352393
    1DCKP  1DT022  3.6051553400661814e-05
    1DCKS  1DT022  2.640766978155106e-09  1DT102  2.6545986192641864e-09
    1DCOU  1DT021  1.5997373509181032e-08  1DT024  1.6503716927542055e-08
    1DCOU  1DT025  -4.880203179133267e-05  1DT026  -2.5658716079926195e-09
    1DCOU  1DT033  1.3985099107940135e-06  1DT081  0.008438182104209052
    1DCOU  1DT082  -7.865414262573786e-11  1DT100  -8.551008834994204e-07
    1DCTL  1DT016  0.005210535299191307  1DT042  29.460081083446507
    1DCTL  1DT043  -2.0523355126337377e-06
    1DDID  1DT015  6.451238341866768e-09  1DT066  -1.2972496144167698e-05
    1DDID  1DT067  26.818945262082472  1DT068  8.67668075919952e-09
    1DDMD  1DT014  8.896946495319547e-07  1DT066  -0.003813575348702729
    1DDMD  1DT067  7035.784046113419  1DT068  2.276273412776822e-06
    1DDUS  1DT026  0.019726988842911485  1DT066  -0.05913079565028772
    1DDUS  1DT067  -336871.1770142302  1DT068  3.632909039194263e-05
    1DDYD  1DT013  5.879257425941213  1DT066  1418.211233635793
    1DDYD  1DT067  1142009211.1057565  1DT068  0.3694720001848621
    1DFVB  1DT001  -84.98928607728936  1DT002  -32.35504530681185
    1DFVB  1DT003  -6326.806027856257  1DT004  -0.00010877082934612101
    1DFVB  1DT005  -12426.829785445647  1DT006  -2766.956607228712
    1DFVB  1DT008  -23728099.206823766  1DT009  -0.003780736194474468
    1DFVB  1DT016  -7830.415791356292  1DT019  14.873419532460296
    1DFVB  1DT021  34.85373450523144  1DT072  441.431129884349
    1DFVB  1DT074  136.96576830641058  1DT084  -70748.80909017305
    1DFVB  1DT088  -0.24600507000298188  1DT089  -5694.385417511014
    1DFVB  1DT102  0.3913268677729515
    1DGBY  1DT025  -433567.06893705664  1DT033  11182.179072902167
    1DGBY  1DT077  12679098447.218628  1DT101  -0.6655399255862058
    1DGOU  1DT009  -4.602411818542118e-12  1DT016  -1.1350939103032268e-05
    1DGOU  1DT018  2.0544747894048174  1DT021  2.0307035237313764e-07
    1DGOU  1DT024  7.618104218554889e-08  1DT025  -0.0006057255650469403
    1DGOU  1DT026  -3.257112495874739e-08  1DT033  1.7752657973465326e-05
    1DGOU  1DT082  -9.984341773009773e-10  1DT084  -8.064069282220606e-05
    1DGOU  1DT088  -2.804007521530315e-10  1DT089  -6.931958591342433e-06
    1DGOU  1DT100  -1.0854634207743657e-05
    1DH2P  1DT021  -8.99790306251763e-07  1DT024  7.662646423162544e-07
    1DHNU  1DT009  -2.474948111534637e-09  1DT021  1.905803212855551e-06
    1DHNU  1DT024  1.6086477658271623e-06  1DT033  0.00016660764216525488
    1DHNU  1DT080  3.832793364708986e-07  1DT084  -0.03190465601019483
    1DHNU  1DT088  -1.1093765727145242e-07  1DT089  -0.0037276624737839627
    1DHNU  1DT100  -0.00010187009824791195
    1DHPU  1DT021  0.002177961801090096  1DT024  0.00019421770278063848
    1DHPU  1DT041  7.7452387372538185  1DT084  161.2448931634435
    1DHPU  1DT100  -0.05415444605994643
    1DI4R  1DT001  -5.4725172639417e-05  1DT004  7.603132565378712e-09
    1DI4R  1DT092  -7.615833014634561e-06
    1DIBY  1DT092  -6.517685414700525e-09  1DT101  -2.3294693712506192e-11
    1DICD  .COSTA  1.0650206131751208  1DT002  -0.00022229005286788733
    1DICD  1DT004  -1.935842684847795e-09  1DT005  -0.4042316100335517
    1DICD  1DT007  -5.6031919389306595e-05  1DT009  -5.417490130370736e-08
    1DICD  1DT012  -0.000146623716170853  1DT015  -5.8710135592325965e-08
    1DICD  1DT019  -3.5034993941344143e-05  1DT021  0.00020020756416081213
    1DICD  1DT025  -0.24352235529449384  1DT028  0.6659669822725028
    1DICD  1DT078  -6498.8719932197755  1DT083  -36.30043185834163
    1DICD  1DT088  -1.1309050806851816e-05
    1DICG  1DT002  -0.4031678579744218  1DT004  -3.5110412659328145e-06
    1DICG  1DT005  -733.1555786692712  1DT007  -0.10162519027249586
    1DICG  1DT009  -0.00012833582147943405  1DT012  -0.2213621335691198
    1DICG  1DT015  -5.989650507436411e-05  1DT019  -0.06354302983531793
    1DICG  1DT021  0.36311680955406306  1DT025  -534.120928990409
    1DICG  1DT028  1207.865481430557  1DT078  -13372712.663218955
    1DICG  1DT083  -59254.34112031497  1DT088  -0.020511245243313467
    1DICG  1DT100  -18.871694288106735  1DT101  -0.0034096530816712413
    1DICK  .COSTA  15.342537619972772  1DT002  -0.0032022793328888477
    1DICK  1DT004  -2.7887478280894754e-08  1DT005  -5.823303894215002
    1DICK  1DT007  -0.000807187974124556  1DT009  -7.804360319679292e-07
    1DICK  1DT012  -0.0021122406960977992  1DT015  -4.757456144335715e-07
    1DICK  1DT019  -0.0005047092102359201  1DT021  0.002884162096903279
    1DICK  1DT025  -4.242412628731658  1DT028  9.593826967080059
    1DICK  1DT078  -93621.83868545153  1DT083  -470.64503828965627
    1DICK  1DT088  -0.00016291660020835422
    1DIGD  .COSTA  257.6991540597586  1DT002  -0.05378671348827162
    1DIGD  1DT004  -4.684087951976763e-07  1DT005  -97.81044860653027
    1DIGD  1DT007  -0.013557839208314588  1DT009  -1.712131045087981e-05
    1DIGD  1DT012  -0.02953197141075203  1DT015  -1.4205877416560745e-05
    1DIGD  1DT019  -0.008477289725178873  1DT021  0.04844349422194955
    1DIGD  1DT025  -58.92421628060281  1DT028  161.14160218149223
    1DIGD  1DT078  -1784056.5668882576  1DT083  -8783.48312340165
    1DIGD  1DT088  -0.002736409784084941
    1DLBY  1DT002  -0.7760593946632868  1DT004  -0.00026437337614985176
    1DLBY  1DT005  -10219.42591846323  1DT007  -0.7022210757441351
    1DLBY  1DT076  0.0005785164440576915  1DT101  -0.001704043468351125
    1DLPU  1DT021  205.538704595926  1DT024  18.32872138489708
    1DLPU  1DT040  142570610.45851475  1DT078  17043988284.044018
    1DLPU  1DT100  -3386.284613705748
    1DMCD  .COSTA  312002.59747813724  1DT002  -66.98147110535793
    1DMCD  1DT004  -0.0011342277107311719  1DT005  -306262.4363055553
    1DMCD  1DT007  -19.361050616986084  1DT009  -0.014575207914059293
    1DMCD  1DT011  -0.03129656520300708  1DT014  -0.010736778218640402
    1DMCD  1DT019  -7.868805744959925  1DT021  58.65170991077622
    1DMCD  1DT025  -75820.52305311915  1DT028  195098.034473002
    1DMCD  1DT030  117121240.59852411  1DT078  -1750197974.793916
    1DMCD  1DT083  -8507500.335127061  1DT087  -183.40152082612713
    1DMCG  1DT002  -0.0001316868653401668  1DT004  -2.229913576744267e-09
    1DMCG  1DT005  -0.6021178624918998  1DT007  -3.8064199298233305e-05
    1DMCG  1DT009  -4.1390757992427114e-08  1DT011  -4.934556201537356e-08
    1DMCG  1DT014  -1.333181890264954e-08  1DT019  -1.5470224010078214e-05
    1DMCG  1DT021  0.00011531039401690728  1DT025  -0.17842088146118443
    1DMCG  1DT028  0.38356650234459105  1DT030  230.2626201641813
    1DMCG  1DT078  -4112.322619124476  1DT083  -14.635171166884453
    1DMCG  1DT087  -0.000360570930701462  1DT100  -0.00599284430484129
    1DMCG  1DT101  -1.021389908883387e-06
    1DMCK  .COSTA  0.00017476124281062298  1DT002  -3.751816565077295e-08
    1DMCK  1DT004  -6.353121607313448e-13  1DT005  -0.0001715460205382379
    1DMCK  1DT007  -1.0844657369177709e-08  1DT009  -8.163975139542603e-12
    1DMCK  1DT011  -1.7530067617352036e-11  1DT014  -3.7982936925687924e-12
    1DMCK  1DT019  -4.407534688940939e-09  1DT021  3.285243712656473e-08
    1DMCK  1DT025  -5.083289186758284e-05  1DT028  0.00010927977923901981
    1DMCK  1DT030  0.06560283065577467  1DT078  -0.980334060395292
    1DMCK  1DT083  -0.004169624470505993  1DT087  -1.0272823999543227e-07
    1DMCST  .COSTA  40.87660216353685  1DT101  0.00023170877858599639
    1DMGD  .COSTA  5.584365809247965e-05  1DT002  -1.1988651380381596e-08
    1DMGD  1DT004  -2.030092857849551e-13  1DT005  -5.481625767816145e-05
    1DMGD  1DT007  -3.4653297751533138e-09  1DT009  -3.768176626113344e-12
    1DMGD  1DT011  -4.492374684773286e-12  1DT014  -1.9217178853728978e-12
    1DMGD  1DT019  -1.4083949978925194e-09  1DT021  1.0497752458699313e-08
    1DMGD  1DT025  -1.3570705500514465e-05  1DT028  3.4919542400247386e-05
    1DMGD  1DT030  0.0209628976432138  1DT078  -0.3743820776429658
    1DMGD  1DT083  -0.0015227114895086163  1DT087  -3.282604665934776e-08
    1DN4R  1DT001  -2.2370237475679552e-07  1DT005  0.0016829671761465581
    1DN4R  1DT093  -1.759644155504465e-07
    1DNBY  1DT021  -4.3277871531068775e-05  1DT101  -4.843253337349018e-09
    1DO3R  1DT001  -7.710409894651165e-06  1DT003  0.008269223286589094
    1DO3R  1DT091  -2.329087730855046
    1DO4N  1DT093  -0.00035433523409474576  1DT094  2611.06069992479
    1DO4R  1DT001  -4.34854069601337e-08  1DT006  0.0002491457601916367
    1DO4R  1DT094  -0.9084613676951145
    1DOCST  .COSTA  1.0064666361294219e-06  1DT100  2.0190981392587626e-06
    1DP94  1DT001  -3.0681446111212126e-06  1DT002  -7.41501351478885e-07
    1DP94  1DT004  -7.2482041927809344e-12  1DT005  -5.2849626503885413e-05
    1DP94  1DT009  3.9002376226747144e-10  1DT021  5.611262432885628e-07
    1DP94  1DT024  -3.0525045955317756e-07  1DT038  1.2400792596565947e-09
    1DP94  1DT051  6.485847116798964e-06  1DT052  -4.758743845126912e-10
    1DP94  1DT053  -4.056931842467354  SCROW2  0.001527590823454914
    1DP94  1DT059  -2.4278124970351303e-10  1DT100  -9.634397755634844e-06
    1DP94  1DT101  -1.3767004302105473e-10
    1DP98  1DT001  -4.1400773320468205e-06  1DT002  -8.939719899019537e-07
    1DP98  1DT004  -8.85035426792667e-12  1DT005  -4.807869909901651e-05
    1DP98  1DT009  3.797756656899458e-10  1DT021  5.20579686216292e-07
    1DP98  1DT024  -3.316408224798206e-07  1DT038  1.4125796225475747e-09
    1DP98  1DT051  2.6587560389147217e-06  1DT052  -2.4527114563592943e-10
    1DP98  1DT053  -3.763781022208316  SCROW2  0.0014172082682864162
    1DP98  1DT059  -2.363661653032292e-10  1DT100  -9.376014013132304e-06
    1DP98  1DT101  -1.2772211005006988e-10
    1DPAL  1DT046  0.11109214621792973  1DT051  -0.00020639132024956569
    1DPAL  1DT052  8.22559043650992e-09  1DT053  -66.08632515387006
    1DPAL  SCROW2  0.02488404237018481  1DT101  -2.242607857445146e-09
    1DPC4  1DT051  -0.0028253464493500067  1DT052  1.1464512102476523e-06
    1DPC4  1DT053  -915.5732104593407  SCROW2  0.34474851656571753
    1DPC4  1DT093  0.0004339553684211551  1DT101  -3.1069539289130145e-08
    1DPCT  1DT016  3.4257916976111358  1DT051  0.002976069220406435
    1DPCT  1DT052  -1.5696394599136777e-07  1DT053  -1455.3913804620618
    1DPCT  SCROW2  0.5480108130130893  1DT101  -4.938801087642295e-08
    1DPIN  SCROW2  -0.0006965216539324764  1DT096  0.4585111349282558
    1DPOH  1DT034  322928.34762858367  1DT051  -0.003607883999345439
    1DPOH  1DT052  8.023247549853027e-06  1DT053  -24260.06912988135
    1DPOH  SCROW2  9.134848801563717  1DT101  -8.23253850568332e-07
    1DPPS  1DT048  6.864862068875843e-06  1DT090  0.0001382859537110861
    1DPPS  1DT091  0.017191734082705492  1DT102  6.751842769660948e-10
    1DPREV  .COSTA  -1.683648396192977e-05  1DT102  -4.395828496293689e-10
    1DPRF  1DT007  0.0003488774775556758  1DT051  0.0019999720485057043
    1DPRF  1DT052  6.801646345867846e-09  1DT053  -802.8761980314762
    1DPRF  SCROW2  0.3023137583049308  1DT101  -2.724522003710828e-08
    1DPTL  1DT051  4.3382220560803134e-05  1DT053  46.673592388393246
    1DPTL  1DT101  7.919656356541566e-10
    1DPXY  1DT037  0.7647647531887164  1DT051  -4.0558177229168136e-05
    1DPXY  1DT052  -1.4883082598651556e-09  1DT053  -5.373804348990822
    1DPXY  SCROW2  0.002023443954524988  1DT101  -1.8235748211691842e-10
    1DPYS  1DT027  0.4886248240332786  1DT090  70031.81716192221
    1DPYS  1DT091  8105628444.649364  1DT102  31.809600309338098
    1DR94  1DT001  -0.1025145190546501  1DT002  -0.02477544707302842
    1DR94  1DT004  -2.4218094679745214e-07  1DT005  -1.7658405094810117
    1DR94  1DT009  1.3031686402201143e-05  1DT021  0.018748655702590357
    1DR94  1DT024  -0.010199194633420313  1DT038  4.143420373099227e-05
    1DR94  1DT055  -5.0162502989304076e-05  1DT056  -25.909578736690893
    1DR94  1DT057  -6.91337152668968e-06  SCROW3  4.746812001845795
    1DR94  1DT059  -8.111939365122474e-06  1DT100  -0.3219097459487665
    1DR94  1DT101  -4.59990647030778e-06
    1DR98  1DT001  -37706.61459551294  1DT002  -8142.035662351135
    1DR98  1DT004  -0.08060644056846085  1DT005  -437886.74263337377
    1DR98  1DT009  3.4588857913543936  1DT021  4741.287666891531
    1DR98  1DT024  -3020.4877045625435  1DT038  12.8653624415618
    1DR98  1DT055  -79.28396992041979  1DT056  -3640105.902563311
    1DR98  1DT057  -1.748300447567776  SCROW3  1200406.1282268192
    1DR98  1DT059  -2.1527539665791378  1DT100  -85393.99592821668
    1DR98  1DT101  -1.163255657498238
    1DRAL  1DT046  2390510.4244357697  1DT055  -12.366838344585446
    1DRAL  1DT056  288424.95727756177  1DT057  -0.0725273015819323
    1DRAL  SCROW3  49798.201106581306  1DT101  -0.04825703385572861
    1DRBT  1DT001  -3.5005632678896004  1DT002  -1.6856422772293955
    1DRBT  1DT004  -1.5715851423352108e-05  1DT005  -1539.0014695147154
    1DRBT  1DT007  -2.751571785151714  1DT021  3.5169560348930538
    1DRBT  1DT024  -1.1977604948307956  1DT034  -17754878.17092827
    1DRBT  1DT035  -2.307073166806027  1DT036  -0.05595194468709059
    1DRBT  1DT037  -119888.41504040553  1DT039  5.6853725985181525
    1DRBT  1DT078  -61878038.33571328  1DT100  -28.98813897784625
    1DRBT  SCROW1  -0.02284892884999625
    1DRC4  1DT055  -1.042606821829061  1DT056  232270.68240088364
    1DRC4  1DT057  -0.0058057196020228664  SCROW3  3986.283592577211
    1DRC4  1DT093  53.954219388622974  1DT101  -0.003862915085503177
    1DRCT  1DT016  359.673505812535  1DT055  -0.00036754674812359916
    1DRCT  1DT056  -26.85380767925543  1DT057  -7.793094203167522e-06
    1DRCT  SCROW3  5.350841185418467  1DT101  -5.185242006808962e-06
    1DRIN  SCROW3  -4852.571992944399  1DT097  20.166876402755683
    1DROH  1DT034  392.4033783177712  1DT055  -4.636384715062448e-08
    1DROH  1DT056  0.015886756171189443  1DT057  -1.5034923869552758e-09
    1DROH  SCROW3  0.001032317687474318  1DT101  -1.0003692600801978e-09
    1DRRF  1DT007  147.63109331143394  1DT055  1.760165300180272
    1DRRF  1DT056  4690.049429193183  1DT057  -0.017327508374031263
    1DRRF  SCROW3  11897.2956095879  1DT101  -0.0115290951131891
    1DRTL  1DT055  70.82468969481617  1DT057  1.3919463744800318
    1DRTL  1DT101  0.3473251595771835
    1DRXY  1DT037  150594850.75580436  1DT055  -23.593539268786795
    1DRXY  1DT056  -477566.24340475874  1DT057  -0.05396929452292329
    1DRXY  SCROW3  37056.02888309261  1DT101  -0.035909209582551116
    1DS5B  1DT019  10.327513981338145  1DT073  82137648.27765201
    1DS5B  1DT075  3559748.059388511
    1DS5F  1DT020  1.5001236539352366e-06  1DT073  19.76885275622914
    1DS5F  1DT075  0.39751189136809745
    1DS5G  1DT023  0.030089516634522494  1DT073  792.4840625045821
    1DS5G  1DT075  13.970976584405664
    1DS5L  1DT043  1.2821165454572257e-07  1DT073  -0.11315753247109896
    1DS5L  1DT075  0.001683596651868346
    1DS5P  1DT021  -2.9265272550452597e-07  1DT075  -0.001635765896782247
    1DS5R  1DT072  -0.00021706043805173146  1DT073  4.468266247418349
    1DS5R  1DT075  1.7041142696701204  1DT102  -1.977657520124906e-07
    1DS5S  1DT044  9.401340850262514  1DT073  -31.41333496465245
    1DS5S  1DT075  0.9740216353876483
    1DS5V  1DT008  4765153.956944715  1DT073  -10906112.69642026
    1DS5V  1DT075  154432.7997365043
    1DS6B  1DT019  659.5286867030688  1DT069  253292.0855146102
    1DS6B  1DT070  -25701844553.968117  1DT071  216091465352.6269
    1DS6L  1DT043  16602.49169499495  1DT069  -448916.7672697088
    1DS6L  1DT070  -21662359562.13009  1DT071  207235557752.01587
    1DS6R  1DT069  0.007072496271736688  1DT070  -629.3061658908141
    1DS6R  1DT071  17064.254622777647  1DT072  -0.0022865927959292084
    1DS6R  1DT102  -2.083335627128466e-06
    1DS6S  1DT044  3.22585851352432  1DT069  -0.00027774341643145535
    1DS6S  1DT070  -7.339955512637082  1DT071  317.6907532587434
    1DS6V  1DT008  12.301655398942541  1DT069  -0.0008700181026160411
    1DS6V  1DT070  -466.4819807876407  1DT071  378.97155976645985
    1DSCO  1DT001  -1.2172048192259777e-05  1DT002  -1.8462975815319695e-06
    1DSCO  1DT003  -0.0007274101282794052  1DT004  -6.130234621696903e-12
    1DSCO  1DT005  -0.0009004704712252747  1DT006  -0.00025396496932733847
    1DSCO  1DT009  -5.951932605079898e-12  1DT016  -0.0013407062394923516
    1DSCO  1DT019  5.029522266715859e-07  1DT021  1.473245891686915e-06
    1DSCO  1DT022  -2.85914218908008e-10  1DT023  -1.4934773595577003e-05
    1DSCO  1DT032  6.500613124601863e-08  1DT080  -1.9825654448114298e-08
    1DSCO  1DT081  -0.22013941916715035  1DT084  -0.0030815545160830004
    1DSCO  1DT088  -1.0715064242011388e-08  1DT089  -8.964549888963219e-06
    1DSCO  1DT100  -6.510111796023767e-05
    1DSPF  1DT021  -4.397004366691301  1DT023  50.17200538091989
    1DSUS  1DT082  251.71205597660057  1DT102  41.5364525293729
    1DSVB  1DT001  -313.9435590697828  1DT002  -94.33300103105397
    1DSVB  1DT003  -18162.38074437044  1DT004  -0.0002602072841292418
    1DSVB  1DT005  -31851.550853482207  1DT006  -709.2062948165934
    1DSVB  1DT008  -28381801.85474983  1DT009  -0.009019211565628673
    1DSVB  1DT016  -18673.0519133922  1DT021  62.534199094699716
    1DSVB  1DT044  88781763.37031004  1DT072  714.6845092664839
    1DSVB  1DT074  245.74252217207896  1DT084  -168555.36912604616
    1DSVB  1DT088  -0.5860943232045296  1DT089  -13584.356108163112
    1DSVB  1DT102  0.6280906606267624
    1DTLS  1DT036  0.0007710161621535199  1DT049  3.780032475889824e-05
    1DTLS  1DT102  0.00010039224081766613
    1DV6I  1DT001  -1.0605057181514883  1DT002  -0.5106701798986162
    1DV6I  1DT004  -4.761162425763575e-06  1DT005  -466.24492510539943
    1DV6I  1DT007  -0.8335965925326392  1DT021  1.0654719541007012
    1DV6I  1DT024  -0.3628649895848919  1DT034  -5378891.448148023
    1DV6I  1DT035  -0.6989344566443689  1DT036  -0.016950802696998054
    1DV6I  1DT037  -36320.540427518055  1DT039  1.7223999936973682
    1DV6I  1DT088  0.058196202014167045  1DT100  -8.782040143816513
    1DV6M  1DT001  -84.27138697844012  1DT002  -35.26226204850136
    1DV6M  1DT004  -0.000463639843096172  1DT005  -34052.03991002032
    1DV6M  1DT007  -55.30586084328925  1DT021  61.30987724517667
    1DV6M  1DT024  -12.760088079402374  1DT034  -433320504.0119567
    1DV6M  1DT035  -17.23646056206099  1DT036  -0.6699113223134073
    1DV6M  1DT037  -348328.8738102167  1DT039  99.11113265276816
    1DV6M  1DT087  201.49850157166844  1DT100  -505.3401932423983
    1DV6Y  1DT001  -1.917957819612918e-07  1DT002  -8.378563725963864e-08
    1DV6Y  1DT004  -8.345766459334136e-13  1DT005  -6.538186954889025e-05
    1DV6Y  1DT007  -1.3478015438959788e-07  1DT021  1.6186291068627516e-07
    1DV6Y  1DT024  -4.5937689220180346e-08  1DT034  -1.0665867470503985
    1DV6Y  1DT035  -5.417335132422517e-08  1DT036  -2.1223424623288444e-09
    1DV6Y  1DT037  -0.003678462781161711  1DT039  2.616612058842878e-07
    1DV6Y  1DT079  0.0008797709953186756  1DT100  -1.3341379601508554e-06
    1DXC3  1DT090  1121409.3579438014  1DT095  201818168.11191064
    1DXI4  1DT092  5.843266204745916
    1DXO4  1DT094  118186.0114849277
    1DXPY  1DT091  4.446254953367403
    1DXYS  1DT037  26054917.94049069  1DT050  28.829132262874634
    1DXYS  1DT102  0.6143521785391896
    1DYCD  .COSTA  40727.038087897796  1DT002  -2.428716358756964
    1DYCD  1DT004  -5.443220989357694e-05  1DT005  -9914.48205323778
    1DYCD  1DT007  -0.5494089195530154  1DT009  -0.001268376294840553
    1DYCD  1DT010  -0.0013198621309832253  1DT013  -0.04504645811699399
    1DYCD  1DT018  -55719863.49536963  1DT020  -2.9045309870351543
    1DYCD  1DT021  7.656059413492217  1DT028  25466.983752956505
    1DYCD  1DT029  1861102508.7401035  1DT078  -122588750.42932233
    1DYCD  1DT079  -17213.953820349758
    1DYCG  1DT002  -3.689339292781244e-05  1DT004  -7.516836097360202e-10
    1DYCG  1DT005  -0.13691440551488931  1DT007  -7.587082734252713e-06
    1DYCG  1DT009  -2.189461151938849e-08  1DT010  -1.5849291102856454e-08
    1DYCG  1DT013  -4.147138163158316e-07  1DT018  -814.0980797970576
    1DYCG  1DT020  -4.011022777126565e-05  1DT021  0.00010572663479103676
    1DYCG  1DT028  0.35168725124220673  1DT029  25700.963723385456
    1DYCG  1DT078  -1923.743033597204  1DT079  -0.2377167300539185
    1DYCG  1DT100  -0.0054947627798808685  1DT101  -8.447782742320554e-07
    1DYCK  .COSTA  0.655604331760229  1DT002  -3.909631144748402e-05
    1DYCK  1DT004  -8.762236162741055e-10  1DT005  -0.1595985783997691
    1DYCK  1DT007  -8.844121362061373e-06  1DT009  -2.0417713446403445e-08
    1DYCK  1DT010  -2.1246507750732283e-08  1DT013  -4.834241895718697e-07
    1DYCK  1DT018  -948.9790042543225  1DT020  -4.675574719483243e-05
    1DYCK  1DT021  0.00012324357359026056  1DT028  0.40995529380927465
    1DYCK  1DT029  29959.135843527325  1DT078  -1973.3749268258118
    1DYCK  1DT079  -0.27710197503155504
    1DYCO  1DT001  -22879.948984985003  1DT002  -2742.130027623118
    1DYCO  1DT003  -1286891.089046619  1DT004  -0.013520411006330883
    1DYCO  1DT005  -1324009.234158816  1DT006  -294803.75620644947
    1DYCO  1DT009  -0.005966891234312571  1DT016  -1344075.754719957
    1DYCO  1DT020  655.86922960302  1DT021  1476.9485107393375
    1DYCO  1DT022  -1.0366552560008977  1DT023  -14972.30825124489
    1DYCO  1DT032  65.16950719122502  1DT080  -19.730404552293358
    1DYCO  1DT081  -116814919.68654083  1DT084  -3089299.1991170472
    1DYCO  1DT088  -10.741993759503524  1DT089  -8987.079945488447
    1DYCO  1DT100  -65264.73262976006
    1DYGD  .COSTA  4984.068328608003  1DT002  -0.29721995144178565
    1DYGD  1DT004  -6.661271384410744e-06  1DT005  -1213.308365058312
    1DYGD  1DT007  -0.06723522563779614  1DT009  -0.00019402571414070245
    1DYGD  1DT010  -0.00014045328103366565  1DT013  -0.005512667646793398
    1DYGD  1DT018  -6818851.062094695  1DT020  -0.3554489003275731
    1DYGD  1DT021  0.936928513248957  1DT028  3116.582818380859
    1DYGD  1DT029  227756854.06056595  1DT078  -17047830.037375502
    1DYGD  1DT079  -2106.5986154200705
    SCCOL1  SCROW1  1.108021873945519e-08  SCROW6  3.6686334978779863e-09
    SCCOL2  SCROW2  -0.0015227768226670642  1DT054  4.6993041379394995
    SCCOL3  SCROW3  -10359.458993329756  1DT058  0.27046775070665985
    SCCOL4  SCROW4  -0.06128598665979177  1DT061  4806147152.058436
    SCCOL5  SCROW5  -0.03682028011372131  1DT065  1.2362595477685607
    1M1SK  1MS014  0.00014312870831817483  1MS056  5.5299535323501874e-11
    1M1YK  1MS013  27975519.686750196  1MS056  9.268539261823667e-05
    1M2BD  1MS027  333019.9305288858  1MS046  51314.5940375141
    1M2BD  1MS047  -184702506002.00162  1MS048  -524107861.17268026
    1M2BD  1MS057  54.450981015860386
    1M2BG  1MS026  3.4483994601204502e-06  1MS046  -0.0005263965971263601
    1M2BG  1MS047  -3789.4393384106693  1MS048  -10.833477856421627
    1M2BG  1MS057  1.1171407142376173e-06
    1M2SK  1MS014  0.0029538826540940013  1MS046  -0.001854715113214018
    1M2SK  1MS047  -778.8537063354164  1MS048  -1.8185624532977447
    1M2SK  1MS057  2.624102280288663e-07
    1M2YK  1MS013  4874478.3391510565  1MS046  -17.496825442001228
    1M2YK  1MS047  -12595666.26934486  1MS048  11169.122463746626
    1M2YK  1MS057  0.003713248941553492
    1M1IN  1MS056  -1.919962742304638e-09  1MS077  0.00013820640689897432
    1M2IN  1MS057  -1.2746535679813032e-08  1MS078  3.1123526091881657
    1M2LS  1MS033  0.00553783644495414  1MS046  0.8844700419735915
    1M2LS  1MS047  50027.599341000576  1MS048  -234.87470723068017
    1M2LS  1MS057  0.00010726051691347172
    1M2LY  1MS032  710798.592251577  1MS046  171145.622208029
    1M2LY  1MS048  693962619.6352664  1MS057  24.214156357375213
    1M2SD  1MS018  11486.620175411661  1MS046  -264536.8853432515
    1M2SD  1MS047  89266684086.15143  1MS048  -221216402.40773892
    1M2SD  1MS057  35.088197597572844
    1M2SG  1MS016  2.521661818567318  1MS046  -5.532849127115769
    1M2SG  1MS047  3481646.623384574  1MS048  -5157.070617078525
    1M2SG  1MS057  0.0008211218279487486
    1M2UD  1MS046  -2.7671632263387087  1MS047  276671.33601607935
    1M2UD  1MS048  -4082.398509856385  1MS057  0.0006525098545173396
    1M2UD  1MS059  3.2102395572613533e-06
    1M2UG  1MS035  3.0115743940208423e-05  1MS046  -0.0002402876741146888
    1M2UG  1MS047  91.04157845566374  1MS048  -0.2712545075579476
    1M2UG  1MS057  5.367878722868642e-08
    1M2UL  1MS036  0.004337457054276548  1MS046  7810.316980420122
    1M2UL  1MS047  1349403361.919814  1MS048  -7977162.45147744
    1M2UL  1MS057  1.3260303182141215
    1M2YD  1MS017  5.624393997852013e-05  1MS046  -0.6176158283380304
    1M2YD  1MS047  277881.93929084856  1MS048  4194.882873587527
    1M2YD  1MS057  0.00016384124426349137
    1M2YG  1MS015  2398.9806455821135  1MS046  -6.49889717469643
    1M2YG  1MS047  4128039.9290956683  1MS048  43535.685587397
    1M2YG  1MS057  0.0016226152254405326
    1M5LS  1MS033  0.00014361311426556468  1MS045  -0.09634739253135488
    1M5LS  1MS055  -0.037764897574744036
    1M5LY  1MS032  25790.215370620925  1MS045  -27093.054264234594
    1M5LY  1MS055  -11928.125585550551
    1M5R  1MS041  9.928110638207008e-05  1MS055  24.482519076208078
    1M5SB  1MS022  2.018072192028025e-06  1MS045  0.009500759006603177
    1M5SB  1MS055  -0.0097343586704663
    1M5SD  1MS018  206.38229310621307  1MS045  -12684.337503168168
    1M5SD  1MS055  -8559.249450554307
    1M5SG  1MS016  1.2952547539660806  1MS045  -8.280517895509766
    1M5SG  1MS055  -5.726251256371818
    1M5SL  1MS034  7255.550194801026  1MS045  -7834.0310793878325
    1M5SL  1MS055  -6098.46042172237
    1M5YB  1MS021  18571.07991637061  1MS045  1.789187348015455
    1M5YB  1MS055  -0.9644577816094212
    1M5YD  1MS017  0.002621169818937451  1MS045  -138.74840405526444
    1M5YD  1MS055  -103.66618362924687
    1M5YG  1MS015  587.4309379636128  1MS045  -7.413459112243063
    1M5YG  1MS055  -5.394361769451691
    1M65S  1MS002  -18.69059196300389  1MS004  -1.3767704829414218
    1M65S  1MS005  -18.556658792218393  1MS006  -6.27185304606526
    1M65S  1MS007  -714206.1897351234  1MS008  -2424.531629454049
    1M65S  1MS009  -433888.14673903806  1MS020  41585228.3142981
    1M65S  1MS023  0.0072317486659895765  1MS031  -500.07548691350996
    1M65S  1MS033  -0.9762118657986536  1MS034  -90.49293152635153
    1M65S  1MS063  42852527.14974293
    1M65Y  1MS002  -1093.5746304296003  1MS004  -88.6093603966185
    1M65Y  1MS005  -1055.578889087144  1MS006  -366.9621267499581
    1M65Y  1MS007  -39399877.84945718  1MS008  -143335.4867182019
    1M65Y  1MS009  -24593190.370807678  1MS019  0.5316314091925262
    1M65Y  1MS023  0.42312500804807507  1MS031  -29259.098206777882
    1M65Y  1MS032  -27663.71496936876  1MS034  -7942.025673635998
    1M65Y  1MS063  2507274067.8044834
    1M6SB  1MS003  1.7691069780144144e-05  1MS022  0.0001937978308805809
    1M6SB  1MS040  1.4995821256310491e-06  1MS043  0.00047263381375421785
    1M6SB  1MS044  2.30061109692332e-07
    1M6SD  1MS003  0.00946243218289975  1MS018  12.056048661124146
    1M6SD  1MS040  0.00080208231287395  1MS043  -0.31870891224045583
    1M6SD  1MS044  -0.0007293533510899984
    1M6SG  1MS003  0.223650174981823  1MS016  2673.12642748915
    1M6SG  1MS040  0.018957689329416324  1MS043  -7.335677792231247
    1M6SG  1MS044  -0.017161652892459203
    1M6SL  1MS003  5.089255220013957  1MS034  319940.9532427555
    1M6SL  1MS040  0.43139031474925654  1MS043  -146.73376078411454
    1M6SL  1MS044  -0.3243382117993346
    1M75S  1MS002  -6.489489156479755e-06  1MS004  -6.883534496007641e-07
    1M75S  1MS005  -7.3378459992204445e-06  1MS006  -2.5859310858998472e-06
    1M75S  1MS007  -0.2834020656229299  1MS008  -0.0009733455652966961
    1M75S  1MS009  -0.1777183278111532  1MS020  14.438648532349658
    1M75S  1MS023  3.254880578842978e-09  1MS031  -0.00019210050512436284
    1M75S  1MS033  -2.6362528812159507e-07  1MS034  -1.5709852824370952e-05
    1M75S  1MS063  14.878662527996102
    1M75Y  1MS002  -35.6688920391079  1MS004  -4.098762061295885
    1M75Y  1MS005  -38.364403621229194  1MS006  -13.679001079599704
    1M75Y  1MS007  -1440866.8588113226  1MS008  -5205.314082401726
    1M75Y  1MS009  -905654.2194465058  1MS019  0.017340109043712627
    1M75Y  1MS023  0.017890157632980307  1MS031  -1055.8631061271221
    1M75Y  1MS032  -706.1490237911787  1MS034  -151.1086318128271
    1M75Y  1MS063  81779227.08561796
    1M94S  1MS002  -9.37790520674857  1MS004  -0.16613433951157602
    1M94S  1MS005  -5.7787795479278925  1MS007  -40762.217044720965
    1M94S  1MS008  -288.2841757628191  1MS023  0.007239344435707106
    1M94S  1MS025  0.0043533757865264365  1MS028  -2910820.714601522
    1M94S  1MS029  -30016312.63543416  1MS062  0.036151985315623275
    1M94Y  1MS002  -41436.198168091774  1MS004  -923.4407255018577
    1M94Y  1MS005  -30859.650136275955  1MS007  -157719391.72620717
    1M94Y  1MS008  -152853.75536153172  1MS023  23.263261621614856
    1M94Y  1MS024  16185.720762541718  1MS028  -7398464442.962364
    1M94Y  1MS029  -92689872943.8374  1MS062  116.1725484962336
    1M98S  1MS002  -0.08857465686220123  1MS004  -0.0015644327518150205
    1M98S  1MS005  -0.05539673883850604  1MS007  -335.23864148827084
    1M98S  1MS008  -2.81793836909935  1MS023  6.325369789778928e-05
    1M98S  1MS025  3.65491494678419e-05  1MS028  -25542.596129036523
    1M98S  1MS030  -457496.8398878167  1MS062  0.0003551150932503451
    1M98Y  1MS002  -1638.5320816252354  1MS004  -35.8266423383207
    1M98Y  1MS005  -1223.8587271430565  1MS007  -5426347.416641562
    1M98Y  1MS008  -61163.284667315944  1MS023  0.8775919966153516
    1M98Y  1MS024  586.7032992238956  1MS028  -283505675.4701344
    1M98Y  1MS030  -6077440314.7701025  1MS062  4.926924022962288
    1MAF1  1MS014  0.0002492151901025487  1MS026  2.2779829208000922e-08
    1MAF1  1MS039  1.3057334639018112e-05
    1MAF2  1MS014  4.428355570764477  1MS027  0.8019979672379439
    1MAF2  1MS039  0.23201844383658413
    1MAF3  1MS013  3936.7435291757897  1MS026  3.0856842026891875e-06
    1MAF3  1MS039  0.0017687055884814638
    1MAF4  1MS013  74.93408072584091  1MS027  0.00011637201853832068
    1MAF4  1MS039  3.366648763508966e-05
    1MALK  1DT046  0.69326152548785  1MS001  -1.2086159487881802
    1MALK  1MS042  1.137894391032478e-08  1MS049  -0.06210536070478392
    1MALK  1MS050  -0.007126541742151896  1MS051  -2.1893771726619584e-08
    1MALK  1MS074  -7.57639721571316e-06
    1MASP  1MS003  0.0029711707892893483  1MS019  0.00018733425772776428
    1MASP  1MS021  2357700.244251725  1MS038  43.07966329632467
    1MC2P  1MS004  1.5835763905906275e-06  1MS065  -3.9128071255282593
    1MC3F  1MS023  -2.5208035703675162  1MS068  1320408091.195808
    1MC3P  1MS005  4.537121215732472e-05  1MS065  -1.077944920372481
    1MC3P  1MS068  -7.0327561754516505
    1MC3S  1MS003  1.0229318490933214e-07  1MS037  4.590178210954906e-09
    1MC3S  1MS068  703.2711014040054
    1MC4P  1MS007  442570733.4394274  1MS065  -69648230.81269188
    1MC4P  1MS067  -3.645904424177114
    1MCSD  1MS001  -0.05336447853603448  1MS002  -1.7013907960749986e-06
    1MCSD  1MS005  -1.799376143776047e-07  1MS007  -0.04986298598439199
    1MCSD  1MS008  -3.526478895839422e-05  1MS010  -3.4737213618385e-07
    1MCSD  1MS014  -1.7886715191575814e-05  1MS018  -4.001344648741906e-07
    1MCSD  1MS020  -2.496848627609685  1MS022  -3.7843495950456075e-09
    1MCSD  1MS023  6.498139663527319e-10  1MS061  3.1019336628775522
    1MCSD  1MS064  0.03135868346409218  1MS073  -1.0009158579352455e-08
    1MCSG  1MS001  -0.09225733967004825  1MS002  -2.9413908444545833e-06
    1MCSG  1MS005  -3.1107894360559085e-07  1MS007  -0.08620390494059817
    1MCSG  1MS008  -6.096631509535417e-05  1MS010  -6.005423465008372e-07
    1MCSG  1MS012  -1.4618275814896855  1MS014  -3.0922831146871115e-05
    1MCSG  1MS016  -3.2446859380318388e-06  1MS020  -4.944002142882987
    1MCSG  1MS022  -6.542442381116469e-09  1MS023  1.1234084818361683e-09
    1MCSG  1MS061  5.3626711142096175  1MS064  0.05421337922376074
    1MCYD  1MS001  -8890.716207367432  1MS002  -0.48520324107804313
    1MCYD  1MS005  -0.01764267181988348  1MS007  -8381.155251819337
    1MCYD  1MS008  -3.457671151984748  1MS010  -0.02462127476629856
    1MCYD  1MS013  -336670.45758458565  1MS017  -8.228101705869103e-05
    1MCYD  1MS019  -0.00011009195843865754  1MS021  -172317.04342937865
    1MCYD  1MS023  0.00012742699287186877  1MS060  1787.098388833084
    1MCYD  1MS061  608281.9071542504  1MS064  5061.399755623
    1MCYD  1MS072  -1.0413473397023339e-05
    1MCYG  1MS001  -0.006196062534980266  1MS002  -3.381448191320518e-07
    1MCYG  1MS005  -1.2295420900910826e-08  1MS007  -0.0058409424892696665
    1MCYG  1MS008  -2.409698632078872e-06  1MS010  -1.715890537778053e-08
    1MCYG  1MS011  -0.00011109512922982379  1MS013  -0.23463027727123847
    1MCYG  1MS015  -0.00011607408065481341  1MS019  -8.821161824124366e-11
    1MCYG  1MS021  -0.12009012007903085  1MS023  8.880562578572853e-11
    1MCYG  1MS060  0.0012454534724881305  1MS061  0.4239200361048072
    1MCYG  1MS064  0.0035273591765741406
    1MFG  1MS023  -0.00016554345652247307  1MS065  84101.43752668671
    1MH2P  1MS028  0.2903776194742453  1MS065  -0.2502585744851172
    1MI4D  1DT093  -5357.559725273858  1MS069  7472580.186369773
    1MI4D  1MS074  -207.65979657185437
    1MI4P  1MS008  1023664.6002092856  1MS065  -143950285.8005253
    1MI4P  1MS069  -157255.1951022292
    1MIN4  1MS067  -1.7793586137978783e-08  1MS069  0.00041513025895533026
    1MMLC  .COSTA  18825.375017109705  1MS001  8720746.4161531
    1MN4D  1DT093  1.854560182412653e-07  1MS007  -1.2516530124637362
    1MN4D  1MS074  -7.188302323412493e-09
    1MO4P  1MS009  744261253.4226072  1MS065  -206147296.97344047
    1MO4P  1MS071  -6163.224052944106
    1MON4  1MS067  -2.0662101834916262e-05  1MS071  0.0032741877483728437
    1MOPC  .COSTA  4.332807770087992  1MS002  6.063272551215012
    1MP94  1MS001  -23989042.268261153  1MS029  53773561435.124146
    1MP94  1MS042  0.22585335458021016  1MS049  -2641477.3819705513
    1MP94  1MS050  55969.485067009635  1MS051  -0.4345554234065346
    1MP98  1MS001  -0.29805640638814856  1MS030  1238.1532930456608
    1MP98  1MS042  2.8061578484085602e-09  1MS049  -0.012398491687964752
    1MP98  1MS050  -0.00015804624650855067  1MS051  -5.399216293365614e-09
    1MPC3  1MS002  -2.3871323886953504e-05  1MS005  -8.915030836176398e-06
    1MPC3  1MS031  -0.00011501203664810838  1MS070  7.476148462350441e-05
    1MPC4  1MS002  -0.0004147934270962409  1MS007  -14.429376452281907
    1MPC4  1MS031  -0.0027649485258281533  1MS071  0.00020254255549803911
    1MPCP  1MS001  -0.0037445452386675095  1MS031  0.00010655731259181508
    1MPCP  1MS042  3.5254350468561355e-11  1MS049  -0.00015576485531522917
    1MPCP  1MS050  1.1119181873447636e-05  1MS051  -6.783148837112918e-11
    1MPIN  1MS042  -1.4831471303194885e-10  1MS075  3.482937695748476e-10
    1MPN4  1MS001  -0.04799549620627107  1MS042  4.518706375064387e-10
    1MPN4  1MS049  0.07105216792992726  1MS050  -0.0004677693030785782
    1MPN4  1MS051  -8.694262547995688e-10  1MS067  4.6405788406977343e-07
    1MPRC  .COSTA  -0.005545093186267096  1MS003  -1.5972478107802307e-07
    1MPSD  1MS010  -1.600428234771583e-05  1MS025  -1.78186178200262e-07
    1MPSD  1MS027  -0.0020963317913663326  1MS073  5.799264967887649e-06
    1MPSG  1MS010  -4.551457481617508  1MS012  139327601.901444
    1MPSG  1MS025  -0.05810660295307767  1MS026  -0.15044906100366076
    1MPSR  1MS001  -0.5489231128698561  1MS010  0.00035203041857438276
    1MPSR  1MS042  5.168031514634316e-09  1MS049  -0.02552034794939563
    1MPSR  1MS050  0.0025032008286440597  1MS051  -9.943603127766037e-09
    1MPTL  1MS001  45.60672964420008  1MS050  0.16829827808660872
    1MPTL  1MS051  1.6521404649655679e-06
    1MPYD  1MS010  -4.774963328895021e-07  1MS024  -6.643028658776227e-06
    1MPYD  1MS027  -4.548740466737838e-05  1MS072  1.6156418891932315e-09
    1MPYG  1MS010  -5.107209763567353e-05  1MS011  2.6453255202260375
    1MPYG  1MS024  -0.0007807010595619487  1MS026  -1.2277784006643789e-06
    1MPYP  1MS006  9.003121350599769e-07  1MS065  -0.12907383814637022
    1MPYP  1MS070  -2.8493871292057494e-06
    1MR94  1MS029  412.97376808914  1MS052  -6.9622721829032956e-09
    1MR94  1MS053  -0.9515704227452707  1MS054  -0.006223946767395029
    1MR94  1MS058  1.900478812660699e-07
    1MR98  1MS030  376344.1062539644  1MS052  -1.2933914718787233e-06
    1MR98  1MS053  -1497.385077547765  1MS054  -3.060613273523509
    1MR98  1MS058  9.345566241907347e-05
    1MRCP  1MS031  850902.4132437741  1MS052  -0.4268904194796679
    1MRCP  1MS053  -360368417.74330276  1MS054  -1010170.9440697477
    1MRCP  1MS058  30.845515685114517
    1MRIN  1MS001  -0.0034305017178141942  1MS058  -3.538784352285723e-09
    1MRIN  1MS076  0.12659537058311557
    1MRN4  1MS052  1.419187618375158e-05  1MS053  -1147.456087367065
    1MRN4  1MS054  -0.943651912885037  1MS058  2.8814360629812365e-05
    1MRN4  1MS067  0.0002700748848953191
    1MRSR  1MS010  0.10164102986225489  1MS052  -2.528866433362132e-06
    1MRSR  1MS053  1648.1260568887794  1MS054  -5.354262714909263
    1MRSR  1MS058  0.00016349212529276065
    1MRTL  1MS001  471338.51880884264  1MS053  9282561.571924448
    1MS6P  1MS023  -6.79423299621637e-05  1MS055  0.24117673157125114
    1MSRD  1DT020  -0.0034315047512060107  1MS021  107173.61055053334
    1MSRD  1MS074  -0.001372104983229729
    1MSWD  1DT019  -0.3926029896952736  1MS022  0.1717246661769594
    1MSWD  1MS074  -0.2042004731453971
    1MTCS  .COSTA  -615582.8117241673  1MS074  5851.41842229236
    1MULS  1MS002  -0.0007251922689369708  1MS010  -1.5118394732904666e-05
    1MULS  1MS023  4.221852372855181e-07  1MS028  203.4742705504521
    1MULS  1MS033  0.00022796270016485492  1MS036  -1.4298170828071827e-08
    1MULS  1MS064  87.13713215276276
    1MULY  1MS002  -543.7962141175118  1MS010  -11.336753260399462
    1MULY  1MS023  0.3165818825243461  1MS028  190722761.97499534
    1MULY  1MS032  97190.4926822848  1MS036  -0.01072169615998304
    1MULY  1MS064  65341075.19263707
    1MUYD  1MS002  -16.93177467416746  1MS010  -0.3529839795836409
    1MUYD  1MS017  0.035388761696434914  1MS023  0.009857172524683388
    1MUYD  1MS028  2969195.7641117964  1MS059  -0.0005021094894065538
    1MUYD  1MS064  2034476.0287177893
    1MUYG  1MS002  -2.3972926130859427  1MS010  -0.049977388848942365
    1MUYG  1MS015  21579.56231900283  1MS023  0.0013956320193293098
    1MUYG  1MS028  420394.8616780938  1MS035  -8.106950659753196
    1MUYG  1MS064  288052.1651747882
    SCCOL6  SCROW6  -2.403437937313902e-06  1RB045  -0.0010641397504010666
    1P1BNP  1PD013  -1.623623824093697e-10  1PD025  1.2748725352393022e-08
    1P1BNR  1PD018  -0.9073960814061903  1PD026  5.309513983043491e-06
    1P1SNP  1PD013  4.6396039975528964e-11  1PD025  -3.6430259417807864e-09
    1P1SNR  1PD018  9680508.272086607  1PD026  -56.644275952745346
    1P2BNP  1PD027  -3111525.9682208565  1PD031  -0.2689793641360052
    1P2BNP  1PD039  4.48791669736999
    1P2BNR  1PD028  -0.0010718579456246388  1PD032  -2.5341399686786208e-05
    1P2BNR  1PD040  3.650065214137227
    1P2SNP  1PD027  40.30608894591869  1PD031  3.4843052207215087e-06
    1P2SNP  1PD039  -5.813558088011074e-05
    1P2SNR  1PD028  1143.2476341389622  1PD032  27.029230278089383
    1P2SNR  1PD040  -3893173.0063198647
    1PG11D  1DT061  -272362490487.42755  1PD015  -1723282.448516129
    1PG11I  1PD015  -0.0031494768230367924
    1PG11R  1PD015  -1421941.5021322314  1RB040  -2007.1334688763438
    1PG11T  1PD015  0.06980515465097124  1PD019  -1.958096014731991e-08
    1PG11T  1PD023  0.0007219818559848235
    1PG12D  1DT065  -0.007954514441781338  1PD016  -0.5356629457524509
    1PG12I  1PD016  -0.00027856639693647745
    1PG12R  1PD016  -1.2302567334280246  1RB041  -1.306875006190881e-06
    1PG12T  1PD016  0.0015965859609852378  1PD020  -1.766302176918278e-08
    1PG12T  1PD024  9.207850789964975e-05
    1PG1PD  1DT054  -0.2281542909665151  1PD013  -1.4212351298088304e-11
    1PG1PD  1PD025  2.2319130899941522e-10
    1PG1PI  1PD013  -8.36743225935702e-12  1PD025  1.3140247660364468e-10
    1PG1PI  1PD069  8.334210902061436e-09
    1PG1PR  1PD013  -2.7949705781325426e-09  1PD025  4.389232498300005e-08
    1PG1PR  1RB038  -0.006617808705321333
    1PG1PT  1PD013  1.0067856596899537e-05  1PD017  -2273.851726408547
    1PG1PT  1PD021  174.0999551623966  1PD025  -0.00015810600551244863
    1PG1RD  1DT058  -0.02218262744401034  1PD014  -13835969.729745772
    1PG1RD  1PD026  0.3555326776617669
    1PG1RI  1PD014  -1672.191361446453  1PD026  4.2969064251404423e-05
    1PG1RI  1PD070  0.00038709245132503866
    1PG1RR  1PD014  -23218670246.99793  1PD026  596.6329911024206
    1PG1RR  1RB039  -40.766817521671314
    1PG1RT  1PD014  17336347.47988879  1PD018  -380662.11699611193
    1PG1RT  1PD022  25615.490522779397  1PD026  -0.44547929496756267
    1PG21D  1DT061  -1.9459340689705358  1PD029  -0.03539413630947675
    1PG21I  1PD029  -533068216.86374146
    1PG21M  1MS056  -4.9992027419066656e-05  1PD029  -356008.2078038758
    1PG21R  1PD029  -6756161.159090705  1RB040  -3.317420269355383
    1PG21T  1PD029  58898130.14701387  1PD033  -0.26201026644802444
    1PG21T  1PD037  10757.575502782429
    1PG22D  1DT065  -0.01808600976358452  1PD030  -11795.157281162798
    1PG22I  1PD030  -47356804.55013333
    1PG22M  1MS057  -2.8146053313564647  1PD030  -86329769.08637582
    1PG22R  1PD030  -106656.98994073352  1RB041  -1.1698887904991817e-05
    1PG22T  1PD030  541013320.423205  1PD034  -8104034.307128543
    1PG22T  1PD038  10811114.338016862
    1PG2PD  1DT054  -41.44897499741787  1PD027  -16.059887599980126
    1PG2PD  1PD039  4.632803226067767e-06
    1PG2PI  1PD027  -0.06612720556176264  1PD039  1.9075745664481452e-08
    1PG2PI  1PD071  9.355019358243103e-11
    1PG2PM  1MS042  -3.6499326758313134e-08  1PD027  -595.5847542523709
    1PG2PM  1PD039  0.00017180861034796885
    1PG2PR  1PD027  -0.5075180677055265  1PD039  1.464039724261054e-07
    1PG2PR  1RB038  -0.000193195525177125
    1PG2PT  1PD027  299438923.3461629  1PD031  -25.885334727022908
    1PG2PT  1PD035  53973.59619612446  1PD039  -86.37928512588589
    1PG2RD  1DT058  -0.0019377467054715728  1PD028  -0.1121778761270079
    1PG2RD  1PD040  76.40127409017254
    1PG2RI  1PD028  -0.10750271143147425  1PD040  73.217147668348
    1PG2RI  1PD072  4816.012662980823
    1PG2RM  1MS058  -0.00013963996659280872  1PD028  -0.0024447456907076347
    1PG2RM  1PD040  1.6650492240114063
    1PG2RR  1PD028  -3.6014205345523776e-09  1PD040  2.4528287294616206e-06
    1PG2RR  1RB039  -6.812863913787674e-11
    1PG2RT  1PD028  12.276442550382242  1PD032  -0.2902457724654983
    1PG2RT  1PD036  3560861.380713565  1PD040  -8361.148245328504
    1PT11D  1DT061  -629975.9204027866  1PD004  0.40942082080226067
    1PT11D  1PD011  88.5618132746653
    1PT11I  1PD011  0.0005060554965319538  1PD019  6.388975960046122e-12
    1PT11R  1PD004  433.83185208141424  1PD011  56630.9457047509
    1PT11R  1RB040  -3.5977829111988195
    1PT12D  1DT065  -1.7029916691338556e-05  1PD004  0.0004007187591141125
    1PT12D  1PD012  8.312322360026995e-09
    1PT12I  1PD012  1.2025376044258065e-08  1PD020  1.8354368252591622e-08
    1PT12R  1PD004  353.08717960422223  1PD012  0.004419981546469431
    1PT12R  1RB041  -0.0006477789549213082
    1PT1PD  1DT054  -20.93319281726672  1PD004  0.00010942778822221187
    1PT1PD  1PD009  0.21905512685331985
    1PT1PI  1PD009  386157279.58008224  1PD017  519168927.04607546
    1PT1PR  1PD004  0.5287456879030058  1PD009  638.7463673372824
    1PT1PR  1RB038  -9.002948303801654
    1PT1RD  1DT058  -2.2121645665659465e-06  1PD004  0.01469748491319606
    1PT1RD  1PD010  0.021819645763009397
    1PT1RI  1PD010  89.63563949968875  1PD018  124459.80913084457
    1PT1RR  1PD004  998.855722838768  1PD010  894.8767787133878
    1PT1RR  1RB039  -0.099357134621926
    1PT21D  1DT061  -14701427.641088398  1PD004  13.57454873724795
    1PT21D  1PD051  1308.7114253604943
    1PT21I  1PD019  8.759691543508116e-12  1PD051  0.0004393569885308188
    1PT21R  1PD004  4.449589977594403e-05  1PD051  0.0030356841222005187
    1PT21R  1RB040  -3.045621198588771e-07
    1PT22D  1DT065  -1.787201522573019e-05  1PD004  0.0005974761745084114
    1PT22D  1PD052  0.9244649885602256
    1PT22I  1PD020  5.370892130876734e-08  1PD052  3.7291748257285557
    1PT22R  1PD004  4.924469967692984  1PD052  5391.969944447092
    1PT22R  1RB041  -7.456701402619807e-06
    1PT2PD  1DT054  -0.10182530244074556  1PD004  7.562541513773397e-07
    1PT2PD  1PD049  7.543323422977966e-12
    1PT2PI  1PD017  1.7051427848551524  1PD049  8.978532483673804e-09
    1PT2PR  1PD004  87.74816892505895  1PD049  0.0006193713501687405
    1PT2PR  1RB038  -1233.1569474915218
    1PT2RD  1DT058  -0.01148983456964008  1PD004  108.45742336173514
    1PT2RD  1PD050  25984.475358895063
    1PT2RI  1PD018  2.404075592903059  1PD050  0.39698090997608204
    1PT2RR  1PD004  1.195769432423624  1PD050  202.73102225878162
    1PT2RR  1RB039  -9.817165602826527e-05
    1PT31D  1DT061  -218587.62019648706  1PD004  0.14704097329444354
    1PT31D  1PD055  0.1486018075375257
    1PT31I  1PD019  2.7218321007750754e-11  1PD055  1.0425675515154284e-05
    1PT31R  1PD004  49389.56405682348  1PD055  20894.16238685506
    1PT31R  1RB040  -274.4922747301675
    1PT32D  1DT065  -3.943578627000972e-06  1PD004  9.604715087523801e-05
    1PT32D  1PD056  134.43402427191447
    1PT32I  1PD020  2.0516008296386357  1PD056  93877373957.8415
    1PT32R  1PD004  1.5126329222401446e-06  1PD056  0.8862623720183798
    1PT32R  1RB041  -1.859772612324915e-12
    1PT3PD  1DT054  -23220.68485425838  1PD004  0.12564175780302408
    1PT3PD  1PD053  2220.3538295909157
    1PT3PI  1PD017  420519928.636155  1PD053  2858059936.814428
    1PT3PR  1PD004  0.23072343802273806  1PD053  1706.805164191902
    1PT3PR  1RB038  -2.6327586358405437
    1PT3RD  1DT058  -9.505579250210591e-08  1PD004  0.0006536887492716181
    1PT3RD  1PD054  5.519929384778963e-07
    1PT3RI  1PD018  172869231.34628147  1PD054  73.29831019029862
    1PT3RR  1PD004  0.00031490941788834707  1PD054  1.1131462055903825e-07
    1PT3RR  1RB039  -2.099246118811978e-08
    1PT41D  1DT061  -5512387.433800926  1PD004  1.7912479784019848
    1PT41D  1PD059  0.00047704192293950877
    1PT41I  1PD019  2.002698303828251e-06  1PD059  9.765099773148561e-05
    1PT41R  1PD004  205164.945231456  1PD059  13.607306716777307
    1PT41R  1RB040  -1404.297271323062
    1PT42D  1DT065  -6.253901265460146e-07  1PD004  7.357803329689662e-06
    1PT42D  1PD060  0.2715595009861218
    1PT42I  1PD020  1.5204530648067319e-05  1PD060  8862.094385515336
    1PT42R  1PD004  33232.65462823059  1PD060  305456972.3387014
    1PT42R  1RB041  -0.05032135113115511
    1PT4PD  1DT054  -19873282.876125406  1PD004  51.943566584237715
    1PT4PD  1PD057  0.16468259512245012
    1PT4PI  1PD017  60111270.805648506  1PD057  35.40556945006128
    1PT4PR  1PD004  0.5163057906279955  1PD057  0.00040765344210672694
    1PT4PR  1RB038  -7.255833147775147
    1PT4RD  1DT058  -1.1274688242950778e-10  1PD004  3.7454166578799626e-07
    1PT4RD  1PD058  2.193302315548896e-12
    1PT4RI  1PD018  618.0501156422756  1PD058  8.778877195141146e-07
    1PT4RR  1PD004  0.1942418137840503  1PD058  2.832756638705305e-07
    1PT4RR  1RB039  -1.5947088135933025e-05
    1PT51D  1DT061  -2438.2813490849435  1PD004  0.004389422259404565
    1PT51D  1PD063  2.0506858672468103e-07
    1PT51I  1PD033  6.298151124776507e-07  1PD063  6.546488363188004e-07
    1PT51M  1MS056  -9.201355332910727e-09  1PD004  0.0024085985973213513
    1PT51M  1PD063  3.029864367052948e-07
    1PT51R  1PD004  3964.9843813616653  1PD063  0.5905532268243631
    1PT51R  1RB040  -62.71153279246469
    1PT52D  1DT065  -1.681847945008162e-08  1PD004  1.1283964939079894e-06
    1PT52D  1PD064  0.0010707918994007847
    1PT52I  1PD034  1836851.1724780123  1PD064  11971209.464159308
    1PT52M  1MS057  -9.397324397463238e-09  1PD004  1.101211883020926e-05
    1PT52M  1PD064  0.028138741199958912
    1PT52R  1PD004  44056.75368244262  1PD064  133534908.35326299
    1PT52R  1RB041  -0.15003503940750718
    1PT5PD  1DT054  -25972152.148258843  1PD004  336.66100586589204
    1PT5PD  1PD061  23718190.163524233
    1PT5PI  1PD031  7.2643188020114e-06  1PD061  198.0588553996959
    1PT5PM  1MS042  -5.0171736058261496e-08  1PD004  0.010170129643111567
    1PT5PM  1PD061  1929.57982404872
    1PT5PR  1PD004  0.015360607000546112  1PD061  3416.5780127920884
    1PT5PR  1RB038  -0.5518130851214958
    1PT5RD  1DT058  -54.903720416742374  1PD004  904524.0039871107
    1PT5RD  1PD062  11366583.170073783
    1PT5RI  1PD032  1.6554160632213236e-06  1PD062  0.2503985165897176
    1PT5RM  1MS058  -2.5710526759686176e-05  1PD004  0.047565877550097425
    1PT5RM  1PD062  1.6097294194200635
    1PT5RR  1PD004  0.0005935794060521129  1PD062  0.023549565363184845
    1PT5RR  1RB039  -1.245721098263126e-07
    1PT61D  1DT061  -2.2023608707446405  1PD004  3.096492982550398e-06
    1PT61D  1PD067  6.305731241504567e-11
    1PT61I  1PD033  0.4873076845027444  1PD067  0.1724369113771718
    1PT61M  1MS056  -3.966372868391714e-09  1PD004  0.001802623367422423
    1PT61M  1PD067  4.446277624179432e-08
    1PT61R  1PD004  137145.09942047135  1PD067  2.8028312781251743
    1PT61R  1RB040  -874.2862975655837
    1PT62D  1DT065  -1.573210161281226e-05  1PD004  0.0008242104135058328
    1PT62D  1PD068  1.5157681480366111e-06
    1PT62I  1PD034  211.98263570677116  1PD068  0.00209070151246881
    1PT62M  1MS057  -6.466906976937353e-08  1PD004  0.00013163901600456014
    1PT62M  1PD068  2.93038542565242e-07
    1PT62R  1PD004  0.025258856567865896  1PD068  4.665815912429469e-05
    1PT62R  1RB041  -3.464158847826504e-08
    1PT6PD  1DT054  -21488610097.37139  1PD004  217887.90521556925
    1PT6PD  1PD065  12166953362.482826
    1PT6PI  1PD031  13.388952392494236  1PD065  226331955.61749896
    1PT6PM  1MS042  -6.375948243838863e-05  1PD004  22.44307000805171
    1PT6PM  1PD065  1520366.5735593322
    1PT6PR  1PD004  66982.93749482432  1PD065  3734954502.5878625
    1PT6PR  1RB038  -972940.002237503
    1PT6RD  1DT058  -11.02765790065936  1PD004  142115.52592418905
    1PT6RD  1PD066  757058.3577282503
    1PT6RI  1PD032  0.03351708659001194  1PD066  1681.1588906567454
    1PT6RM  1MS058  -7.365298816701174e-10  1PD004  2.3661650274368926e-06
    1PT6RM  1PD066  1.5291503609675734e-05
    1PT6RR  1PD004  449.8908508216875  1PD066  2393.1361089054076
    1PT6RR  1RB039  -0.038175735230931505
    1PTCST  .COSTA  0.2572320480413909  1PD004  -0.6803350507018192
    1R1IN  1RB040  -5.579446569810625  1RB091  58331.70031696969
    1R2IN  1RB041  -3.118216186885213e-09  1RB092  1.0525014515686838e-08
    1RALKI  1RB004  2.6208232284361284  1RB005  1.0159170535880685e-05
    1RALKI  1RB031  1.1883269606081393e-07  1RB037  1.2618223952925962e-07
    1RALKI  1RB076  -0.007986569295816454  1RB079  17.510153833222358
    1RALKI  1RB088  2.683113052578738e-07
    1RBGAS  1RB059  4.881299428515503  1RB060  -0.0794247603835464
    1RBGAS  1RB061  -0.018921138998920298  1RB062  -3.4858154593226394e-05
    1RBGAS  1RB063  -2.852167836373561e-05  1RB064  -0.00010748861204397207
    1RBGAS  1RB065  -25003.935154378196  1RB066  -0.29837705204027193
    1RBGAS  1RB070  1.7796660631981747e-06  1RB086  305.59635859904705
    1RBGAS  1RB087  -13194.868672388297
    1RBIC4  1RB005  -0.11634142323796781  1RB087  -740930.8527037665
    1RBNC4  1RB006  -9.639131767115013e-09  1RB087  -562.5664256292628
    1RC3FU  1RB003  1.556097849969695e-07  1RB031  -0.0006475832928649476
    1RC4FU  1RB006  5.865227273501601e-10  1RB031  -7.129719123567164e-07
    1RC6  1RB008  9.328456409254144e-07  1RB045  1.866022945449774e-05
    1RC6  1RB088  1.6684741146374233e-06
    1RC7  1RB009  303689.9487883659  1RB045  657.1184670964826
    1RC7TX  1RB009  6781.163239415965  1RB011  -88.97565523994821
    1RC8TX  1RB010  0.18055959917169104  1RB011  -0.17514494878689824
    1RCOKE  1RB022  0.000380914030757947  1RB088  0.00021970192574574822
    1RCOKR  1RB001  -4.871853672808022e-09  1RB002  -6.305968702020948
    1RCOKR  1RB003  -4.7997802098986e-10  1RB004  -2.997965201817781
    1RCOKR  1RB005  -3.1736219514276183e-06  1RB006  -1.1743753340049158e-09
    1RCOKR  1RB017  6.92917906903148e-08  1RB018  -0.0002936670009683907
    1RCOKR  1RB019  -0.02305899040558625  1RB020  -16.44414393135235
    1RCOKR  1RB022  -3.040981672129648e-06  1RB031  6.288436348057292e-06
    1RCOKR  1RB036  8.351295551199358e-07  1RB076  -0.09194099688426867
    1RCOKS  .COSTA  0.0178751861321304  1RB001  -4.885734813326185e-09
    1RCOKS  1RB002  -40.98847406210879  1RB003  -7.233335511511808e-10
    1RCOKS  1RB004  -17.727046941093107  1RB005  -3.0666297615975464e-05
    1RCOKS  1RB006  -1.607522060918157e-09  1RB018  -2.945037323605386e-05
    1RCOKS  1RB019  -0.0009635288036729335  1RB023  -6.833878695448708e-08
    1RCOKS  1RB024  -2.6887316250519032e-06  1RB025  -4.404980256321116e-06
    1RCOKS  1RB026  -17.524333933999888  1RB027  14.697279834930269
    1RCOKS  1RB031  6.491834680974557e-06  1RB036  6.979242083050452e-07
    1RCOKS  1RB076  -0.23895669755705942
    1RCOKT  .COSTA  298326.50152053667  1RB001  -0.09479863395038644
    1RCOKT  1RB021  -0.023054638939774545  1RB023  -1.8608725127532817
    1RCOKT  1RB030  0.07271328339508117  1RB031  90.48590076897882
    1RCOKT  1RB036  11.647950731874118  1RB076  -1432172.2409456326
    1RCRUD  1RB001  -9.074561302516174e-07  1RB003  -3.3250150004614045e-05
    1RCRUD  1RB005  -0.15147831608598877  1RB006  -1.5463015359053487e-05
    1RCRUD  1RB007  -1281143.2461464582  1RB008  -0.009071762161462197
    1RCRUD  1RB009  -83.86593530960886  1RB010  -1.1192987333439752
    1RCRUD  1RB011  -4.108179003607736  1RB012  -7.039426741245461
    1RCRUD  1RB013  -399.624393730858  1RB014  -2.298178265606955e-05
    1RCRUD  1RB015  -0.3750787014670198  1RB016  -14058923.409371782
    1RCRUD  1RB017  -0.0014710987979654787  1RB031  0.5389113573987137
    1RCRUD  1RB033  2637617.979795598  1RB076  -4294.884425330031
    1RCRUD  1RB087  -892091247.337121
    1RDLCO  1RB026  5162677409.200894  1RB088  24.41072853877144
    1REXTR  1RB083  445.1197453069871  1RB084  1.950452526770461e-08
    1REXTR  1RB088  7.997469673192128e-06
    1RF2GO  1RB015  3.554624863632761e-06  1RB041  8.164827314325592e-11
    1RF2GO  1RB067  -0.0019287714412330648  1RB073  0.010900373177635727
    1RF2KR  1RB013  2208028.118160597  1RB041  0.22766333406320663
    1RF2KR  1RB067  -589378.0826912163  1RB073  -15196985.83091637
    1RF3CO  1RB026  128276284.04098201  1RB042  26853.500318675466
    1RF6CO  1RB026  421628031.1324168  1RB043  462.92120653141706
    1RF6CO  1RB068  -277956.9656758719  1RB077  0.19617475337843074
    1RF6CO  1RB088  5.023839652037456
    1RF6SL  1RB027  37306759.78558641  1RB043  750.7302559088887
    1RF6SL  1RB068  -128646.54136601093  1RB077  0.08663342463921737
    1RF6SL  1RB088  8.147279438500595
    1RFC01  1RB001  -1.2838307247173318e-09  1RB002  -16.44593066574903
    1RFC01  1RB003  -2.8944057200810433e-10  1RB004  -6.152356351718792
    1RFC01  1RB005  -1.5327974844259e-05  1RB006  -5.264379881001653e-10
    1RFC01  1RB016  81.8180702995185  1RB024  -1.6342558171368237e-05
    1RFC01  1RB025  -2.505539366944126e-05  1RB026  -24.923403170656478
    1RFC01  1RB027  -0.4721674739896498  1RB031  1.3069931270846134e-06
    1RFC01  1RB032  4.097392286462148  1RB076  -0.03573335299627556
    1RFC01  1RB080  0.034434300411937555
    1RFC02  1RB001  -8.176088585653426e-09  1RB002  -107.67806833056925
    1RFC02  1RB003  -1.5879208718342717e-09  1RB004  -42.31070524349796
    1RFC02  1RB005  -9.324114232606708e-05  1RB006  -3.200599539029659e-09
    1RFC02  1RB016  585.2136188190613  1RB024  -0.0001138451680120663
    1RFC02  1RB025  -0.00017426112588017474  1RB026  -205.5029832039967
    1RFC02  1RB027  -4.052681787247149  1RB031  8.93686009901505e-06
    1RFC02  1RB032  22.542429630349616  1RB076  -0.2412246238631363
    1RFC02  1RB080  0.24629548804808785
    1RFC03  1RB001  -6.387945479566636e-11  1RB002  -0.8475057266482787
    1RFC03  1RB003  -1.3174089616054114e-11  1RB004  -0.32950602330667544
    1RFC03  1RB005  -8.116735690063386e-07  1RB006  -2.7131350862359003e-11
    1RFC03  1RB015  1.25077210571492e-07  1RB016  4.213172079111828
    1RFC03  1RB024  -9.01367391072402e-07  1RB025  -1.3841252518276442e-06
    1RFC03  1RB026  -1.3844828290522844  1RB027  -0.03199897951148458
    1RFC03  1RB031  7.031971975684777e-08  1RB032  0.21097219788459803
    1RFC03  1RB076  -0.0019342685765028492  1RB080  0.001912808508706551
    1RFC04  1RB001  -2.1190841720434685e-09  1RB002  -26.247041210067167
    1RFC04  1RB003  -3.9945067418471007e-10  1RB004  -10.14319526416009
    1RFC04  1RB005  -2.2266533826839768e-05  1RB006  -7.659507684391588e-10
    1RFC04  1RB015  2.9898911078809515e-06  1RB016  131.20982155272569
    1RFC04  1RB024  -2.621175381851693e-05  1RB025  -4.001999195843725e-05
    1RFC04  1RB026  -52.6869794954851  1RB027  -0.9635688072446388
    1RFC04  1RB031  2.138814058589824e-06  1RB032  5.05389674887786
    1RFC04  1RB076  -0.059216395079852074  1RB080  0.05855940883269731
    1RFC05  1RB001  -7.679931778146533e-05  1RB002  -1047220.2368137768
    1RFC05  1RB003  -1.4568000903100603e-05  1RB004  -391298.60413362866
    1RFC05  1RB005  -0.8152609247315297  1RB006  -2.8422399325546157e-05
    1RFC05  1RB016  4770748.297344645  1RB020  162157.65125005477
    1RFC05  1RB024  -1.0884409247438176  1RB025  -1.674325840851734
    1RFC05  1RB026  -2117649.6970487316  1RB027  -39613.98508693905
    1RFC05  1RB031  0.08563152313226624  1RB032  238968.98986120985
    1RFC05  1RB076  -2447.251438760211  1RB080  2407.47887515362
    1RFC06  1RB001  -0.0005394153191913083  1RB002  -5568196.504782532
    1RFC06  1RB003  -9.18160909619013e-05  1RB004  -2293147.6068345923
    1RFC06  1RB005  -4.4797321584370176  1RB006  -0.00016233946865053288
    1RFC06  1RB016  27728692.394668803  1RB020  726391.6401367385
    1RFC06  1RB024  -5.812993978581193  1RB025  -8.928277091876005
    1RFC06  1RB026  -13801811.076695388  1RB027  -214099.235289672
    1RFC06  1RB031  0.48197942443422176  1RB032  1068649.9471189887
    1RFC06  1RB076  -13200.937882129329  1RB080  13460.225143021948
    1RFC07  1RB001  -4.776812014206673e-11  1RB002  -0.5644243546347912
    1RFC07  1RB003  -8.315487851420489e-12  1RB004  -0.20717444401003798
    1RFC07  1RB005  -4.377345819181852e-07  1RB006  -1.5209431452193555e-11
    1RFC07  1RB015  6.858624834213879e-08  1RB016  2.2976361543489916
    1RFC07  1RB020  0.07767121457308748  1RB024  -5.583466357328564e-07
    1RFC07  1RB025  -8.588929165633724e-07  1RB026  -0.9807813518337183
    1RFC07  1RB027  -0.021675858056851245  1RB031  4.48115565390308e-08
    1RFC07  1RB032  0.11502128202140983  1RB076  -0.0012161050260078086
    1RFC07  1RB080  0.0012349845544959881
    1RFC08  1RB001  -1.6726858602698766e-11  1RB002  -0.16591056588432498
    1RFC08  1RB003  -2.7412394667153058e-12  1RB004  -0.0678021583150563
    1RFC08  1RB005  -1.2762277144505964e-07  1RB006  -4.695307205978927e-12
    1RFC08  1RB015  1.7435967593087663e-08  1RB016  0.7622148341796164
    1RFC08  1RB020  0.019903508289942414  1RB024  -1.6287389455943206e-07
    1RFC08  1RB025  -2.488403095396428e-07  1RB026  -0.3854890352666363
    1RFC08  1RB027  -0.008007340165290283  1RB031  1.4033114847021912e-08
    1RFC08  1RB032  0.029364429977803246  1RB076  -0.000382323654000999
    1RFC08  1RB080  0.00038930700361093136
    1RFC09  1RB001  -3.3831098029310345e-06  1RB002  -49469.60595187014
    1RFC09  1RB003  -7.058004032243499e-07  1RB004  -17897.153583131058
    1RFC09  1RB005  -0.03534117295862052  1RB006  -1.264537930783447e-06
    1RFC09  1RB016  241387.87161755265  1RB021  2.799373903934272e-07
    1RFC09  1RB024  -0.05109447277243521  1RB025  -0.07833591040749396
    1RFC09  1RB026  -92992.90017191067  1RB027  -1801.3394057065768
    1RFC09  1RB031  0.00391999646568185  1RB032  12087.230677244654
    1RFC09  1RB076  -108.52551172523548  1RB080  109.47362545582897
    1RFC10  1RB001  -1.8110058041079275e-05  1RB002  -243102.43551160724
    1RFC10  1RB003  -3.4886569984918655e-06  1RB004  -90521.0286027566
    1RFC10  1RB005  -0.1758862788455176  1RB006  -6.265406502049839e-06
    1RFC10  1RB016  1234783.9224812894  1RB021  1.0106617666321698e-06
    1RFC10  1RB024  -0.2457920517063816  1RB025  -0.3762195128469645
    1RFC10  1RB026  -534037.6784002901  1RB027  -9813.16629453549
    1RFC10  1RB031  0.019580879166177595  1RB032  47543.04164234334
    1RFC10  1RB076  -528.2266559093144  1RB080  550.5046649315697
    1RFC11  1RB001  -7.31300014781818e-08  1RB002  -1087.3325419520877
    1RFC11  1RB003  -1.4583398982182548e-08  1RB004  -400.9446197788783
    1RFC11  1RB005  -0.0008082089264544243  1RB006  -2.878995164409505e-08
    1RFC11  1RB015  0.00015407970216582497  1RB016  5199.08312628253
    1RFC11  1RB021  5.5562821892489856e-09  1RB024  -0.001155034731728248
    1RFC11  1RB025  -0.001769429752859485  1RB026  -2288.6468150316646
    1RFC11  1RB027  -45.09213935324204  1RB031  8.93715554019959e-05
    1RFC11  1RB032  260.2788281117614  1RB076  -2.4574087689651942
    1RFC11  1RB080  2.529604851344179
    1RFC12  1RB001  -1.030792732786581e-09  1RB002  -11.48530515992369
    1RFC12  1RB003  -1.7965697553626992e-10  1RB004  -4.703025393810264
    1RFC12  1RB005  -8.960862746804662e-06  1RB006  -3.3076319135644277e-10
    1RFC12  1RB015  1.2991021803195068e-06  1RB016  56.986914995320156
    1RFC12  1RB021  4.666576562149833e-11  1RB024  -1.168942124365511e-05
    1RFC12  1RB025  -1.792277280810249e-05  1RB026  -27.134096418884383
    1RFC12  1RB027  -0.44192825407434266  1RB031  9.681164118722542e-07
    1RFC12  1RB032  2.1939939871921363  1RB076  -0.026126577557638104
    1RFC12  1RB080  0.02685750836939367
    1RFC13  1RB001  -2.3845186809856212e-05  1RB002  -346833.6880849559
    1RFC13  1RB003  -4.562886959353691e-06  1RB004  -126244.12892905441
    1RFC13  1RB005  -0.22777513378823136  1RB006  -8.342712719043074e-06
    1RFC13  1RB016  1692075.7921541727  1RB020  57569.38001525388
    1RFC13  1RB021  1.818807443972029e-06  1RB024  -0.3958470123103971
    1RFC13  1RB025  -0.6069313373625156  1RB026  -992003.9522924707
    1RFC13  1RB027  -20702.031858426482  1RB031  0.030612874424317475
    1RFC13  1RB032  84777.92635513606  1RB076  -842.5544974481038
    1RFC13  1RB080  909.4945099952328
    1RFC14  1RB001  -2.966974988645686e-12  1RB002  -0.030506826237804156
    1RFC14  1RB003  -4.780756535788762e-13  1RB004  -0.012252471690037391
    1RFC14  1RB005  -2.0553548482309637e-08  1RB006  -7.836355538232337e-13
    1RFC14  1RB016  0.14585486243515752  1RB020  0.003804051715167452
    1RFC14  1RB021  1.1952586113254926e-13  1RB024  -3.1129221488449604e-08
    1RFC14  1RB025  -4.755952531169652e-08  1RB026  -0.07891236096583201
    1RFC14  1RB027  -0.0017140483940564957  1RB031  2.6110262939878833e-09
    1RFC14  1RB032  0.005616649676352128  1RB076  -7.031035140593362e-05
    1RFC14  1RB080  7.440617770693277e-05
    1RFC15  1RB001  -8.21144953359481e-09  1RB002  -100.81692779868914
    1RFC15  1RB003  -1.4052021132761195e-09  1RB004  -35.79544527861193
    1RFC15  1RB005  -6.372247829599086e-05  1RB006  -2.318944689831145e-09
    1RFC15  1RB015  1.2020893707190948e-05  1RB016  405.7319997130908
    1RFC15  1RB020  13.800954951422089  1RB021  4.323710357278723e-10
    1RFC15  1RB024  -0.00010018483456395904  1RB025  -0.00015347592777364364
    1RFC15  1RB026  -238.41434306917716  1RB027  -4.441787419265215
    1RFC15  1RB031  8.064226226747231e-06  1RB032  20.314153215002968
    1RFC15  1RB076  -0.22324259089315876  1RB080  0.231379528279554
    1RFC16  1RB001  -8.175008813615394e-07  1RB002  -7988.008424336466
    1RFC16  1RB003  -1.249880709563323e-07  1RB004  -3231.101863819675
    1RFC16  1RB005  -0.005305132956693994  1RB006  -2.0128473406625995e-07
    1RFC16  1RB015  0.0008086896986173031  1RB016  35082.009879988036
    1RFC16  1RB020  915.8091107566663  1RB021  2.8980875790426374e-08
    1RFC16  1RB024  -0.007699713214851183  1RB025  -0.011795404308282277
    1RFC16  1RB026  -17584.230679492965  1RB027  -551.9190920652577
    1RFC16  1RB031  0.0006645129859094399  1RB032  1352.2194515411386
    1RFC16  1RB076  -17.922825456743777  1RB080  18.80861606779404
    1RFC17  1RB001  -0.7217308063308558  1RB002  -8229677768.912935
    1RFC17  1RB003  -0.1253951906331028  1RB004  -3044508869.6471834
    1RFC17  1RB005  -6098.345423821085  1RB006  -0.21461078514874618
    1RFC17  1RB015  433.40765272635116  1RB016  36491168423.582375
    1RFC17  1RB020  843478157.3237898  1RB024  -7839.979101816629
    1RFC17  1RB025  -12030.86468542381  1RB026  -17294332108.82858
    1RFC17  1RB027  -285043912.89254576  1RB031  650.2456905107363
    1RFC17  1RB032  1478349179.9771535  1RB076  -17741499.54887675
    1RFC17  1RB080  17920452.81240986
    1RFC18  1RB001  -0.00011616695805803342  1RB002  -1367747.5290818918
    1RFC18  1RB003  -2.0446555001294875e-05  1RB004  -512061.0716404413
    1RFC18  1RB005  -1.019933237879732  1RB006  -3.599054938071414e-05
    1RFC18  1RB016  6335937.22183508  1RB020  146147.3087384384
    1RFC18  1RB024  -1.3479956763795953  1RB025  -2.068508462631513
    1RFC18  1RB026  -2875361.011919142  1RB027  -46483.6062911854
    1RFC18  1RB031  0.10982608240228614  1RB032  256704.05740107628
    1RFC18  1RB076  -2992.5165420477115  1RB080  3026.753050398739
    1RFC19  1RB001  -0.089549374151224  1RB002  -1018114594.8674842
    1RFC19  1RB003  -0.015615271092666954  1RB004  -377264694.5615753
    1RFC19  1RB005  -745.5388740512622  1RB006  -0.02613134017410816
    1RFC19  1RB015  54.31318373926511  1RB016  4498246055.176446
    1RFC19  1RB020  118458952.86872983  1RB024  -979.9540563843782
    1RFC19  1RB025  -1498.6393947921206  1RB026  -2234994413.002131
    1RFC19  1RB027  -35720740.77904401  1RB031  80.95049851441814
    1RFC19  1RB032  182175502.0974874  1RB076  -2214375.888373764
    1RFC19  1RB080  2245730.642199316
    1RFC20  1RB001  -1.0725763556558036e-06  1RB002  -12541.411438561337
    1RFC20  1RB003  -1.9026684359247986e-07  1RB004  -4684.823325120972
    1RFC20  1RB005  -0.00932701686922044  1RB006  -3.3012810214462066e-07
    1RFC20  1RB016  57955.65487738637  1RB020  1531.4105257811418
    1RFC20  1RB024  -0.012448838480010698  1RB025  -0.0191354224138543
    1RFC20  1RB026  -27606.296957849903  1RB027  -432.5564403029889
    1RFC20  1RB031  0.001008546976502979  1RB032  2347.8586357464487
    1RFC20  1RB076  -27.84707139259607  1RB080  28.165661608853288
    1RFC21  1RB001  -1.342082441146925e-09  1RB002  -14.542449901746606
    1RFC21  1RB003  -2.2700758373629958e-10  1RB004  -5.8679771631882645
    1RFC21  1RB005  -1.0318721902922255e-05  1RB006  -3.821862338418714e-10
    1RFC21  1RB015  8.192384320198728e-07  1RB016  69.62688425739715
    1RFC21  1RB020  1.8406661863974292  1RB021  5.996713320124931e-11
    1RFC21  1RB024  -1.5223149958812117e-05  1RB025  -2.3383794896638264e-05
    1RFC21  1RB026  -39.35082455747098  1RB027  -0.8628190525223648
    1RFC21  1RB031  1.275041287950527e-06  1RB032  2.8190198599776894
    1RFC21  1RB076  -0.0347637306318323  1RB080  0.03658360311922275
    1RFC22  1RB001  -1.843814933301521e-09  1RB002  -20.347568911694047
    1RFC22  1RB003  -3.1654301943502767e-10  1RB004  -8.192084883904416
    1RFC22  1RB005  -1.4662356727875337e-05  1RB006  -5.454606090439753e-10
    1RFC22  1RB016  100.22384358339568  1RB020  2.647527754754585
    1RFC22  1RB021  8.758506936341156e-11  1RB024  -2.1667934831839808e-05
    1RFC22  1RB025  -3.325272160337462e-05  1RB026  -55.779840279894124
    1RFC22  1RB027  -1.1130939394480186  1RB031  1.7906376005294651e-06
    1RFC22  1RB032  4.0618469535318775  1RB076  -0.04895753717962433
    1RFC22  1RB080  0.051377140432388155
    1RFCCU  1RB080  -18768954.19095078
    1RFCOD  1RB019  10265.186022054822  1RB031  0.20140676564218332
    1RFCOD  1RB035  1.3951403155978963  1RB041  0.00032752943181045053
    1RFCOD  1RB067  1801.8148260319347  1RB076  -1687.8117295062632
    1RFDIE  1RB014  1.834817455515437e-12  1RB041  2.0934133401221177e-12
    1RFDIE  1RB067  -2.912958825122574e-05
    1RFHDO  1RB019  13.204031029326062  1RB026  164407.24638750285
    1RFHDO  1RB035  0.004661190703493382  1RB042  55.96292074692019
    1RFHDO  1RB076  -5.639011542326578
    1RFKER  1RB013  1379.3581020513059  1RB040  0.6428862782953549
    1RFLCO  1RB026  30726.51947973192  1RB031  7.73429204753662e-05
    1RFLCO  1RB035  0.0005357527396719465  1RB041  1.2577572911757196e-07
    1RFLCO  1RB067  3.133996244592036  1RB076  -0.6481425187300281
    1RFRED  1RB041  1.401134554662698e-09  1RB067  0.012242060201565326
    1RFRED  1RB085  0.1245472238958373
    1RFRES  1RB017  4.096524506165406  1RB043  38889.32805114399
    1RFRES  1RB068  5719623.105332682  1RB077  -4.412359635337351
    1RFRES  1RB088  422.0453622514488
    1RFRHC  1RB028  1.350833926225077e-09  1RB042  0.0001504341777057362
    1RFRHC  1RB059  -1.9103502206025714e-06  1RB060  5.001375948841314e-05
    1RFRHC  1RB061  1.226099410476116e-05  1RB062  2.2864765235265824e-08
    1RFRHC  1RB063  1.9144033221814996e-08  1RB064  6.111725947901254e-08
    1RFRHC  1RB065  14.428121766153955  1RB066  0.00017629288182455862
    1RFRHC  1RB070  -1.1206554483093333e-09
    1RFTHR  1RB030  2.7767754740829056e-08  1RB043  0.0035036389620685215
    1RFTHR  1RB068  -0.028364887951274627  1RB077  -6.795226618423838e-09
    1RFTHR  1RB088  3.8023145398651376e-05
    1RGAS  1RB001  6.185807018557476e-07  1RB031  -0.0014812773551382472
    1RLFUL  1RB026  43463340.15434236  1RB031  -13.417381987603273
    1RLFUL  1RB078  -1.644810483536856
    1RLPG  1RB003  0.045013699019286924  1RB044  2718449.482086355
    1RLPG  1RB088  9.188847945407064
    1RMCST  .COSTA  1.144301977061721  1RB087  1038106.7424848086
    1ROCST  .COSTA  0.00029015031371292595  1RB076  0.21429552617599648
    1RP84R  1RB001  -1.519390929380687  1RB003  -0.1167677416543951
    1RP84R  1RB005  -907.2484436114595  1RB006  -0.020580571794810886
    1RP84R  1RB011  43703.34301902163  1RB031  2140.230873810977
    1RP84R  1RB034  2677.4641683970485  1RB048  11552868402.9731
    1RP84R  1RB049  2277.1960914701026  1RB050  -790.0933710014218
    1RP84R  1RB051  -53714962578.92052  1RB052  -137545.0832918709
    1RP84R  1RB053  -10240685774594.965  1RB054  -32490822.69856345
    1RP84R  1RB055  -6392.404529508827  1RB056  -16728.24498780671
    1RP84R  1RB069  43919.12246226981  1RB076  -12171215.125616407
    1RP84R  1RB081  -3889120645.9016495  1RB082  -8981934278990.318
    1RP88R  1RB001  -2.3979087829496424e-10  1RB003  -1.9883328375558182e-11
    1RP88R  1RB005  -1.61486243488808e-07  1RB006  -3.513118248212638e-12
    1RP88R  1RB011  5.877074134146964e-06  1RB031  3.07613862428582e-07
    1RP88R  1RB034  3.6005610377088893e-07  1RB048  1.9080849749714344
    1RP88R  1RB049  2.519786039407427e-07  1RB050  -1.0374576967094111e-07
    1RP88R  1RB051  -7.205719169776807  1RB052  -1.851528684913099e-05
    1RP88R  1RB053  -1387.0387496589833  1RB054  -0.004342496887841463
    1RP88R  1RB055  -8.555366445512006e-07  1RB056  -2.2539291428733072e-06
    1RP88R  1RB069  5.7669426555817795e-06  1RB076  -0.0019313108735184684
    1RP88R  1RB081  -0.5205682299161664  1RB082  -1198.8045961768498
    1RP92R  1RB001  -2.627303627154324e-07  1RB003  -2.3183994193140296e-08
    1RP92R  1RB005  -0.00019535239943014576  1RB006  -3.988342662987529e-09
    1RP92R  1RB011  0.005591355345798843  1RB031  0.0003187757983264249
    1RP92R  1RB034  0.0003425516804203239  1RB048  2230.1037549943444
    1RP92R  1RB049  0.0001921397217213821  1RB050  -9.569592899087744e-05
    1RP92R  1RB051  -6787.282142941764  1RB052  -0.01747964172852557
    1RP92R  1RB053  -1317086.5614453063  1RB054  -4.071141931849986
    1RP92R  1RB055  -0.000804992833498198  1RB056  -0.0021294433216528918
    1RP92R  1RB069  0.0053194741010976765  1RB076  -2.302668819291222
    1RP92R  1RB081  -489.81025434286533  1RB082  -1121127.3595994434
    1RP95R  1RB001  -2.107497330547249e-09  1RB003  -1.9074400335049234e-10
    1RP95R  1RB005  -1.6657044620968945e-06  1RB006  -3.2306898609970876e-11
    1RP95R  1RB011  3.949573690829028e-05  1RB031  2.43732424027502e-06
    1RP95R  1RB034  2.4196872154690244e-06  1RB048  18.94077758888804
    1RP95R  1RB049  1.099253856144567e-06  1RB050  -6.527737008179862e-07
    1RP95R  1RB051  -47.017967509538025  1RB052  -0.0001212237519814676
    1RP95R  1RB053  -9165.112446257444  1RB054  -0.028122137373578535
    1RP95R  1RB055  -5.573744428181679e-06  1RB056  -1.4800681531335808e-05
    1RP95R  1RB069  3.628589880463965e-05  1RB076  -0.022817991339943243
    1RP95R  1RB081  -3.39303969314253  1RB082  -7752.223853903634
    1RPALC  1RB083  227158986282.80286  1RB087  -2218747223990.9155
    1RPALK  1RB004  3.9231491192011743  1RB005  1.5207412887376336e-05
    1RPALK  1RB031  1.7788242328784162e-07  1RB037  1.8888406379221422e-07
    1RPALK  1RB048  1.5326796280767405  1RB049  -2.167512176319041e-07
    1RPALK  1RB050  -9.168677153858143e-08  1RB051  -6.893780340049427
    1RPALK  1RB052  -1.765542974992727e-05  1RB053  -1320.7252677658093
    1RPALK  1RB054  -0.004309043892351925  1RB055  -8.471449024136113e-07
    1RPALK  1RB056  -2.209244020188045e-06  1RB069  5.096616039531187e-06
    1RPALK  1RB076  -0.011955213903158925  1RB081  -0.5081543515381508
    1RPALK  1RB082  -1252.9802031851175
    1RPBBL  1RB038  4.457444138276156e-05  1RB046  2.107234753925018e-09
    1RPBBL  1RB047  2.175615023560418e-05  1RB048  -0.28982806167114106
    1RPBBL  1RB049  4.929719958023596e-08  1RB069  -4.2309265342452614e-07
    1RPBBL  1RB071  -0.02512438161590806  1RB072  0.04197881325632771
    1RPBBL  1RB076  -4.300226777694946e-05
    1RPCAT  1RB024  38.883990824034726  1RB048  40180466.35440029
    1RPCAT  1RB049  -11.755654594052135  1RB050  -1.1273504443255287
    1RPCAT  1RB051  -81200769.11300173  1RB052  -209.35532557127445
    1RPCAT  1RB053  -15811856848.424719  1RB054  -44538.48900185858
    1RPCAT  1RB055  -8.835672894313655  1RB056  -23.512566416979126
    1RPCAT  1RB069  62.666317728336026  1RB072  -24870747.606576342
    1RPCAT  1RB076  -11455.531916338125  1RB081  -5859832.895971644
    1RPCAT  1RB082  -12243663379.218575
    1RPIC4  1RB005  433078.58878888557  1RB048  617959959798.2031
    1RPIC4  1RB049  -71450.7464518242  1RB050  -1697.193707417149
    1RPIC4  1RB051  -133472045842.92772  1RB052  -342009.0021847655
    1RPIC4  1RB053  -25610651362666.26  1RB054  -88654102.28279936
    1RPIC4  1RB055  -17449.385598851815  1RB056  -46079.31258000505
    1RPIC4  1RB069  94342.34106251391  1RB081  -9613165116.638767
    1RPIC4  1RB082  -24327250646615.71
    1RPIN  1RB038  -1607479.2922205147  1RB089  1349.1464510744488
    1RPMON  1RB046  -4.4334246697581996e-10  1RB054  0.0001497348986475666
    1RPMON  1RB055  2.9778638496457987e-08  1RB056  8.054450970813074e-08
    1RPMON  1RB082  40.858453427030604
    1RPNAG  1RB086  12755318312.347397  1RB087  -771347340211.3876
    1RPNC4  1RB006  0.04274192437506275  1RB048  428376902.0810529
    1RPNC4  1RB049  -69.07969481653546  1RB050  -1.6408733172853753
    1RPNC4  1RB051  -116982773.56261133  1RB052  -301.28155464096
    1RPNC4  1RB053  -22679436078.618008  1RB054  -77679.16188339333
    1RPNC4  1RB055  -15.36862216542458  1RB056  -40.79086928642863
    1RPNC4  1RB069  91.21164511934325  1RB081  -8450815.13748526
    1RPNC4  1RB082  -21393742559.69126
    1RPREV  .COSTA  -2.41392767265181e-06  1RB088  -3.1970756204956675e-09
    1RPRON  1RB046  -0.0002476004438446074  1RB047  -4.9319506271204565
    1RPRON  1RB051  125547.26055907006  1RB052  0.32535131843648235
    1RPRON  1RB053  24904680.555651132  1RB081  9050.850635086466
    1RPTEL  1RB050  1.5876207051719667e-05  1RB051  -46.674736223448555
    1RPTEL  1RB052  -0.0001572427225449328  1RB053  -23147.048181058195
    1RPTEL  1RB054  -0.034198135978851844  1RB055  -8.656046682692474e-06
    1RPTEL  1RB056  -4.849764574020655e-05  1RB081  -3.028353288621207
    1RPTEL  1RB082  -6786.699615259169  1RB087  -2809.1057038528616
    1RPUFU  1RB031  -0.0004079037231869403  1RB087  -9735.826937873584
    1RR80R  1RB001  -2.745204069222098e-08  1RB003  -1.9221524121890597e-09
    1RR80R  1RB005  -1.4181719895469461e-05  1RB006  -3.1668003455744636e-10
    1RR80R  1RB011  0.0009392195011921457  1RB031  4.450329344172401e-05
    1RR80R  1RB034  5.754082838942547e-05  1RB059  2.056892671303459
    1RR80R  1RB060  -0.1863332231942784  1RB061  -0.04655751004390037
    1RR80R  1RB062  -8.615941855066781e-05  1RB063  -7.107408595896316e-05
    1RR80R  1RB064  -0.00024769555990804216  1RB065  -57806.85527438625
    1RR80R  1RB066  -0.6920682989808524  1RB070  4.17515787474613e-06
    1RR80R  1RB076  -0.23083820483638717
    1RR84R  1RB001  -3.754016418989832e-10  1RB003  -2.8850245904629393e-11
    1RR84R  1RB005  -2.241572914225982e-07  1RB006  -5.08491941974477e-12
    1RR84R  1RB011  1.0797949631371364e-05  1RB031  5.287949062582766e-07
    1RR84R  1RB034  6.615311606155516e-07  1RB059  0.029758988074327346
    1RR84R  1RB060  -0.00209436189604382  1RB061  -0.0005349036490170456
    1RR84R  1RB062  -9.935889860936522e-07  1RB063  -8.241205664410693e-07
    1RR84R  1RB064  -2.8377355688505306e-06  1RB065  -665.7255596121688
    1RR84R  1RB066  -0.008006672998360977  1RB070  4.692824721718278e-08
    1RR84R  1RB076  -0.0030071879815187054
    1RR88R  1RB001  -4.5465785742339764e-12  1RB003  -3.769998067464844e-13
    1RR88R  1RB005  -3.0618758307253104e-09  1RB006  -6.661082468877807e-14
    1RR88R  1RB011  1.1143284318191862e-07  1RB031  5.832542947420866e-09
    1RR88R  1RB034  6.826879231466025e-09  1RB059  0.0003780641048156752
    1RR88R  1RB060  -2.110421055135106e-05  1RB061  -5.506972724767747e-06
    1RR88R  1RB062  -1.026568619209827e-08  1RB063  -8.568328536280115e-09
    1RR88R  1RB064  -2.91019503439823e-08  1RB065  -6.837153076747067
    1RR88R  1RB066  -8.277756457364712e-05  1RB070  4.728808387643422e-10
    1RR88R  1RB076  -3.661881010720906e-05
    1RR92R  1RB001  -1.1367571408145261e-08  1RB003  -1.0031033596295762e-09
    1RR92R  1RB005  -8.452324761108617e-06  1RB006  -1.7256387709847244e-10
    1RR92R  1RB011  0.00024192152937620732  1RB031  1.3792492855456697e-05
    1RR92R  1RB034  1.482120546674623e-05  1RB059  1.0061801490361968
    1RR92R  1RB060  -0.0444219439625321  1RB061  -0.011837651319496151
    1RR92R  1RB062  -2.2118702781194256e-05  1RB063  -1.8571052798070663e-05
    1RR92R  1RB064  -6.225230631876933e-05  1RB065  -14679.590950018784
    1RR92R  1RB066  -0.17844083765289828  1RB070  9.953599576459873e-07
    1RR92R  1RB076  -0.0996297190856235
    1RR95R  1RB001  -9.682342780751139e-08  1RB003  -8.763232090702784e-09
    1RR95R  1RB005  -7.652641519247347e-05  1RB006  -1.4842555764636949e-09
    1RR95R  1RB011  0.001814527864787999  1RB031  0.00011197645861809321
    1RR95R  1RB034  0.00011116617185127716  1RB059  9.082191839943361
    1RR95R  1RB060  -0.3217531009196713  1RB061  -0.08707835506262644
    1RR95R  1RB062  -0.00016289798433900308  1RB063  -0.0001372426922114352
    1RR95R  1RB064  -0.000456568868918159  1RB065  -107922.03311794167
    1RR95R  1RB066  -1.3168243592085684  1RB070  7.209503329570494e-06
    1RR95R  1RB076  -1.0483126622237413
    1RRALK  1RB004  22744682269.06389  1RB005  88165.84935937163
    1RRALK  1RB031  1031.28356226156  1RB037  1095.0662047529495
    1RRALK  1RB059  92796479.68567492  1RB060  -5702934.853429127
    1RRALK  1RB061  -1638211.9083154902  1RB062  -3042.2391080394
    1RRALK  1RB063  -2531.9079414591943  1RB064  -9252.470065730038
    1RRALK  1RB065  -2163133369595.979  1RB066  -26065408.765074752
    1RRALK  1RB070  127.78533508022268  1RB076  -69311039.02097209
    1RRBBL  1RB039  1.8969556350358307e-09  1RB057  1036.9285047830513
    1RRBBL  1RB058  8.746041499041854e-07  1RB059  -0.02272182956202882
    1RRBBL  1RB070  -1.3329148665846153e-08  1RB076  -0.00010366861037895896
    1RRC3P  1RB002  12371.797926810354  1RB003  -3.704962054942637e-08
    1RRC3P  1RB031  1.899180078921837e-05  1RB059  5.712150079151779
    1RRC3P  1RB060  -0.37108301088875206  1RB061  -0.10454058746007668
    1RRC3P  1RB062  -0.0001958220703077844  1RB063  -0.00016524538758458555
    1RRC3P  1RB064  -0.00047129636684419246  1RB065  -111299.21976897492
    1RRC3P  1RB066  -1.3606980967571358  1RB070  8.314835800813064e-06
    1RRC3P  1RB076  -3.7887808043065374
    1RRC45  1RB007  404801059.6166787  1RB059  14296142.725165159
    1RRC45  1RB060  -140865.23668087868  1RB061  -34338.349220208096
    1RRC45  1RB062  -63.29530148821394  1RB063  -51.71764763678017
    1RRC45  1RB064  -200.79073467754498  1RB065  -46657563583.25591
    1RRC45  1RB066  -552519.1855511995  1RB070  3.1563593014914773
    1RRC4O  1RB004  966986360.010013  1RB059  37623127.52408336
    1RRC4O  1RB060  -142566.08064391123  1RB061  -42137.963383235765
    1RRC4O  1RB062  -78.3612116268602  1RB063  -65.39578690662042
    1RRC4O  1RB064  -210.75007808769445  1RB065  -49396998522.80822
    1RRC4O  1RB066  -596289.9345773526  1RB070  3.194470014891018
    1RRC4P  1RB004  25563.86879292308  1RB031  0.00015431477273296855
    1RRC4P  1RB059  46.41314170593683  1RB060  -3.015174344229219
    1RRC4P  1RB061  -0.8494274542112387  1RB062  -0.0015911202213536278
    1RRC4P  1RB063  -0.0013426743842407426  1RB064  -0.0038294415862198256
    1RRC4P  1RB065  -904343.6162070731  1RB066  -11.056129952587929
    1RRC4P  1RB070  6.75608390776105e-05  1RB076  -24.239711568798963
    1RRC6  1RB008  2.8880652354147553e-09  1RB059  0.0012226834632663162
    1RRC6  1RB060  -7.603410724277996e-05  1RB061  -1.7102413080615554e-05
    1RRC6  1RB062  -3.138374270285688e-08  1RB063  -2.5504188177214425e-08
    1RRC6  1RB064  -9.778535778524098e-08  1RB065  -22.601871985303987
    1RRC6  1RB066  -0.0002662129474512204  1RB070  1.7036918922021439e-09
    1RRC7  1RB009  3.2883763649789146  1RB059  75.1158900202882
    1RRC7  1RB060  -9.364595675944374  1RB061  -1.9766824849041253
    1RRC7  1RB062  -0.0036304639503127916  1RB063  -0.0029571377877928794
    1RRC7  1RB064  -0.01141362292901766  1RB065  -2647925.373246118
    1RRC7  1RB066  -31.458382083102187  1RB070  0.00020983195970085752
    1RRC8E  1RB010  0.0027490050778787717  1RB059  2.1443136973022594
    1RRC8E  1RB060  -0.5787527850333084  1RB061  -0.11943793284369796
    1RRC8E  1RB062  -0.0002192301559397582  1RB063  -0.0001742272599152962
    1RRC8E  1RB064  -0.0006914833927919875  1RB065  -159893.26181964471
    1RRC8E  1RB066  -1.8456187497444276  1RB070  1.2968080552353535e-05
    1RRCAT  1RB025  24231.357043779753  1RB028  -28.476060822041255
    1RRCAT  1RB059  644333.82096404  1RB060  -2108615.7661303733
    1RRCAT  1RB061  -547305.675725022  1RB062  -1024.5887671168887
    1RRCAT  1RB063  -860.8089250399939  1RB064  -2745.603550866999
    1RRCAT  1RB065  -649336007274.9285  1RB066  -7941444.777052696
    1RRCAT  1RB070  47.24763286895906
    1RRCOK  1RB018  0.00022754286430134285  1RB059  0.10212125683774974
    1RRCOK  1RB060  -0.004038635608792342  1RB061  -0.000947569322683376
    1RRCOK  1RB062  -1.7429459107614375e-06  1RB063  -1.426836694392314e-06
    1RRCOK  1RB064  -4.825289009810189e-06  1RB065  -1135.7968505728643
    1RRCOK  1RB066  -0.01381535250297451  1RB070  9.049347709559315e-08
    1RRCTF  1RB028  1.2371410786899372e-05  1RB041  2.6939698243018287e-08
    1RRCTF  1RB059  -0.017495657213735374  1RB060  0.4580435474828681
    1RRCTF  1RB061  0.11229048351608976  1RB062  0.00020940353790341318
    1RRCTF  1RB063  0.00017532776939277117  1RB064  0.0005597332940084897
    1RRCTF  1RB065  132137.79857551007  1RB066  1.6145520315385697
    1RRCTF  1RB067  1.0025394475957414  1RB070  -1.0263355570551159e-05
    1RRDEX  1RB026  16264596087.39918  1RB076  -9434809.163208209
    1RRDEX  1RB084  -0.3072173328957587  1RB085  -4379380.549506533
    1RRHN  1RB011  2.0737889909242858e-07  1RB059  6.53299265525405e-05
    1RRHN  1RB060  -4.5009592575122566e-05  1RB061  -8.316178973891691e-06
    1RRHN  1RB062  -1.476841602086695e-08  1RB063  -1.1318179899241007e-08
    1RRHN  1RB064  -4.8514323386372425e-08  1RB065  -10.871946180957577
    1RRHN  1RB066  -0.00012096017892327639  1RB070  1.0085273664976152e-09
    1RRIC4  1RB005  0.03943038398881365  1RB059  587.200111311912
    1RRIC4  1RB060  -1.6578390986883607  1RB061  -0.49000409438421527
    1RRIC4  1RB062  -0.0009112285325433056  1RB063  -0.0007604592335962345
    1RRIC4  1RB064  -0.0028489966112834144  1RB065  -669308.819380449
    1RRIC4  1RB066  -8.11842402539183  1RB070  3.714710586385261e-05
    1RRIN  1RB039  -0.3431248084692067  1RB090  8748031.919000532
    1RRLCT  1RB024  1.9269899424221704e-07  1RB059  0.0020788519820709277
    1RRLCT  1RB060  -5.993965346719918e-05  1RB061  -1.62218993757286e-05
    1RRLCT  1RB062  -3.0346401336541494e-08  1RB063  -2.5540283787247793e-08
    1RRLCT  1RB064  -7.804671104176135e-08  1RB065  -18.458068978237687
    1RRLCT  1RB066  -0.00022574404289833354  1RB070  1.343064386978389e-09
    1RRMON  1RB057  -0.3250509590640838  1RB064  8.179427031894732e-10
    1RRMON  1RB065  0.19488192090742326  1RB066  2.4163623081626578e-06
    1RRNC4  1RB006  2.667547043568883e-10  1RB059  0.027899360095646464
    1RRNC4  1RB060  -0.00010987015570515048  1RB061  -2.9430600648509498e-05
    1RRNC4  1RB062  -5.499389009018351e-08  1RB063  -4.612864627111429e-08
    1RRNC4  1RB064  -1.7121523768853403e-07  1RB065  -40.41618120112041
    1RRNC4  1RB066  -0.000492807240979052  1RB070  2.4618542948385397e-09
    1RRRON  1RB057  -27308702979.21063  1RB058  -33.86490411044593
    1RRRON  1RB061  5933.8147389620935  1RB062  11.192066028490913
    1RRRON  1RB063  9.567625935364545
    1RRTEL  1RB060  0.005916322761454847  1RB061  -7.211032397671729e-05
    1RRTEL  1RB062  -1.9783404229666886e-07  1RB063  -3.4880998290546096e-07
    1RRTEL  1RB064  -3.411176508863132e-07  1RB065  -117.39610942484754
    1RRTEL  1RB066  -0.0027992446816620725  1RB087  97.57229373879517
    1RRTHR  1RB029  56242306.32684719  1RB059  29882943.207449358
    1RRTHR  1RB060  -1181794.2930811225  1RB061  -257637.77057969337
    1RRTHR  1RB062  -470.5069599174708  1RB063  -380.5750115186262
    1RRTHR  1RB064  -1411.9865139221956  1RB065  -324692970923.62775
    1RRTHR  1RB066  -3796650.8998767775  1RB070  26.480397132094453
    1RRXF1  1RB011  0.0008946089243928039  1RB012  0.00559826856972487
    1RRXF1  1RB013  -0.1303023603760708  1RB014  1.7663221282559992e-09
    1RSBT  1RB045  2.744113780864436e-05  1RB087  -8403.250708708316
    1RSCOK  1RB023  297.6590291140903  1RB088  16457.501767346326
    1RSLFU  1RB027  387209.4033799824  1RB031  -2.190833481237042
    1RSLFU  1RB078  -0.0766480588482551
    1RSNO1  1RB040  7.255121584833043e-06  1RB087  -5333.5987054867055
    1RSNO2  1RB041  0.00045607402169790557  1RB087  -1364024341.4322753
    1RSNO3  1RB042  0.3681128771250233  1RB087  -20331.674750336424
    1RSPRM  1RB038  0.021605451067425778  1RB087  -10056.756473881509
    1RSREG  1RB039  6.899493021533243e-11  1RB087  -4.651603945989001
    1RTCHG  1RB001  -0.0023315092020827193  1RB002  -4308182.876775571
    1RTCHG  1RB003  -0.00032827518117389386  1RB004  -2040454.7111381763
    1RTCHG  1RB005  -2.1139860955089733  1RB006  -0.0008023229965042672
    1RTCHG  1RB027  17866216.18902816  1RB029  -314100.5388613914
    1RTCHG  1RB030  -0.0018207539000121857  1RB031  6.220749213100283
    1RTCHG  1RB076  -85477.87650787199
    1RTFUL  1RB030  0.24234673017187858  1RB031  -8597.710792319767
    1RTFUL  1RB078  -14.210918638033254
    1RVFUL  1RB017  0.0013129437951940716  1RB031  -3.5045164472974806
    1RVFUL  1RB078  0.10523075122028044
    1RXSFL  1RB031  2773.03877431992  1RB088  69.01927203161546
RHS
    ZZZZ0001  1DT058  0.02724789407381603  1DT061  17409751.655236185
    ZZZZ0001  1DT065  3.3659637974796883  1DT054  8657776.9886454
    ZZZZ0001  1MS042  2.6211179672567945e-05  1MS056  4.4466865068169515e-06
    ZZZZ0001  1MS057  0.010224199207520532  1MS058  0.012200884463052312
    ZZZZ0001  1RB039  0.06527503112468792  1RB040  0.7774389070816417
    ZZZZ0001  1RB041  0.0006191560741499384  1RB038  2585.8640223906245
    ZZZZ0001  1DT017  1.3989957658014288e-06  1DT027  7.098717939715622e-05
    ZZZZ0001  1DT028  7503.708086404876  1DT029  219345487.94519532
    ZZZZ0001  1DT030  1801850.2391227982  1DT031  60713807.453314655
    ZZZZ0001  1DT032  0.038266093453803704  1DT033  123.43122245110311
    ZZZZ0001  1DT038  0.0037132563668979654  1DT039  7.542559691585581
    ZZZZ0001  1DT040  1098689.8840170715  1DT041  528.0737243035699
    ZZZZ0001  1DT045  1.4825905950324851  1DT047  846.1820448194613
    ZZZZ0001  1DT048  28.789120053947915  1DT049  0.004499022744915274
    ZZZZ0001  1DT050  0.029331052894481954  1DT068  0.00041705000254097207
    ZZZZ0001  1DT072  2.8885471519894304  1DT074  2.423456507238723
    ZZZZ0001  1DT075  10083.982285680475  1DT076  0.000800179136852389
    ZZZZ0001  1DT077  13995453.039296633  1DT095  244137.56529331367
    ZZZZ0001  1DT096  1454370.06281918  1DT097  4.206294013122752
    ZZZZ0001  1DT098  6.090328671886158  1DT099  5456.880083042323
    ZZZZ0001  1MS037  4.478674891670398e-05  1MS038  47.93638454245073
    ZZZZ0001  1MS039  0.6783820215480946  1MS041  0.0004114827531363475
    ZZZZ0001  1MS060  37353.10368042875  1MS061  23352294.466754567
    ZZZZ0001  1MS062  0.031073234751668618  1MS063  37538499.87861085
    ZZZZ0001  1MS064  403551.53887771285  1MS075  0.00018103774035902267
    ZZZZ0001  1MS076  792362.0946585994  1MS077  13.390424923722167
    ZZZZ0001  1MS078  8737636.529566048  1PD072  7361.055925781146
    ZZZZ0001  1PD009  37749.664951395614  1PD010  83.98722419101063
    ZZZZ0001  1PD011  2039.5477632747177  1PD012  0.0005867610311048745
    ZZZZ0001  1PD015  91.7953111152251  1PD016  107.93643667320984
    ZZZZ0001  1PD017  -25376.257402782598  1PD018  -77744.62591433052
    ZZZZ0001  1PD019  -2.574939254336351e-05  1PD020  -0.0011941002095937582
    ZZZZ0001  1PD021  6598.295633392341  1PD022  10646.278185184407
    ZZZZ0001  1PD023  3.4103238008770553  1PD024  13.645033092602567
    ZZZZ0001  1PD029  263884.8925328527  1PD030  313597.34412674134
    ZZZZ0001  1PD031  -0.0604142511066039  1PD032  -0.003884769740937106
    ZZZZ0001  1PD033  -0.0011739006116418527  1PD034  -4697.488101475037
    ZZZZ0001  1PD035  221.7071169241807  1PD036  87408.52231959824
    ZZZZ0001  1PD037  133.98994811034774  1PD038  11488.843487502923
    ZZZZ0001  1PD049  0.00026724043690488474  1PD050  25675.67545074738
    ZZZZ0001  1PD051  1291.5038740986724  1PD052  62182.52479063475
    ZZZZ0001  1PD053  172469.50665193243  1PD054  0.03296451115978139
    ZZZZ0001  1PD055  7.890415027230971  1PD056  27319883.648837045
    ZZZZ0001  1PD057  0.014946628674042685  1PD058  0.0001104296409320841
    ZZZZ0001  1PD059  0.0005022132126506777  1PD060  278396.7228749323
    ZZZZ0001  1PD061  3294342.594295465  1PD062  2350.4437392745554
    ZZZZ0001  1PD063  0.0024403754503192787  1PD064  153073.4086155988
    ZZZZ0001  1PD065  408506.21316092485  1PD066  194.85330774772424
    ZZZZ0001  1PD067  0.00033231373470640014  1PD068  0.07721580155070844
    ZZZZ0001  1PD069  0.11191150374714742  1PD070  0.8196284967944967
    ZZZZ0001  1PD071  0.000988685998216725  1RB032  109406.04379705271
    ZZZZ0001  1RB033  14532588.63533742  1RB034  1.733402689569002
    ZZZZ0001  1RB035  0.9523762275982016  1RB036  0.14055949579075597
    ZZZZ0001  1RB037  0.39305351605749683  1RB042  1759.1330606835443
    ZZZZ0001  1RB043  27.678529454807105  1RB044  66648.92834625194
    ZZZZ0001  1RB083  6966020.076677209  1RB086  5625666.022303721
    ZZZZ0001  1RB089  6.443909818583341  1RB090  2578240.9072380266
    ZZZZ0001  1RB091  37496.835669337925  1RB092  0.004759069343713441
ENDATA
