NAME          E226
ROWS
 N  ...000
 L  ...010
 E  ...011
 L  ...012
 E  ...013
 E  ...014
 E  ...015
 E  ...016
 L  ...017
 L  ...018
 L  ...019
 L  ...020
 L  ...021
 L  ...022
 L  ...023
 L  ...024
 L  ...025
 E  ...026
 L  ...027
 E  ...028
 L  ...029
 L  ...030
 L  ...031
 E  ...032
 L  ...033
 L  ...034
 L  ...035
 L  ...036
 L  ...037
 L  ...038
 L  ...039
 L  ...040
 L  ...041
 L  ...042
 L  ...043
 L  ...044
 L  ...045
 E  ...046
 L  ...047
 L  ...048
 L  ...049
 L  ...050
 L  ...051
 L  ...052
 L  ...053
 L  ...054
 L  ...055
 L  ...056
 L  ...057
 L  ...058
 L  ...059
 L  ...060
 L  ...120
 L  ...133
 L  ...134
 L  ...135
 L  ...136
 L  ...137
 L  ...138
 L  ...139
 L  ...140
 L  ...141
 L  ...142
 L  ...143
 L  ...144
 L  ...145
 L  ...146
 E  ...147
 L  ...148
 L  ...149
 L  ...150
 L  ...151
 L  ...152
 L  ...153
 L  ...154
 L  ...155
 E  ...156
 E  ...157
 L  ...158
 L  ...159
 L  ...160
 L  ...161
 L  ...162
 L  ...163
 E  ...164
 E  ...165
 E  ...166
 L  ...167
 L  ...168
 L  ...169
 L  ...170
 L  ...171
 L  ...172
 L  ...173
 L  ...174
 L  ...175
 E  ...176
 E  ...177
 E  ...178
 L  ...179
 L  ...180
 E  ...181
 L  ...182
 L  ...183
 E  ...184
 L  ...185
 L  ...186
 E  ...187
 E  ...188
 L  ...189
 L  ...190
 G  ...191
 L  ...192
 L  ...193
 L  ...194
 L  ...195
 L  ...196
 L  ...197
 L  ...198
 L  ...199
 L  ...200
 G  ...201
 L  ...202
 G  ...203
 L  ...204
 L  ...205
 L  ...206
 L  ...207
 L  ...208
 L  ...209
 L  ...210
 L  ...211
 L  ...212
 L  ...213
 L  ...214
 L  ...215
 L  ...216
 L  ...217
 L  ...218
 L  ...219
 L  ...220
 L  ...221
 L  ...222
 L  ...223
 L  ...224
 L  ...225
 L  ...226
 L  ...227
 L  ...228
 L  ...229
 L  ...230
 L  ...231
 L  ...232
 L  ...233
 L  ...234
 L  ...235
 L  ...236
 L  ...237
 L  ...238
 L  ...239
 L  ...240
 L  ...241
 L  ...242
 L  ...243
 L  ...244
 L  ...245
 L  ...246
 L  ...247
 L  ...248
 L  ...249
 L  ...250
 E  ...251
 L  ...252
 L  ...253
 L  ...254
 L  ...255
 L  ...256
 L  ...257
 L  ...258
 L  ...259
 L  ...260
 L  ...261
 E  ...262
 L  ...263
 E  ...264
 L  ...265
 L  ...267
 L  ...266
 L  ...268
 E  ...269
 L  ...270
 L  ...271
 L  ...272
 L  ...273
 L  ...274
 L  ...275
 E  ...276
 E  ...277
 E  ...278
 E  ...279
 L  ...280
 L  ...281
 L  ...282
 L  ...283
 L  ...284
 L  ...285
 L  ...286
 L  ...287
 L  ...288
 E  ...289
 L  ...290
 L  ...291
 G  ...292
 L  ...293
 E  ...294
 L  ...295
 L  ...296
 G  ...297
 L  ...298
 E  ...299
 L  ...300
 L  ...301
 L  ...302
 L  ...303
COLUMNS
    .ETHSD  ...269  4.9680191942107e-07  ...270  0.004182190041613742
    .ETHSD  ...000  -0.0006586876825688017
    .BUDSD  ...271  1.994433184956156e-05  ...293  0.06589478641321361
    .BUDSD  ...000  -78.47299661909243
    .HEPTS  ...267  6.098399842834654e-06  ...268  3.4608015736910197e-06
    .HEPTS  ...000  -15.776239018814273
    .M28IS  ...032  1.1015730106486791e-06  ...055  8.449309973147884e-11
    .TF0SD  ...300  1038.6178106246628  ...301  0.16113488717186725
    .TF0SD  ...302  1.476708570419402  ...000  -39388.210989046
    .RKDIS  ...028  7974546.198280516  ...055  2.8911023692745235
    .ADHD1  ...056  1.3845585300860894  ...133  29391.52100864998
    .ADHD1  ...140  2.0852487197157647e-07  ...000  -0.22925064966441333
    .PREHT  ...289  59.831920693594384  ...290  1.6083199025770933e-07
    .C4LPG  ...169  1.304033493411805e-07  ...173  31.282265571905512
    .C4LPG  ...174  7.421615460672392e-07  ...000  -0.013695385762333022
    .M28SL  ...033  442.75511899182055  ...049  1.3668855104175295
    .M28SL  ...045  -74.46417501393164  ...000  -306.0142042867109
    .HEPP0  ...267  2.8148470198876576e-11  ...274  -2.942264686091403e-11
    .RKSLD  ...029  0.04328169218148333  ...031  19.76547912019465
    .RKSLD  ...045  -119.9962823663198  ...000  -607.6929012506606
    .UN010  ...010  -0.06259049794106598
    .XCAPY  ...182  0.0010849668745549804
    .REDBA  ...294  83269.69674404964  ...013  -0.008301399695293844
    .TFVIS  ...051  5.677421517001989  ...052  63680.72403995242
    .TFVIS  ...053  411.5381391896744  ...054  0.0047442302133632284
    .TFVIS  ...056  35.92203395561263  ...000  -8.738079782744524
    .T0TMX  ...168  15.096890636019568  ...170  -6.795215106858413e-07
    .T0TMX  ...171  0.0038164690070150954  ...173  0.16229518993358
    .T0TMX  ...174  3.8504004386612265e-09  ...000  -8.101605926060524e-05
    .EGV0L  ...000  -0.0003992332805554593  ...211  4.9132812110263704e-05
    .EGV0L  ...212  1.9692529308073777e-10
    .VNNF2  ...193  -42462.892770032755  ...192  -3060.0645090543935
    .VNNF2  ...194  -13036260.808932506  ...195  -2.3680422831235983
    .C5FDP  ...181  2992.146962428527  ...183  -123.36187925246416
    .C5FDP  ...184  -0.6528389103939419  ...185  189249.05218724904
    .C5FDP  ...186  3416594.899835593
    .TFNS1  ...050  45.604375688669386  ...051  -729.3080189819196
    .TFNS1  ...000  0.811606877045324
    .CFMSU  ...261  -0.0040799085872597314  ...278  15256.345312633144
    .VN4PH  ...179  6029047603.250717  ...198  -18.9777108122196
    .CFMSG  ...279  4.501216477061313  ...285  0.00012859817244873206
    .ERV0L  ...233  3.6051553400661814e-05  ...234  2.640766978155106e-09
    .ERV0L  ...000  -0.0004622865718803636
    .PKDIS  ...026  0.008438182104209052  ...055  0.02029326944594612
    .EEV0L  ...000  -0.00019066635440547915  ...222  3.3378027534537434e-08
    .EEV0L  ...223  1.7517781369125304e-06
    .CS1TP  ...189  -0.2654845816280165  ...191  2.276273412776822e-06
    .CS1TP  ...190  3.632909039194263e-05  ...000  7.228866710710183e-08
    .JP5DS  ...046  270373405.5500717  ...047  -79093664.02274589
    .JP5DS  ...048  14.873419532460296  ...050  3315.4165652497936
    .JP5DS  ...000  -27356.570318502338
    .DMD0S  ...144  0.0019445189977651848  ...145  823.318568668945
    .DMD0S  ...000  -0.07715073790794474
    .PKSLD  ...027  25.16143059840007  ...030  8.426817944175663e-09
    .PKSLD  ...045  -6.052356018758015e-05  ...000  -0.0002810545992618734
    .VNSW2  ...051  0.004748614616285302  ...189  -17.399873518017163
    .VNSW2  ...000  9.111159739675898e-06
    .TGAS1  ...134  0.00041647196142376007  ...135  7.7452387372538185
    .TGAS1  ...137  -0.0015647602154672622
    .TGAS2  ...137  -2.176963696774665e-09  ...134  7.065717096744515e-10
    .TGAS2  ...136  1.1925627889968141e-07
    .LD1EG  ...219  0.8880490192015829  ...244  12992214.755672194
    .LD1EG  ...000  -6.253090072004063
    .LD2EG  ...219  82.2533443872705  ...245  5488.161569542682
    .LD2EG  ...000  -193.1629750286719
    .JP1TF  ...034  3353.6210140841413  ...050  63.61815038825344
    .JP1TF  ...301  -0.003981296509987723
    .JP1DS  ...034  0.00011455860370173805  ...035  0.27689227488555496
    .JP1DS  ...036  -0.002035066488567666  ...050  2.173175337331854e-06
    .JP1DS  ...000  -2.0033818322994314e-05
    .JP4DS  ...038  117121240.59852411  ...041  191.877626230617
    .JP4DS  ...050  1835.0905695146457  ...000  -10399.678963470416
    .VN4DB  ...051  0.4795462629662764  ...179  50687.078657301376
    .VN4DB  ...204  2.1439818674731193e-06  ...281  2.507383571811275
    .VN4DB  ...000  -0.2682963951081107
    .T5JP5  ...037  3.590419959564245e-11  ...046  -0.2563169386641679
    .T5JP5  ...047  0.14996331306177965  ...050  -3.1430510803101877e-06
    .T5JP5  ...000  -5.5935901613894286e-08
    .J4210  ...041  1.635705477655105e-05  ...042  3.01245796336101e-08
    .J4210  ...044  2.4582312249224013e-07  ...050  0.00015643656613411713
    .J4210  ...000  -0.0009800506104921166
    .T5JP1  ...034  -0.00011015906461976428  ...036  0.009784556269702557
    .T5JP1  ...037  2.3871576772762535e-11  ...050  -2.0897161337484574e-06
    .T5JP1  ...000  -3.7190027483353974e-08
    .TFCAT  ...054  -3.1740320547857934e-08  ...156  1.6096038964432697e-09
    .TFCAT  ...157  1.661008286523535e-11  ...281  -0.00010444038083009009
    .TFCAT  ...282  2.3320830128772186e-07
    .VNSW1  ...050  9.8898724159771e-07  ...189  -0.057952787414685875
    .VNSW1  ...000  1.7600698057362364e-08
    .ETHRF  ...264  -304835.5915464598  ...269  0.17981297706059796
    .ETHRF  ...000  31.561789715102282
    .LD1ER  ...241  4.8984225549744104e-06  ...248  0.0003095711092443953
    .LD1ER  ...000  -0.0010643711114922947
    .LD2ER  ...000  -0.023440197917980236  ...241  0.00021575194695463976
    .LD2ER  ...249  8.61090367401164e-06
    .LD1EE  ...000  -15390.159394911958  ...230  184914718533.83432
    .LD1EE  ...246  84814.72216516535
    .LD2EE  ...000  -0.6397582234210648  ...230  13429928.634894494
    .LD2EE  ...247  8.464718174027358e-05
    .PC4TF  ...264  -0.34497201465631955  ...265  1.4368961973014876e-07
    .PC4TF  ...273  2.5312445272691992e-08
    .C5TRF  ...183  80353.90529684364  ...264  -192022051.8181607
    .C5TRF  ...265  79.98206936595336
    .CCSRF  ...156  9.824090043129255e-08  ...157  1.4283536291871068e-09
    .CCSRF  ...264  -2.41821195704587  ...266  1.63836996909086e-10
    .CCSRF  ...000  -1.7309850697735576e-05
    .DGHDS  ...137  3057.956530173048  ...138  563528.1496176214
    .DGHDS  ...139  21.98864624215182  ...262  -8209813.280540037
    .DGHDS  ...264  -112187233.51663814  ...265  46.72883665256998
    .DGHDS  ...000  -1528553.3815047871
    .ADHDS  ...133  1.0756789053772653  ...137  3.0024053733075694e-08
    .ADHDS  ...140  7.647193236296386e-12  ...262  -6.714540573425566e-05
    .ADHDS  ...000  -8.432176808809172e-06  ...264  -0.0008257887664120617
    .ADHDS  ...265  3.4396202817028736e-10
    .VN4RF  ...179  1796654.4807937136  ...264  -52649.76322581739
    .VN4RF  ...265  0.021929965722978926
    .GWG0S  ...142  12644896417.349762  ...143  5179189.413834196
    .GWG0S  ...000  -92060.30226052937
    .DGFDG  ...139  -7.80931306632981e-08  ...141  3.4180614631734066e-05
    .DGFDG  ...142  750.5805035947066
    .ADFHD  ...140  -3.660130597902164e-10  ...142  43.306083925334974
    .ADFHD  ...156  2.9055942695994095e-08  ...157  3.730291879006098e-10
    .C4VIS  ...173  -11396492.532375623  ...200  4511.943688085215
    .CATFI  ...147  -20.166876402755683  ...276  -2.5741346949959627e-05
    .CATFI  ...277  -163.16568995446846  ...278  -0.8426479674507406
    .CATFI  ...279  -0.00035267341533037764  ...000  0.029144060323361573
    .C3LPG  ...167  11237202109.623718  ...172  80258049.76964244
    .C3LPG  ...174  2.5134030863916355  ...202  112600651.8998916
    .C3LPG  ...000  -47556.7369338464
    .PETCF  ...147  -1687077.1393040149  ...148  0.39751189136809745
    .PETCF  ...276  -6.6038035404063224  ...277  1910966.9733715951
    .PETCF  ...278  -185042.62864941338  ...279  -31.113629818212637
    .C3MIX  ...170  0.16948784288356242  ...171  -1983.1512850677916
    .C3MIX  ...172  7666.686562715785  ...173  -10120.011368167594
    .C3MIX  ...202  10756.228283040951
    .CB1H1  ...147  -41.24860032039274  ...158  4.116350330152538e-08
    .CB1H1  ...276  -4.738537886373528e-05  ...277  -400.4798480351669
    .CB1H1  ...278  -1.8096977911853667  ...279  -0.0007300079063375373
    .CB1H3  ...147  -0.004829515910105583  ...159  4.878287297168296e-09
    .CB1H3  ...276  -7.2946310518723705e-09  ...277  0.1172236016943283
    .CB1H3  ...278  -0.0002484605175638664  ...279  -8.722346812514974e-08
    .PS1LF  ...147  -2.8757495153463943  ...149  0.26324228966735436
    .PS1LF  ...276  -1.529440003030469e-06  ...277  -144.25568915622245
    .PS1LF  ...278  -0.12015963382772404  ...279  -4.727078560672389e-05
    .PS1H1  ...147  -671180935.5585027  ...150  69970.18936867685
    .PS1H1  ...276  -399.7965339585053  ...277  -24165168526.930298
    .PS1H1  ...278  -45572254.9564995  ...279  -11429.917082069633
    .PS1H2  ...147  -391663509.75448817  ...151  126098846472.11215
    .PS1H2  ...276  -308.2877134453893  ...277  3010418829.701857
    .PS1H2  ...278  -28639056.15322533  ...279  -6841.838503019649
    .PS1H3  ...147  -643674451.9549127  ...152  6849.174012681178
    .PS1H3  ...276  -465.57169623890775  ...277  15363087108.15339
    .PS1H3  ...278  -52109334.17512145  ...279  -11575.927230121913
    .PS2LF  ...147  -0.9867487206981298  ...153  2.331834893189018e-07
    .PS2LF  ...276  -2.309088818971608e-07  ...277  -39.91781687182832
    .PS2LF  ...278  -0.044837705337298424  ...279  -1.6238744591762734e-05
    .PS2HF  ...147  -0.5118381547983337  ...154  6.500613124601863e-08
    .PS2HF  ...276  -4.246573500102853e-07  ...277  -2.070584060833546
    .PS2HF  ...278  -0.03622342457247827  ...279  -8.735922834262146e-06
    .GTSGB  ...175  1961086.8333577001  ...260  774330528.51567
    .GTSGB  ...000  -188755.87817662125
    .MD0CF  ...145  23120.383927221526  ...147  -1265.726320334064
    .MD0CF  ...276  8.077973927326399e-05  ...277  -71684.96149747445
    .MD0CF  ...278  -41.31781839771028  ...279  -0.020419031233671604
    .SPSU1  ...260  216.73856289633892  ...261  0.000366243263520275
    .SPSU1  ...263  270060.7393429708  ...000  -0.12057275432460417
    .SPSU2  ...260  3.292619248525619e-05  ...262  3.430922815689322e-05
    .SPSU2  ...263  0.04102671793837689  ...000  -1.831700673990435e-08
    .C3VRF  ...202  558499.9291566395  ...264  -1469617.6458610382
    .PS3HF  ...147  -184494892.0295176  ...155  201818168.11191064
    .PS3HF  ...276  -43.173614863298255  ...277  -4478120818.0000515
    .PS3HF  ...278  -10358821.866428772  ...279  -3092.5553114902136
    .BF0SD  ...164  547.1147874766092  ...165  7.56229396025706e-05
    .BF0SD  ...000  -1.4247817972740062
    .C4VRF  ...200  7256.612660347651  ...264  -60416788.49600036
    .C4VRF  ...265  25.16512933072522
    .CCSF6  ...157  1.613536576418609e-07  ...164  -9.815036440210754
    .CCSVF  ...156  0.2661105019235734  ...166  -1861102508.7401035
    .FCTEM  ...260  -1.984660682405889  ...283  -2.5810819591431312e-06
    .FCTEM  ...284  5689.560173012158  ...285  -4.815371111910139e-09
    .FCTEM  ...286  28.031473564392773  ...289  -878.5734037091518
    .FCTEM  ...000  -2.7558655180774007e-05
    .VN0ER  ...188  3.6686334978779863e-09  ...241  -2.28149096890226e-09
    .GASRF  ...260  0.7925647119003063  ...264  -2.0220734787071764
    .G0TCF  ...142  39832728984.56057  ...147  -161021491.41686192
    .G0TCF  ...276  41.10611870854736  ...277  -9119522306.715685
    .G0TCF  ...278  -4205052.314142868  ...279  -2557.677508607713
    .PC4TG  ...213  17.30993604522623  ...214  -31.028542983850084
    .PC4TG  ...215  2404.83833566613  ...216  -0.40280888835768147
    .PC4TG  ...217  3.639500992461353e-05  ...218  -0.010888855563719848
    .PC4TG  ...220  6.724216045881089e-07  ...221  -5.159517727558086e-08
    .PC4TG  ...219  3.6757487767416947e-07  ...211  -4.184551437094037e-05
    .PC4TG  ...244  -15.533410205626188  ...245  -8.709413331094908e-05
    .PC4TG  ...273  8.534427738138168e-08
    .P0LYG  ...213  2131600980.0218065  ...214  -11115503093.540768
    .P0LYG  ...215  -4413695516556.508  ...216  -69013115.79993996
    .P0LYG  ...217  -172101.04780443822  ...218  24028722.967833992
    .P0LYG  ...220  -85.12527483119813  ...221  -12.732058148880808
    .P0LYG  ...219  15570.935721395776  ...211  -329791.4047407232
    .P0LYG  ...244  -122421369390.18886  ...245  -686403.2382223585
    .P0LYG  ...274  2.3221815298426547
    .P90BG  ...256  130.33726432903197  ...213  -89379.69308139056
    .P90BG  ...214  120836.00194654147  ...215  -62899505.36132262
    .P90BG  ...216  5305.252001712655  ...217  -2.338625878254614
    .P90BG  ...218  479.78243407334134  ...220  -0.00629888686749128
    .P90BG  ...221  0.0002959738434209968  ...219  -0.03936529224316068
    .P90BG  ...211  -1.5364901161601154  ...244  -570358.1760194518
    .P90BG  ...245  -3.1979359560874596  ...000  0.004794026178189818
    .P93BG  ...213  -6851157546.768731  ...214  9262355442.455372
    .P93BG  ...215  -4821390698352.8125  ...216  406659678.90430456
    .P93BG  ...217  -176700.14151224948  ...218  36163478.69605161
    .P93BG  ...220  -480.43974369155444  ...221  22.687070866907042
    .P93BG  ...219  -13923.328114389367  ...211  -117775.47552417892
    .P93BG  ...244  -43719256436.007  ...245  -245129.0925745346
    .P93BG  ...257  25657.29701875705  ...000  367.4730522983917
    .P96BG  ...213  -1239314210.9846382  ...214  1675478727.3049605
    .P96BG  ...215  -872147220143.2489  ...216  73561163.30126584
    .P96BG  ...217  -31500.26406480013  ...218  6430780.071936746
    .P96BG  ...220  -86.47602696383416  ...221  4.103891807922919
    .P96BG  ...219  -3851.988301786854  ...211  -21304.548833711917
    .P96BG  ...244  -7908429404.076301  ...245  -44341.69932300997
    .P96BG  ...258  237016269.1509013  ...000  66.47264681310517
    .P990G  ...213  1.7861771015039034  ...214  -8.749746769329922
    .P990G  ...215  4351.129910761212  ...216  -1.0777335866595243
    .P990G  ...217  0.00026766665637238045  ...218  -0.07714016925407821
    .P990G  ...220  5.594573044899237e-07  ...221  -2.98040523431813e-08
    .P990G  ...219  6.877847157910144e-05  ...211  -0.00025122638760155134
    .P990G  ...244  -93.25736800603325  ...245  -0.0005228838699182652
    .P990G  ...255  3.5853023379917306e-07  ...000  7.83855272576574e-07
    .P99BG  ...213  -140.56141675247878  ...214  190.0306327170362
    .P99BG  ...215  -98917.81099054196  ...216  8.343212108712391
    .P99BG  ...217  -0.0035201792663101107  ...218  0.7167954098325907
    .P99BG  ...220  -9.759081558691564e-06  ...221  4.65458107078615e-07
    .P99BG  ...219  -0.0005492047780977123  ...211  -0.0024163344055900893
    .P99BG  ...244  -896.9638461909846  ...245  -0.005029178252626337
    .P99BG  ...259  2.523902319411351e-06  ...000  7.539241726207417e-06
    .C5TEG  ...213  207648.9759685164  ...214  -541405.9330008856
    .C5TEG  ...215  366729066.450492  ...216  -64707.74360501343
    .C5TEG  ...217  6.985478417911714  ...218  -2089.953147249501
    .C5TEG  ...220  0.028454455676014363  ...221  -0.0019088805480341818
    .C5TEG  ...219  3.230625265118218  ...211  -8.031621316496244
    .C5TEG  ...244  -2981406.0216697007  ...245  -16.716417713047807
    .C5TEG  ...183  99.0805638425571  ...250  0.014113137125684811
    .C5TEG  ...251  -1.1625098758875172
    .LCN0G  ...213  0.267300124774829  ...214  -1.0841213686487914
    .LCN0G  ...215  868.1913024031086  ...216  -0.17019846641120456
    .LCN0G  ...217  2.2780217198247657e-05  ...218  -0.006887250563769605
    .LCN0G  ...220  7.004772893606009e-08  ...221  -4.446043875579412e-09
    .LCN0G  ...219  3.0070680538198826e-06  ...211  -2.7570289331217332e-05
    .LCN0G  ...244  -10.234325473293833  ...245  -5.738274437610931e-05
    .LCN0G  ...250  4.844641680591829e-08  ...280  3.1123526091881657
    .LCN0G  ...000  3.328695927605483e-07
    .FCREC  ...156  -9.171219057737635e-07  ...260  -1.5201728208122323
    .FCREC  ...280  -8.639029855270962  ...281  -0.002805095701607235
    .FCREC  ...282  -1.3404212115609114e-06  ...283  7.4983111594346035e-06
    .FCREC  ...284  -364.09513372615504  ...285  -1.851153907460388e-09
    .FCREC  ...287  0.00553783644495414  ...289  -325.9654187431569
    .FCREC  ...000  -2.164279764323465e-05
    .FCMAR  ...260  -206.94765672394  ...276  0.0047499095727002545
    .FCMAR  ...280  2997.039322049835  ...281  0.9814570397264415
    .FCMAR  ...282  0.0004618854956969053  ...283  0.0007214724702794246
    .FCMAR  ...284  736036.4472844603  ...285  1.2988220134541074e-06
    .FCMBR  ...156  0.7056414273976109  ...277  388773143.1573651
    .FCMBR  ...283  -10.713489416789741  ...280  3547457.6596143357
    .FCMBR  ...281  1161.7055764148843  ...282  0.5740482578576193
    .FCMBR  ...260  -432272.5183267924  ...284  686079846.9854187
    .FCC0N  ...260  0.8145482711541372  ...280  -10.398290516523007
    .FCC0N  ...281  -0.003420387417444426  ...282  -1.6225528902700552e-06
    .FCC0N  ...283  -0.0002852631476231232  ...284  25650.94243731716
    .FCC0N  ...285  4.097699448661775e-08  ...288  11486.620175411661
    .FCC0N  ...289  5306.697976512596  ...156  4.428582281549762e-06
    .FCC0N  ...157  9.20622678652902e-08  ...000  6.470938049697283e-05
    .VN1ER  ...187  2.521661818567318  ...239  4.612948183511987
    .VN1ER  ...240  -4.039782319244307e-06  ...242  0.18427163496723084
    .FCTPT  ...147  0.35152267407943133  ...156  -7.598129706253393e-08
    .FCTPT  ...157  -1.0397455130316921e-09  ...260  -0.0861490853121354
    .FCTPT  ...280  -2.576026193939192  ...281  -0.0008436070034711019
    .FCTPT  ...282  -3.970055496160609e-07  ...283  -2.33091127838436e-06
    .FCTPT  ...284  165.45499503167218  ...286  -0.47100973704231663
    .FCTPT  ...287  -9.914172717358845e-05  ...288  -32.4322930127014
    .FCTPT  ...289  4.700049417736298  ...290  -1.102297950324385e-08
    .FCTPT  ...291  1.7558379407466872e-10  ...292  0.6128300506809294
    .FCTPT  ...000  2.9295950387561805e-06
    .VNRER  ...235  5.624393997852013e-05  ...236  -242.2336286345985
    .VNRER  ...242  0.3676834901700288  ...243  -18.311025834340583
    .VNRER  ...177  0.003923747049442267
    .VN7ER  ...237  7.682225498792313  ...238  -11928.125585550551
    .VN7ER  ...242  0.44235552047657073  ...243  -22.02977174652026
    .VN7ER  ...178  8.681914485121404e-05
    .C4VEG  ...213  1336143.9729072484  ...214  -2410138.691632951
    .C4VEG  ...215  224154666.47961637  ...216  -37545.763757059685
    .C4VEG  ...217  3.3923741110498855  ...218  -1014.948801768103
    .C4VEG  ...220  0.05399047617422158  ...221  -0.0041190169423213395
    .C4VEG  ...219  1.0478341239684474  ...211  -3.9004149170334763
    .C4VEG  ...244  -1447867.1319786408  ...245  -8.118032765491229
    .C4VEG  ...200  13.021540706492408
    .C3VEG  ...213  772.4001358960321  ...214  -1358.4814271345133
    .C3VEG  ...215  54554.3329076079  ...216  -8.656398220773225
    .C3VEG  ...217  0.0010762670348874815  ...218  -0.2944030922960047
    .C3VEG  ...220  2.7270496687039237e-05  ...221  -2.1017463812675694e-06
    .C3VEG  ...219  -6.625439499700293e-05  ...211  -0.0007071133851848741
    .C3VEG  ...244  -262.48649201916294  ...245  -0.001471733072494287
    .C3VEG  ...202  6.3376342548157005
    .G0IF6  ...164  -2.111982734657775  ...166  -19276.507443854578
    .G0IF6  ...000  0.008419625634011102
    .MD0IF  ...164  -1857029.0733219727  ...166  -13449871298.07545
    .MD0IF  ...000  6875.28479611658
    .CFIF6  ...164  -1242.3770478543863  ...166  -3051032.390993324
    .CFIF6  ...000  3.991517319855179
    .F1V0L  ...160  7255.550194801026  ...164  1323132.1707662577
    .F1V0L  ...166  4773143044.381732  ...000  -4087.271453648409
    .F2V0L  ...161  18571.07991637061  ...164  209.25037303642551
    .F2V0L  ...166  296896.4419587534  ...000  -0.5846528961799459
    .F3V0L  ...162  26.119940442652783  ...164  1170.3697497961818
    .F3V0L  ...166  1040997.2863046819  ...000  -3.1751551384384187
    .F4V0L  ...163  287.5475686615983  ...164  206280.20224996074
    .F4V0L  ...166  -104884828.27443308  ...000  -578.3473019706448
    .PETF6  ...164  -269.0512568422769  ...148  0.00014093646932634692
    .PETF6  ...166  -758346.9119780804
    .KEBF6  ...044  0.030204321041839875  ...164  -2518.31915537753
    .KEBF6  ...166  -31478214.361158192
    .WKEF6  ...045  2.0387754947229113  ...164  -547.1688110230175
    .WKEF6  ...166  -7190432.681721106
    .CB161  ...158  0.442359480497471  ...164  -199388014.37718803
    .CB161  ...166  -567076981674.6866
    .CB163  ...159  0.5541623990431914  ...164  -246774.39970362125
    .CB163  ...166  -263529999.81961456
    .PS1L6  ...149  6740452.953215419  ...164  -33121599.337771855
    .PS1L6  ...166  -235486748975.32986
    .PS161  ...150  47086.801721344025  ...164  -203166723.914123
    .PS161  ...166  -922224800836.5052
    .PS162  ...151  936.6217267162917  ...164  -1.3085582123634212
    .PS162  ...166  -3504.240023487179
    .PS163  ...152  0.12296918716117057  ...164  -5198.178587373453
    .PS163  ...166  -2184011.1276154933
    .PS2L6  ...153  109.9902853964061  ...164  -209358176.09689203
    .PS2L6  ...166  -1457324161530.8892
    .PS2H6  ...154  3.40782873061559  ...164  -12069323.239572192
    .PS2H6  ...166  -52209026791.52776
    .MD0F6  ...145  1.8027153516763932  ...164  -0.044391390480032274
    .MD0F6  ...166  -321.51273088632337
    .PTF0E  ...224  -1.4548577121829064e-05  ...225  7.497910628155246e-07
    .PTF0E  ...226  -0.002233701720448977  ...227  -8.684425995008559e-06
    .PTF0E  ...228  196.4831501683258  ...229  -9803.99015188655
    .PTF0E  ...231  -53542.55562179737  ...232  0.00023206113955780375
    .PTF0E  ...230  335618.411231721  ...222  -0.00018914508638469624
    .PTF0E  ...246  -0.07893880892507199  ...247  -2.167868814631333e-06
    .PTF0E  ...303  79.22379691516653
    .SCNTE  ...224  -0.00048258256848558565  ...225  -0.0011191901603227238
    .SCNTE  ...226  0.10606867208484738  ...227  -0.013645238694078573
    .SCNTE  ...228  271559.61277850176  ...229  -8557962.511395395
    .SCNTE  ...231  102335917.71635555  ...232  -0.10876998171025531
    .SCNTE  ...230  457627697.9002621  ...222  -0.07842529963548686
    .SCNTE  ...246  -32.730428588696945  ...247  -0.0008988642771935419
    .SCNTE  ...275  0.0043533757865264365  ...000  0.04188400344423586
    .SCNTR  ...235  -0.9187229093438423  ...236  -35611129.96574867
    .SCNTR  ...237  586706.7243359555  ...238  -2935362259.7908587
    .SCNTR  ...239  2255247.892503819  ...240  -2.633373191925063
    .SCNTR  ...242  185434.23021689412  ...243  -4785655.893671842
    .SCNTR  ...241  -5.664698306266803  ...233  -13625.029130651754
    .SCNTR  ...248  -578.986658589521  ...249  -1.1697707913668043
    .SCNTR  ...275  2.0405252770550057  ...000  19.631975717955445
    .PTF0R  ...235  -119.29931423380786  ...236  102760602.44538668
    .PTF0R  ...237  -8126493.465544331  ...238  -8411957762.535282
    .PTF0R  ...239  7028439.785704778  ...240  -12.994195838028775
    .PTF0R  ...242  -265164.424908782  ...243  26799332.511096522
    .PTF0R  ...241  -171.34697850470366  ...233  -141540.5332920953
    .PTF0R  ...248  -6014.671942345347  ...249  -12.151899276831402
    .PTF0R  ...303  159946958.264559
    .PC4TE  ...224  8.204674530127523e-07  ...225  -2.1782919083040075e-07
    .PC4TE  ...226  1.7260319510891503e-05  ...227  -2.3368326801806886e-07
    .PC4TE  ...228  1.8654332121519672  ...229  -55.11327006769097
    .PC4TE  ...231  7898.485492659349  ...232  -1.841257966227708e-05
    .PC4TE  ...230  -1348.2748388814268  ...222  -4.0404708136497005e-07
    .PC4TE  ...246  -0.00016862714206454277  ...247  -4.630948041401504e-09
    .PC4TE  ...273  6.4883858757402e-07
    .P0LYE  ...224  23.261314566008416  ...225  -9.990166979264577
    .P0LYE  ...226  -3450.0289273752946  ...227  -6.9020431129410085
    .P0LYE  ...228  -698114297.3964505  ...229  9625200585.015549
    .P0LYE  ...231  48498514383.441635  ...232  -491.642023602482
    .P0LYE  ...230  -598459117035.1477  ...222  -252.01567343240592
    .P0LYE  ...246  -105177.55164277767  ...247  -2.8884542002917772
    .P0LYE  ...274  1.3972161170207018
    .PC4TR  ...273  9.039932698709402e-05  ...235  0.00046428748651456016
    .PC4TR  ...236  -2060.2060333774616  ...237  7.487353060413672
    .PC4TR  ...238  -14725.695176206433  ...239  4.604913905915533
    .PC4TR  ...240  -5.040932891152936e-06  ...242  3.753743825475803
    .PC4TR  ...243  -177.83672114778022  ...241  -4.643631500152716e-05
    .PC4TR  ...233  -0.02086536240232943  ...248  -0.0008866598626498682
    .PC4TR  ...249  -1.7913863710293968e-06
    .P0LYR  ...235  0.0002468374783987065  ...236  -1771.8157161573924
    .P0LYR  ...237  -17.514797131461606  ...238  -9065.025051328234
    .P0LYR  ...239  -32.31614652835709  ...240  1.6508809284301203e-05
    .P0LYR  ...242  0.5244364338459686  ...243  -91.07636790104209
    .P0LYR  ...241  -0.00028478137746352936  ...233  -0.24404658535698545
    .P0LYR  ...248  -0.01037059925825379  ...249  -2.0952510599861842e-05
    .P0LYR  ...274  3.6504242387817744e-06
    .P900E  ...225  -11.221234762939895  ...226  -373.5102568607776
    .P900E  ...227  -110.58809846361105  ...228  3675663235.304548
    .P900E  ...229  -106182354816.56697  ...231  1172088693927.396
    .P900E  ...232  -949.1385434583798  ...230  3585931669760.926
    .P900E  ...222  -707.6776197522572  ...246  -295345.9139433034
    .P900E  ...247  -8.11098121551614  ...252  7375534362.585076
    .P900E  ...000  1738.5424244986957
    .P930E  ...224  2.4949173960055774e-09  ...225  -1.9287110522799844e-09
    .P930E  ...226  2.1132209261258898e-07  ...227  -1.5154091568172456e-08
    .P930E  ...228  0.430542763401638  ...229  -12.388335308283883
    .P930E  ...231  166.02005921430361  ...232  -1.81676826128295e-07
    .P930E  ...230  397.29981437856577  ...222  -8.109063904299328e-08
    .P930E  ...246  -3.38427954084286e-05  ...247  -9.294128169012517e-10
    .P930E  ...253  1.3057334639018112e-05  ...000  1.9921432057623646e-07
    .P960E  ...224  8.866539270461196e-05  ...225  -4.569554704507684e-05
    .P960E  ...226  0.008270562248191489  ...227  -0.00031338172117244137
    .P960E  ...228  7816.715316428166  ...229  -224061.76638699093
    .P960E  ...231  3513576.124436522  ...232  -0.004523945818473805
    .P960E  ...230  6550894.165610696  ...222  -0.0014409161134805895
    .P960E  ...246  -0.6013595379779565  ...247  -1.6514926010613473e-05
    .P960E  ...254  0.018057367038796505  ...000  0.0035398799163759926
    .P900R  ...236  -0.2250532218416549  ...237  0.002224701749957984
    .P900R  ...238  -14.968526341958235  ...239  0.019240995340767664
    .P900R  ...240  -2.059477719841224e-08  ...242  0.0012810208456683666
    .P900R  ...243  -0.02573112996733799  ...241  -1.4214484578002796e-08
    .P900R  ...233  -7.749602542351124e-05  ...248  -3.2931426702778012e-06
    .P900R  ...249  -6.653386654675457e-09  ...252  2.179074243524135
    .P900R  ...000  5.136459044536669e-07
    .P930R  ...235  7.770829256960987e-07  ...236  -10.040314578596963
    .P930R  ...237  0.12130649587576772  ...238  -530.8089272104053
    .P930R  ...239  0.5849835837845119  ...240  -6.236677137504377e-07
    .P930R  ...242  0.04686322096142283  ...243  -1.1764060755657233
    .P930R  ...241  -5.113477684211071e-07  ...233  -0.002304890275807598
    .P930R  ...248  -9.794479750528686e-05  ...249  -1.9788532531498033e-07
    .P930R  ...253  0.0010013101903826524  ...000  1.5276879606582732e-05
    .P960R  ...235  0.10839283214717946  ...236  -933661.0862972864
    .P960R  ...237  12305.93329912977  ...238  -42991463.24078016
    .P960R  ...239  41685.68156761835  ...240  -0.04427344251950088
    .P960R  ...242  3879.5654304373074  ...243  -110718.76622753686
    .P960R  ...241  -0.04801887223501376  ...233  -160.75091635778907
    .P960R  ...248  -6.831004545731033  ...249  -0.013801198135992163
    .P960R  ...254  5.435052628164318  ...000  1.0654617365615502
    .F0RFF  ...164  0.0017198107315209395  ...264  -0.053184326646090956
    .F0RFF  ...000  5.139446994621165e-07
    .P90BE  ...224  -0.000897768713086349  ...225  0.0001652441806092364
    .P90BE  ...226  -0.14850867453504954  ...227  0.0007790048512761299
    .P90BE  ...228  -33679.58701249896  ...229  682317.3743191694
    .P90BE  ...231  -17751877.158455163  ...232  0.02573045569639249
    .P90BE  ...230  -13431623.15860886  ...222  -0.004168511251459427
    .P90BE  ...246  -1.7397084929381095  ...247  -4.777700398253586e-05
    .P90BE  ...256  278.41909007756846  ...000  0.010240727494250038
    .P93BE  ...224  -3.89097745341928e-05  ...225  7.161770862440838e-06
    .P93BE  ...226  -0.006436445109192412  ...227  3.3762485462423604e-05
    .P93BE  ...228  -1438.8385201026454  ...229  29079.13203225169
    .P93BE  ...231  -764889.6613926789  ...232  0.0011151716641659964
    .P93BE  ...230  -933008.817625997  ...222  -0.0001806654994468847
    .P93BE  ...246  -0.07539989334528244  ...247  -2.0706808176560957e-06
    .P93BE  ...257  0.030989206981666805  ...000  0.0004438385878892319
    .P96BE  ...224  -3.32311417191471e-10  ...225  6.11655619542816e-11
    .P96BE  ...226  -5.4970870983362676e-08  ...227  2.883506657707541e-10
    .P96BE  ...228  -0.012110398283839424  ...229  0.24414282726900166
    .P96BE  ...231  -6.494274752704905  ...232  9.524194898768034e-09
    .P96BE  ...230  -10.393000982349367  ...222  -1.5429852492730377e-09
    .P96BE  ...246  -6.439576099737576e-07  ...247  -1.768478191673403e-11
    .P96BE  ...258  0.0135159566974123  ...000  3.790631837666384e-09
    .P990E  ...224  9.58310323516184e-07  ...225  -3.880525619964003e-07
    .P990E  ...226  9.570119539392046e-05  ...227  -2.3655809450481353e-06
    .P990E  ...228  50.3311082659984  ...229  -1432.382107529735
    .P990E  ...231  27136.274414351974  ...232  -4.014725547745233e-05
    .P990E  ...230  34802.549222704234  ...222  -8.899234976086132e-06
    .P990E  ...246  -0.0037140537075745035  ...247  -1.019977539331653e-07
    .P990E  ...255  9.999825145273744e-06  ...000  2.1862635075169802e-05
    .P99BE  ...224  -0.006189939144352809  ...225  0.0011393262062043348
    .P99BE  ...226  -1.023938175145605  ...227  0.005371085617338802
    .P99BE  ...228  -222262.11010469444  ...229  4469222.211106203
    .P99BE  ...231  -120254677.4509429  ...232  0.17740644399335037
    .P99BE  ...230  -212618752.5526317  ...222  -0.028741067262612503
    .P99BE  ...246  -11.994948747077673  ...247  -0.00032941306913527327
    .P99BE  ...259  0.023637285314955146  ...000  0.07060780695440814
    .P90BR  ...235  -0.0011492274746206887  ...236  3535.384579213091
    .P90BR  ...237  -116.49357421306163  ...238  108527.14359984592
    .P90BR  ...239  -188.0721462213868  ...240  0.0001411747667321912
    .P90BR  ...242  -19.318742713883147  ...243  586.6099542437483
    .P90BR  ...241  -0.0008795768213485268  ...233  -0.4869572645804742
    .P90BR  ...248  -0.02069292893187784  ...249  -4.18074984859036e-05
    .P90BR  ...256  87.74925736353146  ...000  0.0032275668749308165
    .P93BR  ...235  -4.838916161797096e-09  ...236  0.01488602557484878
    .P93BR  ...237  -0.000490505710534938  ...238  0.45696240366364343
    .P93BR  ...239  -0.0007805803761250104  ...240  5.845207563690367e-10
    .P93BR  ...242  -8.0891237979306e-05  ...243  0.0024699691322625367
    .P93BR  ...241  -4.434207168743605e-09  ...233  -2.05037334184922e-06
    .P93BR  ...248  -8.712926766429033e-08  ...249  -1.7603388761177866e-10
    .P93BR  ...257  9.488613397626088e-07  ...000  1.35899339854701e-08
    .P96BR  ...235  -542.3223667175297  ...236  1668353893.8958337
    .P96BR  ...237  -54973512.44188088  ...238  51214140516.07821
    .P96BR  ...239  -86215801.38374847  ...240  64.3999215086565
    .P96BR  ...242  -9015252.020021105  ...243  276822218.18664163
    .P96BR  ...241  -564.4039886578502  ...233  -229795.947320822
    .P96BR  ...248  -9765.02776037235  ...249  -19.729028435295827
    .P96BR  ...258  5430776766.758136  ...000  1523.0942045910524
    .P990R  ...235  1.1819123320227034  ...236  -7999053.620595694
    .P990R  ...237  115014.46598193541  ...238  -327400285.69055307
    .P990R  ...239  270789.4749935049  ...240  -0.28554009500310545
    .P990R  ...242  30133.408875131674  ...243  -964720.0043880777
    .P990R  ...241  -0.4164275503541319  ...233  -1001.613360080286
    .P990R  ...248  -42.5629014801062  ...249  -0.0859930677306841
    .P990R  ...255  3.036507859476998  ...000  6.638722404661935
    .P99BR  ...235  -374.63650249787656  ...236  1152499520.7571726
    .P99BR  ...237  -37975723.84097661  ...238  35378748248.035614
    .P99BR  ...239  -58682057.62385399  ...240  43.72046519650975
    .P99BR  ...242  -6192752.311244043  ...243  191228896.3165039
    .P99BR  ...241  -415.1252289021104  ...233  -158743.13005662785
    .P99BR  ...248  -6745.6849863727375  ...249  -13.628820539740193
    .P99BR  ...259  352.228273863401  ...000  1052.1540707170932
    .PS3H6  ...155  0.044156001604392765  ...164  -0.018156855999652645
    .PS3H6  ...166  -114.51150674899219
    .HCNTE  ...224  -2.878379661950904e-07  ...225  5.134958969800104e-08
    .HCNTE  ...226  -4.045162342801862e-05  ...227  1.6347057282174256e-07
    .HCNTE  ...228  -8.306288593949725  ...229  157.0592305723314
    .HCNTE  ...231  -4828.406245615437  ...222  -1.4392931964533373e-06
    .HCNTE  ...246  -0.0006006822212177689  ...232  7.447328786860062e-06
    .HCNTE  ...230  3100.228860901915  ...247  -1.6496325098058134e-08
    .HCNTE  ...282  3.5488719751000346e-05
    .HCNTR  ...235  -2.2705558146874723e-09  ...236  0.006770021347356437
    .HCNTR  ...237  -0.00018837637182416307  ...240  2.002519183416654e-10
    .HCNTR  ...242  -3.197019274485572e-05  ...243  0.0010206814502832077
    .HCNTR  ...241  -1.209039710680361e-09  ...233  -1.036100097487333e-06
    .HCNTR  ...248  -4.402839272166549e-08  ...238  0.13854807258377752
    .HCNTR  ...239  -0.0002858296716132763  ...249  -8.895391116973007e-11
    .HCNTR  ...282  6.892509024103605e-08
    .LCNBE  ...224  -0.5134788979326631  ...225  0.09923699549540713
    .LCNBE  ...226  -50.786772630849526  ...227  0.36465157888855115
    .LCNBE  ...228  -13484130.020288754  ...229  261793704.4739293
    .LCNBE  ...231  -7791017555.458057  ...232  13.910306490700716
    .LCNBE  ...230  3535925043.1049776  ...222  -2.0861578440991444
    .LCNBE  ...246  -870.6481283259319  ...247  -0.023910304090177976
    .LCNBE  ...281  91084.38892567325  ...000  22.95125221467917
    .LCNBR  ...235  -1.646659119922152e-06  ...236  5.318922543859797
    .LCNBR  ...237  -0.14020999055996866  ...238  126.99332843151552
    .LCNBR  ...239  -0.18863410867956873  ...240  1.356967408051177e-07
    .LCNBR  ...242  -0.023345952057222164  ...243  0.7857122196065427
    .LCNBR  ...241  -7.486797839578951e-07  ...233  -0.0006105153754470017
    .LCNBR  ...248  -2.5943449651228576e-05  ...249  -5.241552491595142e-08
    .LCNBR  ...281  0.07191640317634168  ...000  1.8121343592914396e-05
    .C5TEE  ...224  6.198425913248075e-09  ...225  -2.129658139697293e-09
    .C5TEE  ...226  1.1186988154386365e-06  ...227  -1.633626816797002e-08
    .C5TEE  ...228  0.15502168271386985  ...229  -4.580036320840091
    .C5TEE  ...231  144.24142381166206  ...232  -2.727617081907236e-07
    .C5TEE  ...230  206.3044575538422  ...222  -3.357721843955403e-08
    .C5TEE  ...246  -1.4013293611257224e-05  ...247  -3.8484216602447706e-10
    .C5TEE  ...183  0.0003261438270858469  ...250  4.645626120651071e-08
    .C5TEE  ...251  7.685036472840531e-07
    .LCN0E  ...224  1.1764722081908135e-05  ...225  -4.76393756075714e-06
    .LCN0E  ...226  0.002407419259430732  ...227  -4.109758095048636e-05
    .LCN0E  ...228  479.18091851731094  ...229  -14306.177817983698
    .LCN0E  ...231  349687.6371633756  ...232  -0.0006069280212303704
    .LCN0E  ...230  -114770.37408210982  ...222  -0.00010925169401400234
    .LCN0E  ...246  -0.04559567876360941  ...247  -1.2521781291050412e-06
    .LCN0E  ...250  0.0001511568101897748  ...280  9710.796455296042
    .LCN0E  ...000  0.0010385805425491698
    .LCN0R  ...235  35.41558216045816  ...236  -239688793.34840152
    .LCN0R  ...237  6031143.155637931  ...238  -13823791921.221643
    .LCN0R  ...239  6292575.251269406  ...240  -6.960900828567679
    .LCN0R  ...242  979008.4708553454  ...243  -36319668.6860305
    .LCN0R  ...241  -53.320298384834906  ...233  -30012.987669084185
    .LCN0R  ...248  -1275.3821865759428  ...249  -2.5767516531737016
    .LCN0R  ...250  112.03232203164916  ...280  7197314327.403802
    .LCN0R  ...000  769.7608176078356
    .G0TF6  ...142  3713322507.7291646  ...146  -8.532099960121178
    .G0TF6  ...164  -6752013.086330488  ...166  -61627033395.58479
    .DACFP  ...120  17.475484269626694  ...147  -78927934.56677595
    .DACFP  ...164  35502387.506421894  ...166  23996154525.5539
    .DACFP  ...276  -102.42405230590367  ...277  1915764837.8074145
    .DACFP  ...278  -6348469.14047779  ...279  -1416.4368113436294
    .DACFP  ...000  3332.8708980111137
    .C4VEE  ...200  17.30803937921048  ...224  0.011142053689192294
    .C4VEE  ...225  -0.002975549341503133  ...226  0.28127683453151275
    .C4VEE  ...227  -0.00380813865407446  ...228  30399.387949508247
    .C4VEE  ...229  -898134.367416458  ...231  110730001.11728226
    .C4VEE  ...232  -0.25589910446045055  ...230  18891007.74844449
    .C4VEE  ...222  -0.006584413688073457  ...246  -2.7479739703590496
    .C4VEE  ...247  -7.546664504926336e-05
    .C3VEE  ...202  1678822.1032390313  ...224  1.2516097036995122
    .C3VEE  ...225  -0.32629367667175085  ...226  13.89017500999597
    .C3VEE  ...227  -0.17399806185533434  ...228  1922087.446620717
    .C3VEE  ...229  -51919625.55056978  ...231  11170640447.426296
    .C3VEE  ...232  -26.41364858456498  ...230  -1335669886.5549538
    .C3VEE  ...222  -0.23789612219870523  ...246  -99.28482358809296
    .C3VEE  ...247  -0.0027266242771296512
    .C4VER  ...200  2.9151121265841026e-05  ...201  5.805834388985885e-11
    .C4VER  ...235  7.622013790710632e-08  ...236  -0.3402049240495743
    .C4VER  ...237  0.0014750009838295167  ...238  -2.9009470632974286
    .C4VER  ...239  0.0009071633842922273  ...240  -9.930586836061861e-10
    .C4VER  ...242  0.000639828962452754  ...243  -0.030070741253370486
    .C4VER  ...241  -4.171847748955665e-09  ...233  -4.11045530016651e-06
    .C4VER  ...248  -1.7467109660492533e-07  ...249  -3.529013041547639e-10
    .C3VER  ...202  1198014.7802109227  ...203  23.0288019981502
    .C3VER  ...235  3.6276344131907745  ...236  -15806372.215361757
    .C3VER  ...237  30105.885711292573  ...238  -56094180.36765256
    .C3VER  ...239  24302.106695013423  ...240  -0.024322894610388977
    .C3VER  ...242  26731.306334712914  ...243  -1283073.7263787605
    .C3VER  ...241  -0.16652725105027755  ...233  -62.92312624441588
    .C3VER  ...248  -2.673876896916274  ...249  -0.005402236903597929
    .SCSRT  ...164  -0.000245001416067445  ...166  -0.023656726256872915
    .SCSRT  ...180  1.346373779355612  ...182  2.0285310193867088e-06
    .SCSRT  ...186  1.6037707113733863  ...260  -0.0071092298434370675
    .SCSRT  ...269  -1.9060607682034537e-08  ...271  -1.8990397331892163e-12
    .SCSRT  ...275  -1.448582549820441e-10
    .P0LYF  ...164  -243.11491596168722  ...166  -2138288.964855571
    .P0LYF  ...260  -40056.66341465303  ...267  -8.703402086942847e-06
    .P0LYF  ...271  -1.7799472488233563e-05  ...273  -0.011829840497389783
    .P0LYF  ...274  -8.645699922747674e-05  ...283  2.691013583513461
    .P0LYF  ...000  5.225194718611904
    .VNVER  ...176  0.04211661062693258  ...189  0.289717016589344
    .VNVER  ...235  -1.0649111415092232e-08  ...236  0.03567201156956145
    .VNVER  ...237  -0.0006716683103956237  ...238  0.5214468098790539
    .VNVER  ...239  -0.0011618246653608796  ...240  8.478884787034191e-10
    .VNVER  ...242  -0.00013729907525258283  ...243  0.0045166938266751125
    .VNVER  ...241  3.992367675801079e-08  ...233  -3.5095687181148543e-06
    .VNVER  ...248  -1.4913681620102544e-07  ...249  -3.013124549957577e-10
    .VN2PT  ...134  -67.7097945932173  ...164  -188985.79173916322
    .VN2PT  ...166  -1298996711.2515874  ...196  0.11863533336346367
    .VN2PT  ...199  202223981.22471774  ...264  49676511.55352084
    .VN2PT  ...260  -72157340.42541173  ...302  -1.7794115369041983
    .VN2PT  ...303  -3410548.3087534676
    .IMPP0  ...134  -0.0008883960807865595  ...164  -1.399386803067602
    .IMPP0  ...166  -9682.406498008875  ...199  2938.851632592634
    .IMPP0  ...252  -924.9051603246235  ...256  -7.199931082808153
    .IMPP0  ...264  735.6812811238075  ...260  -742.9382079066312
    .IMPP0  ...000  0.9247293246188927
    .IMPP3  ...134  -3.9869116082591836e-05  ...164  -0.058949055314153766
    .IMPP3  ...166  -407.87058658411127  ...199  123.79888610499152
    .IMPP3  ...253  -0.0005594615265341603  ...260  -37.01241464365575
    .IMPP3  ...000  0.03899172887974854  ...257  -0.0007562736014233726
    .IMPP3  ...264  30.990514159121886
    .IMPP6  ...134  -0.015583940498285808  ...164  -43.49656281160212
    .IMPP6  ...166  -298974.2854373028  ...199  64214.694345326745
    .IMPP6  ...254  -0.014640490978622571  ...258  -13218.293269037697
    .IMPP6  ...264  11433.438911805915  ...260  -16607.578068429317
    .IMPP6  ...000  14.399220062333425
    .IMPP9  ...134  -474.1756723758758  ...164  -1323478.6105285531
    .IMPP9  ...166  -9096950340.379187  ...199  3607082151.847428
    .IMPP9  ...255  -32.59244996722257  ...259  -35.4266059353039
    .IMPP9  ...264  347887531.02403194  ...260  -633657868.0702258
    .IMPP9  ...000  439077.16037345905
    .VN3P0  ...134  -5.653758981020961e-06  ...164  -0.008221905530335161
    .VN3P0  ...166  -56.88765347681112  ...197  5.821227319702357e-08
    .VN3P0  ...199  17.266820322930126  ...252  -3.3404061918870345
    .VN3P0  ...256  -0.05746135428130629  ...264  4.322394623542613
    .VN3P0  ...260  -3.986330322462481  ...000  7.87883556244757e-05
    .VN3P3  ...134  -0.008137177639593644  ...164  -21.118634615130855
    .VN3P3  ...166  -145159.25593518576  ...197  7.476148462350441e-05
    .VN3P3  ...199  22175.617806582384  ...253  -0.06723230411992288
    .VN3P3  ...257  -0.17600754394304563  ...264  5551.211478908918
    .VN3P3  ...260  -6015.538462404795  ...000  0.10791894309985883
    .VN3P6  ...134  -3.1126967482683425e-06  ...164  -0.007293223984151534
    .VN3P6  ...166  -50.13008587920626  ...197  2.5818537167940868e-08
    .VN3P6  ...199  8.082705032762307  ...254  -1.892259699480226e-06
    .VN3P6  ...258  -2.806195749332544  ...264  1.9170855236099729
    .VN3P6  ...260  -2.4929264713068107  ...000  3.959410548827724e-05
    .VN4P0  ...134  -7.531449678333437e-08  ...164  -0.0010742526719237583
    .VN4P0  ...166  -7.391415133105662  ...198  5.352589848405098e-08
    .VN4P0  ...199  0.2169266905236575  ...252  -0.04377338262194848
    .VN4P0  ...256  -0.0006923024885099952  ...264  0.05430315155229659
    .VN4P0  ...260  -0.04181772279962471  ...000  9.898346607986345e-07
    .VN4P3  ...134  -3.5563385045447024e-07  ...164  -0.00495392551918946
    .VN4P3  ...166  -34.06275088781016  ...198  2.2518293963517193e-07
    .VN4P3  ...199  0.912608498706502  ...253  -3.0148304639419138e-06
    .VN4P3  ...257  -6.979206645153391e-06  ...264  0.2284528358107617
    .VN4P3  ...260  -0.19804928360397386  ...000  4.441262719414315e-06
    .VN4P6  ...134  -1.8303109393732893e-08  ...164  -0.00032713509928796787
    .VN4P6  ...166  -2.2502226514142394  ...198  1.0464126752523195e-08
    .VN4P6  ...199  0.04587513920375958  ...254  -1.0903409380910139e-08
    .VN4P6  ...258  -0.01458283284172322  ...264  0.010616077020622536
    .VN4P6  ...260  -0.01101451685836535  ...000  2.192568188792608e-07
    .VN2P0  ...134  -8.405109341328936e-07  ...164  -0.0013239589125812231
    .VN2P0  ...166  -9.160518271411718  ...196  1.6622234455634291e-09
    .VN2P0  ...199  2.780445551719936  ...252  -0.8750521497128876
    .VN2P0  ...256  -0.0068118499518206015  ...264  0.696027564950521
    .VN2P0  ...260  -0.7028933384957676  ...000  1.2687149621432262e-05
    .VN2P3  ...134  -1.882452943583366e-05  ...164  -0.02783327888877879
    .VN2P3  ...166  -192.5794353518612  ...196  3.494453513337063e-08
    .VN2P3  ...199  58.452657209131985  ...253  -0.00026415433822615336
    .VN2P3  ...257  -0.0003570807700388003  ...264  14.632424877729692
    .VN2P3  ...260  -17.475714473012825  ...000  0.000284463280455502
    .VN2P6  ...134  -1.6442681119244155e-05  ...164  -0.045893406239135584
    .VN2P6  ...166  -315.4490251576738  ...196  2.8809464977553874e-08
    .VN2P6  ...199  67.75319389894234  ...254  -1.5447243565716983e-05
    .VN2P6  ...258  -13.946676784818674  ...264  12.06346945073755
    .VN2P6  ...260  -17.522725421864475  ...000  0.0002491502210541379
    .VN3P9  ...134  -6.111788780684525  ...164  -19577.437086440557
    .VN3P9  ...166  -134862866.0735625  ...197  0.04620368972328981
    .VN3P9  ...199  33157949.803684186  ...255  -0.2954272470617338
    .VN3P9  ...259  -0.42744441377620507  ...264  3430729.794245353
    .VN3P9  ...260  -5236406.835522632  ...000  75.01616757291224
    .VN4P9  ...134  -1.5076071985239443e-05  ...164  -0.2604437775806927
    .VN4P9  ...166  -1790.7156763759247  ...198  7.84650763772761e-06
    .VN4P9  ...199  59.80935374961612  ...255  -7.299205470669562e-07
    .VN4P9  ...259  -9.151640450252525e-07  ...264  7.960447287675825
    .VN4P9  ...260  -10.241428735217921  ...000  0.00017406274568440046
    .VN2P9  ...134  -0.003605546145038216  ...164  -10.063492246074437
    .VN2P9  ...166  -69171.56687312786  ...196  6.317330770883903e-06
    .VN2P9  ...199  27427.6010033688  ...255  -0.0002478271011835421
    .VN2P9  ...259  -0.0002693775111275014  ...264  2645.2739342482896
    .VN2P9  ...260  -4818.219947991522  ...000  0.05784142868397375
    .NIMP1  ...176  -0.5679913337392298  ...177  -9.462444578527645e-06
    .NIMP1  ...178  -1.5995272128425046e-07  ...187  -0.01427532169909495
    .NIMP1  ...188  -8.368403666511553e-07  ...000  0.0004737818469973053
    .NIMP2  ...000  0.046298236920648196  ...176  -60.75127043888578
    .NIMP2  ...177  -0.00010716194501581454  ...178  4.3797089769594166e-06
    .NIMP2  ...187  0.3053722399018051  ...188  -7.365317962110648e-05
    .C4FVN  ...176  0.006878605242978189  ...177  8.628257032785155e-07
    .C4FVN  ...178  3.564249793778865e-09  ...184  4.925170427558617e-07
    .C4FVN  ...187  0.000172879931174578  ...188  1.159260881641126e-08
    .WSDIS  ...023  1.4233978685046739e-09  ...024  0.0009574542045589669
    .WSDIS  ...025  6.26243088157521e-06  ...176  -0.0005090805390609877
    .WSDIS  ...177  -1.0676108694290069e-08  ...178  -1.066619095707962e-10
    .WSDIS  ...187  -7.446525388472207e-06  ...188  -7.425379954215453e-10
    .WSDIS  ...000  -7.125557104999237e-06
    .C5TVN  ...176  -0.781665702756485  ...177  -2.2980264844503326e-05
    .C5TVN  ...178  -3.522013069244977e-07  ...183  0.0017069484646828473
    .C5TVN  ...184  9.033279831134726e-06  ...187  -0.019645597925831978
    .C5TVN  ...188  -1.2407809619955815e-06
    .ST13T  ...043  81816.6587325961  ...044  -1385.0196792854617
    .ST13T  ...045  614677.9948763055  ...176  -205295027.79175615
    .ST13T  ...178  19.4252954121686  ...187  1031935.6619963669
    .ST13T  ...188  -348.0408527911276  ...000  2908.6223956296876
    .VN0SC  ...176  0.07850896268228302  ...177  1.3079190899061577e-06
    .VN0SC  ...178  2.2109003219405112e-08  ...180  -2.1279643029633313
    .VN0SC  ...181  -0.0015801711639407317  ...187  0.001973165138231445
    .VN0SC  ...188  1.1566984426316412e-07  ...193  0.0012829626536165137
    .VN0SC  ...194  0.39387414915990676  ...000  9.426406077163497e-09
    .VN4VN  ...176  -27963065.69193821  ...177  -49.32533075448309
    .VN4VN  ...178  2.0159263987325073  ...179  5548721887.58163
    .VN4VN  ...187  140559.10177975046  ...188  -33.90165646390882
    .VN2PH  ...176  639.2549921666248  ...177  0.0027563827466552475
    .VN2PH  ...178  -4.608546961293205e-05  ...187  3.5988715084639304
    .VN2PH  ...188  0.0008268625209910926  ...194  2115.1113072634716
    .VN2PH  ...195  0.00038421086249523046  ...196  -9.673896751710951e-07
    .VN3PH  ...176  3627.120470103213  ...177  0.007819831214729577
    .VN3PH  ...178  -0.0004902901197166611  ...187  -6.745868866749675
    .VN3PH  ...188  0.004592268370553625  ...192  3.4984157685046
    .VN3PH  ...195  0.0027072620329580024  ...197  -3.095397875874905e-05
    .VN1SC  ...176  43142995.80958629  ...177  930.1343810043064
    .VN1SC  ...178  18.27292445847235  ...180  -790274068.2688444
    .VN1SC  ...181  -1327662.6189568837  ...187  1084312.5725001043
    .VN1SC  ...188  67.02906035132045  ...192  57820.57264986827
    .VN1SC  ...193  802345.4306497441  ...000  5.180088794859328
    .C4TS2  ...176  217.05810423106647  ...177  0.02722693116117597
    .C4TS2  ...178  0.00011247182763298796  ...187  5.45531961710659
    .C4TS2  ...188  0.00036581103347240796  ...189  1493.1264754754434
    .C4TS2  ...210  0.06269953682289915  ...000  -0.1497036756791143
    .C5TS2  ...176  745493.6132546808  ...177  21.916838121545908
    .C5TS2  ...178  0.33590296205430675  ...187  18736.48508643824
    .C5TS2  ...188  1.183363014846094  ...189  5128194.845300321
    .C5TS2  ...210  215.34374135019294  ...000  -514.1624842568609
    .VN2S2  ...176  2563477936.2300787  ...177  11053.376886283626
    .VN2S2  ...178  -184.80744926706737  ...187  14431843.036541583
    .VN2S2  ...188  3315.8033254807206  ...189  17633973121.812862
    .VN2S2  ...210  740487.8054506799  ...000  -1768015.393552981
    .VN3S2  ...176  53.9508888144225  ...177  0.00011631453873419889
    .VN3S2  ...178  -7.292723788380476e-06  ...187  -0.1003400973820783
    .VN3S2  ...188  6.830679110547373e-05  ...189  371.1241317140218
    .VN3S2  ...210  0.015584286759673415  ...000  -0.0372096051897531
    .VN4S2  ...176  40455876.7960441  ...177  71.36197174914187
    .VN4S2  ...178  -2.9165639746191316  ...187  -203355.44631658954
    .VN4S2  ...188  49.047599150801226  ...189  278292952.6945556
    .VN4S2  ...210  11686.109329398594  ...000  -27902.176150686057
    .VN0S2  ...176  1259644.2791866795  ...177  20.98502824329293
    .VN0S2  ...178  0.35472993747920545  ...187  31658.629707315307
    .VN0S2  ...188  1.855875464692509  ...189  8664998.847187119
    .VN0S2  ...210  363.86161736003766  ...000  -868.7691220304356
    .VN1RF  ...176  178347.27804506855  ...177  3.8450490503812684
    .VN1RF  ...178  0.07553778493906943  ...187  4482.400728705773
    .VN1RF  ...188  0.277089020807414  ...264  -943996.2385816337
    .VN1RF  ...265  0.3931984473686085
    .VN2RF  ...176  299.1683204839852  ...177  0.0012899741214894463
    .VN2RF  ...178  -2.1567782358785072e-05  ...188  0.00038696775888702136
    .VN2RF  ...187  1.6842548873582859  ...264  -1650.41344410281
    .VN2RF  ...265  0.0006874391837752906
    .VN3RF  ...176  61.68353587118387  ...177  0.00013298561302725338
    .VN3RF  ...178  -8.337971797768579e-06  ...187  -0.11472159462423792
    .VN3RF  ...188  7.809703402464793e-05  ...264  -344.88630842781146
    .VN3RF  ...265  0.00014365392090572352
    .VN0RF  ...176  0.0187156769525841  ...177  3.117935880246382e-07
    .VN0RF  ...178  5.270544252031061e-09  ...187  0.0004703809608425053
    .VN0RF  ...188  2.757442417302029e-08  ...264  -0.10045775452121636
    .VN0RF  ...265  4.184321026874862e-08
    .C4TS1  ...176  0.15044095188390627  ...272  1.2876212605916953e-08
    .C4TS1  ...177  1.887073258690451e-05  ...178  7.795317695770978e-08
    .C4TS1  ...187  0.0037810312539853057  ...188  2.5354022269834213e-07
    .C4TS1  ...189  1.0348720636316968  ...205  0.028086223792481147
    .C4TS1  ...206  4.047815677155943e-09  ...207  -4.141443704158874e-10
    .C4TS1  ...208  2.0511817122005008e-08  ...209  -22.49162118805726
    .C4TS1  ...000  -0.00010375822432186405
    .C5TS1  ...176  116411786.41818331  ...177  3422.401256032867
    .C5TS1  ...272  0.2959503793831592  ...178  52.45258065348767
    .C5TS1  ...187  2925776.507443781  ...188  184.78683128889438
    .C5TS1  ...189  800787977.828033  ...205  21733227.85106216
    .C5TS1  ...206  1.6313621452208895  ...207  -0.20347079655545458
    .C5TS1  ...208  14.429202614375761  ...209  -17404102866.64043
    .C5TS1  ...000  -80288.51252023308
    .VN1S1  ...176  463513.8053600916  ...177  9.993050281866683
    .VN1S1  ...178  0.19631814137770306  ...187  11649.488804568324
    .VN1S1  ...188  0.7201376318481884  ...189  3188476.8227532944
    .VN1S1  ...205  86534.63239380596  ...206  0.0038973315286241123
    .VN1S1  ...207  -0.0006076158142544608  ...208  0.054005240610181304
    .VN1S1  ...209  -69297467.17927633  ...272  -0.001963963311711309
    .VN1S1  ...000  -319.6826980325568
    .VN2S1  ...176  10.063347890554015  ...177  4.339182147815346e-05
    .VN2S1  ...178  -7.25491578630654e-07  ...187  0.0566545376209364
    .VN2S1  ...188  1.301672307351333e-05  ...189  69.22501797634136
    .VN2S1  ...205  1.8787533408709394  ...206  -1.6922992395835968e-07
    .VN2S1  ...207  6.5959732503485836e-09  ...208  -1.247348659096549e-06
    .VN2S1  ...209  421.2648326470275  ...272  -1.9273101925574696e-07
    .VN2S1  ...000  -0.0069406308241310825
    .VN3S1  ...176  3.358136203089858  ...177  7.239918971725876e-06
    .VN3S1  ...178  -4.5393060820803905e-07  ...187  -0.006245600787029885
    .VN3S1  ...188  4.251709530072974e-06  ...189  23.100367944558876
    .VN3S1  ...205  0.6269394320131556  ...206  -6.494277168413969e-08
    .VN3S1  ...207  2.861396609732525e-09  ...208  -6.07710220683365e-07
    .VN3S1  ...209  451.85126648544014  ...272  -7.057496640392969e-08
    .VN3S1  ...000  -0.002316086445215086
    .VN4S1  ...176  13.685006556613457  ...177  2.4139609090745618e-05
    .VN4S1  ...178  -9.865858875501682e-07  ...187  -0.0687890323127963
    .VN4S1  ...188  1.659132786439811e-05  ...189  94.13813724726177
    .VN4S1  ...205  2.5548904865160926  ...206  -3.1835122443511477e-07
    .VN4S1  ...207  1.584659738315904e-08  ...208  -2.3069028000148124e-06
    .VN4S1  ...209  2455.1664655641453  ...272  -2.9224443037950433e-07
    .VN4S1  ...000  -0.009438467135218781
    .VN0S1  ...176  1358.2459526872556  ...177  0.022627681599827473
    .VN0S1  ...178  0.00038249727311049026  ...187  34.13678478764629
    .VN0S1  ...188  0.0020011485625431925  ...189  9343.272389432605
    .VN0S1  ...205  253.57457071824723  ...206  2.284089368566586e-06
    .VN0S1  ...207  -1.0683069772112765e-06  ...208  5.0506241647415376e-05
    .VN0S1  ...209  -203064.07973028623  ...272  -1.1510100404823105e-05
    .VN0S1  ...000  -0.9367741062416423
    .NJP46  ...039  6.260270189771128e-05  ...040  -0.001419922951893998
    .NJP46  ...041  -0.01144042560985474  ...050  -0.10941461784942765
    .NJP46  ...176  932.0482549285014  ...177  0.01096055035833484
    .NJP46  ...178  0.0001091896947885449  ...187  12.649587166972905
    .NJP46  ...188  0.001302777149965543  ...189  6411.490281758613
    .NJP46  ...000  -0.0019472178920310209
    .NJP47  ...039  124.33445927921115  ...040  -2708.6255086454184
    .NJP47  ...041  -17782.191504387964  ...050  -170066.3729067901
    .NJP47  ...176  1448710137.6886327  ...177  19875.691761598
    .NJP47  ...178  179.50812036857008  ...187  19952910.397766013
    .NJP47  ...188  2032.1933075196757  ...189  9965568756.510763
    .NJP47  ...000  -3026.6182953053526
    .NJP48  ...039  204.20166567663287  ...040  -4330.846122923627
    .NJP48  ...041  -23989.591791776955  ...050  -229433.07423808065
    .NJP48  ...176  1954425292.2472095  ...177  30644.44603449865
    .NJP48  ...178  255.38005638295152  ...187  27311028.81024956
    .NJP48  ...188  2751.3690615557844  ...189  13444345506.153513
    .NJP48  ...000  -4083.148997466513
    .VNFEE  ...224  0.0001798013148915589  ...225  -0.00010084059728663912
    .VNFEE  ...226  -0.0007370873177499244  ...227  -0.0005455014624783157
    .VNFEE  ...228  -714.1981785343372  ...229  -76900.0368457317
    .VNFEE  ...231  3190354.0133302705  ...232  -0.00825183486720494
    .VNFEE  ...230  39026007.03228066  ...222  -0.0034376249581437824
    .VNFEE  ...246  -1.4346765486419033  ...247  -3.9400018713683146e-05
    .VNFEE  ...176  15290.566936667246  ...177  0.32066390696113584
    .VNFEE  ...178  0.0032036602123767773  ...187  223.66126017711667
    .VNFEE  ...188  0.02230261432297979  ...189  105182.66709757643
    .HNGWR  ...014  332.1690527462161  ...021  2007.1334688763438
    .HNGWR  ...142  -72693414782.48392  ...164  -142287858.8221553
    .HNGWR  ...166  -16103864245.124012  ...176  -460738580.4978164
    .HNGWR  ...177  -6321.138901713822  ...178  -39.23592336866453
    .HNGWR  ...187  -4689814.601077648  ...188  -641.4545499031727
    .HNGWR  ...200  -4098.061448919748  ...202  -5117131.248589381
    .HNGWR  ...260  -5277710.824329806  ...000  1089939.7553998232
    .INGNR  ...013  1.614972504971028e-05  ...021  9.853307044625832e-05
    .INGNR  ...142  -3568.624344524269  ...164  -6.985115755565351
    .INGNR  ...166  -7895.193716404664  ...176  -22.61040315617322
    .INGNR  ...177  -0.00031020519015250315  ...178  -1.9254701860813144e-06
    .INGNR  ...187  -0.22957910592945296  ...188  -3.14899269698622e-05
    .INGNR  ...200  -0.0002058583325000203  ...202  -0.2512073370398621
    .INGNR  ...260  -0.25909041950249445  ...000  0.05383370185897499
    .B1MW2  ...011  3.911526336247606e-08  ...019  0.018847025064341955
    .B1MW2  ...034  -0.1321192320768859  ...145  -411.8270247907236
    .B1MW2  ...154  -1.636225763371942e-06  ...164  -8.006156810546825
    .B1MW2  ...166  25752.02480297534  ...176  -31.914168971486323
    .B1MW2  ...177  -0.00043784893113045156  ...178  -2.7177717079776776e-06
    .B1MW2  ...187  -0.46682294969990096  ...188  -4.496122578234851e-05
    .B1MW2  ...200  -0.0016075204118147811  ...202  -2.0072644186950974
    .B1MW2  ...260  -2.329035687105832  ...000  0.11047094548297624
    .TNTWT  ...017  0.0002078105321146122  ...058  -8.530732472072058e-05
    .TNTWT  ...142  -33.91193101458081  ...145  -0.36824988606118614
    .TNTWT  ...158  -1.3910342563448382e-10  ...159  -2.7927004588294376e-08
    .TNTWT  ...164  -0.07513532447654883  ...166  435.185567877196
    .TNTWT  ...176  -0.13885651555269132  ...177  -1.9050527986351414e-06
    .TNTWT  ...178  -1.026086837656321e-08  ...187  -0.0014971637967156597
    .TNTWT  ...188  -2.0407133109529262e-07  ...200  -3.683811623589953e-06
    .TNTWT  ...202  -0.010230744072641094  ...260  -0.010551792813211596
    .TNTWT  ...000  0.000829739237049562
    .TNBWT  ...017  1.3749550913226175e-06  ...057  -3.4768381049680333e-10
    .TNBWT  ...142  -0.1506600987420192  ...145  -0.001636019021501935
    .TNBWT  ...158  -6.052245454845486e-13  ...159  -3.5670396188048307e-10
    .TNBWT  ...164  -0.0002359640040546439  ...166  1.4220134008994423
    .TNBWT  ...176  -0.0006168960515738945  ...177  -8.46355350946323e-09
    .TNBWT  ...178  -4.5585827658330544e-11  ...187  -6.651430298946243e-06
    .TNBWT  ...188  -9.066250718666757e-10  ...200  -1.6366022410178603e-08
    .TNBWT  ...202  -4.5451994801643936e-05  ...260  -4.6878313902569086e-05
    .TNBWT  ...000  3.686271811837133e-06
    .KNGWR  ...299  7.433182881291283e-07  ...012  -1.9685095939638207e-07
    .KNGWR  ...021  0.0003226331999575965  ...142  -9622.92248449771
    .KNGWR  ...164  -29.183437240334367  ...166  17096.058028026855
    .KNGWR  ...176  -60.16615840540047  ...177  -0.0008254543043739215
    .KNGWR  ...178  -5.150813083103758e-06  ...187  -0.5852061653063895
    .KNGWR  ...188  -8.203775675614135e-05  ...200  -0.0010570411734865314
    .KNGWR  ...202  -2.0563610429201553  ...260  -3.817604265728945
    .KNGWR  ...000  0.16763097452130224
    .KNGWC  ...012  -5.88753166528675e-12  ...299  2.2231590702765027e-11
    .KNGWC  ...022  8.334210902061436e-09  ...142  -0.28780789798437423
    .KNGWC  ...146  6.61296116834391e-10  ...164  -0.0008728350188448969
    .KNGWC  ...166  0.5113187322034347  ...176  -0.0017994840557376745
    .KNGWC  ...177  -2.4688161897462563e-08  ...178  -1.5405347894537113e-10
    .KNGWC  ...187  -1.7502682433082032e-05  ...188  -2.4536323934205387e-09
    .KNGWC  ...200  -3.161459512057729e-08  ...202  -6.150282829496341e-05
    .KNGWC  ...260  -0.00011417910315973816  ...000  5.0188165596112085e-06
    .TNLWT  ...017  0.0005007508591311484  ...059  -0.0019191645245431866
    .TNLWT  ...060  -4.1793681941940184e-05  ...142  -81.71591890723776
    .TNLWT  ...145  -0.8873537108234001  ...158  -3.60122250876346e-10
    .TNLWT  ...159  -4.205895930251498e-08  ...164  -0.18104991070413554
    .TNLWT  ...166  1048.6453442879163  ...176  -0.33459574330245734
    .TNLWT  ...177  -4.590512405216387e-06  ...178  -2.472511187335712e-08
    .TNLWT  ...187  -0.003607642258727959  ...188  -4.917406896087699e-07
    .TNLWT  ...200  -8.876700408873413e-06  ...202  -0.02465252281390845
    .TNLWT  ...260  -0.02542613823670611  ...000  0.0019993819927193977
    .A5MW3  ...010  5.973840278280288  ...020  8756.582037126442
    .A5MW3  ...046  -5098753.596320755  ...145  -9186592.727323761
    .A5MW3  ...155  -47084.262509145454  ...164  -366839.0676354387
    .A5MW3  ...166  154971381.8785935  ...176  -1153544.0853980223
    .A5MW3  ...177  -15.826138078501739  ...178  -0.07328656129278348
    .A5MW3  ...187  -9489.91813913128  ...188  -1.5560262061184251
    .A5MW3  ...200  9.742287443711826  ...202  -6706.298530792899
    .A5MW3  ...260  -20997.268945070686  ...000  2920.4012069418322
    .B5MW3  ...011  0.00040248366567013417  ...020  3371.074410638254
    .B5MW3  ...046  -1807112.4872554597  ...145  -2548914.039561013
    .B5MW3  ...155  -23850.412694580224  ...164  -152992.94529061965
    .B5MW3  ...166  2642837.5185982287  ...176  -463288.8481366632
    .B5MW3  ...177  -6.356127497555478  ...178  -0.028181309594885906
    .B5MW3  ...187  -4471.240802999629  ...188  -0.634389535965306
    .B5MW3  ...200  -7.98193418846734  ...202  -20654.114832847008
    .B5MW3  ...260  -23965.039226149696  ...000  1135.8122533052963
    .T5TWT  ...017  28509.8693297983  ...037  -0.02965879083987317
    .T5TWT  ...058  -11703.452447352658  ...142  -1720227584.992221
    .T5TWT  ...145  -50520808.668769635  ...158  -0.019083828176616233
    .T5TWT  ...159  -3.83135177742498  ...164  -10307938.972491479
    .T5TWT  ...166  59703825153.33795  ...176  -19049954.175638113
    .T5TWT  ...177  -261.3573325797544  ...178  -1.4077054403803582
    .T5TWT  ...187  -205398.36828927905  ...188  -27.996882180524004
    .T5TWT  ...200  -505.388186803824  ...202  -1403572.6374866292
    .T5TWT  ...260  -1447617.843227757  ...000  113833.29317035225
    .T5BWT  ...017  0.05663433275566521  ...037  -3.956059102358511e-08
    .T5BWT  ...057  -1.4321079096839662e-05  ...142  -2294.5379103546
    .T5BWT  ...145  -67.38754323183782  ...158  -2.4929169335920934e-08
    .T5BWT  ...159  -1.4692618689800759e-05  ...164  -9.719345750510923
    .T5BWT  ...166  58788.478954683545  ...176  -25.40991809913177
    .T5BWT  ...177  -0.0003486133538290597  ...178  -1.8776780047854866e-06
    .T5BWT  ...187  -0.2739720876914424  ...188  -3.734384223075576e-05
    .T5BWT  ...200  -0.0006741156601508577  ...202  -1.8721654359844653
    .T5BWT  ...260  -1.9309154497757177  ...000  0.15183735507942325
    .T5LWT  ...017  0.006599696338750376  ...037  -6.8656580306767385e-09
    .T5LWT  ...059  -0.025293821977787224  ...060  -0.0005508240368747538
    .T5LWT  ...142  -398.2122668876814  ...145  -11.694967526683719
    .T5LWT  ...158  -4.746267444722845e-09  ...159  -5.543202865434546e-07
    .T5LWT  ...164  -2.3861655172761753  ...166  13820.726840794143
    .T5LWT  ...176  -4.409838269406434  ...177  -6.050112019031035e-05
    .T5LWT  ...178  -3.258671000363706e-07  ...187  -0.047547284187908496
    .T5LWT  ...188  -6.480945902831927e-06  ...200  -0.00011699136630593898
    .T5LWT  ...202  -0.3249104052226903  ...260  -0.33510634753679297
    .T5LWT  ...000  0.02635105617194307
    .B1MN3  ...011  0.6754232406931926  ...020  5657128.965122469
    .B1MN3  ...034  -1960288.5491409784  ...145  -8180585230.436627
    .B1MN3  ...164  -225144138.54026747  ...166  167662747828.0695
    .B1MN3  ...176  -551078264.0269797  ...177  -7560.561238145265
    .B1MN3  ...178  -46.92915288479236  ...187  -8060870.4227398345
    .B1MN3  ...188  -776.3684611308169  ...200  -27757.87640663005
    .B1MN3  ...202  -34660460.4458263  ...260  -40216649.36517351
    .B1MN3  ...000  1905722.1218645596
    .QKMW2  ...026  -4.25683516094456e-11  ...016  0.03043876788319917
    .QKMW2  ...019  3.085185753678266e-05  ...027  -4.543600078198647
    .QKMW2  ...145  -0.2914536880460044  ...153  -2.0328222181247e-09
    .QKMW2  ...154  -2.572711001183203e-09  ...164  -0.00873718119059045
    .QKMW2  ...166  14.90583537716766  ...176  -0.07132183207388096
    .QKMW2  ...177  -9.785054396282451e-07  ...178  -6.10584812947108e-09
    .QKMW2  ...187  -0.0004553028845378353  ...188  -9.886409450856594e-08
    .QKMW2  ...200  -1.9123904727155305e-06  ...202  -0.0036965417688956496
    .QKMW2  ...260  -0.0021180789650522627  ...000  0.0001863073721691212
    .IKMW2  ...026  -3.448934553311578e-05  ...013  0.04444178818302024
    .IKMW2  ...019  25.963122665677883  ...027  -3091444.4349404247
    .IKMW2  ...145  -405229.37876251305  ...153  -0.0010209043193774663
    .IKMW2  ...154  -0.002862009458990097  ...164  -8403.087718067874
    .IKMW2  ...166  37987854.109445885  ...176  -47166.58096196164
    .IKMW2  ...177  -0.6471055874186844  ...178  -0.006396967292300784
    .IKMW2  ...187  -756.3090014293216  ...188  -0.0668836542501053
    .IKMW2  ...200  -1.2231107174058766  ...202  -691.2875128450812
    .IKMW2  ...260  -712.9806549855955  ...000  148.62413609970702
    .JNGW2  ...015  0.03539413630947675  ...019  5238.392640352973
    .JNGW2  ...142  -1742451183.537999  ...153  -0.27835206267498036
    .JNGW2  ...154  -0.5235919089701009  ...164  -1907359.4345164313
    .JNGW2  ...166  8619588619.874117  ...176  -8637343.12016826
    .JNGW2  ...177  -118.5007028179716  ...178  -1.1519716462767484
    .JNGW2  ...179  -741386575.9284905  ...187  -136545.30418603538
    .JNGW2  ...188  -12.243499794626237  ...200  -168.8482817030217
    .JNGW2  ...202  -278952.2251452981  ...260  -287705.9638691246
    .JNGW2  ...000  29804.215302230514
    .AKMW2  ...026  -0.029431170381319597  ...010  297.2174577103436
    .AKMW2  ...019  25062.9275860701  ...027  -3141323865.4717517
    .AKMW2  ...145  -329414096.30000484  ...153  -1.385037509020639
    .AKMW2  ...154  -2.862982052511133  ...164  -8111735.31355464
    .AKMW2  ...166  35071440309.32229  ...176  -46940267.44238125
    .AKMW2  ...177  -644.0006614299432  ...178  -5.752829578148679
    .AKMW2  ...187  -514369.6683790094  ...188  -63.00294657221071
    .AKMW2  ...200  -99.42761625021149  ...202  -333659.5735938686
    .AKMW2  ...260  -1032390.2149371667  ...000  145425.45639380673
    .KN8W3  ...012  -0.00010665690677470581  ...020  346.00589889405524
    .KN8W3  ...299  0.00040274139178200747  ...032  -3.7742593182174784
    .KN8W3  ...033  -63.01494003062275  ...155  -4940.505095428324
    .KN8W3  ...164  -14796.276788935626  ...166  16841233.715218034
    .KN8W3  ...176  -20070.621440877494  ...177  -0.27536045675711224
    .KN8W3  ...178  -0.0026678284099465556  ...179  -2229598.957159608
    .KN8W3  ...187  -342.5108557987304  ...188  -0.028249389435077297
    .KN8W3  ...200  -1.336349753646082  ...202  -1114.1683470703106
    .KN8W3  ...260  -2068.437276206919  ...000  91.03754910719152
    .BKMW2  ...026  -0.00035441193533125283  ...011  0.0006592535256636342
    .BKMW2  ...019  317.65011031110174  ...027  -37822787.282734126
    .BKMW2  ...145  -3653149.4858226534  ...153  -0.014178317351709786
    .BKMW2  ...154  -0.033927155363906544  ...164  -134936.76510516022
    .BKMW2  ...166  434057085.9620216  ...176  -523225.4741025614
    .BKMW2  ...177  -7.178432713717653  ...178  -0.057995686339928756
    .BKMW2  ...187  -7903.263146291019  ...188  -0.73878192771577
    .BKMW2  ...200  -27.880946816596182  ...202  -33830.684781567106
    .BKMW2  ...260  -39253.85785830868  ...000  1861.8910888610483
    .KRMN2  ...299  0.06662968546453815  ...028  -14663.80498289925
    .KRMN2  ...012  -0.01764535827711936  ...019  2769.175734232275
    .KRMN2  ...029  -0.18428258818322601  ...145  -27297455.1413248
    .KRMN2  ...153  -0.2354327612925536  ...154  -0.28785828647185285
    .KRMN2  ...164  -1428409.3586772121  ...166  5798356541.993131
    .KRMN2  ...176  -4682148.005462402  ...177  -64.23709485958804
    .KRMN2  ...178  -0.4092764673427099  ...187  -53425.080512501045
    .KRMN2  ...188  -6.423707397304342  ...200  -157.91871404496467
    .KRMN2  ...202  -184328.4252243469  ...260  -342203.0313471994
    .KRMN2  ...000  15078.5836552258
    .QKMN3  ...016  0.02299114500662866  ...020  0.00043062318351957507
    .QKMN3  ...026  -2.9423628942125276e-11  ...027  -3.1398162132022716
    .QKMN3  ...145  -0.29671325287934097  ...155  -0.00859779711667721
    .QKMN3  ...164  -0.011926070144596995  ...166  -7.986475372959769
    .QKMN3  ...176  -0.053871122170293086  ...177  -7.390890636110544e-07
    .QKMN3  ...178  -4.611896259132278e-09  ...187  -0.0003439013918209057
    .QKMN3  ...188  -7.467446584952188e-08  ...200  -1.444475244077349e-06
    .QKMN3  ...202  -0.002792088305211884  ...260  -0.001599836787345296
    .QKMN3  ...000  0.00014059103285267487
    .A1GW2  ...010  0.011346279010288805  ...019  0.9567774766560051
    .A1GW2  ...034  -7.0051835619528156  ...142  -225651.48082515434
    .A1GW2  ...153  -5.4907427263916204e-05  ...154  -0.00010929436453527047
    .A1GW2  ...164  -309.6655655230727  ...166  1338852.536145664
    .A1GW2  ...176  -1835.2986250957797  ...177  -0.025179522676004356
    .A1GW2  ...178  -0.0001339643726873943  ...187  -19.234729255708416
    .A1GW2  ...188  -0.002495221034183438  ...200  -0.001897825053739372
    .A1GW2  ...202  -12.73745709829572  ...260  -39.41150535506201
    .A1GW2  ...000  5.551810842782279
    .B1GW2  ...011  1.1621965834785559e-06  ...019  0.5599846774782491
    .B1GW2  ...034  -3.9255397236790417  ...142  -134561.64226095538
    .B1GW2  ...153  -8.926758687868303e-06  ...154  -5.981010721389213e-05
    .B1GW2  ...164  -237.87972500109197  ...166  765146.7143740184
    .B1GW2  ...176  -948.2369529128707  ...177  -0.013009410856420635
    .B1GW2  ...178  -8.075070246660851e-05  ...187  -13.87028976905917
    .B1GW2  ...188  -0.001335892398551031  ...200  -0.04776280586865302
    .B1GW2  ...202  -59.640039437480596  ...260  -69.20053926955546
    .B1GW2  ...000  3.282323685876714
    .IRGW3  ...028  -38395.43704084981  ...013  8.879924022127732
    .IRGW3  ...020  90177.49764029654  ...029  -0.48230651499797494
    .IRGW3  ...142  -865679818.40564  ...155  -1914022.3019388015
    .IRGW3  ...164  -3725332.0799179324  ...166  2753834907.0508475
    .IRGW3  ...176  -9424365.500346342  ...177  -129.29831776588384
    .IRGW3  ...178  -1.2994017689940778  ...187  -151118.2772908679
    .IRGW3  ...188  -13.36403849497023  ...200  -244.39003661342346
    .IRGW3  ...202  -138126.31855023603  ...260  -142460.8303213574
    .IRGW3  ...000  29667.35407887015
    .IKMN3  ...013  3.848481450761973  ...020  41546.77863613566
    .IKMN3  ...026  -0.0022705852839624173  ...027  -242345055.5576223
    .IKMN3  ...145  -39893206.63536984  ...155  -387109.5829874642
    .IKMN3  ...164  -1468991.589415615  ...166  900550338.3382059
    .IKMN3  ...176  -4573060.882787098  ...177  -62.74046556912609
    .IKMN3  ...178  -0.5377923884916397  ...187  -62639.41313638238
    .IKMN3  ...188  -6.436595008058987  ...200  -84.73320450166986
    .IKMN3  ...202  -59862.7390817755  ...260  -61741.27859491798
    .IKMN3  ...000  12858.478001043282
    .IKMN4  ...013  7.015644702669161  ...020  89217.1484050865
    .IKMN4  ...026  -0.004139196153910403  ...027  -441786410.3006829
    .IKMN4  ...145  -72723895.74555568  ...155  -2379173.284232774
    .IKMN4  ...164  -1989785.298215719  ...166  6108526494.281091
    .IKMN4  ...176  -8326209.732538192  ...177  -114.23208403192282
    .IKMN4  ...178  -0.9904178561712743  ...187  -113838.48872369033
    .IKMN4  ...188  -11.716929342411467  ...200  -160.56294277066948
    .IKMN4  ...202  -109127.64260385667  ...260  -112552.15327196017
    .IKMN4  ...000  23440.547713838187
    .AKMW3  ...010  0.060048787998602686  ...020  88.02078961695115
    .AKMW3  ...026  -5.9461719523250945e-06  ...027  -634662.2176430103
    .AKMW3  ...145  -66553.68559052807  ...155  -1295.3172659137003
    .AKMW3  ...164  -3687.450680952402  ...166  1557765.7290424025
    .AKMW3  ...176  -9483.649412654162  ...177  -0.13011166802608964
    .AKMW3  ...178  -0.0011622818066999393  ...187  -103.92147018330337
    .AKMW3  ...188  -0.01272889759284927  ...200  -0.02008801197416201
    .AKMW3  ...202  -67.411427150987  ...260  -208.58055117681033
    .AKMW3  ...000  29.352687553772352
    .CNGW3  ...294  176404888.12800896  ...020  458549.01824270654
    .CNGW3  ...142  -7200659756.952887  ...155  -10234731.762586586
    .CNGW3  ...000  123178.18311179662  ...164  -25614700.019722495
    .CNGW3  ...166  81263862342.9287  ...176  -30367632.063322145
    .CNGW3  ...177  -416.6310973589227  ...178  -2.7639822927894966
    .CNGW3  ...179  -1111940268.7795246  ...187  -381614.72824751027
    .CNGW3  ...188  -43.78216976228006  ...200  -394.8455980373697
    .CNGW3  ...202  -1025825.3132126124  ...260  -352672.17094904993
    .A5GW3  ...010  0.9215321229184645  ...020  1350.8013703549857
    .A5GW3  ...046  -786540.1495481972  ...142  -14177615.52174088
    .A5GW3  ...155  -29435.388240936263  ...164  -56589.056456131584
    .A5GW3  ...166  23906080.491207898  ...176  -177947.16302707978
    .A5GW3  ...177  -2.441359986491117  ...178  -0.011305277219258824
    .A5GW3  ...187  -1462.4517811818243  ...188  -0.23935460145682946
    .A5GW3  ...200  1.502857527464752  ...202  -1034.5220551804978
    .A5GW3  ...260  -3239.065144877157  ...000  450.50476722512764
    .B5GW3  ...011  0.0002151496296938023  ...020  1802.0244620647525
    .B5GW3  ...046  -966000.8979512447  ...142  -12685898.181500902
    .B5GW3  ...155  -38248.06741465782  ...164  -81783.13390739796
    .B5GW3  ...166  1412741.8376608395  ...176  -247653.34004775155
    .B5GW3  ...177  -3.397699320564328  ...178  -0.01506445811541418
    .B5GW3  ...187  -2390.1238362940408  ...188  -0.3391160570884421
    .B5GW3  ...200  -4.266782310357197  ...202  -11040.759009540208
    .B5GW3  ...260  -12810.629983004932  ...000  607.1540451050181
    .INGW3  ...013  4.880302871025215e-07  ...020  0.005134646701342998
    .INGW3  ...142  -97.05658035988809  ...155  -0.09256934508259015
    .INGW3  ...164  -0.1926285392185938  ...166  90.83478927431116
    .INGW3  ...176  -0.4502475563033919  ...177  -6.177206476774401e-06
    .INGW3  ...178  -7.262846672470878e-08  ...179  -42.72503522759697
    .INGW3  ...187  -0.008554935588007847  ...188  -6.449884434881695e-07
    .INGW3  ...200  -1.6683202591511214e-05  ...202  -0.007591261674143679
    .INGW3  ...260  -0.00782948139526273  ...000  0.001630368344660857
    .A1GW3  ...010  1.392170285688376e-08  ...020  2.0406727914375024e-05
    .A1GW3  ...034  -8.595248179513198e-06  ...142  -0.27687075757743423
    .A1GW3  ...155  -0.000311856416723024  ...164  -0.0008548980652336827
    .A1GW3  ...166  0.3611521951262342  ...176  -0.0022518820565809792
    .A1GW3  ...177  -3.089487156587882e-08  ...178  -1.6437214246816466e-10
    .A1GW3  ...187  -2.360070512877027e-05  ...188  -3.0615962967813368e-09
    .A1GW3  ...200  -2.328600984388844e-09  ...202  -1.5628656118360713e-05
    .A1GW3  ...260  -4.835728666623813e-05  ...000  6.805359649138577e-06
    .B1GW3  ...011  4.0732902192335434e-11  ...020  0.00034116575643631646
    .B1GW3  ...034  -0.00013758311450043616  ...142  -4.716143801292339
    .B1GW3  ...155  -0.002124103453509142  ...164  -0.01548347723941574
    .B1GW3  ...166  0.26746536900089707  ...176  -0.03323400155122794
    .B1GW3  ...177  -4.5595647718083835e-07  ...178  -2.8301670408373165e-09
    .B1GW3  ...187  -0.00048612873637213076  ...188  -4.6820628440324056e-08
    .B1GW3  ...200  -1.674000532729363e-06  ...202  -0.002090276230104534
    .B1GW3  ...260  -0.0024253545723623956  ...000  0.00011492881517670498
    .KTGW1  ...299  2.544078406358507e-07  ...012  -6.737413609609613e-08
    .KTGW1  ...018  3.8680080568727444e-07  ...053  -1.8351720170088912
    .KTGW1  ...142  -1682.0568396990402  ...149  -0.20022156391173673
    .KTGW1  ...150  -0.0005204885132971279  ...151  -995.0840665018424
    .KTGW1  ...152  -3.288771484318902e-05  ...164  -5.454003541387254
    .KTGW1  ...166  22139.491681531927  ...176  -12.314655929095773
    .KTGW1  ...177  -0.00016895188280200248  ...178  -1.6923571786042572e-06
    .KTGW1  ...187  -0.21603300481272883  ...188  -1.7342555675919914e-05
    .KTGW1  ...200  -0.0008494024350026485  ...202  -0.7038093651829013
    .KTGW1  ...260  -1.3066118150958137  ...000  0.0574990168154831
    .KWGW1  ...012  -0.033873329748538586  ...299  0.12790725307676576
    .KWGW1  ...018  0.1944697475505683  ...141  -65.9808617048937
    .KWGW1  ...142  -1448889931.899956  ...150  -249.22208831694678
    .KWGW1  ...151  -500293030.31147414  ...152  -16.534778389890157
    .KWGW1  ...164  -2742079.8411960998  ...166  11130952404.701954
    .KWGW1  ...176  -8644726.728100132  ...177  -118.60200280305801
    .KWGW1  ...178  -0.7868228840544345  ...187  -102550.87292611558
    .KWGW1  ...188  -11.915370687348972  ...200  -321.6051526026945
    .KWGW1  ...202  -353850.4252276626  ...025  -2194.8959546696856
    .KWGW1  ...260  -656918.1503559427  ...000  28912.75411652945
    .KKMN1  ...299  6.016829881536182e-05  ...026  -1.99618601532691e-06
    .KKMN1  ...012  -1.59342068346832e-05  ...018  9.147967452751147e-05
    .KKMN1  ...027  -213127.90399043926  ...145  -24650.29553105591
    .KKMN1  ...149  -27.79419003211331  ...150  -0.1230972611526183
    .KKMN1  ...151  -235340.68490203243  ...152  -0.007778053730945266
    .KKMN1  ...164  -1289.8899420633124  ...166  5236063.274564478
    .KKMN1  ...176  -4228.098606894195  ...177  -0.058007728711243836
    .KKMN1  ...178  -0.0003695870483776797  ...187  -48.244205058145674
    .KKMN1  ...188  -0.005800770985016339  ...200  -0.1426046109770717
    .KKMN1  ...202  -166.45325115584288  ...260  -309.01803155861023
    .KKMN1  ...000  13.600723863676102
    .K5GW1  ...299  0.00040761117010361294  ...012  -0.00010794655691511675
    .K5GW1  ...018  0.0006197306207589907  ...046  -136085.3014149161
    .K5GW1  ...142  -1319223.1229756458  ...149  -571.8504339886263
    .K5GW1  ...150  -0.8339245024849892  ...151  -1594319.4977188131
    .K5GW1  ...152  -0.052692558121485704  ...164  -8738.381488942328
    .K5GW1  ...166  35471800.26863034  ...176  -33789.17458870752
    .K5GW1  ...177  -0.46357321698283854  ...178  -0.002923108336611836
    .K5GW1  ...187  -321.00774488793957  ...188  -0.046036775649226314
    .K5GW1  ...200  -0.5292423895437317  ...202  -1127.6403987985293
    .K5GW1  ...260  -2093.447943629763  ...000  92.14516367533551
    .QKGW2  ...026  -2.2399924361319696e-05  ...016  16017.206973176204
    .QKGW2  ...019  16.234579190912275  ...027  -2390891.2192210075
    .QKGW2  ...142  -1625454.9195749646  ...153  -0.0015010206969163877
    .QKGW2  ...154  -0.001353788193603707  ...164  -4597.598694823414
    .QKGW2  ...166  7843610.860345159  ...176  -37530.31497257183
    .QKGW2  ...177  -0.5149000843610074  ...178  -0.003212962942908721
    .QKGW2  ...187  -239.5852737900041  ...188  -0.05202334963214425
    .QKGW2  ...200  -1.006320430989651  ...202  -1945.1600283095822
    .QKGW2  ...260  -1114.5559274591535  ...000  98.03694262895854
    .K1GW1  ...299  0.0017579676847613282  ...012  -0.00046555779786355443
    .K1GW1  ...018  0.0026728080201395025  ...034  -417.3263347132824
    .K1GW1  ...142  -10485152.125959184  ...149  -1564.0000298265677
    .K1GW1  ...150  -3.596595074974577  ...151  -6876068.080916762
    .K1GW1  ...152  -0.22725533841831017  ...164  -37687.36826022774
    .K1GW1  ...166  152984714.76311392  ...176  -118200.75249882128
    .K1GW1  ...177  -1.6214241280763029  ...178  -0.010758357647675434
    .K1GW1  ...187  -1409.467534573491  ...188  -0.16260183328172306
    .K1GW1  ...200  -4.4201673629012666  ...202  -4863.349011302329
    .K1GW1  ...260  -9028.736463958248  ...000  397.37924309736934
    .IKGW2  ...026  -4.904371219416209e-07  ...013  0.0006319604606440478
    .IKGW2  ...019  0.369194571829325  ...027  -43960.21692724918
    .IKGW2  ...142  -61608.11910627118  ...153  -3.0211509442879096e-05
    .IKGW2  ...154  -4.069766069318606e-05  ...164  -119.49157318497487
    .IKGW2  ...166  540185.7747716941  ...176  -670.7069056036431
    .IKGW2  ...177  -0.009201815719617997  ...178  -9.096462050804401e-05
    .IKGW2  ...187  -10.7546839241524  ...188  -0.0009510829036713454
    .IKGW2  ...200  -0.01739258576201512  ...202  -9.830080942196833
    .IKGW2  ...260  -10.13855656076283  ...000  2.1134293049954285
    .KNGW1  ...299  1.3086174286826632e-11  ...012  -3.465575923974286e-12
    .KNGW1  ...018  1.989617436655112e-11  ...142  -0.1694122730354293
    .KNGW1  ...150  -2.0908260918915857e-08  ...151  -0.05118491431608919
    .KNGW1  ...152  -1.691671008479049e-09  ...164  -0.0002805418289199757
    .KNGW1  ...166  1.1388062806640094  ...176  -0.0006521496314498662
    .KNGW1  ...177  -8.947217749036796e-09  ...178  -8.668507447281429e-11
    .KNGW1  ...179  -0.07244579558614174  ...187  -1.1129118698925278e-05
    .KNGW1  ...188  -9.179002734438477e-10  ...200  -4.3421674904068624e-08
    .KNGW1  ...202  -3.6202390596394126e-05  ...260  -6.720920980593871e-05
    .KNGW1  ...000  2.9577313109032903e-06
    .A4GW2  ...010  21.98551632429906  ...019  1853.9335065414396
    .A4GW2  ...039  -0.12329640414334371  ...040  1.5253892373979216
    .A4GW2  ...041  -33.79798227884662  ...154  -0.21177806692970777
    .A4GW2  ...164  -600034.3671883247  ...166  2594274674.769385
    .A4GW2  ...176  -2787736.549244387  ...177  -38.24656908505117
    .A4GW2  ...178  -0.2650341235108064  ...187  -40847.562049984896
    .A4GW2  ...188  -3.8466685065783874  ...200  -44.128649043600745
    .A4GW2  ...202  -24681.181443775495  ...260  -76367.08859029373
    .A4GW2  ...000  10756.540708582068
    .AKGW2  ...026  -0.0005554995418041896  ...010  5.609840160454374
    .AKGW2  ...019  473.0510071448027  ...027  -59291015.114903614
    .AKGW2  ...142  -54730913.211062565  ...153  -0.054294785152565056
    .AKGW2  ...154  -0.05403744389903684  ...164  -153105.2007628121
    .AKGW2  ...166  662087667.3872313  ...176  -885975.5394899036
    .AKGW2  ...177  -12.155210537362548  ...178  -0.08862191019443577
    .AKGW2  ...187  -9708.486322510338  ...188  -1.2071192630769376
    .AKGW2  ...200  -1.8766496389396683  ...202  -6297.6680114501405
    .AKGW2  ...260  -19485.881258895806  ...000  2744.8373050328796
    .BKGW2  ...026  -6.010844397895545e-07  ...011  1.1180973230555606e-06
    .BKGW2  ...019  0.5387361981107687  ...027  -64147.639056999134
    .BKGW2  ...142  -53939.88924963652  ...153  -5.267328163242397e-05
    .BKGW2  ...154  -5.754062756522702e-05  ...164  -228.85343797590107
    .BKGW2  ...166  736113.4125224631  ...176  -887.8451173478151
    .BKGW2  ...177  -0.012180860356647616  ...178  -9.881112884535469e-05
    .BKGW2  ...187  -13.410791345710932  ...188  -0.001253620717652092
    .BKGW2  ...200  -0.04701907337847436  ...202  -57.377012968310375
    .BKGW2  ...260  -66.57474201112105  ...000  3.1577767296442327
    .B4GW2  ...011  2.7241106875938605e-06  ...019  1.3125664508851538
    .B4GW2  ...039  -8.186766022769e-05  ...040  0.0010128441998769355
    .B4GW2  ...041  -0.0224415444133249  ...142  -137258.9072295579
    .B4GW2  ...153  -6.277116735554941e-05  ...154  -0.00021216051727679906
    .B4GW2  ...164  -557.5740889702244  ...166  1793452.4776909647
    .B4GW2  ...176  -1608.0284395384165  ...177  -0.022061471633753566
    .B4GW2  ...178  -0.00032676849183350465  ...187  -34.029064617765805
    .B4GW2  ...188  -0.002313272716824612  ...200  -0.13668656682265232
    .B4GW2  ...202  -139.79224440144634  ...260  -162.20141350547428
    .B4GW2  ...000  7.692752685905224
    .C4GW3  ...294  278065.84656371595  ...020  722.8077538083478
    .C4GW3  ...000  194.16494706375312  ...039  -0.0022210239775698713
    .C4GW3  ...040  0.02747789844259384  ...041  -0.6088265878989341
    .C4GW3  ...142  -5585093.775330872  ...155  -23502.306630634783
    .C4GW3  ...164  -40376.280504717324  ...166  128095683.27282606
    .C4GW3  ...176  -36996.858645859225  ...177  -0.5075812886667008
    .C4GW3  ...178  -0.003967421682199539  ...187  -619.2711939453463
    .C4GW3  ...188  -0.053836341744651656  ...200  -1.2247077795905361
    .C4GW3  ...202  -1617.0015874954863  ...260  -555.9147868014239
    .QKGW3  ...016  0.0030372011455339623  ...020  5.6886650312633534e-05
    .QKGW3  ...026  -4.2474993326869255e-12  ...027  -0.45336353348159064
    .QKGW3  ...142  -0.3082206249825294  ...155  -0.0018172728148554112
    .QKGW3  ...164  -0.001575470638563026  ...166  -0.7936879262835093
    .QKGW3  ...176  -0.007119124479787826  ...177  -9.767138373067777e-08
    .QKGW3  ...178  -6.126792337465317e-10  ...187  -4.562584930906802e-05
    .QKGW3  ...188  -9.868332343588429e-09  ...200  -1.892930765224767e-07
    .QKGW3  ...202  -0.0003688434741539221  ...260  -0.00021134337249369633
    .QKGW3  ...000  1.8572508933714966e-05
    .QKGW4  ...016  339882.82776468276  ...020  7498.921761743289
    .QKGW4  ...026  -0.00047532317253503155  ...027  -50734367.72262944
    .QKGW4  ...142  -34491919.55840729  ...155  -344025.4642566751
    .QKGW4  ...164  -118466.17923815358  ...166  110008564.87529348
    .QKGW4  ...176  -796387.8846754662  ...177  -10.926105717555659
    .QKGW4  ...178  -0.057413567526355604  ...187  -5083.965043524352
    .QKGW4  ...188  -1.1039279952101195  ...200  -21.353974778182707
    .QKGW4  ...202  -41276.01597356334  ...260  -23650.716442704877
    .QKGW4  ...000  2078.386169568659
    .A4GW3  ...010  6.252999904873581e-06  ...020  0.009165780150541931
    .A4GW3  ...039  -3.5067286663060115e-08  ...040  4.338428361494707e-07
    .A4GW3  ...041  -9.612636649382161e-06  ...142  -134.91651863608942
    .A4GW3  ...155  -0.11672650992900775  ...164  -0.38398158440363417
    .A4GW3  ...166  162.21324826313113  ...176  -0.7928727313068239
    .A4GW3  ...177  -1.0877879296664214e-05  ...178  -7.537955100329726e-08
    .A4GW3  ...187  -0.011617639442498585  ...188  -1.0940483475992108e-06
    .A4GW3  ...200  -1.2550828199875471e-05  ...202  -0.007019686185378508
    .A4GW3  ...260  -0.021719908263551028  ...000  0.003056341325508871
    .BKGW3  ...011  8.057994730169674e-12  ...020  6.749118573720189e-05
    .BKGW3  ...026  -4.331944230914266e-12  ...027  -0.46230442271476535
    .BKGW3  ...142  -0.38873838113814035  ...155  -0.0018909054059667865
    .BKGW3  ...164  -0.0030630220604165757  ...166  5.373723819579978
    .BKGW3  ...176  -0.006398594406115093  ...177  -8.778601516955939e-08
    .BKGW3  ...178  -7.121200803361721e-10  ...187  -9.664998186009772e-05
    .BKGW3  ...188  -9.034695753376837e-09  ...200  -3.3886088240136167e-07
    .BKGW3  ...202  -0.00041350932391826076  ...260  -0.00047979626569713313
    .BKGW3  ...000  2.2735816433251678e-05
    .B4GW3  ...011  1.583163051892328e-09  ...020  0.01326006719605916
    .B4GW3  ...039  -4.757877695925602e-08  ...040  5.886315566659084e-07
    .B4GW3  ...041  -1.3042283525548743e-05  ...142  -79.77033806247107
    .B4GW3  ...155  -0.5553860804722105  ...164  -0.6017952996452907
    .B4GW3  ...166  1055.7814055623733  ...176  -0.9345329554570757
    .B4GW3  ...177  -1.2821397794147411e-05  ...178  -1.8990704201169125e-07
    .B4GW3  ...187  -0.01977656709716466  ...188  -1.3443976086970672e-06
    .B4GW3  ...200  -7.943771274388746e-05  ...202  -0.08124262985545314
    .B4GW3  ...260  -0.09426609792181148  ...000  0.004466469634615122
    .KNGW2  ...299  0.006746231359001516  ...012  -0.0017865860917694897
    .KNGW2  ...019  280.3780334038429  ...142  -87336020.7422768
    .KNGW2  ...154  -0.03394975751674357  ...164  -144625.9267444412
    .KNGW2  ...166  58708148.57003137  ...176  -336198.509817895
    .KNGW2  ...177  -4.6125016854719085  ...178  -0.04468819954160137
    .KNGW2  ...179  -37347515.57627011  ...187  -5737.323064718748
    .KNGW2  ...188  -0.4731992309911828  ...200  -22.384897104196554
    .KNGW2  ...202  -18663.185844779146  ...260  -34647.93215103102
    .KNGW2  ...000  1526.5316081154954
    .K5GW3  ...012  -9.175163610387089e-10  ...020  0.002570628132500882
    .K5GW3  ...299  3.464584033062604e-09  ...046  -1.1566880326090727
    .K5GW3  ...142  -11.213037578794983  ...155  -0.0850014198597707
    .K5GW3  ...164  -0.13165406641703695  ...166  104.21262581139456
    .K5GW3  ...176  -0.2871987898188444  ...177  -3.940246204013368e-06
    .K5GW3  ...178  -2.4845625470379593e-08  ...187  -0.0027284784839077974
    .K5GW3  ...188  -3.913000662063579e-07  ...200  -4.498416301906097e-06
    .K5GW3  ...202  -0.009584636553803566  ...260  -0.017793737884326765
    .K5GW3  ...000  0.0007832958606749753
    .K5GW4  ...012  -0.0023875176417700894  ...020  8156.089391779423
    .K5GW4  ...299  0.009015376566111129  ...046  -3009878.843743026
    .K5GW4  ...142  -29178035.590446047  ...155  -446059.7865266078
    .K5GW4  ...164  -250116.62216985432  ...166  999491396.321074
    .K5GW4  ...176  -747335.0955957312  ...177  -10.25312215070425
    .K5GW4  ...178  -0.06465211046938589  ...187  -7099.91755149219
    .K5GW4  ...188  -1.0182225091178176  ...200  -11.70556595706729
    .K5GW4  ...202  -24940.687527636426  ...260  -46302.02241164247
    .K5GW4  ...000  2038.2554093856547
    .K1GW3  ...012  -1.6174267502361122  ...020  4611085.745388741
    .K1GW3  ...034  -1449862.4670036773  ...142  -36427196809.17417
    .K1GW3  ...155  -177314431.0198032  ...164  -205384014.53160986
    .K1GW3  ...166  291924829610.664  ...176  -410649461.49964994
    .K1GW3  ...177  -5633.937325692594  ...178  -37.37635912836184
    .K1GW3  ...187  -4896729.266419984  ...188  -564.906346739724
    .K1GW3  ...200  -15356.411096721517  ...202  -16896099.308640797
    .K1GW3  ...260  -31367361.785481706  ...000  1380716.3289642562
    .K1GW3  ...299  6.107477895187045
    .K1GW4  ...012  -2.6754007130745035e-06  ...020  9.13953764902372
    .K1GW4  ...299  1.0102436301047255e-05  ...034  -2.3982310651875554
    .K1GW4  ...142  -60254.56689419971  ...155  -437.88071272209254
    .K1GW4  ...164  -280.27528576036076  ...166  1120008.4756009248
    .K1GW4  ...176  -679.2591144912393  ...177  -0.00931914841669007
    .K1GW4  ...178  -6.18245851625432e-05  ...187  -8.057931604427687
    .K1GW4  ...188  -0.0009344168709137173  ...200  -0.025401183201920238
    .K1GW4  ...202  -27.94799587178607  ...260  -51.88504646401638
    .K1GW4  ...000  2.283855791630339
    .KNGW3  ...012  -1.2323362368060478e-07  ...020  0.35738129141811453
    .KNGW3  ...299  4.6533583821537576e-07  ...142  -5378.7411942378085
    .KNGW3  ...155  -5.708363050582232  ...164  -17.095928063368397
    .KNGW3  ...166  17006.563545096014  ...176  -23.190016328764816
    .KNGW3  ...177  -0.0003181572382949788  ...178  -3.0824648141188025e-06
    .KNGW3  ...179  -2576.1253270326138  ...187  -0.3957442156013534
    .KNGW3  ...188  -3.263993614780856e-05  ...200  -0.0015440464910008581
    .KNGW3  ...202  -1.2873334409531756  ...260  -2.3899157458358764
    .KNGW3  ...000  0.105186690733289
    .KNGW4  ...012  -1.7706203900309867e-06  ...020  6.048683338437392
    .KNGW4  ...299  6.6859441339789165e-06  ...142  -77281.73972957658
    .KNGW4  ...155  -228.28272558440563  ...164  -185.49039527569136
    .KNGW4  ...166  741238.4373732114  ...176  -333.19409533296783
    .KNGW4  ...177  -0.004571282386543162  ...178  -4.4288846569808524e-05
    .KNGW4  ...179  -37013.76211366801  ...187  -5.686051878151965
    .KNGW4  ...188  -0.00046897051913693817  ...200  -0.022184856035781703
    .KNGW4  ...202  -18.496403588910987  ...260  -34.33830332702547
    .KNGW4  ...000  1.511322103575839
    .K4GW1  ...299  0.0019116110267596805  ...012  -0.0005062467460036114
    .K4GW1  ...018  0.002906406828748994  ...039  -0.0045374187362452155
    .K4GW1  ...040  0.05613569798669417  ...041  -1.2437961926369894
    .K4GW1  ...142  -12638912.363584252  ...149  -1504.4573642547093
    .K4GW1  ...150  -3.9109312780367693  ...151  -7477024.565451732
    .K4GW1  ...152  -0.24711706283123425  ...164  -40981.17921068907
    .K4GW1  ...166  166355314.83421856  ...176  -92531.86539367067
    .K4GW1  ...177  -1.2694981465543904  ...178  -0.012716308725981581
    .K4GW1  ...187  -1623.2639415195931  ...188  -0.13043420210309767
    .K4GW1  ...200  -6.382378219355763  ...202  -5288.397322416375
    .K4GW1  ...260  -9817.83245040311  ...000  432.04546800759505
    .K4GW2  ...299  0.019084555287694857  ...012  -0.0050541108405816595
    .K4GW2  ...019  793.167295220477  ...039  -0.04529928815177348
    .K4GW2  ...040  0.5604303474103616  ...041  -12.417430571763036
    .K4GW2  ...142  -126180492.99915309  ...153  -0.08092122034969687
    .K4GW2  ...154  -0.08380952080826966  ...164  -409135.3154240043
    .K4GW2  ...166  1660807119.7083824  ...176  -923791.2296270989
    .K4GW2  ...177  -12.674025848559422  ...178  -0.12695317904069683
    .K4GW2  ...187  -16205.844183146535  ...188  -1.3021889425185207
    .K4GW2  ...200  -63.718428220589715  ...202  -52796.67760340912
    .K4GW2  ...260  -98016.261458089  ...000  4318.277437482855
    .K4GW3  ...012  -8.011091306353406e-05  ...020  224.44871349031445
    .K4GW3  ...299  0.0003025024970233495  ...039  -0.0007180229024318467
    .K4GW3  ...040  0.008883182078054837  ...041  -0.1968242748100265
    .K4GW3  ...142  -2000042.109049923  ...155  -7421.71109510685
    .K4GW3  ...164  -10579.546163431953  ...166  13799136.558903536
    .K4GW3  ...176  -14642.686165742001  ...177  -0.2008914752653262
    .K4GW3  ...178  -0.0020122896806311573  ...187  -256.87307133292285
    .K4GW3  ...188  -0.020640533707486083  ...200  -1.0099781395251781
    .K4GW3  ...202  -836.8613556253895  ...260  -1553.6208935967684
    .K4GW3  ...000  68.37654688910044
    .KKGN3  ...012  -0.00016336506762616975  ...020  473.76371072367414
    .KKGN3  ...299  0.0006168740187009502  ...026  -2.0465848521463512e-05
    .KKGN3  ...027  -2185088.6466865772  ...142  -3337002.092301485
    .KKGN3  ...155  -13873.402901130617  ...164  -21263.026442373655
    .KKGN3  ...166  28706268.807991385  ...176  -43348.478026651464
    .KKGN3  ...177  -0.5947228263113773  ...178  -0.0037891822152424396
    .KKGN3  ...187  -494.622537768223  ...188  -0.05947226329386092
    .KKGN3  ...202  -1706.557904876771  ...200  -1.462050302081203
    .KKGN3  ...260  -3168.199844964665  ...000  139.45658832517466
    .K4GW4  ...012  -2.6894614679743625e-11  ...020  9.187571126084911e-05
    .K4GW4  ...299  1.0155530359079864e-10  ...039  -2.410526675288374e-10
    .K4GW4  ...040  2.9822373754474057e-09  ...041  -6.607730243240984e-08
    .K4GW4  ...142  -0.6714486180365914  ...155  -0.004277240434755018
    .K4GW4  ...164  -0.0028174829205743824  ...166  11.258947581993517
    .K4GW4  ...176  -0.004915802195285465  ...177  -6.744273174643865e-08
    .K4GW4  ...178  -6.755603389725224e-10  ...187  -8.623671870550631e-05
    .K4GW4  ...188  -6.9293830218468045e-09  ...200  -3.3906707411949857e-07
    .K4GW4  ...202  -0.0002809487851182389  ...260  -0.0005215773194164712
    .K4GW4  ...000  2.2955185646871143e-05
    .KKGN4  ...012  -1.8582509641876748e-10  ...020  0.0006348041459931738
    .KKGN4  ...299  7.016841217588046e-10  ...026  -2.327956845398218e-11
    .KKGN4  ...027  -2.4855026497050363  ...142  -3.795785381551285
    .KKGN4  ...155  -0.0272576922990373  ...164  -0.019467058428180316
    .KKGN4  ...166  77.7923403964432  ...176  -0.04930818580715323
    .KKGN4  ...177  -6.764875021791383e-07  ...178  -4.310132886590929e-09
    .KKGN4  ...187  -0.0005626250587549217  ...188  -6.764872822207727e-08
    .KKGN4  ...200  -1.6630583410587457e-06  ...202  -0.0019411817460487225
    .KKGN4  ...260  -0.003603775582009266  ...000  0.00015862959167659075
    .VN3HF  ...176  4.643297163801404  ...295  -0.9244649885602256
    .VN3HF  ...177  1.001064078241832e-05  ...178  -6.276501541884109e-07
    .VN3HF  ...187  -0.008635796366439307  ...188  5.87884159794664e-06
    .VN3HF  ...192  0.0044785344599357286  ...195  3.4657305217500555e-06
    .VNFHF  ...000  0.000553236425879689  ...134  -3.547714579133794e-06
    .VNFHF  ...164  -0.13546042323685478  ...166  -841.0634268337392
    .VNFHF  ...260  -13.463782584623779  ...295  3.7291748257285557
    .VNFHF  ...296  0.029251357787851675  ...297  6.347989729174162e-09
    .VNFHF  ...298  -1.4904915346592954e-08
RHS
    ZZZZZZ01  ...000  -7.113  ...010  0.01344194592904787
    ZZZZZZ01  ...011  1.6376613657579193e-06  ...013  0.0033894639905467576
    ZZZZZZ01  ...014  9.349414734269364e-05  ...015  2.3136938438507342e-06
    ZZZZZZ01  ...017  1.0793643667320985  ...018  9.469678517330519e-05
    ZZZZZZ01  ...019  3.5895664207980356  ...020  77.71844091157057
    ZZZZZZ01  ...021  0.003368901930687114  ...023  0.00014124051158738527
    ZZZZZZ01  ...024  113.094583996396  ...030  0.00017515876889131156
    ZZZZZZ01  ...035  26204.062868301877  ...038  20794.973121917843
    ZZZZZZ01  ...043  0.2489417089242758  ...048  0.0002234739771517733
    ZZZZZZ01  ...050  0.4570794118822683  ...055  1.1771380365331608e-05
    ZZZZZZ01  ...057  -1.4496070928325216e-05  ...059  -2.832744867326684
    ZZZZZZ01  ...060  -0.023297424812588594  ...120  6.138334675716542e-06
    ZZZZZZ01  ...133  847942.6367764667  ...134  0.001135809532528554
    ZZZZZZ01  ...135  193.6270322446423  ...136  0.15975309197626814
    ZZZZZZ01  ...138  0.42309950108954425  ...142  -35168.54046452176
    ZZZZZZ01  ...143  143.4579449410377  ...144  0.05820422511258703
    ZZZZZZ01  ...147  1291.9992026147934  ...148  0.00018247499279308045
    ZZZZZZ01  ...150  -0.01067934996631256  ...151  -102177.74052704194
    ZZZZZZ01  ...152  -0.005813558377171873  ...156  -0.0007967429969624783
    ZZZZZZ01  ...157  -1.0283244632062765e-05  ...158  -6.36314836191763e-07
    ZZZZZZ01  ...159  -7.439374272398945e-05  ...160  1.2738432628049825
    ZZZZZZ01  ...161  6013.955479995089  ...163  6.135609958127068
    ZZZZZZ01  ...164  -367.2224460620584  ...165  0.0005308080170267874
    ZZZZZZ01  ...166  1546888.3567568348  ...167  21560.576035677223
    ZZZZZZ01  ...168  28159.64212358499  ...169  2.008207383260972e-06
    ZZZZZZ01  ...172  235.4577674123625  ...174  3.0232246512513084e-05
    ZZZZZZ01  ...175  4.237400050416478  ...176  704.6013282847822
    ZZZZZZ01  ...177  0.015055251570408443  ...178  0.0001714699106035801
    ZZZZZZ01  ...179  40903.12341269764  ...182  0.17307800303699125
    ZZZZZZ01  ...185  6005.97293086388  ...186  227699.6905329692
    ZZZZZZ01  ...187  11.335686583103303  ...188  0.0010475825209230007
    ZZZZZZ01  ...189  4846.899873396188  ...190  11.571649294478892
    ZZZZZZ01  ...191  0.3197862569045104  ...192  7.521618176172989
    ZZZZZZ01  ...193  104.3735075280028  ...194  32043.0422168121
    ZZZZZZ01  ...195  0.005820632155298146  ...196  7.442525239200344e-07
    ZZZZZZ01  ...197  4.197082406718202e-06  ...199  22557.949945145883
    ZZZZZZ01  ...202  -62.765201179298536  ...204  1.9346069579135964e-06
    ZZZZZZ01  ...205  307.3245062393485  ...212  1.1779675318827244e-06
    ZZZZZZ01  ...223  0.1428863820350602  ...234  4.992697349191896e-05
    ZZZZZZ01  ...250  0.0022020463935882167  ...261  1.4963597908917907e-05
    ZZZZZZ01  ...263  224382.93767389358  ...264  -37123.3429608024
    ZZZZZZ01  ...265  0.0056896131066738196  ...266  9.464957252954163e-07
    ZZZZZZ01  ...268  1.1976690627750567e-07  ...270  12.845628097225012
    ZZZZZZ01  ...276  0.0007231501745436421  ...277  21600.166556640244
    ZZZZZZ01  ...278  75.09257041820858  ...279  0.022096822230944967
    ZZZZZZ01  ...280  -15819.282897814339  ...281  5.211766775850949
    ZZZZZZ01  ...284  9656358.212273063  ...285  7.088245213393905e-06
    ZZZZZZ01  ...291  5.217177768399345e-06  ...292  9338.059731972904
    ZZZZZZ01  ...293  0.0027236556164115535  ...294  7716.674842778083
    ZZZZZZ01  ...299  0.00012621639215406024  ...300  0.026548182342665632
ENDATA
