NAME          SC50A
ROWS
 N  MAXIM
 L  ROW00001
 L  ROW00002
 L  ROW00003
 E  ROW00004
 E  ROW00005
 E  ROW00006
 E  ROW00007
 L  ROW00008
 L  ROW00009
 L  ROW00010
 L  ROW00011
 L  ROW00012
 L  ROW00013
 E  ROW00014
 E  ROW00015
 E  ROW00016
 E  ROW00017
 E  ROW00018
 L  ROW00019
 L  ROW00020
 L  ROW00021
 L  ROW00022
 L  ROW00023
 L  ROW00024
 E  ROW00025
 E  ROW00026
 E  ROW00027
 E  ROW00028
 E  ROW00029
 L  ROW00030
 L  ROW00031
 L  ROW00032
 L  ROW00033
 L  ROW00034
 L  ROW00035
 E  ROW00036
 E  ROW00037
 E  ROW00038
 E  ROW00039
 E  ROW00040
 L  ROW00041
 L  ROW00042
 L  ROW00043
 L  ROW00044
 L  ROW00045
 L  ROW00046
 E  ROW00047
 L  ROW00048
 L  ROW00049
 L  ROW00050
COLUMNS
    COL00001  ROW00001  9.9360383884214e-07  ROW00002  0.004182190041613742
    COL00001  ROW00005  -4.779973920425381e-10
    COL00002  ROW00001  0.020728946453229164  ROW00002  349.001845769289
    COL00002  ROW00006  -0.06589478641321361
    COL00003  ROW00001  5.728903862407512e-08  ROW00002  0.0004822719829795217
    COL00003  ROW00007  -6.098399842834654e-06
    COL00004  MAXIM  -2.8180448535883685e-06  ROW00004  4.505013588191854e-07
    COL00004  ROW00014  2.1360217440158537e-11
    COL00005  ROW00004  -1.960217960382009e-06  ROW00013  1.5233034645711352e-06
    COL00005  ROW00015  0.10251364040135658
    COL00006  ROW00005  2.2639090407834784e-10  ROW00008  -1.460464850353071e-08
    COL00006  ROW00016  -0.0010347184729412743
    COL00007  ROW00006  5764.668160151993  ROW00009  -1984918.5612228292
    COL00007  ROW00017  -13572.911123059826
    COL00008  ROW00007  637220.9788541805  ROW00010  -1.879548057561471
    COL00008  ROW00018  -10391608481.090303
    COL00009  ROW00008  1.4261953340198343e-06  ROW00011  -1.6083199025770933e-07
    COL00010  ROW00009  0.00021814348164814402  ROW00012  -1.304033493411805e-07
    COL00011  ROW00010  0.022516893663117838  ROW00013  -772.2298396713636
    COL00012  ROW00011  1.5878429862781837e-08  ROW00012  7.421615460672392e-07
    COL00012  ROW00016  -0.004987871172813596
    COL00013  ROW00011  0.0005131720143293254  ROW00012  0.09594312254911255
    COL00013  ROW00017  -0.5487413151130937
    COL00014  ROW00011  0.003750713455333169  ROW00012  0.35061845798619534
    COL00014  ROW00018  -930214.5659135933
    COL00015  ROW00014  -2.027848919075926e-07  ROW00015  246.03449931306085
    COL00015  ROW00025  0.12108679561593473
    COL00016  ROW00015  -0.04739070786843522  ROW00024  2.942264686091403e-11
    COL00016  ROW00026  1.6786967650261873e-09
    COL00017  ROW00016  4943.08805613552  ROW00019  -19.76547912019465
    COL00017  ROW00027  -0.8601332228209043
    COL00018  ROW00017  0.6122207681087153  ROW00020  -2.917123920752579
    COL00018  ROW00028  -0.04206746329385291
    COL00019  ROW00018  68261415.04239501  ROW00021  -832696.9674404962
    COL00019  ROW00029  -2.8954222466894244
    COL00020  ROW00019  1.0572852929771517  ROW00022  -15.683484853596655
    COL00021  ROW00020  8706.87808267841  ROW00023  -17988436.612527683
    COL00022  ROW00021  0.6969255451017219  ROW00024  -1.4807004837689277e-08
    COL00023  ROW00022  2319990.5255674943  ROW00023  327673743.8212303
    COL00023  ROW00027  -3403.017750538234
    COL00024  ROW00022  5.23778158945343e-05  ROW00023  0.029591215719543477
    COL00024  ROW00028  -1.0327454765290957e-07
    COL00025  ROW00022  0.31327314439487464  ROW00023  88.4929338557603
    COL00025  ROW00029  -8.843659034413202e-05
    COL00026  ROW00025  -4556.430426604708  ROW00026  0.3607411692623193
    COL00026  ROW00036  0.08930962295293415
    COL00027  ROW00026  -0.0002183040332513471  ROW00035  2.177931871172203e-06
    COL00027  ROW00037  76.93916772946685
    COL00028  ROW00027  8.802710903074077  ROW00030  -11250.237165641152
    COL00028  ROW00038  -47927429.4446048
    COL00029  ROW00028  2.3023646921964226e-05  ROW00031  -1.2838507805148427
    COL00029  ROW00039  -0.07896027995039762
    COL00030  ROW00029  0.007725037210744902  ROW00032  -2.7114801348543414
    COL00030  ROW00040  -109233.49201120248
    COL00031  ROW00030  1631114.4104969006  ROW00033  -106011.55144851952
    COL00032  ROW00031  20576.469508732564  ROW00034  -0.000498723229076838
    COL00033  ROW00032  78.04915962584953  ROW00035  -0.0007733771568514498
    COL00034  ROW00033  56.98444187871803  ROW00034  0.0003115870399685857
    COL00034  ROW00038  -1867583.3623716184
    COL00035  ROW00033  403953.45095065463  ROW00034  8.83515962723272
    COL00035  ROW00039  -11209591.823633695
    COL00036  ROW00033  5350.184359235567  ROW00034  0.05850888603343597
    COL00036  ROW00040  -87641702.5058898
    COL00037  ROW00036  -1.7336475135668927e-07  ROW00037  0.27147926426591096
    COL00037  ROW00047  0.0001219091714591719
    COL00038  ROW00037  -11026.123917951463  ROW00046  0.00019705512174185115
    COL00039  ROW00038  11119.2930836672  ROW00041  -3.6051553400661814e-05
    COL00040  ROW00039  0.00034481651566660866  ROW00042  -1.295992731292581e-10
    COL00041  ROW00040  19879672.606083546  ROW00043  -0.05900360213796223
    COL00042  ROW00041  9.72654389899311e-08  ROW00044  -4.60017593764812e-05
    COL00043  ROW00042  0.14605509834520666  ROW00045  -0.2654845816280165
    COL00044  ROW00043  8.756518622313549e-06  ROW00046  -4.581460515831008e-07
    COL00045  ROW00044  0.38521690977386136  ROW00045  3.632909039194263e-05
    COL00045  ROW00048  -125018.65262163729  ROW00049  2658.501830961848
    COL00046  ROW00044  1146.0671752296964  ROW00045  0.4323338560459336
    COL00046  ROW00048  92986425.58631045  ROW00049  -126549862.43639342
    COL00047  ROW00044  0.0001616368844475728  ROW00045  3.0487347968265684e-08
    COL00047  ROW00048  13.114446039932124  ROW00049  2.2310129298690446
    COL00047  ROW00050  -0.00021115967296221977
    COL00048  ROW00047  -0.0008605008295552266  ROW00050  0.0019445189977651848
RHS
    CONST  ROW00001  1.3075012097828211  ROW00002  8416.994216931711
    CONST  ROW00011  0.009151871669359912  ROW00012  0.6542221463597019
    CONST  ROW00022  341.0412937223797  ROW00023  73669.3478925543
    CONST  ROW00033  83.10534761495786  ROW00034  0.0006949866838725716
    CONST  ROW00044  8.353055345928555  ROW00045  0.001204811118451697
ENDATA
