NAME          BLEND    BRUCE MURTAGHS BLENDING PROBLEM (MINIMIZE).
ROWS
 E  1
 E  2
 E  3
 E  4
 E  5
 E  6
 E  7
 E  8
 E  9
 E  10
 E  11
 E  12
 E  13
 E  14
 E  15
 E  16
 E  17
 E  18
 E  19
 E  20
 E  21
 E  22
 E  23
 E  24
 E  25
 E  26
 E  27
 E  28
 E  29
 E  30
 E  31
 E  32
 E  33
 E  34
 E  35
 E  36
 E  37
 E  38
 E  39
 E  40
 E  41
 E  42
 E  43
 L  44
 L  45
 L  46
 L  47
 L  48
 L  49
 L  50
 L  51
 L  52
 L  53
 L  54
 L  55
 L  56
 L  57
 L  58
 L  59
 L  60
 L  61
 L  62
 L  63
 L  64
 L  65
 L  66
 L  67
 L  68
 L  69
 L  70
 L  71
 L  72
 L  73
 L  74
 N  C
COLUMNS
    1  2  -2.6678263072911455e-07  3  -0.0005478668954514
    1  4  -5.520869878091315e-11  5  -6.354289586763695e-06
    1  6  -2.258359763465041e-07  7  -1.1868037460367155e-11
    1  40  2.3797982459421028e-07  41  1.0685038458324971e-11
    1  42  1.5489220064833288e-06  43  1.3441944964957263e-10
    1  67  7.920384172146181e-10  C  0.00020669980428542233
    2  1  -304.41888029408864  3  -63332.26703862579
    2  4  -0.004015185671610524  5  -2778.258324765126
    2  6  -45.316691180151786  8  -0.04603853919196207
    2  39  0.0167626378263824  40  30.801761165857908
    2  41  0.0024808572107280326  42  247.2551968379283
    2  43  0.02212186834341063  50  -2437.4259512892927
    2  51  -16991826.75195359  56  -710.8570145126267
    2  57  -4.860853874649416  68  4337972186.80631
    2  C  23994.261783066675
    3  2  2.7860271569086682e-08  9  -0.002009525145987581
    3  10  -6.092730918920669e-10  11  -3.8806658078055434e-11
    3  12  -6.451272225189573e-11  13  -3.099010002679703e-10
    3  40  5.796493876403547e-08  41  5.165240951246413e-13
    3  42  1.2102822318885442e-07  43  1.2355560432844102e-11
    3  65  0.022516893663117838
    4  1  1.832090103615998e-05  9  -0.033079283211581455
    4  10  -1.6654047342906465e-08  11  -1.192470082694916e-09
    4  12  -3.039165835411384e-09  13  -7.3473993060656686e-09
    4  40  2.359879203588831e-06  41  1.861840505378394e-11
    4  42  4.3615061725346985e-06  43  7.326843356810662e-10
    4  65  0.9167118989174545
    5  9  -33408.84958587515  10  -0.007689129300883051
    5  11  -1.4368816401221112e-05  13  -0.02182706037992311
    5  21  442.75511899182055  40  0.152536992000467
    5  41  1.359253256297077e-06  42  0.31849047900389366
    5  43  3.251413808230197e-05
    6  9  -159.7207394544066  10  -2.8881338894196563e-05
    6  11  -4.039910030755173e-08  13  -3.9335119385444295e-05
    6  18  0.1100789051053952  40  0.00047091630389927753
    6  41  4.1963232073995355e-09  42  0.0009832523719830852
    6  43  1.0037852149425833e-07
    7  9  -0.0321955193226542  10  -5.56306980608669e-09
    7  11  -7.354374521547941e-12  13  -7.13734835873207e-09
    7  17  2.942264686091403e-11  40  9.07070230024006e-08
    7  41  8.082879750549258e-13  42  1.8939224398081303e-07
    7  43  1.933472420201891e-11
    8  12  7.6738165149294e-09  14  -0.04328169218148333
    8  39  4.622957296656603e-09  41  7.844771691818802e-11
    8  42  2.1304202012585414e-06  43  1.6182395979221015e-09
    8  C  1.3030384478229303e-06
    9  15  -0.0007959278708160224  22  0.06259049794106598
    10  16  -0.0010849668745549804  22  0.04206746329385291
    11  14  498142.3399415447  15  -460.95809518049566
    12  14  35705.31615666686  16  -67.01094171788019
    13  15  0.00011488565289953585  17  -2.5926834434215613e-10
    13  19  -0.005409208731711492  23  -1.550806336088681e-05
    13  39  -3.3411825673755564e-07  40  8.450296466561667e-06
    13  41  -5.055917093765641e-10  42  5.255539416413546e-05
    13  43  6.029210353627777e-09  69  35.05511755708832
    13  C  5.946428053590803e-05
    14  16  155.43756696672776  18  -85.63640489955768
    14  20  -1.384437360184759  23  -7.844235249747936
    14  39  -0.2080084172589566  40  4.384426772414377
    14  41  -0.0002491242320349885  42  26.905937345280222
    14  43  0.003092671112336436  69  17988436.612527683
    14  C  21.420779617988863
    15  5  1558411.7772081485  21  -8919256.891803874
    15  22  -3612837.290797868  23  -419918.2851277165
    15  39  634.8828288246914  41  -0.33387817397169506
    15  42  76353.05546901199  43  58.21212707722508
    15  65  3594301294.9340386  70  15.096890636019568
    15  C  89625.14433584544
    16  6  0.002545311058531892  21  -1.6058477373753202
    16  22  -0.6504652415902756  23  -0.07560325218062974
    16  39  0.00011430606456726684  41  -6.01123520418095e-08
    16  42  0.013746815777811698  43  1.0480672738629989e-05
    16  66  126.81336192667338  70  2.7180860427433653e-06
    16  C  0.016136359451190328
    17  4  4.932304223423824e-10  21  -0.0007473315355523378
    17  22  -0.0004697575280930668  23  -3.917780335179162e-05
    17  39  7.318293573425022e-08  41  -2.8756598108733783e-11
    17  42  8.801215748497233e-06  43  6.710111159775767e-09
    17  65  0.414315065291084  70  1.7402183947046066e-09
    17  C  1.033108926610174e-05
    18  21  -8.265251985402307  22  -5.195370671544458
    18  23  -0.4332941961264515  28  2.177931871172203e-06
    18  39  0.000809380276490045  41  -3.1803894028901534e-07
    18  42  0.09733868099846336  43  7.421172123375857e-05
    18  70  1.9246268700859013e-05  C  0.11425860144508221
    19  5  281.3029781726312  10  -0.005768640076283872
    19  13  -0.029834619497737205  24  -12582.754254649411
    19  25  -51.65679477374787  26  -109697.78642359884
    19  27  -0.29975026639845337  28  -9.01068016382469e-05
    19  29  -221.00693757740655  40  -8.382949019195825
    19  41  -7.456175872515468e-05  42  10.545217960150133
    19  43  0.0004895658457464828  65  648793.6458783862
    19  71  1415.8876826315945  C  5.510921197478548
    20  6  0.22233582913550246  10  -0.0005026036240521618
    20  13  -0.0025993973767626188  24  -1096.2961469800227
    20  25  -4.500695470140966  26  -9557.626109084305
    20  27  -0.02611630613285119  28  -7.850724686624316e-06
    20  29  -19.255645403107017  40  -0.7303802112068195
    20  41  -6.4963335648264e-06  42  0.9187719623869612
    20  43  4.265434574362506e-05  66  11077.292056276274
    20  71  123.36187925246416  C  0.4801493816724469
    21  4  2.2064770550945304e-06  10  -1.6390538966162482e-05
    21  13  -8.463012236701288e-05  24  -34.786358858800966
    21  25  -0.1468982286464916  26  -289.49451929760454
    21  27  -0.0008243805551364274  28  -2.686896264417395e-07
    21  40  -0.0239480701819578  41  -2.2712132995230936e-07
    21  42  0.03012515276133018  43  1.3985719352198798e-06
    21  65  1853.4474836391603  71  4.044850745935204
    21  C  0.015743377098232147
    22  3  777726.760401995  10  -0.6603020188882155
    22  13  -3.4093717584918966  24  -1401387.900157263
    22  25  -5917.877206272922  26  -11662448.437108142
    22  27  -33.21063120697472  28  -0.010824311705677823
    22  40  -964.7613859598237  41  -0.00914970965931565
    22  42  1213.6086085203008  43  0.05634225172781488
    22  65  74667167.31382488  71  162949.0719711116
    22  C  634.2307414992257
    23  13  829.4087692461425  25  932018.7741579291
    23  30  -106011.55144851952  40  49774.99681927365
    23  41  0.17086700602209468  42  77689.65659529295
    23  43  4.133237870842954  72  20230173.479764625
    23  C  27757.676560209577
    24  9  -0.00611351170427084  10  -1.8207462262154149e-10
    24  13  1.7678543747783707e-08  24  0.004569027392457435
    24  31  -0.0013993855555684206  40  1.1318768850163156e-06
    24  41  3.885369928980794e-12  42  1.7665332318077815e-06
    24  43  9.401104584587649e-11  72  0.000498723229076838
    24  C  6.308340668997188e-07
    25  9  -1167260.4291354495  25  438.3868694141166
    26  10  -2468.668125182553  24  1235952180.8081503
    27  10  -21.79760986554612  13  36.71802629715617
    28  11  1.4002558167117912e-07  32  -0.00011082651950833807
    28  44  -2.184470098636861  45  -4.221052700432038e-08
    28  46  -0.002707765655318481  47  3.783162252024443e-06
    28  48  6.611437837069085e-08  49  -1.3261706651574634e-08
    29  23  3320.12096781173  32  -70.51689334992155
    29  44  -1545541.6648040176  45  -0.029173115191480557
    29  46  -1722.901908133171  47  2.0632775587464924
    29  48  0.04206737330690608  49  -0.008438182104209052
    30  19  0.00027871939288052117  32  -1.519077648326035e-06
    30  44  -0.0355162371796588  45  -6.364286744622671e-10
    30  46  -3.7114819649188187e-05  47  1.2963768154355752e-08
    30  48  2.1114855760801045e-10  49  -6.507568118887114e-11
    31  20  2.6707373685640546e-06  32  -3.9891035845239837e-05
    31  44  -0.8930964134142284  45  -1.6276051425952818e-08
    31  46  -0.0009746365517568407  47  3.4042903646475886e-07
    31  48  4.878444844068875e-09  49  -1.589553939905905e-09
    32  27  0.00028600036789115776  32  -0.0020936001799440555
    32  44  -47.91050286841139  45  -8.450501736269203e-07
    32  46  -0.05115182438617138  47  3.0628676782674755e-05
    32  48  4.7585095698072364e-07  49  -1.275167548492456e-07
    33  30  14003.730316836514  32  -1220.565243322234
    33  44  -28446191.784204178  45  -0.5263262816503212
    33  46  -29821.424155567176  47  7.44019374855089
    33  48  0.28397351054274705  49  -0.11246242572580911
    34  31  0.0024259389646934183  32  -3.9488707921168137e-07
    34  44  -0.009536020189774489  45  -1.7460317023973866e-10
    34  46  -9.648066866685035e-06  47  3.1773869036129654e-09
    34  48  5.4888462933720365e-11  49  -2.7406693311097736e-11
    35  10  0.0007337704994511833  32  -0.010465165980247933
    35  44  -252.72043409525992  45  -4.5356459106726985e-06
    35  46  -0.25568985784481624  47  0.0016841210097913015
    35  48  6.243072022830587e-06  49  -1.2522811499069497e-06
    36  44  -204.15424731922747  45  -1.2064740652402823e-06
    36  46  1.3602613092387235  C  0.36220203076214413
    37  32  1698.647352855532  44  42241510.62982393
    37  45  0.7458680205830659  47  -39.34685904128473
    37  48  -0.5066703091610386  49  0.10163164465500078
    37  73  173038979.5520459  74  325452489.55208653
    37  C  -213683.36147134705
    38  11  1.1806298910895909e-07  33  -0.00021115967296221977
    38  50  -0.5919081698421672  51  -4436.570340300452
    38  52  -0.0001328703297661881  53  1251.6841021616578
    38  54  682.0672887869353  55  -1.4193962178334995e-07
    39  23  0.0002611985655922458  33  -1.253634537592539e-05
    39  50  -0.039060251077270625  51  -286.4189149234776
    39  52  -7.888382856418133e-06  53  63.695377271862434
    39  54  40.49367467709578  55  -8.426817944175663e-09
    40  19  0.004748614616285302  33  -5.8484476705247946e-05
    40  50  -0.19434447879283137  51  -1353.385501966967
    40  52  -3.6800832266015037e-05  53  86.66911712860555
    40  54  44.01622270659  55  -1.4073959533317943e-08
    41  20  1.8000566904195208e-06  33  -6.0756285007181496e-05
    41  50  -0.19335698730666426  51  -1368.7626344960117
    41  52  -3.8230347258195775e-05  53  90.03574757323342
    41  54  40.231044934422364  55  -1.359966176292142e-08
    42  27  0.0038416953175977268  33  -0.0635493291930341
    42  50  -206.7104439190307  51  -1420793.1386075248
    42  52  -0.03998784525399997  53  161442.52479264888
    42  54  65276.11992725093  55  -2.174309763065457e-05
    43  10  0.035058512122890066  33  -1.1299006313907618
    43  50  -3877.7095601681267  51  -27060025.969788406
    43  52  -0.7109798352584854  53  31574748.98856692
    43  54  3649694.325815846  55  -0.000759508982101272
    44  50  -0.020924127485140463  51  -69.74772973371678
    44  52  2.872191651786067e-05  C  0.00013141090397075086
    45  33  1.0781556103580934e-07  50  0.0003654678874454063
    45  51  2.547756178434884  53  -0.43367139030036356
    45  54  -0.1741276314106955  55  3.623632235526452e-11
    45  73  -0.002733907367871466  74  0.00914123600108976
    45  C  -5.688358415939566e-06
    46  11  5.7334893982363e-06  36  -0.0028734317635541844
    46  56  -7.163745954766748  57  -0.05266436755780874
    46  58  -1.9979009468175084  59  408000.9323097617
    46  60  20.57225501077667  61  -0.1634011882368576
    47  23  51.69767817158995  36  -0.6952738055545942
    47  56  -1926.4659711671247  57  -13.855607268501963
    47  58  -483.42480654447667  59  84619283.80497666
    47  60  4977.793526055502  61  -39.53758965797005
    48  19  1017.3854269531982  36  -3.511105378720675
    48  56  -10374.958108325318  57  -70.86924753610995
    48  58  -2441.276263976889  59  124636182.95427473
    48  60  5857.07514613743  61  -71.47945176569434
    49  20  1.2681420322461062e-08  36  -1.1993821840532247e-07
    49  56  -0.00033943559999001597  57  -2.356893966795364e-06
    49  58  -8.339320360794091e-05  59  4.257531495059341
    49  60  0.00017603234132893258  61  -2.2712040243268973e-06
    50  27  362.54863544257677  36  -1680.5018520440274
    50  56  -4860839.017634878  57  -32772.382288072244
    50  58  -1168455.1844636232  59  102263929704.26411
    50  60  3826019.034443772  61  -48641.96376508297
    51  10  6.838255515761747  36  -61.75565938927376
    51  56  -188455.20057888233  57  -1289.977918085039
    51  58  -42938.79253724028  59  41338330232.94808
    51  60  442137.9304805083  61  -3511.8105996282166
    52  56  -111893.07062253948  57  -366.39882549329224
    52  58  195098.034473002  C  2882.9040006979876
    53  36  101.27921559712843  56  285996.9600964624
    53  57  1955.65268857335  59  -9758344948.309704
    53  60  -362552.86744279537  61  2879.682820760257
    53  73  -9165116.90940819  74  -56912078.566885844
    53  C  -16929.884538424623
    54  9  -1023.6898359747927  26  1637.8745121270656
    55  9  1228.478319737439  37  -1.0719909337365596e-06
    56  10  0.12211983932211155  37  -0.0007143645795975101
    57  37  9.759307091333248e-11  C  -1.5357005975431903e-05
    58  11  3.461245390671417e-10  38  -2.057451542755125e-09
    58  63  -7.978801838301776e-09  64  1.0837852911430222e-06
    59  12  1.107679462747496e-10  38  -1.3679350330115292e-09
    59  63  -3.0313458398856317e-10  64  4.117570658121388e-08
    60  38  3.2207543955416536e-10  63  1.7842989986016878e-10
    60  64  -3.635502639762249e-08  C  -4.227159871743572e-06
    61  4  4.835202056402913e-10  34  -1.0783297910057346e-09
    62  3  1.4946267160729565  34  -3.8097061648382343e-07
    63  34  3.3387435056628074e-11  65  0.012575548874593211
    63  C  -7.283047472012014e-06
    64  7  0.1541613929428018  35  -725799.027491571
    64  62  19.007094162151994
    65  8  3.2562415412792336e-08  35  -0.02488404237018481
    65  62  8.14896126055079e-07
    66  6  0.00036053012205938427  35  -0.34474851656571753
    66  62  7.195753158405593e-06  66  17.962455591009473
    67  5  0.06317501097215375  35  -0.5480108130130893
    67  62  9.804290910442303e-06  65  145.7060496241077
    68  29  0.006571298031641825  35  -0.0006965216539324764
    68  62  1.453812750555257e-08
    69  28  0.04547054948007566  35  -359808.1292623089
    69  62  4.104890893991809
    70  35  19322375.332360175  62  -506.0108838226267
    70  C  -1652961.1871917704
    71  39  0.00018652673366109654  41  -3.578530904758117e-07
    72  13  0.003219569215983067  41  -7.48730818367532e-06
    73  10  3.205733197615322e-08  41  -1.3051044665497395e-10
    74  9  0.33718862050590037  41  -1.8095891806720946e-10
    75  25  0.09726158490579516  41  -1.3876338961209885e-07
    76  24  2.2487081564675773  41  -1.8811073139986127e-08
    77  40  -10851.588976932424  41  0.03535906587154865
    77  C  353.4471863648186
    78  40  0.00010628993086962114
    79  10  -2.8276789110237677e-09  13  -4.763218960946539e-09
    79  C  5.678974351772498e-06
    80  41  -0.7274024773184949  C  103249.24053529583
    81  41  6.15228777915994e-06
    82  42  -9.182874960352796e-06  C  7.582359960048726e-07
    83  43  -2.2716122053664065e-05  C  0.0329662168134614
RHS
    RHS  65  144585.92568696087  66  6395.145917514756
    RHS  67  0.0003227320116828416  68  10922281.547022779
    RHS  69  426945.2943017507  70  6.736108053250451e-05
    RHS  71  135.65584947422795  72  932.8814678681886
ENDATA
