NAME          AFIRO
ROWS
 E  R09
 E  R10
 L  X05
 L  X21
 E  R12
 E  R13
 L  X17
 L  X18
 L  X19
 L  X20
 E  R19
 E  R20
 L  X27
 L  X44
 E  R22
 E  R23
 L  X40
 L  X41
 L  X42
 L  X43
 L  X45
 L  X46
 L  X47
 L  X48
 L  X49
 L  X50
 L  X51
 N  COST
COLUMNS
    X01  X48  1.4953737774574204e-07  R09  -0.004182190041613742
    X01  R10  -5.066772355650904e-10  X05  0.00017409012566475877
    X02  X21  -1.2140989967722797e-07  R09  0.00032151465531968113
    X02  COST  -1.986310272495113e-06
    X03  X46  -3.4608015736910197e-06  R09  0.00018245744027467286
    X04  X50  1.1015730106486791e-06  R10  5.099182115340902e-11
    X06  X49  4.585143428359117e-07  R12  -1038.6178106246628
    X06  R13  -4.028651208385417e-06  X17  5.9305892358527846e-05
    X07  X49  0.00012980731490877886  R12  -282764.03147207573
    X07  R13  -0.0010968015813177506  X18  7974546.198280516
    X08  X49  3.23099198798909e-05  R12  -70381.88262501256
    X08  R13  -0.00024724649872906397  X19  0.48461971651595703
    X09  X49  2.074125482897998  R12  -4337972186.80631
    X09  R13  -13.651590489591683  X20  1.879548057561471
    X10  X45  141.44266051965712  X17  -1.4261953340198343e-06
    X11  X45  2.5724855752179865  X18  -12.69311777608363
    X12  X45  1.2496397983735625  X19  -1.4916693038836989e-06
    X13  X45  244.81099138160923  X20  -1.8229470603998255e-08
    X14  X21  212.7704676245487  R12  51968694.30974146
    X14  COST  -1989.144291480115
    X15  X47  -0.001405783763613601  R12  79694.33664284911
    X16  X51  1.3668855104175295  R13  9.003140890825144e-07
    X22  X46  0.5007130202980067  R19  -2.1203194059744836e-05
    X22  R20  -8.348646715817316e-06  X27  0.0011077407758376032
    X23  X44  -19.76547912019465  R19  7.666115668291383e-07
    X23  COST  -0.08114446821343053
    X24  X48  -4.526465582586113e-05  R19  3.336059164661606e-08
    X25  X45  -212992.2839963579  R19  6.028511056664287e-05
    X26  X50  0.043849103682354694  R20  1.4237264585414816e-06
    X28  X47  6.35838790619481e-08  R22  -5.797305623731192
    X28  R23  0.9663560436870923  X40  3.3601765066045195e-06
    X29  X47  0.00012451590736075907  R22  -11457.9456257785
    X29  R23  1909.9312201834234  X41  15.683484853596655
    X30  X47  0.505580437590462  R22  -42195713.2355969
    X30  R23  7755024.097204905  X42  17988436.612527683
    X31  X47  4.5014612448395034e-08  R22  -3.5975652617980978
    X31  R23  0.6969255451017219  X43  1649.4963109409362
    X32  X45  1.1456533390312005  X40  -2.2179281229162464e-08
    X33  X45  4626.501126389907  X41  -0.20884876292991644
    X34  X45  54865850.88184824  X42  -690294.8416425537
    X35  X45  3.042147377304518  X43  -38.54007769493744
    X36  X44  150.82902357989556  R23  -180.09033687572722
    X36  COST  -0.35383308834606103
    X37  X49  -3.6227907041119155e-11  R23  0.0007218056701226955
    X38  X51  4847.880495233259  R22  355749.3020290849
    X39  R23  365412.6680506587  COST  14957.203226932867
RHS
    B  X50  49.55755798425873  X51  13934.227018094418
    B  X05  215.61255137250936  X17  0.03819069504174536
    B  X27  0.14807255088896934  R23  10749.441022020519
    B  X40  0.42474486097077163
ENDATA
