NAME          BANDM
ROWS
 N  ....1
 E  ....3
 E  ....4
 E  ....5
 E  ....6
 E  ....7
 E  ....8
 E  ...10
 E  ...11
 E  ...12
 E  ...14
 E  ...15
 E  .SM.4
 E  .O..9
 E  .O.10
 E  .O.15
 E  .O.54
 E  .O.55
 E  .O.56
 E  .O.57
 E  .O.58
 E  ...19
 E  ...20
 E  ...22
 E  ...36
 E  ...37
 E  ...38
 E  ...39
 E  ...40
 E  ...41
 E  ...42
 E  ...43
 E  ...44
 E  ...46
 E  ...47
 E  ...50
 E  ...51
 E  ...55
 E  ...55A
 E  ...56
 E  ...77
 E  ...79
 E  ...97
 E  ..104
 E  ..105
 E  ..110A
 E  ..111A
 E  .O..6
 E  .O..7
 E  .O.11
 E  .O.12
 E  .O.23
 E  .O.24
 E  .O.25
 E  .O.26
 E  .O.27
 E  .O.31
 E  .O.32
 E  .O.36
 E  .O.37
 E  .O.51
 E  .O.59
 E  .O.82
 E  .G.99
 E  .G100
 E  .G102
 E  .G124
 E  .OMB1
 E  .OMB1A
 E  .OMB3
 E  .O..2
 E  ..114
 E  ...31
 E  ..108
 E  ..109
 E  .G.16
 E  ...30
 E  ...31A
 E  ...98
 E  ...99
 E  ..106
 E  ..106A
 E  ..107
 E  ..107A
 E  ..112
 E  ..113
 E  ..115
 E  ..116
 E  .G..3
 E  .G.10
 E  .G.11B
 E  .G.51
 E  .G.51V
 E  .G.52
 E  .G.53
 E  .G.54
 E  .G123
 E  .G123A
 E  .G123B
 E  .G.23
 E  .G.76
 E  .G113
 E  .G125
 E  .G125V
 E  .OMB4
 E  .OMB5
 E  .OMB6
 E  .OMB7
 E  .OMB8
 E  .OMB9
 E  .OMB10
 E  .OMB11
 E  .O..4
 E  .O..5
 E  .O.52
 E  .O.53
 E  .O.68
 E  .O.69
 E  .ORC2
 E  .ED.2
 E  .ED.4
 E  ...58
 E  ...58A
 E  ...61
 E  ...62
 E  ...63
 E  ...64
 E  ...66
 E  ...67
 E  ...68
 E  ...70
 E  ...73
 E  ...75
 E  ...83
 E  ...84
 E  ...90
 E  ..111B
 E  ..112A
 E  ..118
 E  ..119
 E  ..120
 E  .G.39
 E  .G.41
 E  .G.42
 E  .G.45
 E  ...50A
 E  ...80A
 E  ...41A
 E  .RHSC
 E  .G105
 E  .G126
 E  .O.16
 E  .O.18
 E  .O.27A
 E  .O.28
 E  .O.29
 E  .O.40
 E  .O.41
 E  .O.45
 E  .O.61
 E  .O.63
 E  .O.63A
 E  .O.64
 E  .O.65
 E  .O.66
 E  .O.67
 E  .O.67A
 E  .O.67B
 E  .O.72
 E  .SM10
 E  .SM11
 E  .SM12
 E  .SM20
 E  .SM21
 E  .SM22
 E  .SM22A
 E  .G.84
 E  .G.92
 E  .G.92A
 E  .G.92B
 E  .G.92C
 E  .G.13
 E  .G.14
 E  .G.19
 E  .G.20
 E  .G.87
 E  .G.88
 E  .G.94
 E  .G.95
 E  ...21
 E  ...29
 E  ...32
 E  ...33
 E  ...34
 E  ...35
 E  ...48
 E  ...49
 E  ...52
 E  ...53
 E  ...54
 E  ...65
 E  ...76
 E  ...78
 E  ...80
 E  ...81
 E  ...82
 E  ...96
 E  ..100
 E  ..101
 E  ..102
 E  ..123
 E  ..124
 E  ..126
 E  ..127
 E  .G.11
 E  .G.11A
 E  .G.12
 E  .G.15
 E  .G.17
 E  .G.18
 E  .G.21
 E  .G.22
 E  .G.24
 E  .G.25
 E  .G.57
 E  .G.58
 E  .G.59
 E  .G.60
 E  .G.64
 E  .G.85
 E  .G.85A
 E  .G.86
 E  .G.89
 E  .G.90
 E  .G.91
 E  .G.93
 E  .G.96
 E  .G.97
 E  .G125A
 E  .G125B
 E  .OMB9A
 E  .OMB9B
 E  .OMB9C
 E  OMB10A
 E  OMB10B
 E  OMB10C
 E  .O108A
 E  .O108B
 E  .O108C
 E  .O108D
 E  .OMB2
 E  .SM.1
 E  .SM.3
 E  .SM.6
 E  .SM.7
 E  .SM.8
 E  .O..1
 E  .O..3
 E  .O.19
 E  .O.20
 E  .O.38
 E  .O.50
 E  .O.60
 E  .O.62
 E  ....3A
 E  ....3B
 E  ....3C
 E  ....5A
 E  ....5B
 E  ....6B
 E  ....6C
 E  ....6D
 E  ....6E
 E  ...19B
 E  ...20A
 E  ...20C
 E  ...20D
 E  ...22A
 E  ...22B
 E  ...47A
 E  ...47B
 E  ...47C
 E  ...47D
 E  ...48A
 E  ...49A
 E  ...68A
 E  ...68B
 E  ...68C
 E  ...68D
 E  ...77A
 E  ...77B
 E  ...78A
 E  ...78B
 E  ...78C
 E  .OMB9D
 E  OMB10D
 E  .O108E
 E  .O108F
 E  ...38A
 E  .SM22B
 E  ..111C
 E  ..104A
 E  ..110B
 E  ...79A
 E  ..116V
 E  .G.22A
COLUMNS
    KUWATS  ....1  -0.007691183586957771  ....3  4.9680191942107e-07
    4CORNS  ....1  -64.74610936101317  ...14  0.0004791253135660243
    OH.MY  ....1  2.5603990475485485  .G.16  -0.06589478641321361
    SELCYS  ...79A  6.098399842834654e-06
    AWFUL  ....6  4.505013588191854e-07  ....7  1.1015730106486791e-06
    OFFAL  ....6  3.455445610224365e-11
    AV115S  .G.51V  1038.6178106246628
    76.LSS  .G.16  7.479809493074097e-07  .G.84  -1.460464850353071e-08
    76O.SS  .G.84  0.016146048182305354
    GASV.S  .G123  1984918.5612228292
    GASVAS  .G123A  29869.431919359733
    GASVBS  .G123B  0.0725460341511762
    JP4..S  ....1  0.00023900193824044622  .G.23  1.6083199025770933e-07
    JP4O.S  .G125V  1.304033493411805e-07
    JP5..S  ..116  0.9167118989174545
    JP5V.S  ..116V  442.75511899182055
    STO.PS  ....1  0.14714330855696708  .OMB4  0.1100789051053952
    STMAXS  .OMB5  2.942264686091403e-11
    UNFL.S  ..109  0.04328169218148333
    UNDOPS  ....1  0.6762039017785879  .OMB10  0.0007959278708160224
    UNDL2S  ..107A  2.917123920752579
    UNDO.S  .OMB11  13.482106101700445
    DKDSLS  ..106A  0.20753499238234613
    ARC..S  ....1  39.088997053855465  .OMB6  15.683484853596655
    ARMAXS  .OMB7  17988436.612527683
    LUBE.S  .O.52  1649.4963109409362
    90N..S  .O.53  2.7180860427433653e-06
    NSFO.S  ...99  0.08119056632084921  ....1  0.0006665218881355961
    SMORGO  ....1  7.371522673876272  .O.12  -0.0002177931871172203
    SMORGO  .O.27  76.93916772946685
    PLMXSS  ....1  1495.7203226932866  .G.39  -11250.237165641152
    RMINSS  ....1  32043.0422168121  .G.42  -186.51076188075248
    GO...S  ...50  2992.146962428527
    TAR..S  ...51  2.7114801348543414
    LTCYCS  ...79  2604872719.442086
    HSCUTS  ...55  45.604375688669386
    CUTT.S  .O.36  0.0013993855555684206
    LSCUTS  ...56  48161225.342413165
    PFB..S  ...46  18.9777108122196
    STO..S  .OMB1  4.501216477061313
    SMGO.S  .O.27  0.00019469079345802595
    LGO..S  .OMB2  3.6051553400661814e-05
    ORD..S  .OMB3  1.295992731292581e-10
    IC4  ...33  0.05900360213796223
    C4  ...34  0.00460017593764812  ...53  -140753.79953640825
    C4  ...54  -1.9822604642970987e-05
    C4O..S  .O..3  -41.90987719681667  .O.31  15627331.57770466
    C4O..S  .O.26  -2658501.830961848
    IC5  ...35  51.15244658605916
    LTTH  ...36  0.0019445189977651848
    LWO..S  .G.99  12679098447.218628
    LOO..S  .G100  8.426817944175663e-09
    C5C6  ...39  3.832793364708986e-07
    C56O.S  .O.32  7.7452387372538185
    MOBASE  ...37  1.5925118484086795e-09
    AVBASE  ...38  0.0028734317635541844
    100PLT  ...41  1711077.934370103
    LSTP.S  .G102  296.36102111632596
    103REF  ...40  3353.6210140841413
    LUN..S  .G126  0.27689227488555496
    LTCAT  ...42  71415437.00755824
    HVYCAT  ...43  191.877626230617
    ALKY  ...44  1.0719909337365596e-06
    UTS  ..104  0.0002282698995202866
    WRESEX  .O.16  -2.057451542755125e-09  .O.24  -6.240496722593429e-09
    WRESEX  .O.25  8.476659396284143e-07
    TCC.3S  ...70  4.302358834337014e-12
    FCC.3S  ...75  1.0783297910057346e-09
    FCCG1S  ..124  4.6701378977424296e-08
    ALKY1S  ..118  725799.027491571
    ALKY2S  ..119  6.452067506374338e-08
    ALKY3S  ..120  0.0003456494156315568
    U90LMS  ...58  0.4585111349282558
    ABTR.S  ...38A  322928.34762858367
    U59..S  ...61  6.864862068875843e-06
    U79..S  ...62  2.1771154504567993e-07
    PLMAXS  .G.39  0.011308213097043922
    RMAX.S  .G.41  0.7647647531887164  .G.42  5.037713678732487e-07
    RMIN.S  .G.42  1.1018406907013481e-08
    U67..S  ..111B  563528.1496176214
    U135.S  ..112A  0.00018936494121263246
    U89..S  ...63  4.5901110039014215e-06
    CH2MCS  ...64  12644896417.349762
    UNLJ.S  .G.45  0.3074282675114867
    U70.1S  .O.28  2.5403988972499137e-06
    U70.2S  .O.29  4511.943688085215
    U67CPS  .O.18  20.166876402755683
    URCMXS  .O.40  2.59797542429339
    U220.S  .O.45  11237202109.623718
    201..S  .O.63  31112745.559716664
    200SCS  .O.63A  0.39751189136809745
    200GOS  .O.64  0.030089516634522494
    200CLS  .O.65  4.819552483387336e-12
    200CKS  .O.66  2.904790581846432e-06
    200FDS  .O.67  61439011.052468225
    200PDS  .O.67A  40830.673957564235
    SMNPHS  .SM10  207235557752.01587
    SMCL.S  .SM11  1.0499738919769079e-05
    SMCK.S  .SM12  1.209550155970624e-07
    SMPH.S  .SM22  0.008735285997596738
    SMTOTS  .SM22A  774330528.51567
    NITMXS  .O.72  38.852380132475666
    231MXS  .G105  0.04102671793837689
    OLGO  ....1  11.581061545885897  .O.24  0.007493178109794483
    OLGO  ...50  -18645.42116666997
    BAPI.S  ..102  201818168.11191064
    LACOST  ....1  1003.8885895627621  ...65  5471.147874766091
    OLCOST  ....1  0.00013875882705776844  .O..1  4.091530493924746
    SMCOST  ....1  0.009777017631493985  .SM.1  39.81889694639038
    THRLAR  ...54  42.35094273374744  ....1  -145773.3555302444
    TELCST  ....1  0.056242153430151036  .G.64  0.0036872599416330446
    SMTHRM  ....1  -78170.51886125814  .SM.3  114590355.08448565
    OLTHRM  ....1  -2.8193305432718538e-05  .O..3  0.0002693349612657862
    76T1LS  ....1  -0.00015824192167345201  .G.16  8.179512313352918e-07
    76T1LS  .G.57  2.1790581110530516e-09  .G.64  -5.702634930644034e-07
    76T1LS  .G.22A  -2.2930269638799654
    76T2LS  .G.58  0.27046775070665985
    76DALS  .G.18  4806147152.058436
    76WULS  .G.19  1.2362595477685607
    76VPLS  .G.20  0.00014312870831817483
    76SNLS  .G.21  0.6631280285875422
    76BNLS  .G.22  130.33726432903197
    UHCMXS  .G.22A  11527172957.01559
    RT1L.S  ....1  -0.9538930533214314  .G.10  4641.179624572537
    RT1L.S  .G.11A  -1316.9711548616317  .G.59  5.472947586884578e-05
    RT1L.S  .G.64  -0.003153202645272049
    RT2L.S  .G.60  3.4483994601204502e-06
    RDA.LS  .G.12  0.008389164853359013
    RWUFLS  .G.13  0.00013820640689897432
    RRVPLS  .G.14  3.1123526091881657
    RRBRNS  .G.15  0.00553783644495414
    JSVILS  .G.24  710798.592251577
    T1O76S  ....1  -0.5277161547425544  .G.84  5.32606943297447e-05
    T1O76S  .G.85A  -11486.620175411661  .G.90  0.11676872601833813
    T1O76S  .G.64  -0.0019017543174874884
    T2O76S  .G.91  4.612948183511987
    DAO76S  .G.86  3.205954567013248e-07
    WUO76S  .G.87  1.7558379407466872e-10
    VPO76S  .G.88  0.4552038771592256
    SEO76S  .G.89  242.2336286345985
    T1OR.S  ....1  -28.28094673280771  .G113  0.0388591513194525
    T1OR.S  .G.92A  -7.9048212043178125  .G.92C  -22.02977174652026
    T1OR.S  .G.96  12273.748026694695  .G.64  -0.1005090538947392
    T2OR.S  .G.97  9.928110638207008e-05
    DAOR.S  .G.93  2.018072192028025e-06
    WUOR.S  .G.94  2289.2914515335406
    VPOR.S  .G.95  7255.550194801026
    SVIO.S  .G125A  18571.07991637061
    30PPNS  .OMB9A  26.119940442652783
    30CETS  .OMB9B  287.5475686615983
    30SULS  .OMB9C  0.6723180299287137
    30DTS  .OMB9D  108255.34460967372
    UDPPNS  OMB10A  8110364.399231813
    UDCETS  OMB10B  263.79987720655345
    UDSULS  OMB10C  1079866.5437350555
    UNDHCS  OMB10D  0.5316314091925262
    UFPPNS  .O108A  5.819430848731625e-06
    UFCETS  .O108B  5.730840182221564e-09
    UFCTIS  .O108C  0.0008149199453519535
    UFDTS  .O108E  148439471.90818667
    UFBIS  .O108F  0.027976802608991193
    UFSULS  .O108D  0.0043533757865264365
    H2SLAR  ....1  -223.80452318469207  ..126  16015164204.862204
    H2LAR  ..127  116.1725484962336  ...54  -14.968435552795464
    H2PROD  .O.41  0.04228747913366668  .O..3  -1.0364046710346857
    EDABA  ....1  -4320580.280083519  .O..2  10103744523.305296
    EDABA  .OMB4  968392.9549094643  .ED.4  65.47118107551428
    EDPAVA  ....1  -0.9054590968942935  ..114  0.35696037584258467
    EDPAVA  ..108  0.0009524479593972683  .ED.2  3.366648763508966e-05
    FGLOSS  ...53  19027.008384991943
    OLLOSS  .O.26  3141724.333136765
    SMGAIN  .SM.7  7.6277791511677815e-06
    PP  ....1  -0.5789198972468242  ...82  3.1803944840034255e-05
    SMSULF  ....1  -0.0004752746755471696  .SM.8  0.29180958731611756
    SMCOKE  ....1  -0.9823029619354658  .SM.6  8.291572923251385e-06
    SMCOKE  .SM12  0.0007401118100126585
    SPONGE  .SM22B  1911417697.623699
    OLSULF  ....1  -34309.37187120956  .O.38  8.273830794649001
    OLCOKE  ....1  -0.002997822255867191  .O.62  4.590178210954906e-09
    OLCOKE  .O.66  3.4657221077736362e-06
    JP5B  ....1  -9603.873499540505  ..110A  0.7840654675649708
    JP5B  ..104  72867.51114053861  ..116  13851138.448164264
    JP5V  ....1  7.53157848945198e-06  ..116  -0.22293744580547373
    JP5V  ..116V  0.0003418760484999905
    BUNKER  ....1  -0.22522027495729188  ..100  10092.89998212648
    BNKFO1  ....1  -12980.907833899762  .O.36  0.005753086067206047
    BNKFO1  .O.37  5.119259976072707  .O.51  0.10008623856694289
    BNKFO2  ....1  -206830.8949569598  .G124  75369.77293097335
    BNKFO2  .O.37  110.11622095216723  .O.51  0.5980203742457804
    BNKFOX  ....1  -490.4183000219557  .O.36  0.0003644711544513823
    BNKFOX  .O.51  0.0115281012569043
    STOMAX  .OMB4  -4.4307789388074677e-05  .OMB5  6.714507972768417e-11
    STOVE  ....1  -1.994860626388438e-05  .OMB1  2.0884085312287968e-07
    STOVE  .OMB4  1.833376827128143e-05
    ARCMAX  .OMB6  -363.76834308120453  .OMB7  5755947.221427112
    ARC1  ....1  -0.49276087206284497  .OMB1  0.0007034693032609372
    ARC1  .OMB1A  1.408850418363466e-07  .G124  0.6430964181450779
    ARC1  .OMB6  0.25477835855682335
    SELCYC  ....1  -507926.3127934576  ...79  218680407563.51303
    SELCYC  ...79A  0.9040315885055652
    UFLV  ....1  3.2837044578865076  ..108  -0.48157929612233275
    UFLV  ..109  0.012155662386118383
    UNFLLA  ....1  -13992.083114875108  ..104A  0.010529152656733145
    UNFLLA  ..105  58796029.44377063  ..108  48.85812889625816
    UNFLLB  ....1  -2.1174330909155933e-05  ..111A  0.021323638248691736
    UNFLLB  ..104A  6.3735402574808386e-12  ..105  0.08897650002259776
    UNFLLB  ..108  7.393739590867188e-08
    UNFLLC  ....1  -0.9367453136119507  ..111C  0.0004583862847721982
    UNFLLC  ..104A  4.511412610241691e-07  ..105  3673.871213388544
    UNFLLC  ..108  0.003270965652481187
    DKDSL1  ....1  -13.258391776469256  ..105  36705.02901702899
    DKDSL1  ...79  2862499.8799963687  ..106  571216.6137619863
    DKDSL2  ....1  -0.005012315347419869  ..111A  3.695018258705356
    DKDSL2  ..105  10.792663608404489  ...79  1082.1638342259164
    DKDSL2  ..106  215.94759365474613
    DDSLV  ..106  -4.685209417832164  ..106A  0.008682220344003011
    UNDSL1  ....1  -6.626601769289578  ..105  25741.705145189633
    UNDSL1  ...79  884426.4633326199  ..107  0.0015283201950316361
    UNDSL2  ....1  -6.482285200656339e-05  ..111A  0.023210645251835815
    UNDSL2  ..105  0.2324408568956492  ...79  8.651650987840334
    UNDSL2  ..107  1.4950358761606842e-08
    UNDSLV  ....1  6.925945761269887e-06  ..107  -6.289601538481801e-08
    UNDSLV  ..107A  0.0009207282346974197
    ABASPH  ....1  -1.3276100959661661e-05  ...29  1.0611471005132487e-09
    ABASPH  ...65  -3.639633298550573e-06
    S76  ....1  -0.03465683241416935  ...65  0.006216358833574533
    S76  ...54  1.4481896926837647e-07  ..111B  1970.6367643379124
    S76  ..111C  -2.8660353644479054e-05  ...41  6.731950722441234
    S76  ...53  2084.0415507555745  .G.39  -0.08706977465277897
    S76  ..112  2.5349746662830106e-05  ..112A  5.000156994351988e-07
    S76  ...43  -1316.7868804472068  ..127  3.821798051776648e-06
    KERO  ....1  -5590.459628483927  ...65  -743.980057173209
    KERO  ..112A  0.06871389350491033  ...43  -91117297.92313151
    KERO  ...56  -15321.682748338462  ..104  59048.24520798709
    KERO  ...46  263517062.53212628  ..113  3.9220134318314686
    KERO  ...78C  -506.8508760485928
    CBTAR  ....1  0.00011724518530598908  ...10  5.571458596020984e-07
    CBTAR  ...31  -2.2529725382556084e-10  ...51  0.0008930454423105162
    CBTART  ...10  4.135760406676247e-06  ...51  0.006629183216596589
    CBTART  ...31A  1.5471715962007324e-09  ....1  0.0008703250448782536
    NSFO1  ....1  -1416.0319104257892  ...55  64.3226524504417
    NSFO1  ...56  5112.565572422633  ...55A  51175.42240279719
    NSFO1  ...51  2311.0268908100966  ...99  763230.5681441304
    NSFO1  ..100  2444032.2779595884  ..101  -0.2810868056289293
    NSFO1  ..102  -6308666.072105453
    NSFO2  ....1  -1.1252165243377266  ...55  0.08815686898974266
    NSFO2  ...56  7.00795092051106  ...51  1.6150025892185313
    NSFO2  ...99  606.4832584861825  ..100  1705.2522936113257
    NSFO2  ..101  -0.00019616343541763523  ..102  -4399.780575666878
    NSFO4  ....1  -371383.42452672846  ...79  69086865321.91779
    NSFO4  ...55  12226.686558993457  ...56  972134.5401240354
    NSFO4  ...51  533039.8009898847  ...99  200172877.47111312
    NSFO4  ..100  562827173.9576327  ..101  -64.74473742305537
    NSFO4  ..102  -1452169908.6485415
    UNDMAX  ....1  3.204978066235589e-06  .OMB10  -1.1095380104595444e-07
    UNDMAX  .OMB11  7.4572740373611e-08
    USDUF  ....1  -22562.17489875334  .G124  47225.95933487479
    USDUF  ..108  78.78352639367168  .O108A  -1.1798722088657618
    USDUF  .O108B  0.5482612666980652  .O108C  0.37979754326921206
    USDUF  .O108E  754616968.5675775  .O108F  -7.186086298341998
    USDUF  .O108D  -196873.79399350763
    WSOUF  ....1  -0.5157868989422983  .OMB1  0.006540761881220011
    WSOUF  ..108  0.0018010458188840615  .O108A  -2.564616757000326e-05
    WSOUF  .O108B  3.5322051477387796e-06  .O108E  14506.577400785418
    WSOUF  .O108F  -0.00022999045338407083  .O108D  -3.471946111894975
    ORSOUF  ....1  -2.926564895526118  .OMB1A  6.441514936560039e-06
    ORSOUF  ..108  0.010219099165932565  .O108A  -0.00016056922384098316
    ORSOUF  .O108B  4.65483802951673e-05  .O108C  2.167614387849052e-05
    ORSOUF  .O108E  75636.25278048073  .O108F  -0.0011806793503880636
    ORSOUF  .O108D  62.017747642497824
    LGOUF  ....1  -34810.19670145468  .OMB2  3595.0971895696425
    LGOUF  ..108  121.55167056831439  .O108A  0.5073171849712587
    LGOUF  .O108B  -0.184557474041319  .O108C  -0.3437708754464005
    LGOUF  .O108E  -926120399.3963138  .O108F  3.6956998262423006
    LGOUF  .O108D  -130177.71415520139
    HWDUF  ....1  -0.17513469248348734  .OMB2  0.012451371873739873
    HWDUF  .O.24  1.4396887433651761e-06  ..108  0.0006115424922303384
    HWDUF  .O108A  1.2161338538795871e-05  .O108B  -5.416442514740567e-07
    HWDUF  .O108C  -2.0047133685714248e-06  .O108E  -5591.320706700169
    HWDUF  .O108F  4.090581756514423e-05  .O108D  -0.21831375188046348
    HWDUF  ..123  0.1755587031041176
    ANUNFL  ....1  13.49808548204008  .O108B  -0.00425210521721654
    ORS2GO  .OMB1A  4.5525594068008095  .O.24  -54.566329130387665
    ORS2GO  ..123  -6664390.249056119
    ORD2GO  .OMB3  3.2931009088901665e-07  .O.24  -1.1484015190137003e-06
    ORD2GO  ..123  -0.14025858083706075
    PGERFO  .O.37  12.323858315709597  .O.69  2938619.383482876
    CUTTRF  .O.36  0.00022895836640904048  .O.69  12107.486209733821
    CUTPGE  .O.69  21.730880532645415  .O.36  7.681315990933178e-08
    CUTPGE  .O.37  7.290724188786244e-05
    LDFO1  ....1  -0.03851230477596203  .G124  0.03750315176309576
    LDFO1  .O.37  1.0146776612289575e-05  .O.51  9.18420418990099e-08
    LDFO1  .O.68  6.65715399568049e-08
    ALASK1  ....1  -0.00014450503021742146  .OMB1  1.0775025910789554e-06
    ALASK1  .G124  7.622252532222364e-05  .OMB8  2.5497450704786046e-10
    ALASK2  ....1  -3109.7850365732206  .OMB1  13.250360032705585
    ALASK2  .G124  3280.6562974345175  .OMB8  0.005487116299910479
    USD30  ....1  -0.004668598353826187  .G124  0.008208534464357277
    USD30  .OMB9  1.0619027966086983e-07  .OMB9A  -0.054913664762676805
    USD30  .OMB9B  0.006533173349351485  .OMB9C  -0.00021896468081559304
    USD30  .OMB9D  0.005089232882943104
    WSO30  ....1  -4.129319278974563e-05  .OMB1  4.398613287809235e-07
    WSO30  .OMB9  9.392402940037866e-10  .OMB9A  -0.0004163183845982278
    WSO30  .OMB9B  -5.6340506730877744e-05  .OMB9C  -1.7153773415357892e-06
    WSO30  .OMB9D  2.2506827388037343e-05
    ORSO30  ....1  -49806.70063422206  .OMB1A  0.09208670189269416
    ORSO30  .OMB9  1.132885519054907  .OMB9A  -669535.54163391
    ORSO30  .OMB9B  3484.9411380178653  .OMB9C  1668.580998943445
    ORSO30  .OMB9D  6786.777300376629
    ORD30  ....1  -111818.54743251708  .OMB3  0.7105643078057433
    ORD30  .OMB9  2.543384956943182  .OMB9A  563677.8593539291
    ORD30  .OMB9B  -54767.0766553973  .OMB9C  9739.725440930086
    ORD30  .OMB9D  -1127512.5669064128
    LGO30  ....1  -445.22502424366394  .OMB2  38.62451245461563
    LGO30  .OMB9  0.010126930237574347  .OMB9A  14214.416698060502
    LGO30  .OMB9B  -1464.1484016509194  .OMB9C  -14.915543616568563
    LGO30  .OMB9D  -3943.3810757447363
    AN30  ....1  0.00018220938133751735  .OMB9B  -0.010145146238863307
    USDUND  ....1  -0.00270953325299352  .G124  0.005671452676729022
    USDUND  .OMB10  4.745929170796858e-06  OMB10A  -3.409559243195727
    USDUND  OMB10B  1305.606352638032  OMB10C  -0.002296590560137551
    USDUND  OMB10D  3.102434254989115
    WSOUND  ....1  -0.011041833353412174  .OMB1  0.00014002294909949163
    WSOUND  .OMB10  1.934051148962292e-05  OMB10A  -13.652217598283263
    WSOUND  OMB10B  66.50724693569536  OMB10C  -0.007997706215120071
    WSOUND  OMB10D  14.61844020828391
    ORSUND  ....1  -1.0959092639434274  .OMB1A  2.412150813261576e-06
    ORSUND  .OMB10  0.0019195585581204396  OMB10A  -1403.0978384901127
    ORSUND  OMB10B  277237.3064817618  OMB10C  1.0977775760747577
    ORSUND  OMB10D  1333.250141653737
    ORDUND  ....1  -0.00026105652659097353  .OMB3  1.974898644516605e-09
    ORDUND  .OMB10  4.5725801054709184e-07  OMB10A  -0.27120532252253254
    ORDUND  OMB10B  40.882334335600454  OMB10C  0.0005833496721955118
    ORDUND  OMB10D  -0.2055016718881534
    HWDUND  ....1  -0.7520289789912908  .OMB2  0.053466234156504096
    HWDUND  .O.24  6.182028474114286e-06  ..123  0.7538496820718305
    HWDUND  .OMB10  0.0013172291813492944  OMB10A  -165.05593294536152
    HWDUND  OMB10B  -199303.55022946786  OMB10D  -215.2695914129689
    HWDUND  OMB10C  -0.28973501620170167
    ANUND  ....1  0.00010871466948205045  OMB10B  -875.3971297812642
    76TF  ....1  -1339365.5674627137  ..111A  1569524230.08186
    76TF  ..110B  97963800699.08728  ..104A  0.7036856761157133
    76TF  ..115  1277376.4048026996
    76TFA  ....1  -0.0033023162134804634  ..111A  3.482812231795448
    76TFA  ..111C  1.4102863108857953e-06  ..110B  241.5378259989282
    76TFA  ..104A  6.939980163393512e-10  ..115  0.0031494768230367924
    76TFB  ....1  -1490946.1923216628  ..111A  1310364528.985633
    76TFB  ..111C  1046.0450872211195  ..110B  112685725609.25278
    76TFB  ..115  1421941.5021322314
    76T.1L  ....1  -0.02451524020330777  .G.16  0.0001267190811304472
    76T.1L  .G.17  0.00012809299158013582  .G.21  -3.0729129759950697e-09
    76T.1L  .G.22A  -355.24155810103406  .G.57  3.375852141107679e-07
    76T.1L  .G.58  -24.694418079057627  .G.64  -5.980389831230173e-05
    76T.2L  .G.17  2.6434296198881882e-08  .G.58  0.004907392148415949
    76T.2L  .G.64  4.254116149489162e-09
    76KRLS  .G.17  0.0007219818559848235  .G.64  8.041991617693564e-05
    RT..1L  ....1  -2.9478811751058114  .G.10  14342.955950798567
    RT..1L  .G.11  0.3749640620267156  .G.11A  -4069.926352913446
    RT..1L  .G.11B  7.235286851507534e-05  .G.59  0.0001691342557484934
    RT..1L  .G.60  -0.0005220850594537747  .G.64  -0.0068260714062006065
    RT..2L  .G.11  0.9226925500710184  .G.11B  0.0001780422699559177
    RT..2L  .G.60  0.0011990724109410514  .G.64  0.005029033780267547
    RKRRLS  .G.11  1.2375833405244082e-06  .G.11B  2.3880343153267434e-10
    RKRRLS  .G.64  3.9614922229423006e-09
    RLKMAX  .G.11  0.0004789757882955713  .G.11A  12.130738795414853
    RLKMXS  .G.11A  0.09792730356769466
    RLRR.S  .G.11B  1.6065516550743097e-05
    T1.O76  ....1  -1.4957693611470081e-05  .G.84  1.5096319113200757e-09
    T1.O76  .G.85  1.1186310164044826e-11  .G.85A  -0.32557908957507137
    T1.O76  .G.90  3.3097164289694116e-06  .G.91  -7.619088909607163e-06
    T1.O76  .G.64  -3.648866502259382e-08
    T2.O76  .G.64  1.8489155990868604e-05  .G.85  1.7501842894329017e-08
    T2.O76  .G.91  0.01078535071473466
    KRO76S  .G.85  1.157829372294898e-09  .G.64  9.785158285065527e-07
    76OADJ  .G.85  5.943611694562907e-06  .G.87  -8.380386754827288e-05
    76OADJ  .G.85A  1095601.0058301683
    RT..1O  ....1  -13.306413787190024  .G113  0.018283544457011584
    RT..1O  .G.92  1819.0813811268379  .G.92A  -3.7192822026847305
    RT..1O  .G.92B  127.09296726854951  .G.92C  -10.365185482156736
    RT..1O  .G.96  5774.897548724756  .G.97  -4.2032728712297034e-05
    RT..1O  .G.64  -0.0341165890097864
    RT..2O  .G.92  317321.0112280708  .G.92B  21866.428609545434
    RT..2O  .G.97  0.007332199712471942  .G.64  1.7241623568200304
    KROR.S  .G.64  136.4920835440026  .G.92  35939818.95486498
    KROR.S  .G.92B  2394041.393485435
    ROADJ  .G.92  14.381575636154816  .G.92B  1.6722663387431056
    ROADJ  .G.92C  0.21852450808927204  .G.94  4.3681831788526315
    ROKMAX  .G.92  3.3278565934900675  .G.92A  0.01360822877928365
    ROKMXS  .G.92A  1088763.5508752943
    RORR.S  .G.92B  0.00483149871377618
    PASPH  ....1  -1615.7836909156947  ...65  -157.43969041806724
    PASPH  ...30  25615.490522779397  ...50  32399.248013216267
    PASPH  ...51  3116.8060036542493  ..123  -265.04109673459715
    EDMSTK  ...50  5.916858489149368e-05  ..104  1.0965326699514298e-05
    EDMSTK  ..105  0.015781215320749324  ...51  1.7685903264505944e-05
    EDMSTK  ...22  0.0035394136309476747  ..114  -5.160805526458718e-06
    EDMSTK  ..123  -4.840268707927594e-07
    MV6501  ....1  -126254.91074611642  ...79  11525910360.213118
    MV6501  ...55A  3998572.07587087  ...50  2005049.832972825
    MV6501  ...51  180577.74737358844  ...98  1703310.2603843594
    MV6501  ..100  190441044.17438027  ..101  -21.907164731400435
    MV6501  ..102  -491371975.8910718
    LC2CUT  ....1  64.00670661972046  ...79  768845094.703574
    LC2CUT  ...55  -104.32085222041484  ...56  -24867.78164786592
    CRR2B  ....1  1115.9814717259965  ...55A  2286738.610503295
    CRR2B  ..100  -482606073.0960667  ..101  -108.9276879954877
    CRR2B  ..102  -7288022858.751224
    TAR2B  ...51  0.00042700579759450216  ..100  -4.061225593742791
    TAR2B  ..101  5.200214881791832e-07  ..102  -5.667216795997237
    HSC2B  ...55  0.9424698446568444  ..100  -166745.14915310446
    HSC2B  ..101  -0.02496976545682926  ..102  -1083732.2007295548
    LSC2B  ...56  65.76561252715189  ..100  -97592.94177358151
    LSC2B  ..101  -0.02096842292545402  ..102  -1940178.1112775742
    LCY2B  ...79  12556381066.773422  ..100  -904100928.893806
    LCY2B  ..101  -174.63009321093745  ..102  -14517306751.467602
    FLDLPG  ....1  14134.67616645705  ...65  -1372.7738436694688
    FLDLPG  ...33  -299907358.695305  ...34  -254.48402420252657
    FLDLPG  ...12  37414567.30368213
    U27D1  ...20  -374932.758627783  ...21  -2350169.9490672774
    U27D1  ...47  -75677800.36611803  ...50  9132532.347097632
    U27D1  ....3A  -8.622704065485518  ....5A  -0.08692435985634174
    U27D1  ....3B  -0.593571731583843  ....5B  -782.8974937589059
    U27D1  ....3C  -0.9396248408400665  ...50A  554384697.9920936
    BUGGER  .G.16  -0.12319524934897946  .RHSC  172.0015102427255
    BUGGER  ..100  -181600.17078349594  ...53  -8419428.70837938
    C4OJP4  ....1  -128.88836930097654  .G125  4816.012662980823
    C4OJP4  .G125A  -9909525.514351612  .G125B  1642.680335883995
    C4OJP4  .O.31  130413762.43840936
    LWOJP4  ....1  -4.317855928325971e-06  .G125  0.00016133999476077737
    LWOJP4  .G125A  -0.17575223906589005  .G125B  4.484008150630565e-06
    LWOJP4  .G.99  0.044677190188789594
    LOOJP4  ....1  -14718.611652362766  .G125  549972.2006238394
    LOOJP4  .G125A  -599100339.7945626  .G125B  23622.253668189493
    LOOJP4  .G100  0.24178062413730173
    LUOJP4  ....1  -3755.611536959837  .G125  140331.30233030583
    LUOJP4  .G125A  -152866873.66113293  .G125B  -141.8228526705511
    LUOJP4  .G102  159910.93076289768  .O.26  85009654.19403951
    LUOJP4  .G105  -3757589.9090049565  .G126  0.0042373970642941294
    LUOJP4  .O.41  37.827781763425584  .O..1  4426802.770266724
    LUOJP4  .O..3  1545.1732805106078
    UNOJP4  ....1  -4.277094542541262  .G125  159.8169143527896
    UNOJP4  .G125A  -125733.90867210017  .G125B  -1.4536401565383756
    UNOJP4  .G102  186.2042030479076  .O.26  82457.22310180267
    UNOJP4  .G105  -4279.347620154328  .O.41  0.04732309403513504
    UNOJP4  .O..1  5041.48359948358  .O..3  1.7597273147963426
    UDOJP4  ....1  -10.420630400352946  .G125  389.37483837001633
    UDOJP4  .G125A  919006.9880605508  .G125B  -4.918917716393622
    UDOJP4  .G124  18.601024958153026
    SOOJP4  ....1  -321.4327274920955  .G125  12010.580119013634
    SOOJP4  .G125A  23986354.47541953  .G125B  -151.7279739463785
    SOOJP4  .OMB1  3.4760913502971746
    LLUOJ4  ....1  -2.359014444237601e-05  ..127  2.5913949112142518e-09
    LLUOJ4  .G125  0.0009132178413756777  .G125A  -0.8842614524944815
    LLUOJ4  .G125B  -2.30731057901633e-06  ...33  0.009855334502654313
    LLUOJ4  ...34  1.8583703054971555e-09  ...53  3.5040869550415277
    LLUOJ4  ...40  0.012628284540859252  .G.41  -0.05481113712264965
    LLUOJ4  .G.45  0.0014027029345342883  ...65  7.56922305260569e-06
    LLUOJ4  ...54  4.139161630138233e-11
    LMBOJ4  ....1  -2639.8926565143483  .G125  102195.09588567486
    LMBOJ4  .G125A  -160801363.29577026  .G125B  826.2504394540567
    LMBOJ4  ...37  98.72323410041328
    HCOJP4  ....1  -0.00404062645515895  .G125  0.15642007526487434
    HCOJP4  .G125A  113.59522067428077  .G125B  -0.0007904131480512871
    HCOJP4  ...43  398.8410325419657
    JP4OLV  .G125  -0.0011517815373418645  ....1  -6.258784331785329e-07
    JP4OLV  .G125V  2.0272478879563525e-10
    C4.JP4  ....1  -0.006056125803697288  .G.23  8.274841171832897e-08
    C4.JP4  .G.24  -0.0722739496419995  .G.25  49.93292044141928
    C4.JP4  ...34  0.00014390526073718567
    MB.JP4  ....1  -0.0011431587550688605  .G.23  1.561965097655338e-08
    MB.JP4  .G.24  -0.007837171556913223  .G.25  0.26227129709620256
    MB.JP4  ...37  4.126385099701067e-05
    AB.JP4  ....1  -2974.6735981699744  .G.23  0.04064471637605957
    AB.JP4  .G.24  -20393.516833341426  .G.25  810433.0704200051
    AB.JP4  ...38  8040.834262738144
    UNLJP4  ..127  213.67339780863048  ....1  -2015196.2719463492
    UNLJP4  .G.23  27.53481288358541  .G.24  -8698719.266830815
    UNLJP4  .G.25  -144481283.166944  ...33  812621341.7375469
    UNLJP4  ...34  153.23187363063002  ...40  1041264862.6662773
    UNLJP4  ...53  288929395770.7851  .G.41  -4519450839.418204
    UNLJP4  .G.45  115659832.79547238  ...54  3.412944610500639
    UNLJP4  ...65  624120.0835205134
    UNHJP4  ..127  0.0002793191752150601  ....1  -3.333354998712182
    UNHJP4  .G.23  4.554559148497054e-05  .G.24  -5.924731188396387
    UNHJP4  .G.25  -716.9635248477249  ...41  491.99759430173617
    UNHJP4  ...53  169647.34829879997  .G.39  -6.36350851420067
    UNHJP4  ...65  0.9346134572266962  ...54  1.0585094243778256e-05
    HC.JP4  ....1  -0.1535401457799195  .G.23  2.097909391269985e-06
    HC.JP4  .G.24  0.42884828382778384  .G.25  -22.016393726747634
    HC.JP4  ...43  14628.614022234413
    TBSJP4  ....1  -2.206064422083879  .G.23  3.0142756771054497e-05
    TBSJP4  .G.24  10.082767165867832  .G.25  -474.4972331808293
    TBSJP4  ..104  22.887415667171464
    ORROLC  ....1  115.72760813053597  .ORC2  138726.53389165687
    ORROLC  .O.11  -1376.850289991276  .O.12  -0.00546768732534051
    ORROLC  .O..9  8270.170382667602
    23B33  ...65  -1.2106760243725995e-05  ...54  -3.3419758343472394e-10
    23B33  ...33  -0.009711957799203178  ...34  -1.8313344897040028e-09
    23B33  ...40  -0.017877438365268845  ...53  -4.265909814615021
    23B33  ...62  1.4319018005508e-10  .G.41  0.07514954780638615
    23B33  ..126  -0.2081375684250944  ..127  -3.879634307622307e-09
    23B33  ...19B  -4.997613990698711e-10  ...19  9.482988285855666e-08
    ABTRAN  ...38  -8830.089424173197  ...19  9.244649885602257
    ABTRAN  ...38A  685235333.3367287
    34B33  ...65  -0.005846379111882181  ...54  -9.17489943006975e-08
    34B33  ...41  -2.5397331654729944  ...46  -65.63463742644947
    34B33  ...53  -992.1105552513536  ...61  0.002877541080915524
    34B33  .G.39  0.03315454059744144  ..126  -385.2674711253631
    34B33  ..127  -1.6363914427520215e-06  ...22B  -0.029251357787851675
    34B33  ...22A  -6.347989729174162e-09  ...22  474.7666171984431
    24K26  ...65  -6.784136732467473e-06  ...54  -1.5890667584349618e-10
    24K26  ...33  -0.007430316555372506  ...34  -1.401097004188871e-09
    24K26  ...39  -1.298597498421964e-08  ...40  -0.004875828524083196
    24K26  ...41  -0.0011931500653134457  ...46  -0.20668334312086753
    24K26  ...53  -2.829422645805627  ...61  1.5831754137213839e-06
    24K26  ...62  4.832344140342883e-11  .G.39  1.6482660326583973e-05
    24K26  .G.41  0.023472162055973682  ..126  -0.13080393560072842
    24K26  ..127  -1.5270178994937745e-09  ...20C  -8.978532483673804e-09
    24K26  ...20D  -0.0006193713501687405  ...19B  -3.1407476485049513e-10
    24K26  ...22B  -3.475942176480429e-05  ...20A  -0.0010818180905855304
    24K26  ...21  0.008369058483957909
    24B26  ...65  -162.94997771830913  ...54  -0.0038168215513796656
    24B26  ...33  -76487.46089915313  ...34  -0.014422851506417988
    24B26  ...39  -0.31191357394111247  ...40  -133655.31684012435
    24B26  ...41  -30344.386826829643  ...46  -4964381.981735432
    24B26  ...53  -44203844.13891552  ...61  38.026709744136376
    24B26  ...62  0.0011606935429641268  .G.39  395.9013856695133
    24B26  .G.41  563784.0796629008  ..126  -6807264.505857904
    24B26  ..127  -0.0518033042912473  ...20C  -0.21565775069890603
    24B26  ...20D  -14876.84456982445  ...19B  -0.007543844994948552
    24B26  ...22B  -834.8957613087621  ...20A  -25984.475358895063
    24B26  ...20  13098.756938922606
    MB90BP  ...37  4.397817192425468e-07  ...20  -0.0003155120444825667
    MB90BP  ....5A  7.314826955635469e-10
    MB90K  ...37  0.00022458862698999233  ...21  -2.472707593580306
    MB90K  ....3A  9.072291060645954e-05
    2490BP  ...20  -0.03843195189914045  ...47  0.7868063641388845
    2490BP  ....5B  1.6049959962004934
    2490K  ...21  -0.6177521784352886  ...47  0.8241067572663432
    2490K  ....3B  0.00312045714301684
    DD90PT  ...47  -0.0003864079170496773  ...50  4.0801561838329845e-05
    DD90PT  ..123  2.225173187909414e-07  ....3C  2.398844018989879e-10
    2390PT  ...19  -0.41336769577585436  ...22  3913160.607033783
    2390PT  ....6B  0.8691231267269803
    3490PT  ...22  57674436.485467225  ...48  -938773739.5784152
    3490PT  ....6C  0.17725247440367597
    LD90PT  ...48  -552.9705050026641  ...49  22.20353829590916
    LD90PT  ....6D  26667290.445078153
    HD90PT  ...49  119.47636149343315  ...50  -0.38199182713589713
    HD90PT  ..123  -0.002083248614627345  ....6E  0.0001380809707361123
    CMC90  ...43  -3.7123195197386405  ...56  0.0005763869626438311
    CMC90  ...78A  29.319324076119454
    CHC90  ...43  -1.0140818545737371  ...56  0.00015744969066432368
    CHC90  ...78B  0.0006415108095887808
    UHCEP  ...43  -0.15081883288420875  ...56  2.3416629019513055e-05
    UHCEP  ...78C  8.392414635941147e-06
    F190PT  ...78  105366.50776339874  ...79  -650919679.0867544
    F190PT  ...68A  2.114340409112309
    LC90PT  ...42  -1593081.5789905838  ...77  886.2094385515336
    LC90PT  ...68B  61091394.46774029
    MC90PT  ...77  35.424039470043496  ...78  -54.09465931406928
    MC90PT  ...68C  0.006587303804898005
    LCYCEP  ...79  -128753868.9843852  ...80  7308.610191813657
    LCYCEP  ...68D  23.524000499776726
    R3490P  ...65  -1.564775159418577e-08  ...41  -8.286317896408663e-06
    R3490P  ...46  0.010474334803664206  ...53  -0.0031633653230077126
    R3490P  .G.39  1.0797924727499266e-07  ...54  -1.8421872812529724e-13
    R3490P  ...22A  3.1170675616374517e-12
    R2490P  ...65  0.003032803614201083  ...40  5.531336388270141
    R2490P  ...46  -1914.1003074632147  ...53  1366.3697975099583
    R2490P  ...61  0.0016783523102083472  ...62  -4.416911064024347e-08
    R2490P  .G.41  -23.18097994113652  ...54  4.420589406537096e-08
    R2490P  ...20A  32181.43311397473
    RLC90P  ...65  -0.0032154693714422414  ...33  42.45408329358943
    RLC90P  ...39  0.00018697659810191543  ...40  3.9663209078103376
    RLC90P  ...41  -3.0476977288274467  ...61  0.003282233536694939
    RLC90P  ...62  -8.637836963527623e-08  .G.39  0.03858912089638071
    RLC90P  .G.41  -18.133353602452132  ...54  7.607626782637834e-08
    RLC90P  ...77A  0.0021555896860492624
    RMC90P  ...65  2.9259861317692614e-07  ...54  -1.8545823154675478e-11
    RMC90P  ...40  -0.0016350949917522495  ...41  0.0006714350500155728
    RMC90P  ...53  -0.055925557736130865  .G.39  -8.443563278151602e-06
    RMC90P  .G.41  0.006900350692713011  ...39  -2.075234051579962e-08
    RMC90P  ...33  -0.009693123604796443  ...34  -1.82778302145054e-09
    RMC90P  ...77B  2.618595345275202e-07  ...61  -7.181751207852556e-07
    RMC90P  ...62  1.890017737997833e-11
    79OUPS  ...20C  1.0428209176420907e-05
    79ODNS  ...20D  1402139.8988772235
    79OUP  ...65  -1.0865334951483974e-08  ...33  -0.00015629135418061723
    79OUP  ...40  -0.00021632143882749187  ...41  6.0364150724265446e-05
    79OUP  ...53  -0.032462654382349715  ...61  -6.712935278013771e-08
    79OUP  ...62  1.7666396930604899e-12  .G.39  -7.892377800566267e-07
    79OUP  .G.41  0.0009271737350930064  ...54  -1.9546466289030954e-12
    79OUP  ...34  -2.947106580065571e-11  ...20C  7.050659859810024e-10
    79ODN  ....1  0.10204893907706587  ...65  10.567080846629775
    79ODN  ...33  152001.14700838237  ...40  210383.40218284575
    79ODN  ...41  -58707.15111772402  ...53  31571552.54635187
    79ODN  ...61  65.28664796594813  ...62  -0.0017181453261029677
    79ODN  .G.39  767.5731550212287  .G.41  -901722.7597075931
    79ODN  ...54  0.0019009914601289244  ...20D  47302.863227952264
    79ODN  ...34  0.02866208325306538
    79DH90  ...65  326.05633832591514  ...40  604606.0997569618
    79DH90  ...53  100812522.12373224  .G.41  -2384085.9551660856
    79DH90  ...39  -16.388521441477145  ...54  0.0018482217280407843
    79DH90  ...19B  0.6893351279205727
    60OH90  ...65  7.664066816496458e-07  ...41  0.0003793268079222353
    60OH90  ...46  -0.5029601989082215  .G.39  -5.184984507884119e-06
    60OH90  ...54  8.688617978189005e-12  ...53  0.23696331421213226
    60OH90  ...22B  0.00011955479542835369
    U2490  ...20  -169561.8870859019  ..104  -133721.4618071272
    U2490  ..105  88435045.51635177  ...50  51952.11337271027
    U2490  ..123  1699.9709499882765  ...47A  9421045556.193106
    UDD90  ...20  7394.854682423698  ..104  19660.583616141805
    UDD90  ..105  11907309.07631044  ...50  -261586.69906035968
    UDD90  ..123  -8559.609233135192  ...47B  99.02942769984794
    U3490  ...20  -0.03794948747125194  ..104  -0.021069365072523626
    U3490  ..105  15.051170509961876  ...50  0.0193789232299976
    U3490  ..123  0.0006341148491247657  ...48A  0.00303729218299061
    UHD90  ..104  -1067452.6551588166  ..105  -2130294115.1005323
    UHD90  ...50  30719699.053909574  ..123  1005206.3832202144
    UHD90  ...49A  37888231.68080694
    UTS90  ..104  -0.032224664120746815  ..105  14.84079778564865
    UTS90  ...47C  0.0029184005853495104
    UDS90  ..105  -0.6412916561030533  ...50  0.007513743203377224
    UDS90  ..123  0.00024586382231993456  ...47D  7.604666841339066e-09
    KUWAIT  ....1  4.536082478742362e-05  ...65  -3.875743253699955e-06
    KUWAIT  ...54  -5.2664748683407565e-11  ...33  -0.016499295762355138
    KUWAIT  ...34  -2.800069461701781e-08  ...35  -0.5038198616375105
    KUWAIT  ...39  -1.8166581123589742e-08  ...37  -1.8195686783193473e-07
    KUWAIT  ...21  -0.0028879236572690865  ...47  -0.009718292148191199
    KUWAIT  ...50  -0.000769629995695199  ...51  -3.777467666679441e-05
    KUWAIT  ...53  -0.8091534804224737  ..123  -4.197290382700448e-06
    KUWAIT  ..126  -0.25075950950710807  ....3A  -9.54568155258009e-09
    KUWAIT  ....3B  -6.571078730386503e-10  ....3C  -3.0165876481624524e-10
    KUWAIT  ....3  1.0732684988307917e-09
    B25&26  ....1  28331.827360406274  ...65  -2420.742772462343
    B25&26  ...54  -0.01231111884492406  ...33  -13740349.778264511
    B25&26  ...34  -18.460503629621325  ...35  -314679845.6057893
    B25&26  ...39  -3.7822095941037617  ...37  -113.64807828370701
    B25&26  ...20  -127066.59358038606  ...47  -6069928.769392275
    B25&26  ...50  -574552.9468880355  ...51  -19724.25811860822
    B25&26  ...53  -505387563.4500665  ..123  -3133.40900408515
    B25&26  ..126  -50796124.35999005  ....5A  -0.02454925150340131
    B25&26  ....5B  -221.10657481324824  ....3C  -0.18841244811088192
    B25&26  ....5  27.770917004933914
    WILM26  ....1  391351.1772840468  ...65  -42289.19581535453
    WILM26  ...37  -959.6173305141472  ...20  -1204799.8406745219
    WILM26  ...47  -91614798.61765438  ...50  -11645748.115388716
    WILM26  ...51  -460195.4981135365  ...53  -8214691733.343377
    WILM26  ..123  63511.800264384925  ..126  -1238478742.9789615
    WILM26  ....5A  -0.3990294735550673  ....5B  -3593.9197630962603
    WILM26  ....3C  -3.0625015174287546  ...11  165.56756309710215
    B33UP6  ....1  0.004215982764668681  ...65  -0.0005723188202404662
    B33UP6  ...54  -1.8319843688064656e-09  ...33  -2.0446643666422375
    B33UP6  ...34  -2.7470577220286675e-06  ...35  -46.82665853444565
    B33UP6  ...39  -5.628204018844948e-07  ...38  -0.0012993354409666345
    B33UP6  ...38A  -38.29041690036695  ...19  -1.411995823026379e-06
    B33UP6  ...22  -9.454502741237704  ...48  -382.0768839999076
    B33UP6  ...49  -11.39966974650168  ...50  -0.08788207062928761
    B33UP6  ...51  -0.0029351136167849396  ...53  -75.2053593253586
    B33UP6  ..123  -2.8793821217389772e-05  ..126  -4.9132422119523715
    B33UP6  ....6B  -3.799588268116634e-07  ....6C  -2.504895713292851e-09
    B33UP6  ....6D  -639.7866880505178  ....6E  -2.5859674962754286e-06
    B33UP6  ....6  4.351951843513494e-09
    B33UP7  ...65  -0.025085785581630937  ...38  0.19608879402917676
    B33UP7  ...19  0.00010264744558118967  ...22  971.7158466073298
    B33UP7  ...48  47450.20713069453  ...49  2540.370554170569
    B33UP7  ...50  -22.33581721116236  ..123  0.4318777193394149
    B33UP7  ....7  9.328695911961645e-06
    B33DN6  ...65  7.549259622323735e-06  ...50  0.0040598005260405684
    B33DN6  ...52  -1.7542901003730885e-06  ...51  0.0003606428309349202
    B33DN6  ..123  -3.3211078957961e-05  ....8  56.51604249395427
    MN61  ....1  125411.40744040391  ...65  -7168.81665227314
    MN61  ...54  -0.0329377199991082  ...34  -76.49035320312153
    MN61  ...35  -3334881043.2046885  ...39  -62.03275604598797
    MN61  ...37  -639.0734612993498  ...21  -46310734.22694328
    MN61  ...47  -5631916.736014047  ...53  -2340412190.1314926
    MN61  ....3A  -58.67151754244796  ....3B  -5.815934973169103
    MN61  ...10  595.9515200554988
    4CORN  ....1  17784.933352922297  ...65  -1189.697000423881
    4CORN  ...54  -0.021925560231994747  ...33  -4584722.726373832
    4CORN  ...34  -10.374214173657592  ...35  -167998033.58285627
    4CORN  ...39  -7.067224804771047  ...37  -88.25202186225154
    4CORN  ...20  -36971.16702498899  ...21  -751293.334311747
    4CORN  ...47  -4166422.7506010844  ...50  -268852.627844351
    4CORN  ...51  -4030.6923215761913  ...53  -269811104.9768488
    4CORN  ..123  -11729.818801519212  ..126  -2259875.9568052543
    4CORN  ....3A  -1.8143067308874379  ....5A  -0.005635623620387988
    4CORN  ....3B  -0.1248936736896397  ....5B  -50.758102969778186
    4CORN  ....3C  -0.10058769643866183  ...14  0.04099988604646982
    GACH  ....1  103.46523353440236  ...65  -8.681331706486322
    GACH  ...54  -0.00011796450967770802  ...33  -36957.004130676054
    GACH  ...34  -0.052265957364070234  ...35  -1215321.8847908727
    GACH  ...39  -0.03164900667455002  ...37  -0.4075677418555354
    GACH  ...20  -111.26420481636855  ...21  -5110.856341973088
    GACH  ...47  -21768.13897010546  ...50  -1723.905028413142
    GACH  ...51  -84.61202839910788  ...53  -1812434.2365298467
    GACH  ..123  -9.40156963335539  ..126  -379513.3408960257
    GACH  ....3A  -0.01603612955592283  ....5A  -2.200979363352619e-05
    GACH  ....3B  -0.0011038988600469838  ....5B  -0.19823456051118934
    GACH  ....3C  -0.0006756897008177075  ....4  3402798.9955912144
    SMT  ....1  435150.6117378412  ...65  -33985.17789643715
    SMT  ...54  -0.1566341472678034  ...33  -32150478.55598174
    SMT  ...34  -54.56207009095541  ...35  -1359334912.2163332
    SMT  ...39  -23.599563895006888  ...37  -2762.8099514868845
    SMT  ...20  -198211.92609182818  ...50  -7567051.236484783
    SMT  ...29  -35.52993415148685  ...53  -6121360471.109999
    SMT  ..123  -453948.2961129988  ...15  757058.3577282503
    HVAROM  ...56  -21371.557006033414  ...43  -24290681.347574003
    HVAROM  ...41  269752.6177548258  ...41A  0.0016927132617110012
    HVAROM  ...78C  -432.4482876189972  ...65  -126.72219408071545
    TCC.1S  ...65  -117.13605701759772  ...54  -0.024415326030401367
    TCC.1S  ...82  -0.0009108689559550105  ...76  -497.5826752444771
    TCC.1S  ...42  -11104285.036771648  ...77  -11885.171507987305
    TCC.1S  ...78  -4119.431325248148  ...79  284728075.2096389
    TCC.1S  ...80  -1046.7850397154102  ...81  -1652668.4676844159
    TCC.1S  ...53  -52773338.09509175  ..126  -107704901.77818093
    TCC.1S  ...68  33275.00630612095  ...70  0.007875137092327854
    TCCTRT  ...65  -0.0025196585993707936  ...54  -1.1399926355515712e-07
    TCCTRT  ...82  -1.5956352116040692e-08  ...76  -0.004729025056294008
    TCCTRT  ...42  -68.41186412956709  ...77  -0.059837828616323654
    TCCTRT  ...78  -0.02183928651400583  ...79  -1277.6180114600015
    TCCTRT  ...80  -0.007268985252747195  ...81  -40.22561449824627
    TCCTRT  ...53  -39.731385439317165  ...50  0.59985217638869
    TCCTRT  ..123  0.009814146219927095  ..126  -610.0984548791241
    TCCTRT  ...66  1.0525014515686838e-08
    TCCCRK  ...65  -122508.55435740208  ...54  -2.0514249188347122
    TCCCRK  ...82  -0.37701135581330003  ...76  -157141.7587997619
    TCCCRK  ...42  -2663428969.7061086  ...77  -2375657.433183947
    TCCCRK  ...78  -1342096.093445904  ...79  -89120618820.47739
    TCCCRK  ...80  -353426.00588099984  ...81  -711722464.2771082
    TCCCRK  ...53  -1856027164.1574202  ...50  29165468.28045311
    TCCCRK  ..123  477174.5132279715  ..126  -29663653536.868355
    TCCCRK  ...67  4.457182361285933
    TCC.1  ...65  -0.4611740409466652  ...54  -2.2087562059684582e-05
    TCC.1  ...82  -1.7728859740943537e-06  ...76  -0.8790257810824426
    TCC.1  ...42  -14242.802550783645  ...77  -11.193853690415166
    TCC.1  ...78  -8.39358090672328  ...79  -208413.66876788897
    TCC.1  ...80  -1.0749192576459732  ...81  -1697.0868850984093
    TCC.1  ...53  -58442.04648469655  ...50  102.27122186964145
    TCC.1  ..123  1.6732534531455794  ..126  -97209.69048769132
    TCC.1  ...68  25.12450848781773  ...68A  -1.809130618734327e-05
    TCC.1  ...68B  -20349.557255670123  ...68C  -0.00027721216583647594
    TCC.3  ...65  -0.008772685037842847  ...54  -1.2686599240223693e-07
    TCC.3  ...82  -2.630990305732106e-08  ...76  -0.005098771807800238
    TCC.3  ...42  -58.768611422041396  ...77  0.03540240465218957
    TCC.3  ...78  -0.12726467867786145  ...79  -14704.485281126903
    TCC.3  ...80  -0.0006349509086581068  ...81  -1.0024630706912963
    TCC.3  ...53  -148.6218039609673  ...50  2.9342602286360875
    TCC.3  ..123  0.048007259229299395  ..126  153.55998443189546
    TCC.3  ...70  5.6867151994719204e-08  ...68A  -5.190570647260171e-07
    TCC.3  ...68B  -583.8484710955679  ...68C  -7.953485039465428e-06
    FCC.1S  ...65  0.0003182584329236444  ...82  -1.6842587160317752e-08
    FCC.1S  ...76  -0.0050071523505882485  ...42  -40.099792754330515
    FCC.1S  ...77  -0.04461392974660484  ...78  -0.034064089900663244
    FCC.1S  ...79  941.1199527584492  ...80  0.01725428469509886
    FCC.1S  ...53  -111.52170880928114  ..126  -258.03967316858547
    FCC.1S  ...73  2.7647282265860422  ...75  2.445916202147146e-07
    FCC.1  ...65  -56054.7270665844  ...54  -36.564320708587864
    FCC.1  ...82  -4.40048967000325  ...76  -851174.5401653127
    FCC.1  ...42  -12567907993.959923  ...77  -15795038.294035079
    FCC.1  ...78  -9019742.234077493  ...79  -134841088581.28204
    FCC.1  ...80  -6906795.627662948  ...53  -59522038682.34829
    FCC.1  ...50  114577281.07435173  ..124  -17987.236313517038
    FCC.1  ..126  -138358132096.2544  ...73  383657927.8920466
    FCC.1  ...68A  -20.26819115030737  ...68B  -22798172338.19173
    FCC.1  ...68C  -310.56846355821347  ...68D  -1.0317321265320956
    FCC.3  ...65  -0.0002923321722434364  ...54  -9.322492614377762e-08
    FCC.3  ...82  -4.1691334100517825e-09  ...76  -0.00037475411994007863
    FCC.3  ...42  -15.551773016612984  ...77  -0.017336204199834216
    FCC.3  ...78  -0.008987577182373554  ...79  -754.880554612397
    FCC.3  ...80  -0.026513837104473283  ...53  -48.56264294857879
    FCC.3  ...50  0.29212790936390987  ..124  -4.586052042980951e-05
    FCC.3  ..126  -233.37256210411132  ...68A  -5.1676076197734055e-08
    FCC.3  ...68B  -58.126553187732405  ...68C  -7.918298909078547e-07
    FCC.3  ...68D  -2.630519299474547e-09  ...75  8.653819703457462e-08
    CATC4  ...76  1915.4419202989761  ...53  -3839548.0506284046
    CATC4  ...32  -18.96092071362455  ...33  -2131993.5044271024
    CATC4  ...34  -0.8574859803629535  ...35  -10594668.77567519
    CATC4  ...54  -0.0004796277821247969
    MCAT  ...65  -6.002909607649247  ...54  -0.00014670741486777917
    MCAT  ...33  -2903.7471190391657  ...34  -0.0005475448265344971
    MCAT  ...39  -0.041444878137634734  ...40  -4358.157258841634
    MCAT  ...41  -1310.459397419831  ...53  -1091769.2850656044
    MCAT  ...61  1.4031006320231294  ...62  4.51309546247673e-05
    MCAT  .G.39  16.496211897660913  .G.41  18517.971975851062
    MCAT  ..126  -974078.3741018136  ..127  0.00011358164621922116
    MCAT  ...20C  -0.008187166431319576  ...20D  -564.7800835875245
    MCAT  ...19B  -0.00028639227806818757  ...22B  -31.69573330189042
    MCAT  ...77A  -0.020477310933170918  ...77B  -0.06537055717527494
    MCAT  ...77  620.5727098887338
    CHCAT  ...65  -0.015863354616525556  ...54  -7.807527906296661e-07
    CHCAT  ...43  -14190.210137602633  ...56  -0.9442366242993985
    CHCAT  ..126  -16079.538673365483  ..127  1.048768937318002e-05
    CHCAT  ...78A  -12007.722843603862  ...78B  -0.5129579264266647
    CHCAT  ...78C  -0.054134799271545735  ...78  10.50030425023873
    CHCAT  ...63  1.1400482427400149e-07
    CHC2MC  ..127  -1.780322194122259e-08  ...54  -2.103199229556496e-09
    CHC2MC  ...65  -0.00010475010052054404  ...41  -0.06050731795931294
    CHC2MC  ...53  -14.588925514658763  ...43  38.235525857155714
    CHC2MC  ...61  6.516366316220237e-05  .G.39  0.0007661272263854065
    CHC2MC  ...63  -2.1503022540678605e-10  ...64  56.23471853140479
    SRRESD  ...81  9.37345389879107  ...50  -0.019205602329916048
    SRRESD  ..123  0.00041896230866371253
    SLURRY  ...79  -123.76491835295678  ...80  0.008302764844964755
    SLURRY  ...81  -2.0166828958359924  ...80A  23.226789100320488
    CATRES  ...80  62.89227446660697  ..100  -79776.54396644868
    CATRES  ..101  -0.003462720017171723  ..102  -60999.32953228891
    FCCG1  ...65  -2.3806522520515668e-07  ...76  -9.550960031517963e-05
    FCCG1  ...42  -0.4899288283289332  ...77  -0.0004060300067273367
    FCCG1  ...78  -9.342955110437216e-05  ...79  -8.395303001338151
    FCCG1  ...80  0.00119138161755716  ...82  -1.5118409030765909e-10
    FCCG1  ...53  -0.1251315188055759  ..123  0.0005254536973204007
    FCCG1  ..124  1.0083750484586714e-05
    FCCG2  ...65  -40.87950399021385  ...76  -16400.484715159244
    FCCG2  ...42  -84128404.20239419  ...77  -69721.67088180498
    FCCG2  ...78  -16043.307895488215  ...79  955062765.8378409
    FCCG2  ...80  68022.43912070399  ...82  -0.025960661065314337
    FCCG2  ..123  90228.5770539185
    33C11  ...65  -776730.7229609195  ...54  -47.654818462505226
    33C11  ...96  -1784607.6452219752  ...36  -1237739.9830034713
    33C11  ...97  -1109.978786834508  ...55A  -16879001.527680226
    33C11  ...55  -60314.30403862931  ..100  -20431870983.90381
    33C11  ..101  1595.581206369745  ..102  179663330855.16235
    33C11  ...53  -206860762293.06686  ..126  -111009465152.55899
    33C11  ...79  1089719518045.4971  ...83  184.7508786959812
    33C12  ...65  -4.457515544259265e-06  ...54  -2.2694874032969442e-10
    33C12  ...96  -2.0614567279773103e-05  ...36  -7.591774099134694e-06
    33C12  ...97  -1.1149470175531573e-08  ...55A  -0.0006960066783886976
    33C12  ...55  -2.503310011876218e-06  ..100  -0.11167816327311583
    33C12  ..101  8.723510038627656e-09  ..102  0.9820506287559659
    33C12  ...53  -0.5339263749836131  ..126  -1.500488751275309
    33C12  ...79  14.729481640374582  ...84  1.556097849969695e-07
    33C11S  ....1  6.195866929698408e-08  ...65  -6.105109292329659e-06
    33C11S  ...54  -4.21591723387567e-10  ...96  -3.544559343036407e-06
    33C11S  ...36  -9.234879747325092e-06  ...97  -3.894510909605063e-09
    33C11S  ...55A  0.00047279327933847574  ...55  1.7058654643665884e-06
    33C11S  ..100  -0.1662301012508829  ..101  1.2979089710521506e-08
    33C11S  ..102  1.4616765043399262  ...53  -2.286028467413102
    33C11S  ...83  2.5235808696679263e-09  ...84  5.503803589365524e-07
    33C12S  ...84  9.396838740782371e-06
    33VB11  ...65  -0.0010772256764234546  ...54  -3.767605287022809e-08
    33VB11  ...96  -0.0011063287161375652  ...36  -0.0008054101599460955
    33VB11  ...97  -9.683438769515598e-07  ...55A  -0.0025297431815484166
    33VB11  ...55  -8.991325553663443e-06  ..100  -78.72169988219083
    33VB11  ..101  8.75160808609444e-06  ..102  254.2571631602875
    33VB11  ...53  20.930639657538823  ..126  -244.07416907787808
    33VB11  ...51  0.011456006971425656  ...90  0.008623900272435227
    33VBR  ...65  -37934.414843850325  ...54  -1.489983002061178
    33VBR  ...96  -49645.2488806802  ...36  -31181.61300430761
    33VBR  ...97  -38.173691322747956  ...55A  -479966.552344302
    33VBR  ...55  -1726.2775686094308  ..100  -2307910358.6690016
    33VBR  ..101  180.282415855512  ..102  5800891364.776165
    33VBR  ...53  876860063.8286592  ..126  -7447838806.220843
    33VBR  ...52  1340.3213351613783
    33V11S  ...90  6781.163239415965
    THC4  ...96  2.253747337505506  ...53  -5146.04510966936
    THC4  ...54  -6.426474941107173e-07  ...32  -0.013503357394369284
    THC4  ...33  -1813.5753156683045  ...34  -0.0038598514751198997
    THC4  ...35  -6285.137667901267
    MTHERM  ...65  -0.12167266330320084  ...54  -2.3316755664904077e-06
    MTHERM  ...33  -27.58488868318834  ...34  -5.201542169418523e-06
    MTHERM  ...39  -0.00011249034959188047  ...40  -49.39536595423809
    MTHERM  ...41  -39.54742919020019  ...46  -1351.2331893178007
    MTHERM  ...53  -17931.36101725283  ...61  0.04383797308580516
    MTHERM  ...62  4.0534761114217197e-07  .G.39  0.501471953568007
    MTHERM  .G.41  204.55373560651176  ..126  -26060.8965146479
    MTHERM  ..127  -1.1229570822469027e-05  ...20C  -0.00015555216441397055
    MTHERM  ...20D  -10.730545806894371  ...19B  -5.441313438375291e-06
    MTHERM  ...22B  -0.6022034557568371  ...97  0.00043828402055902924
    D26U  ...65  -0.7449526443550857  ...20  -8.356130331168655
    D26U  ..104  -37.1431231229469  ..105  -17950.237892143192
    D26U  ...50  -5.591205576284788  ...53  55857.48821031434
    D26U  ...54  -2.3131473413609534e-06  ..126  -620368.4569341794
    D26U  ..127  0.00014583784737965365  ..123  -0.18295477196293206
    D26U  ...58  5.8093090632652344e-05  ...58A  0.064924330058424
    D26U  ...47A  -701.9408262683871  ...47B  -0.005861560079016419
    D26U  ...47C  -0.26708575752895714  ...47D  -7.4000537463293825e-06
    D26U  ...47  4073.1587472244173
    D33LU  ...65  -0.00437067142979735  ...20  -0.07937510639296172
    D33LU  ..104  -0.2670226505391674  ..105  -74.51727094536275
    D33LU  ...50  -0.06308434671747912  ...53  327.71845259024957
    D33LU  ...54  -1.3571341848917616e-08  ..126  -1679.8755100324322
    D33LU  ..127  6.912246405605063e-07  ..123  -0.0020642385815826175
    D33LU  ...58  3.4083483483244887e-07  ...58A  0.000380914030757947
    D33LU  ...48A  -0.0005932391316483658  ...47C  -0.0015670044244868464
    D33LU  ...47D  -4.341645570779412e-08  ...48  19655.735414646297
    D33HU  ...65  -2.1223898905298637e-06  ...49  0.3832538511916648
    D33HU  ..104  -9.310496907306623e-05  ..105  -0.05312776717274466
    D33HU  ...50  -0.0001127317990605952  ...53  0.15913946904718154
    D33HU  ...54  -6.590218277378752e-12  ..123  -3.6887966841324654e-06
    D33HU  ...58  1.6550875978850366e-10  ...58A  1.849711425411662e-07
    D33HU  ..126  -1.790105795157101  ..127  4.3155950864670713e-10
    D33HU  ...49A  -6.52881074873343e-05  ...47C  -7.60934424462251e-07
    D33HU  ...47D  -2.1082949875537154e-11
    U90RN  ..104  -0.01731155748580466  ..105  7.9726920671316215
    U90RN  ...58A  7.121736937071773e-05
    U90RP  ....1  818.9420030795926  ..104  3314081.079034553
    U90RP  ..105  -1526272142.1983979  ...58A  -13633.674296702955
    D33LGO  ...48  55.65929646605296  ...50  -0.007145457103984179
    D33LGO  ..123  -0.0006624696222277892
    D33HGO  ...49  75774.18670690132  ...50  -242.26650082156021
    D33HGO  ..123  -13.212359960454798
    UTS2UD  ..104  1468.9183575381705  ..105  -676497.9838475945
    UDS2GO  ...50  -4987473.301740064  ..105  425676647.0279479
    UDS2GO  ..123  -353598.9500486828
    HF2LF  ...20  0.0034260550958329305  ..104  0.015959984971516846
    HF2LF  ..104A  -4.28842510640494e-09
    SOLVST  ...65  0.0007959129379245827  ...54  1.3567820487722105e-08
    SOLVST  ..111A  -16.992009126772093  ..111B  194.4338960071985
    SOLVST  ..111C  -3.7787173290272135e-06  ...41  0.6304118400105981
    SOLVST  ...53  191.50753420734515  .G.39  -0.008153067702779343
    SOLVST  ..127  3.578729842977136e-07
    TR135H  ...65  -0.00038903887889092014  ..112A  3.070652177810277e-08
    TR135H  ...43  -44.888576864878445  ...56  -0.00755034407299727
    TR135H  ..104  0.02741679125257183  ...46  209.73093414027065
    TR135H  ..110A  -1.2474659123835165e-06  ...78C  -0.00024973553542387
    T135UH  ...65  -0.023226698835874023  ..112A  2.0085029278340687e-06
    T135UH  ...43  -1581.0018144743372  ...56  -0.26592751459345176
    T135UH  ..104  2.56188970913268  ..110A  -9.48281466037454e-05
    T135UH  ...78C  -0.00879583097125946
    TR135L  ...65  -0.09291338878508776  ..112A  7.179389846076064e-06
    TR135L  ...43  -11706.239304225408  ...56  -1.969011733515231
    TR135L  ..104A  1.5860214737779964e-06  ...46  49036.49295924067
    TR135L  ..110B  -74650.89731114468  ...78C  -0.06512712464110328
    T135UL  ...65  -106401.71214326017  ..112A  8.976555727019532
    T135UL  ...43  -8580063781.516813  ...56  -1443183.0599958461
    T135UL  ..104A  2.8329128735877482  ..110B  -109113119156.97162
    T135UL  ...78C  -47734.79072188133
    PFBX  ...65  16883.04579880795  ...54  0.19121127512190297
    PFBX  ...41  8887543.671955468  ...53  3064543880.4978
    PFBX  .G.39  -114951.69993073953  ..127  5.045677858774171
    PFBX  ...46  -11150685170.628693
    TR2TSH  ..104  -1219457.371749475  ..110A  52.486184824521786
    TR2TSL  ..104A  -1.8477211813150446e-11  ..110B  0.8574367585680593
    SBT2PL  ...65  -2.692579930928815e-06  ...54  -3.0495187189321956e-11
    SBT2PL  ..111C  2.8624851878324375e-08  ...41  -0.0014174232547571669
    SBT2PL  ...53  -0.4887464885430624  .G.39  1.8332985881108867e-05
    SBT2PL  ..127  -8.047061592065609e-10
    BB2LAR  ....1  411.6346872731475  .O.31  1302408843.797869
    BB2LAR  ...54  -0.0036029977843761883  ...33  -5352694.726652954
    BB2LAR  ...34  -14.650584006962246  ...32  -49.513069603734955
    BB2LAR  ...35  -9906001.922979921  ...39  -0.07937501354787684
    BB2LAR  ...53  -30882969.224820834
    ALKY.1  ...65  -230667.08956774868  ...33  5436858816.615634
    ALKY.1  ...32  10373.554959280105  ...35  22566499981.88163
    ALKY.1  ...53  -26254588816.20041  ...56  -32651.601427002755
    ALKY.1  ...43  -841193053.8622544  ...44  -3436.404032602249
    ALKY.1  ..118  1739188922.7821293  ...78C  -2807.9633488959703
    ALKY.2  ...65  -2.4098426740512684  ...33  52107.54457888343
    ALKY.2  ...32  0.13644978098265415  ...35  103748.69671702871
    ALKY.2  ...53  -430294.2665444553  ...56  -0.7713391161767179
    ALKY.2  ...43  -19907.639406505645  ...44  -0.02930659214261448
    ALKY.2  ..119  2.8961773746978136e-05  ...78C  -0.06642919534816487
    ALKY.3  ...65  -69.60522163074512  ...33  1378280.393614104
    ALKY.3  ...32  4.55866513458944  ...35  -173782.61383021733
    ALKY.3  ...53  -15892604.634681305  ...56  -32.34183714658977
    ALKY.3  ...43  -833212.6930336872  ...44  -0.6821248539973405
    ALKY.3  ..120  0.1639805877234287  ...78C  2.781324326361613
    C42IC4  ...33  -0.1663183299625475  ...65  -1.5625681241898866e-06
    C42IC4  ...34  9.408540488778906e-08
    76CLAR  ....1  0.01846948869009017  .G..3  6609.679986592158
    76CLAR  .G.17  -0.0028469602758824796  .G.19  -1.3475370218309766
    76CLAR  .G.21  3.69946063720866e-08  .G.16  -0.0012204504489061517
    76COL  ....1  2987.2543305971362  .G.76  148806725.83588633
    76COL  .G.85  -0.0450942837958286  .G.87  -0.3814928276556358
    76COL  .G.89  1940.6877709566375  .G.84  -3.8542337551340675
    BB..76  .G.17  -165980.97683341525  .G.18  -17307395529.89039
    BB..76  .G.19  64474128.531012386  .G.20  116695817.45153289
    BB..76  .G.21  10.669410354627471  .G.22  328146625.3256223
    BB..76  .G.57  -30.248362381457593  ...76  10273466.036521118
    BB..76  ...96  1631348.7758902786
    C4.L76  .G.17  -0.00022412768877992558  .G.18  -35.72083918421209
    C4.L76  .G.19  0.1330685470740553  .G.20  0.18569290183740536
    C4.L76  .G.21  -2.1310317192466097e-09  .G.22  -0.1618240988777695
    C4.L76  ...34  8.973490377286573e-05  .G.57  -6.242977959033563e-08
    AB..76  .G.17  1.8182636193620817e-06  .G.18  -0.7583858882694369
    AB..76  .G.19  0.00031390735796500886  .G.20  -0.0003981463063614759
    AB..76  .G.21  -2.262187031772604e-10  .G.22  -0.003435672727001904
    AB..76  ...38  0.00021672549355586433  .G.57  -1.3254409731227087e-09
    MB..76  .G.17  1.3808541253420417e-05  .G.18  -2.653865336219541
    MB..76  .G.19  0.002746187227944655  .G.20  -0.0014752136203485251
    MB..76  .G.21  -8.971701371643847e-10  .G.22  -0.012022656140914197
    MB..76  ...37  1.0127448826654612e-05  .G.57  -4.6381952884199124e-09
    C5C676  .G.17  0.059957457860011186  .G.18  -69139.38966135758
    C5C676  .G.19  200.32485352021098  .G.20  39.1444776978633
    C5C676  .G.21  -1.649885453786592e-05  .G.22  -313.21826934718894
    C5C676  ...39  0.11268592841412785  .G.57  -0.00012083581898256828
    LTH.76  .G.17  -11.058375717484582  .G.18  4437052.089715389
    LTH.76  .G.19  16529.0650599073  .G.20  -293.62381208425734
    LTH.76  .G.21  0.0017016775207751404  .G.22  50730.909252827914
    LTH.76  ...36  1473.8692128634045  .G.57  -0.009970321098118476
    LCAT76  .G.17  -59641.808609144595  .G.18  36999424932.01516
    LCAT76  .G.19  15314620.045392027  .G.20  837914.9258787927
    LCAT76  .G.21  4.561772992396672  .G.22  140301137.85128662
    LCAT76  ...42  45448609665.227135  .G.57  -12.932876137444111
    HCAT76  .G.17  -2.6118710178708113  .G.18  -5689059.406854487
    HCAT76  .G.19  -88304.53114311538  .G.20  -13176.657536435383
    HCAT76  .G.21  -0.0010181927126205585  .G.22  -60136.59002242935
    HCAT76  ...43  171909913.51049447  .G.57  -0.029828531436341052
    HCAT76  .G.22A  165203262.84561396
    101P76  .G.17  -10.478817911026102  .G.18  -1699695.883659333
    101P76  .G.19  -6015.179473049786  .G.20  -674.8685947150819
    101P76  .G.21  0.00017382918321415825  .G.22  -9533.378149837376
    101P76  .G.57  -0.0038193181839162936  .G.22A  4230606.036875373
    101P76  ...53  -2939538.645774175  ...41  37308.39260981182
    101P76  ...65  -6.39146428959906
    102P76  .G.17  -297.6095866804343  .G.18  -43631521.71237816
    102P76  .G.19  -148605.9011824244  .G.20  -11549.338139996718
    102P76  .G.21  0.004462228716660022  .G.22  -244723.6589415135
    102P76  .G.57  -0.09804263566800776  .G.22A  108600474.31369938
    102P76  ...53  -133841863.68582188  ...41  970458.0617212334
    102P76  ...65  -328.14024627175525
    100P76  .G.17  -0.049111906477638176  .G.18  -8914.444588555643
    100P76  .G.19  -32.734001830343345  .G.20  -4.719337343408982
    100P76  .G.21  9.116869885572319e-07  .G.22  -49.999986512590596
    100P76  .G.22A  22188.382906793784  ...53  -6695.419378239158
    100P76  ...41  193.7685754537355  .G.57  -2.0031289505322335e-05
    ALKY76  .G.17  -0.8993377704503734  .G.18  -154649.75413913792
    ALKY76  .G.20  -47.758728995520514  .G.21  -3.0753619732973986e-06
    ALKY76  .G.22  -700.6010406467614  ...44  0.25454054266554266
    ALKY76  .G.57  -0.0002702834055722069
    BB...R  .G.11  -5.794229417377005e-06  .G.11B  1.370817610243046e-09
    BB...R  .G.12  -1.03333307268597e-08  .G.13  -7.996556199419797e-09
    BB...R  .G.14  7.306014387629594e-09  .G.15  5.929824444122139e-07
    BB...R  .G.59  -1.0163964816505888e-09  ...76  6.59748834788166e-05
    BB...R  ...96  1.0476312961960894e-05
    C4..LR  .G.11  -4742.681909808929  .G.11B  -1.3759311424216372
    C4..LR  .G.12  -8.458018690004787  .G.13  -6.5453263403793684
    C4..LR  .G.14  4.610615566013683  .G.15  -115.97261972170072
    C4..LR  ...34  228.53957761014152  .G.59  -0.831938961937041
    IC5..R  .G.11  -0.0018674460131952893  .G.11B  -4.2833997436207916e-07
    IC5..R  .G.12  -2.1409531906653267e-06  .G.13  -1.656799047859882e-06
    IC5..R  .G.14  2.4265841956734755e-07  .G.15  -2.935580533966061e-05
    IC5..R  ...35  1441.2376007064274  .G.59  -2.1058624250887056e-07
    AB...R  .G.11  1145463.156242799  .G.11B  183.15230417679166
    AB...R  .G.12  -379.0762174038477  .G.13  -66.60651562625034
    AB...R  .G.14  -20.86871019615337  .G.15  -5197.725805272759
    AB...R  ...38  1165196.918498012  .G.59  -37.28630620959276
    100P.R  .G.11  24.06009757434081  .G.11B  0.011669841841521176
    100P.R  .G.12  -0.150179298533979  .G.13  0.08012533133850681
    100P.R  .G.14  -0.008337069574555404  .G.15  -2.549476139854234
    100P.R  ...41  35111.72446052793  ...53  -1213239.658731673
    100P.R  .G.59  -0.01899229136876342
    101P.R  .G.11  -0.0028622427661688966  .G.12  -1.1910442439092434e-05
    101P.R  .G.13  6.068348975894402e-06  .G.14  -4.958981776172574e-07
    101P.R  .G.15  -0.00020219423788760788  .G.59  -1.5062435058780632e-06
    101P.R  ...53  -221.55873545045267  ...41  2.812005992913876
    101P.R  ...65  -0.0004817370738486566
    102P.R  .G.11  -5.9277548936586747e-05  .G.11B  -7.1098753107156165e-09
    102P.R  .G.12  -9.250025577207275e-08  .G.13  4.490566121754973e-08
    102P.R  .G.14  -2.567534525610586e-09  .G.15  -1.570304278441919e-06
    102P.R  .G.59  -1.1697962545156391e-08  ...53  -3.052021443582922
    102P.R  ...41  0.022129539539465323  ...65  -7.482644372577336e-06
    ALKYLR  .G.11  -0.004310017569229694  .G.11B  -1.0300136454141457e-06
    ALKYLR  .G.12  -3.6409322008579208e-06  .G.13  -3.6750958871994087e-07
    ALKYLR  .G.14  -1.179051404985897e-07  .G.15  -4.992285558100978e-05
    ALKYLR  ...44  6.44574848515909e-05  .G.59  -3.581256399024546e-07
    HCATLR  .G.11  265.78844773961583  .G.11B  0.050272913430800044
    HCATLR  .G.12  -0.04989501279788491  .G.13  0.08002151130518696
    HCATLR  .G.14  -0.012118212114868599  .G.15  -1.5963229254622895
    HCATLR  ...43  16217003.967506187  .G.59  -0.014723166266573096
    104RLR  .G.11  -990.6829322330727  .G.11B  -0.16070395726384568
    104RLR  .G.12  -0.7439019717040583  .G.13  0.15017643426839522
    104RLR  .G.14  -0.021680952977715398  .G.15  -11.050060178356036
    104RLR  .G.59  -0.08231728835152259  ...40  622437.8596930227
    104RLR  ...65  -39.49091511053677
    REF.LR  .G.11  -5.5015887363153125e-05  .G.11B  -7.821322524386429e-09
    REF.LR  .G.12  -6.825349764598106e-08  .G.13  1.6649367764414393e-08
    REF.LR  .G.14  -1.989241767483611e-09  .G.15  -1.0138503257945568e-06
    REF.LR  ...40  0.05498462711256543  .G.59  -7.552665620517189e-09
    REF.LR  ...33  0.00843559862464879  ...34  1.6598169718843016e-09
    REF.LR  ...53  2.164762610076562
    C5C6LR  .G.11  4.675011314767873e-05  .G.11B  5.2276519339637436e-09
    C5C6LR  .G.12  -2.4205169309617533e-08  .G.13  -1.5111824966093007e-08
    C5C6LR  .G.14  1.4370428157231944e-09  .G.15  -3.3189059974069023e-07
    C5C6LR  ...39  4.243315288991078e-07  .G.59  -2.380844044805739e-09
    LCATLR  .G.11  2.544424138911158  .G.11B  0.0021303790517498266
    LCATLR  .G.12  0.034032622255933016  .G.13  -0.0032316286424806766
    LCATLR  .G.14  8.081965416152276e-05  .G.15  0.3905952121057023
    LCATLR  ...42  449649.4566735817  .G.59  -0.0006694963789818803
    GASVS  ....1  1.5805624853142515  .G..3  -784820.289712684
    GASVS  .G.10  -114200.18679601955  .G123  2329158.2486977433
    GASVSA  ....1  0.03994533256426258  .G.10  -423.7415269913688
    GASVSA  .G.16  -0.0007513443773026247  .G123A  0.002613058092372987
    GASVSB  ....1  0.0002891662837881258  .G.10  -5.571492247103255
    GASVSB  .G.16  -7.069922557597719e-06  .G123B  1.7457762089704158e-09
    AV.115  ...35  761332.5490921108  ...44  0.8209006615802695
    AV.115  ...38  6.952624432776619  ...40  5046.903541557475
    AV.115  .G.51  2.179066299569428e-05  .G.64  -0.4246720501360505
    AV.115  ....1  -93.51588482649255
    AV115V  .G.51  -5.5436434958457356e-09  .G.51V  0.0005158054001635405
    AV.100  ...35  31489.16559345373  ...44  0.015734288360679985
    AV.100  ...38  0.7189116711674554  .G.52  108534.34454141089
    AV.100  .G.64  -0.007784400548628239  ....1  -2.2579464756892222
    AV..80  ....1  -349.77884529953457  ...35  16468902.599246118
    AV..80  ...38  410.6993680288559  ...44  0.5330569902519884
    AV..80  .G.64  -0.16059278460799087  .G.53  2188749.302846003
    PAF  ....1  -3.285216515496401  .G.54  0.00033179344467045523
    PAF  ...33  642.4032397712791  ...34  0.004734663775583922
    PAF  ...39  0.003683954763336511  ...41  45.03603931975987
    PAF  ...40  658.5226224125939  ...53  179761.23132377426
    PAF  .G.41  -2858.216699080459  ...65  0.39472057640092745
    PAF  ...54  2.15937058249035e-06  ..127  0.00013512817804609104
    PAF  .G.45  73.1462465805755
    C4.O76  .G.85  -2.0254073563209955e-08  .G.86  -6.956191681447385e-09
    C4.O76  .G.87  1.9603292850713532e-07  .G.88  217.02081626162865
    C4.O76  .G.89  -0.0013296491379108423  .G.90  -0.000964912439969882
    C4.O76  .O.31  3675.416235016819
    LW..76  .G.85  1.6930285653053343  .G.86  -2.5412166172302872
    LW..76  .G.87  15.914267725136632  .G.88  -1965655576.9231434
    LW..76  .G.89  -1052444.7453443545  .G.90  -352499.13155260903
    LW..76  .G.99  13730447259.491495
    LO..76  .G.85  0.0015423101450101496  .G.86  -0.002059542812361143
    LO..76  .G.87  0.038243490771086394  .G.88  1667172.8098899492
    LO..76  .G.89  -947.5633049895365  .G.90  -298.9725028808076
    LO..76  .G100  0.018488208202589493
    C5O.76  .G.85  -2.5460195258240788e-08  .G.86  1.2283541825290783e-08
    C5O.76  .G.87  9.461798472079549e-07  .G.88  66.51006699183888
    C5O.76  .G.89  0.008217830303206863  .G.90  -0.005111651399310169
    C5O.76  .O.32  0.0032234927599702015
    95PO76  .G.85  -9.517796267171811e-12  .G.86  -1.1939101138113075e-11
    95PO76  .G.87  -4.0978694725486713e-10  .G.88  -0.04120235206768084
    95PO76  .G.89  1.1410565049595724e-06  .G.90  -1.9108909461992693e-06
    95PO76  .G102  0.0003441032701587622  .O.26  0.03008935906643579
    95PO76  .G105  -0.0013271941667374334  .O..1  0.0012328472304777272
    95PO76  .O..3  5.008994949658538e-07  .O.72  -2.0129175438545728e-07
    96PO76  .G.85  -6.752060062102316e-06  .G.86  -6.240881817201244e-06
    96PO76  .G.87  -0.00020894519295476562  .G.88  -20794.877651559927
    96PO76  .G.89  0.6423417666134558  .G.90  -0.998872898623782
    96PO76  .G102  180.86731769025243  .O.26  12233.276581587124
    96PO76  .G105  -697.5215096317754  .O..1  548.7603446561321
    96PO76  .O..3  0.23464203982286602  .O.72  -0.07518068829668563
    LSTP76  .G.85  -0.001454887649836843  .G.86  -0.0008111145016441066
    LSTP76  .G.87  -0.02539786110200642  .G.88  -2413095.7481449693
    LSTP76  .G.89  101.37322316134102  .G.90  -129.821444645842
    LSTP76  .G102  23959.791243301
    LCO.76  ....1  0.015028340718280103  ...42  25108.707300389593
    LCO.76  .G.85  -2.4099178390687257e-06  .G.86  4.690175144888404e-06
    LCO.76  .G.87  1.64137841568795e-05  .G.88  469.49238938477555
    LCO.76  .G.89  0.8437730262746816  .G.90  -0.11480948239699275
    HCO.76  ....1  0.001393087248695035  ...43  458.7234269334923
    HCO.76  .G.85  1.820091478432217e-09  .G.86  -5.122381133270745e-09
    HCO.76  .G.87  -3.1757920497768957e-07  .G.88  -35.65990115176543
    HCO.76  .G.89  0.0008224636086291852  .G.90  -0.0012789711824210072
    LUNO76  .G.85  0.0023149956557446255  .G.86  -0.0007690091631718519
    LUNO76  .G.87  -0.020868853275064225  .G.88  -2855212.8426257977
    LUNO76  .G.89  -440.97938254811106  .G.90  -106.67137163203563
    LUNO76  .G102  17098.353610449663  .G105  -401777.418721216
    LUNO76  .O..1  473332.4905848171  .O..3  165.21646777706593
    LUNO76  .O.26  9089592.067142028  .G126  0.0004530804307593504
    LUNO76  .O.41  4.044706548853618
    C4..OR  .G.92  -500589925.8642393  .G.92B  -46219899.26684985
    C4..OR  .G.93  -545.8512415098041  .G.94  -378946705.5044413
    C4..OR  .G.95  42115111.096049614  .G.96  -325986519.07158965
    C4..OR  .O.31  504122235483.4468
    LW..OR  .G.92  5.665344274569644  .G.92B  0.24270844216240675
    LW..OR  .G.93  -2.2728838628819315e-06  .G.94  -0.5551890854599045
    LW..OR  .G.95  -0.004347872277932129  .G.96  -1.3573835550240498
    LW..OR  .G.99  21.465786489515892
    C56.OR  .G.92  0.013280878965812024  .G.92B  0.0009057077755747491
    C56.OR  .G.93  3.691409215193762e-09  .G.94  -0.0071185825326555395
    C56.OR  .G.95  4.942990373923263e-05  .G.96  -0.0066136131001628745
    C56.OR  .O.32  1.6932529642916237e-06
    96PO.R  .G102  2.1590167191406184  .O.26  146.0288625209231
    96PO.R  .G105  -8.326327942974567  .G.92  47.412216959186345
    96PO.R  .G.92B  2.7403344927327975  .G.93  -4.262018236557069e-05
    96PO.R  .G.94  23.603154645897195  .G.95  -0.35120404641258063
    96PO.R  .G.96  -29.368958698033275  .O..1  6.550562998578762
    96PO.R  .O..3  0.0028009266320762646  .O.72  -0.000897433350933094
    HSTPOR  .G102  22.08471999724231  .O.26  -2023.8345225218095
    HSTPOR  .G105  272.84631693218563  .G.92  -101.72137532684259
    HSTPOR  .G.92B  -6.814857733711281  .G.93  -0.0004165610039009023
    HSTPOR  .G.94  195.67662184832636  .G.95  -1.5937057502197542
    HSTPOR  .G.96  -287.04623583825116  .O..1  -143.47913870635585
    HSTPOR  .O..3  -0.0382056303341554  .O.72  0.008771331253167779
    LSTPOR  .G.92  252004.1776785347  .G.92B  14097.392336741092
    LSTPOR  .G.93  -0.5804925563415573  .G.94  295645.0455045185
    LSTPOR  .G.95  -4270.933799601641  .G.96  -400009.12632140657
    LSTPOR  .G102  29972.576769426218
    LC..OR  ....1  3.263444460344322e-05  .G.92  0.5077647122782574
    LC..OR  .G.92B  0.07597786588654262  .G.93  5.826767534331473e-06
    LC..OR  .G.94  -0.5375868966846022  .G.95  0.001442450716767705
    LC..OR  .G.96  -0.6140805799145607  ...42  54.524230772990535
    104ROR  ....1  502.91104367036235  .G.92  -14531912.516798977
    104ROR  .G.92B  -906668.6056275936  .G.93  -14.085181554297819
    104ROR  .G.94  3598981.880251594  .G.95  -48499.19018627687
    104ROR  .G.96  -9463249.921831027  ...40  9459835.80446443
    104ROR  ...65  -600.1845274931768
    REF.OR  ....1  101.45447981596129  .G.92  -1804053.718756376
    REF.OR  .G.92B  -113237.29386679654  .G.93  -2.8414662706061247
    REF.OR  .G.94  863027.0256289571  .G.95  -9783.957170503609
    REF.OR  .G.96  -1909063.4621599251  ...40  1837383.177615171
    REF.OR  ...33  281886.5530234966  ...34  0.05546495342810879
    REF.OR  ...53  72338371.87150848
    ALKYOR  ....1  0.1567693708574558  .G.92  -5110.705866891903
    ALKYOR  .G.92B  -589.7616139052092  .G.93  -0.004939523029531248
    ALKYOR  .G.94  -465.6895732001213  .G.95  -18.89794335472552
    ALKYOR  .G.96  -2949.9207766149652  ...44  0.07019184145973703
    USD2GO  .O..1  0.2455444449949953  .O..3  -6.41378452271378e-05
    USD2GO  .G124  0.002122244850576934  .O.26  -7.871202578300987
    USD2GO  .O.24  -2.571942753079826e-08  ..123  -0.00488632676130886
    USD2GO  .O.72  -0.0004113809419644123  .O.41  -5.844540172514038e-06
    USD2GO  .O.40  -1.3775999606420782e-07
    EDO250  .OMB1  4631.7166885140505  .O..2  -4242684159.044358
    EDO250  .O..6  1794.547029756735
    SMRORN  .O.11  175283.93838638882  .SM.1  -2817972.561454387
    SMRORN  .O.59  -2.646506983565685  .O.27  -252762.27527928795
    SMRORN  .SM10  3231647540.6284776  .SM21  3.143168701653603
    SMRORN  .SM22  1.9612560334750544  .SM22A  440305375.82277757
    SMRNG  ....1  4968.117010925651  .SM.1  -543915.8352932847
    SMRNG  .O.59  -0.7858770938126092  .SM10  959633884.6739115
    SMRNG  .SM20  4.622139857297402  .O.10  353811126.9464794
    SMRNG  .SM22  0.37855521670552145  .SM22A  84986301.69456539
    SMRSMV  ....1  1.3717062807566973  .SM.1  -362.2926974175528
    SMRSMV  .SM.3  -115.27472346425128  .O.59  -0.0001449980884720825
    SMRSMV  .SM.4  0.00014887660205786294  .O.12  1.4718103920851705e-06
    SMRSMV  .O.27  -50.75007159249787  .SM.6  -6.412481057797508e-07
    SMRSMV  .SM.7  -1.5239541120056172e-07  .SM.8  -19.11611701034023
    SMRSMV  .SM10  92044.09754517168  .SM11  0.014215361425928772
    SMRSMV  .SM22  8.900856885191749e-05  .SM22B  -316926.065246281
    SMRSMV  .SM22A  56607.86924481396
    SMROLC  ....1  0.0009905126085320221  .O..9  0.024719823599279003
    SMROLC  .SM.1  -0.19488234171123991  .SM.3  -0.04626743039259139
    SMROLC  .O.59  -1.0533752870953833e-07  .O.27  -0.026380215440738916
    SMROLC  .SM.6  -2.7453543234269934e-10  .SM.7  -2.787171653266429e-10
    SMROLC  .SM.8  -0.005875901957499372  .SM10  92.49082241654854
    SMROLC  .SM11  6.712545738010092e-06  .SM22  5.859408393469719e-08
    SMROLC  .SM22B  76.05010780740965  .SM22A  30.450169700766754
    SMRSJH  ....1  0.1999927147017509  .SM.1  -41.136923782627704
    SMRSJH  .SM.3  -11.075303947748141  .O.59  -9.093816164163172e-06
    SMRSJH  .SM.6  -4.2373744645672864e-08  .SM.7  1.1074499194828734e-07
    SMRSJH  .SM.8  -0.4961281332261485  .SM10  3193.4370542419488
    SMRSJH  .SM11  0.0017189229634857475  .O.58  9.724785220427153
    SMRSJH  .O.27  -8.096558977345518  .SM22A  6427.602927742712
    SMRSJH  .SM22  8.904093947910806e-06  .SM22B  6688.795448455612
    SMRCBT  ....1  47649.23623979503  .SM.1  -98859513.9682818
    SMRCBT  .SM.3  -38714139.45595486  .O.59  -21.139909024163266
    SMRCBT  .O.60  -3.8805235483181266  .O.27  -10488811.094215088
    SMRCBT  .SM.6  -0.2237431528788542  .SM.7  -0.10396108167286826
    SMRCBT  .SM.8  -3353304.9088019584  .SM10  48837156993.33665
    SMRCBT  .SM11  4316.50356848776  ...31  0.40095250556849615
    SMRCBT  .SM22  19.265222752296097  .SM22A  15446699533.864862
    SMRCBT  .SM22B  160743926930.87723
    LUB10N  ....1  -0.18793402474180088  .O..1  -493.51320610275366
    LUB10N  .O.45  14479.993788384489  .O.24  3.44053083618155e-07
    LUB10N  .O.25  0.0005634687683278209  .O.50  -4.446071837430179e-05
    LUB10N  .O.26  -103.57996630910763  ..123  0.025340263740034216
    LUB10N  .O.51  -1.903722474847416e-06  .O.53  4.812570414686377e-08
    LUB10N  .O.52  4.452983557165047e-05
    LUB5N  ....1  -1648071.8488993952  .O..1  -4429364778.314852
    LUB5N  .O.45  126103117622.21167  .O.24  -1.5262208278531018
    LUB5N  .O.25  5889.525221818677  .O.50  -386.5877069022777
    LUB5N  .O.51  -18.470094636767463  .O.53  0.24137239651032139
    LUB5N  .O.52  387.4944777018005  ..123  -144980.16462215772
    LUB5N  .O.26  -1061559867.4359504
    WAXEX  ....1  -4.270793627727297e-05  .O..1  -0.45691763482015624
    WAXEX  .O.45  13.008352468389365  .O.24  -1.3995123903707791e-09
    WAXEX  .O.25  6.075426317881285e-07  .O.50  -3.987902318479594e-08
    WAXEX  .O.51  -1.905309763073289e-09  .O.26  -0.10950676860562568
    WAXEX  ..123  -0.00013167520193312372
    SM2CGO  .O.27A  2.20652853814138e-11  .O.24  -4.669402408760542e-10
    SM2CGO  .O.27  0.0005498108780707096  .O.67A  1.2256181477604927e-06
    SM2CGO  ..123  -2.5346293932781168e-05
    SM2GOS  .O.27A  2.197590932889311e-07
    70HS1L  ....1  1709.4395288078656  .O..1  -249375145.9377456
    70HS1L  .O..3  -76900.32879621751  .O.27  6530179.302750175
    70HS1L  .O.28  1508.017507039679  .O.82  -1267135758.0247278
    70HS1L  .O.37  -31.19614401259907  .O.26  -2562757338.3096294
    70HS1L  .O.20  -160387804.85759923
    70HS2L  ....1  26619.661191643656  .O..1  -2409854871.2776237
    70HS2L  .O..3  -596457.9381951964  .O.27  101688979.12470785
    70HS2L  .O.29  1712428962.1207478  .O.82  -10483814889.815073
    70HS2L  .O.36  -2.9960016287274187  .O.37  -106.63710604726894
    70HS2L  .O.26  -19003647773.923313  .O.20  -2497584121.9479733
    70HS1H  ....1  4305.175269031013  .O..1  -690403281.9773515
    70HS1H  .O..3  -200349.63152092596  .O.27  16446072.506667824
    70HS1H  .O.28  3570.0256096421235  .O.29  22626789.374567
    70HS1H  .O.82  -3185190194.9403996  .O.37  -77.80010585855639
    70HS1H  .O.26  -6966472764.058632  .O.20  -403932165.65469843
    70HS2H  ....1  0.00025454113628499685  .O..1  -26.59865426874112
    70HS2H  .O..3  -0.0074583171499372075  .O.27  0.9723650540747633
    70HS2H  .O.29  16.72982556161788  .O.82  -103.8280662550432
    70HS2H  .O.36  -2.6738329857188965e-08  .O.37  -1.4728707865964393e-06
    70HS2H  .O.26  -121.14379325641129  .O.20  -23.882268665672264
    HCGO70  .O..3  3.307387478622062e-05  .O.27  -0.01832578146562908
    HCGO70  .O.82  0.8097131170411224  .O.37  -2.562333785981914e-08
    HCGO70  .O.20  0.4500997178338538  .O.24  1.492053970715325e-08
    HCGO70  ..123  -0.0010123896805930462
    U70PD  .O..1  -508442383.21880144  .O..3  -127847.06415813675
    U70PD  .O.82  6816826925.003448  .O.26  -1303212137.075931
    U70PD  .O.31  -50844712874.30559  .O.32  -23906.224083166508
    U70PD  .G102  -13437917.906269267  .G124  -330803.35002107476
    U70PD  .O.38  -4.613441402558138  .G105  310909720.95323616
    U70PD  .O.41  1893.660400335994  .O.72  128420.25268043087
    U70PD  .O.40  57.48554979768387
    70UDCT  .O..1  764202.3564931671  .O..3  -199.61474780653967
    70UDCT  .G124  6605.01407759169  .O.26  -24497363.639789566
    70UDCT  .O.36  -0.004827635083371229  .O.41  -37.46561715259764
    70UDCT  .O.72  -2048.530384937784  .O.40  -0.4287472828998546
    O250  ....1  -6.0348191816295244e-06  .O..5  0.00022692514320020926
    O250  .O..6  1.328351974666568e-08  .O.19  -1.4341882859166758e-07
    RDAS2Q  ....1  -0.1030250217545662  .O..1  -93.84820344864255
    RDAS2Q  .O..4  0.00029307131511478274  .O..6  3.740744472899023e-05
    RDAS2Q  .O..7  2.3717408896164245e-06  .O.19  -0.001714574720951533
    RDAS2Q  .O.23  1.991605780670137e-08  .OMB1  1.8290634971155414e-05
    RDAS2Q  .O.36  6.2782028342984e-09
    OLC250  ....1  0.004988642889067778  .O..1  -2.633833870992899
    OLC250  .O..6  -7.260133642340158e-06  .O..9  0.12330675685502779
    OLC250  .O.18  5.827503655200149  .O.20  -6.715153426005916
    OLC250  .G100  -1.0323478285549402e-08  .O.23  -3.009439798633637e-08
    OLC250  .OMB1A  -2.0727713025644444e-09  .OMB3  -3.533104703240989e-09
    OLC250  .O.24  -8.079330678392545e-09  .O.26  -7.726898323086418
    OLC250  ..123  -5.481994060162597e-05
    OLCO42  ....1  0.036133297549793504  .O..1  -19.07715285972193
    OLCO42  .O..7  -8.599542873272476e-07  .O..9  0.8931246101232452
    OLCO42  .O.18  50.379269195716546  .O.20  -48.63860617606344
    OLCO42  .G100  -7.477410609166588e-08  .O.23  -2.1797708539233633e-07
    OLCO42  .OMB1A  -1.5013314020204374e-08  .OMB3  -2.5590671923328975e-08
    OLCO42  .O.24  -1.9604030610242542e-07  .O.26  -55.96678745173829
    OLCO42  ..123  -0.0013301742884223337
    NAGASO  ....1  1088230.5897345855  .O..1  -322607726.1730596
    NAGASO  .O.10  77499803342.97476  .O.20  -822169539.7767303
    NAGASO  .G100  -17.35247104915275  .O.23  -1.2097344346990626
    ORNAPH  ....1  9.550887356355992e-07  .O..1  -0.03365085939017757
    ORNAPH  .O.11  0.0007730143832755422  .O.20  -0.08575960627512136
    ORNAPH  .G100  -5.184173917173348e-10  .O.23  -5.519815041719487e-10
    ORNAPH  .OMB1A  -6.463109824952967e-11  .OMB3  -1.8514045991587576e-10
    ORSRGO  ....1  11662.695235994617  .O..1  -410914402.8756363
    ORSRGO  .O.12  110.08842894555058  .O.20  -1047220131.7294563
    ORSRGO  .OMB1A  -1.315270745296806  .OMB3  -4.521541673117509
    CKCR67  .O..1  -0.9087708162964179  .O.63  -0.19970578752139834
    CKCR67  .O.64  -0.00017892673183271456  .O.63A  -0.05714825743170833
    CKCR67  .O.65  -7.420218646627403e-11  .O.67  -0.08394993789619896
    CKCR67  .O.18  1.1782711896305582
    W67NIR  ....1  0.05542392487856163  .O..1  -22.001986312287233
    W67NIR  .O.15  139.21960344075293  .O.20  -14.407733694504236
    W67NIR  .G.99  -155.20102063443207  .O.23  -1.895776644236528e-07
    W67NIR  .OMB1  -0.00010138132741532328  .OMB2  -0.0006209004006685663
    W67NIR  .O.24  -2.4128200974188125e-07  .O.25  -7.49449251768394e-05
    W67NIR  .O.31  -986.5064304500787  ..123  -0.027831527321973994
    W67NIR  .O.18  42.48242965559571
    UNPLHW  .O..1  -40151394.967404425  .O..3  -11854.644546412412
    UNPLHW  .G102  -1245914.5577065633  .O.26  -585242491.9787349
    UNPLHW  .G105  28828412.505113926  .O.41  -359.252949720765
    UNPLHW  .O.72  414.74093716453217  .O.23  0.7916705322059922
    UNPLHW  .O.40  3.472129117031047
    200PDX  .O.67A  -0.03598521828815807  .O.63  194.46716683749665
    200PDX  .O.63A  62.31541072321051  .O.64  0.05036011287769518
    200PDX  .O.67  31.597688159485887  ....1  0.0015466498659906483
    PDRFLX  .O.67A  -9.074446894632552e-07  .O.67B  1.8735126961219728e-06
    PDRFLX  .O.63  0.004591674104654997  .O.63A  0.0016215373786873963
    PDRFLX  .O.64  1.2699385793825544e-06
    PDRFXS  .O.67B  0.014260714434558145
    200SLP  .O..1  -493073532.0401141  .O..3  -68752.75602494417
    200SLP  .O.61  22.40739024923616  .O.63  89646371.08030155
    200SLP  .O.63A  23465789.464019828  .O.64  84524.5674377021
    200SLP  .O.65  0.021681101717104762  .O.67  22097356.842360362
    200SLP  .G105  167185577.27202964  .O.41  -668.5788592101129
    200SLP  .O.72  21684.407589644055  .O.40  22.185072517546708
    200CYM  ....1  0.05920888593305086  .O..1  -88.88698540057543
    200CYM  .O..3  -0.020295863270241712  .O.54  1364.2901014425604
    200CYM  .O.26  -540.1869659439726  .O.31  -374.67287891340504
    200CYM  .O.32  -0.0006202961764789544  .G102  -0.9993728551597212
    200CYM  .G124  -0.008427439230845433  .O.24  -1.2329523954967805e-06
    200CYM  .O.62  -4.068858821678209e-09  .O.38  -3.8245821120111055e-08
    200CYM  ..123  -0.0334633547140386  .O.63  26.0014296968318
    200CYM  .O.63A  6.475588715377763  .O.64  0.018234597928545593
    200CYM  .O.65  1.6222203737425305e-08  .O.67  6.399963958567771
    200CYM  .G105  23.118298551916947  .O.41  -8.646100264044353e-05
    200CYM  .O.72  0.0035577770167828306  .O.67A  -0.0018220227511876852
    200CYM  .O.40  3.2239200911619462e-06
    200MID  ....1  6.118296715189356e-06  .O..1  -0.008918280521777497
    200MID  .O..3  -2.2285686799303112e-06  .O.55  1.9633901957178857e-07
    200MID  .O.26  -0.05871836884573162  .O.31  -0.04602148016688125
    200MID  .O.32  -7.314399252905528e-08  .G102  -0.0001031089528550891
    200MID  .G124  -9.287948409932026e-07  .O.24  -1.1337901480693578e-10
    200MID  .O.62  -4.549743104289638e-13  .O.38  -4.593381081473511e-12
    200MID  ..123  -6.154401748956468e-06  .O.63  0.0029246907958097508
    200MID  .O.63A  0.0006241060830062948  .O.64  1.6038804536445924e-06
    200MID  .O.65  1.9026030731224565e-12  .O.67  0.0006288916672958439
    200MID  .G105  0.002385484615640014  .O.41  -8.773729401720947e-09
    200MID  .O.72  3.810296440647805e-07  .O.67A  -1.790408404271407e-07
    200MID  .O.40  3.365294793791177e-10
    200MAT  ....1  15399.213284026551  .O..1  -20359954.954226937
    200MAT  .O..3  -5010.431220173773  .O.56  8748031.919000532
    200MAT  .O.26  -131014821.42779581  .O.31  -220039296.6982971
    200MAT  .O.32  -240.4313143148202  .G102  -213229.9534798289
    200MAT  .G124  -2259.2090559884755  .O.24  -0.2759381117705512
    200MAT  .O.62  -0.0010876684856675508  .O.38  -0.007986186521200311
    200MAT  ..123  -18722.97532943172  .O.63  7589622.931118254
    200MAT  .O.63A  1354313.1359726703  .O.64  4373.411756074107
    200MAT  .O.65  0.004425462250412625  .O.67  1503437.9562478843
    200MAT  .G105  4932541.969144112  .O.41  -17.32396630965446
    200MAT  .O.72  867.0721060391162  .O.67A  -428.0177480711595
    200MAT  .O.40  0.7180339366644779
    200F/E  ....1  6.610468908273915e-06  .O..1  -0.01016306239358306
    200F/E  .O..3  -3.030482483711474e-06  .O.57  8.054645587812231e-12
    200F/E  .O.26  -0.07527643841036502  .O.31  -0.0980595083111278
    200F/E  .O.32  -1.0146507376181242e-07  .G102  -8.279049255234774e-05
    200F/E  .G124  -1.3493279032586106e-06  .O.24  -1.6761279804284716e-10
    200F/E  .O.62  -8.0785749417227e-13  .O.38  -6.117044267992046e-12
    200F/E  ..123  -2.2745754564434655e-06  .O.63  0.004227851025132799
    200F/E  .O.63A  0.0005684948099914619  .O.64  2.236013649806246e-06
    200F/E  .O.65  3.5608932919877093e-12  .O.67  0.000837500329362165
    200F/E  .G105  0.0019162431487987474  .O.41  -5.564713367432954e-09
    200F/E  .O.72  4.4639044242824877e-07  .O.67A  -2.384301949360557e-07
    200F/E  .O.40  3.0947797405375007e-10
    200SJH  ....1  1.0820829345809214e-05  .O..1  -0.017715022003905387
    200SJH  .O..3  -6.51695293765569e-06  .O.58  0.0005426131971716523
    200SJH  .O.26  -0.1578583012171908  .O.31  -0.17974433990363106
    200SJH  .O.32  -1.5622889954667757e-07  .G102  -0.00012486669667994963
    200SJH  .G124  -2.2672241173421854e-06  .O.24  -3.1073341436529567e-10
    200SJH  .O.62  -1.9014987385028588e-12  .O.38  -1.8347924971894084e-11
    200SJH  ..123  8.433563618829417e-06  .O.63  0.007404684178007513
    200SJH  .O.63A  0.0009270314215250857  .O.64  4.282149357108199e-06
    200SJH  .O.65  6.778207940337167e-12  .O.67  0.0015351488750346214
    200SJH  .G105  0.002888202301187258  .O.41  -7.828053689954225e-09
    200SJH  .O.72  7.27146361451459e-07  .O.67A  -4.3704561383173954e-07
    200SJH  .O.40  4.816503736291669e-10
    CSMRPD  ....1  2966.7736610562306  .O..1  -651241218.4919629
    CSMRPD  .O..3  -105576.75466583799  .O.59  64.65861607465918
    CSMRPD  .O.26  -2548618378.953223  .O.31  -21902645405.58147
    CSMRPD  .O.32  -14504.52163952499  .G102  -11098471.675275851
    CSMRPD  .G124  -144665.70894315443  .O.38  -1.13279321081017
    CSMRPD  .G105  256775618.33667263  .O.41  -751.2138940959505
    CSMRPD  .O.72  36641.99336649251  .O.67A  25565.411278348947
    CSMRPD  .O.40  39.12749018493521
    MDTRDL  ....1  3.277594282257265e-05  .O..1  -7.946384509425442
    MDTRDL  .O..3  -0.0014365046502155057  .O.60  6.930875167945097e-08
    MDTRDL  .O.26  -111.39027593799882  .O.31  -96.78929847595347
    MDTRDL  .O.32  -0.00010415678007663772  .G102  -0.14296558635736858
    MDTRDL  .G124  -0.0008537496406306641  .O.38  -1.0977831608996463e-08
    MDTRDL  .G105  3.4933268947705063  .O.41  -1.2751663118958334e-05
    MDTRDL  .O.72  0.0003387175092142503  .O.40  4.783762375848951e-07
    MDTRDL  .O.67A  0.000282438282803279
    200LWR  .O..1  -3113214.8127607764  .O..3  -965.0368115517468
    200LWR  .O.31  -55480303.76079837  .O.32  -45.92568908713039
    200LWR  .G102  -23512.53064175971  .G124  -306.6751712918049
    200LWR  .O.24  -0.04103745814137197  .O.62  -0.00047092186382617705
    200LWR  .O.38  -0.0023492261194135084  .O.26  -38633857.983905606
    200LWR  ..123  -2227.581573080819  .O.41  -1.7684118348106497
    200LWR  .O.63  1214589.3457292872  .O.65  0.00206634799311331
    200LWR  .O.67  189541.77976789497  .O.40  0.08281320262138618
    200LWR  .O.72  108.65327593693571  .G105  543848.0310904856
    200LWR  .O.16  0.005965035655604422  .O.25  11.170830976730757
    200SWB  .O..1  -157300213.47370905  .O..3  -7161.687313949356
    200SWB  .O.50  2177.761758798643  .O.26  -168563437.16740197
    200SWB  .O.31  -966690334.3697858  .O.32  -840.220989556459
    200SWB  .G102  -408668.13907724625  .G124  -5329.305115368611
    200SWB  .O.24  -4.9167804371410675  .O.62  -0.0014480039066717446
    200SWB  .O.38  -0.05482095580738454  ..123  -200168.27302501508
    200SWB  .O.65  0.13501539039417135  .O.67  12384679.384429842
    200SWB  .O.63  21410447.689914566  .G105  9439380.688019162
    200SWB  .O.41  -30.618453432504705  .O.72  1890.8856772868116
    200SWB  .O.40  1.439101908678071
    200DSX  .O..1  -40.97738669740182  .O..3  -0.02474748998709193
    200DSX  .O.51  7.265236660205725e-07  .O.26  -615.0825576346878
    200DSX  .O.31  -887.5522210210185  .O.32  -0.0007347012288711513
    200DSX  .G102  -0.3716476878773875  .G124  -0.004886840843051062
    200DSX  .O.24  -3.8222621408531647e-07  ..123  0.02593484434122745
    200DSX  .O.62  -7.521962011429359e-09  .O.38  -4.450500179354667e-08
    200DSX  .O.65  2.6097337723158594e-08  .O.67  2.393854208360371
    200DSX  .O.63  19.312809587880878  .G105  8.600803225224018
    200DSX  .O.41  -2.790050598364059e-05  .O.72  0.0017311043179055227
    200DSX  .O.40  1.3129448290189412e-06
    200575  .O..1  -7.358151423322058  .O..3  -0.004593821396843082
    200575  .O..6  1.0194475001758798e-05  .O.19  0.006474540459966147
    200575  .O.26  -107.92627074402117  .O.31  -199.40940351991864
    200575  .O.32  -0.0001638451217494883  .G102  -0.08305675876500765
    200575  .G124  -0.0010840227182759303  .O.24  -3.054408716703611e-08
    200575  .O.62  -1.3496590099479803e-09  .O.38  -2.6135191516967495e-08
    200575  ..123  0.002486975880869796  .O.65  4.12608111788288e-09
    200575  .O.67  0.37847679149721103  .O.63  4.309688880983465
    200575  .G105  1.9214174883528121  .O.41  -6.238015888302652e-06
    200575  .O.72  0.00038506234123890213  .O.40  2.929006016067621e-07
    200IF  .O..1  -1358443521.5876772  .O..3  -214784.27108953756
    200IF  .O.20  19273494077.96871  .O.26  -5857038970.301494
    200IF  .O.31  -24769154189.56875  .O.32  -20503.501191446216
    200IF  .G102  -18164003.223172512  .O.24  -12.39156133152062
    200IF  .G124  -170415.45212555048  .O.62  -0.018550838234475762
    200IF  .O.38  -0.8427944248131187  ..123  -1345269.1727983968
    200IF  .O.63  299897014.3938491  .O.63A  75145241.84948984
    200IF  .O.64  237704.72391422876  .O.65  0.03459450150412691
    200IF  .O.67  63465625.41380965  .G105  420288474.97778565
    200IF  .O.41  -1529.8246769892494  .O.72  68710.16411674417
    200IF  .O.40  59.735205785352846
RHS
    ZZZZ0001  ...64  1214612.0725580512  .O.67A  0.2791986919297401
    ZZZZ0001  ....4  1779219.3185499422  ....5  0.008779797740121366
    ZZZZ0001  ....6  0.00018406623570183143  ....7  3.6637998725413936e-05
    ZZZZ0001  ....8  341622.60100730084  ...10  0.035741958802491834
    ZZZZ0001  ...11  0.0014104359373244284  ...12  2890.530141226567
    ZZZZ0001  ...15  2.973461476230272  .SM.4  0.0022073374576706004
    ZZZZ0001  .O..9  335.1194252511236  .O.10  210615.2138789022
    ZZZZ0001  .O.15  180217.62865931235  .O.54  196726.91476855232
    ZZZZ0001  .O.55  0.01896386347656196  .O.56  546.8083315897946
    ZZZZ0001  .O.57  7.316840105244901e-06  .O.58  1007.1733718818092
    ZZZZ0001  ..108  0.14080275997758787  ..109  0.0003530049613193029
    ZZZZ0001  .G.16  0.6715987085027735  ...30  134.9749273600775
    ZZZZ0001  ...31A  2.426631928530729e-06  ...98  43.13760570098472
    ZZZZ0001  ...99  5957.839749059937  ..106  451271.91711705463
    ZZZZ0001  ..107  0.0009306431033116173  ..107A  35.93606779238937
    ZZZZ0001  ..112  0.0026423638122805818  ..113  0.0019306786349742857
    ZZZZ0001  ..115  14.988338398893955  ..116  27574.51274064309
    ZZZZ0001  ..116V  15.213700099618059  .G..3  227351.3722626845
    ZZZZ0001  .G.10  498140.2349872525  .G.11B  0.0022241657060320763
    ZZZZ0001  .G.51  2.467411846832663e-06  .G.51V  0.234796746034806
    ZZZZ0001  .G.52  166574.84679564385  .G.53  9188.046731650411
    ZZZZ0001  .G.54  9.05933348580003e-05  .G123  235780.1879104733
    ZZZZ0001  .G123A  0.08324036747055585  ...79A  1.6982952829833218e-06
    ZZZZ0001  .G.76  28457.672808371837  .G113  0.05213756209030095
    ZZZZ0001  .G125  82.44382636874884  .G125V  0.00020369700954599355
    ZZZZ0001  .OMB4  7.032203626100405  .OMB6  1.480520439806566
    ZZZZ0001  .OMB7  30886.079654691708  .OMB8  1.4468637905868488e-06
    ZZZZ0001  .OMB9  5.158712230480714e-05  .OMB10  0.004084374113292129
    ZZZZ0001  .O..4  0.012253436396166325  .O..5  14.665030249371046
    ZZZZ0001  .O.52  0.0074055593496094195  .O.53  6.971088566735932e-06
    ZZZZ0001  .O.68  2.0044595664421026e-06  .O.69  604.9713603498733
    ZZZZ0001  .ORC2  1417.6365102510426  .ED.2  0.00020769160484430883
    ZZZZ0001  .ED.4  1.2559163688501863e-05  ...58  0.0006440539997367413
    ZZZZ0001  ...58A  0.625894894792724  ...61  10.251485772099143
    ZZZZ0001  ...62  0.00025963541917691895  ...63  8.902531070739641e-06
    ZZZZ0001  ...66  1.5248217625624912e-06  ...67  5.157357955655647e-06
    ZZZZ0001  ...68  593.3928430851439  ...70  2.3404069019696894e-05
    ZZZZ0001  ...73  20462.00631918011  ...75  0.0002413659917974212
    ZZZZ0001  ...83  0.0008972834179556943  ...84  0.07825944322640659
    ZZZZ0001  ...90  118.50456055976315  ..111B  638854.6758121429
    ZZZZ0001  ..112A  0.0002911166687691435  ..118  91954.62606614544
    ZZZZ0001  ..119  5.364745135872307e-05  ..120  0.007092831276447885
    ZZZZ0001  .G.39  77.99165886873773  .G.41  112219.4816708299
    ZZZZ0001  .G.42  0.0232301429317949  .G.45  717.9681197789955
    ZZZZ0001  ...50A  7358.870064484194  ...80A  101840.93338873614
    ZZZZ0001  ...41A  1.1104495919414985e-06  .RHSC  54.61667847689739
    ZZZZ0001  .G105  39531.13315168315  .G126  1.5759083556342885e-05
    ZZZZ0001  .O.16  1.2858827957217079e-06  .O.18  94629.06579869967
    ZZZZ0001  .O.27A  8.377539702182238e-06  .O.28  0.27490115889265576
    ZZZZ0001  .O.29  3487.108122128123  .O.40  0.00799543624142534
    ZZZZ0001  .O.41  -0.057302741116831826  .O.45  2527268.7444877923
    ZZZZ0001  .O.61  9.943871115903407e-05  .O.63  33166.581117705384
    ZZZZ0001  .O.63A  4537.792028556214  .O.64  12.081674265235272
    ZZZZ0001  .O.65  3.095158305410196e-05  .O.66  0.0058568164726340785
    ZZZZ0001  .O.67  5118.06389524639  .O.67B  1.5895177333110968
    ZZZZ0001  .O.72  8.419582782800331  .SM10  3804001.1135735586
    ZZZZ0001  .SM11  0.39509873660542666  .SM12  0.0016080788690666626
    ZZZZ0001  .SM20  0.0012943919651084415  .SM21  0.00013173820931468256
    ZZZZ0001  .SM22  0.0026794768993985657  .SM22A  1684370.3524566744
ENDATA
