NAME TRANSPDEG_40
ROWS
 N  OBJ
 L  s0
 L  s1
 L  s2
 L  s3
 L  s4
 L  s5
 L  s6
 L  s7
 L  s8
 L  s9
 L  s10
 L  s11
 L  s12
 L  s13
 L  s14
 L  s15
 L  s16
 L  s17
 L  s18
 L  s19
 L  s20
 L  s21
 L  s22
 L  s23
 L  s24
 L  s25
 L  s26
 L  s27
 L  s28
 L  s29
 L  s30
 L  s31
 L  s32
 L  s33
 L  s34
 L  s35
 L  s36
 L  s37
 L  s38
 L  s39
 G  d0
 G  d1
 G  d2
 G  d3
 G  d4
 G  d5
 G  d6
 G  d7
 G  d8
 G  d9
 G  d10
 G  d11
 G  d12
 G  d13
 G  d14
 G  d15
 G  d16
 G  d17
 G  d18
 G  d19
 G  d20
 G  d21
 G  d22
 G  d23
 G  d24
 G  d25
 G  d26
 G  d27
 G  d28
 G  d29
 G  d30
 G  d31
 G  d32
 G  d33
 G  d34
 G  d35
 G  d36
 G  d37
 G  d38
 G  d39
COLUMNS
    x0_0 OBJ 6.0
    x0_0 s0 1.0
    x0_0 d0 1.0
    x0_1 OBJ 3.0
    x0_1 s0 1.0
    x0_1 d1 1.0
    x0_2 OBJ 7.0
    x0_2 s0 1.0
    x0_2 d2 1.0
    x0_3 OBJ 1.0
    x0_3 s0 1.0
    x0_3 d3 1.0
    x0_4 OBJ 2.0
    x0_4 s0 1.0
    x0_4 d4 1.0
    x0_5 OBJ 9.0
    x0_5 s0 1.0
    x0_5 d5 1.0
    x0_6 OBJ 2.0
    x0_6 s0 1.0
    x0_6 d6 1.0
    x0_7 OBJ 6.0
    x0_7 s0 1.0
    x0_7 d7 1.0
    x0_8 OBJ 1.0
    x0_8 s0 1.0
    x0_8 d8 1.0
    x0_9 OBJ 9.0
    x0_9 s0 1.0
    x0_9 d9 1.0
    x0_10 OBJ 4.0
    x0_10 s0 1.0
    x0_10 d10 1.0
    x0_11 OBJ 1.0
    x0_11 s0 1.0
    x0_11 d11 1.0
    x0_12 OBJ 2.0
    x0_12 s0 1.0
    x0_12 d12 1.0
    x0_13 OBJ 7.0
    x0_13 s0 1.0
    x0_13 d13 1.0
    x0_14 OBJ 7.0
    x0_14 s0 1.0
    x0_14 d14 1.0
    x0_15 OBJ 2.0
    x0_15 s0 1.0
    x0_15 d15 1.0
    x0_16 OBJ 4.0
    x0_16 s0 1.0
    x0_16 d16 1.0
    x0_17 OBJ 2.0
    x0_17 s0 1.0
    x0_17 d17 1.0
    x0_18 OBJ 9.0
    x0_18 s0 1.0
    x0_18 d18 1.0
    x0_19 OBJ 7.0
    x0_19 s0 1.0
    x0_19 d19 1.0
    x0_20 OBJ 1.0
    x0_20 s0 1.0
    x0_20 d20 1.0
    x0_21 OBJ 2.0
    x0_21 s0 1.0
    x0_21 d21 1.0
    x0_22 OBJ 4.0
    x0_22 s0 1.0
    x0_22 d22 1.0
    x0_23 OBJ 1.0
    x0_23 s0 1.0
    x0_23 d23 1.0
    x0_24 OBJ 7.0
    x0_24 s0 1.0
    x0_24 d24 1.0
    x0_25 OBJ 1.0
    x0_25 s0 1.0
    x0_25 d25 1.0
    x0_26 OBJ 4.0
    x0_26 s0 1.0
    x0_26 d26 1.0
    x0_27 OBJ 1.0
    x0_27 s0 1.0
    x0_27 d27 1.0
    x0_28 OBJ 9.0
    x0_28 s0 1.0
    x0_28 d28 1.0
    x0_29 OBJ 3.0
    x0_29 s0 1.0
    x0_29 d29 1.0
    x0_30 OBJ 5.0
    x0_30 s0 1.0
    x0_30 d30 1.0
    x0_31 OBJ 7.0
    x0_31 s0 1.0
    x0_31 d31 1.0
    x0_32 OBJ 3.0
    x0_32 s0 1.0
    x0_32 d32 1.0
    x0_33 OBJ 9.0
    x0_33 s0 1.0
    x0_33 d33 1.0
    x0_34 OBJ 2.0
    x0_34 s0 1.0
    x0_34 d34 1.0
    x0_35 OBJ 5.0
    x0_35 s0 1.0
    x0_35 d35 1.0
    x0_36 OBJ 9.0
    x0_36 s0 1.0
    x0_36 d36 1.0
    x0_37 OBJ 3.0
    x0_37 s0 1.0
    x0_37 d37 1.0
    x0_38 OBJ 2.0
    x0_38 s0 1.0
    x0_38 d38 1.0
    x0_39 OBJ 4.0
    x0_39 s0 1.0
    x0_39 d39 1.0
    x1_0 OBJ 6.0
    x1_0 s1 1.0
    x1_0 d0 1.0
    x1_1 OBJ 2.0
    x1_1 s1 1.0
    x1_1 d1 1.0
    x1_2 OBJ 9.0
    x1_2 s1 1.0
    x1_2 d2 1.0
    x1_3 OBJ 2.0
    x1_3 s1 1.0
    x1_3 d3 1.0
    x1_4 OBJ 1.0
    x1_4 s1 1.0
    x1_4 d4 1.0
    x1_5 OBJ 4.0
    x1_5 s1 1.0
    x1_5 d5 1.0
    x1_6 OBJ 8.0
    x1_6 s1 1.0
    x1_6 d6 1.0
    x1_7 OBJ 9.0
    x1_7 s1 1.0
    x1_7 d7 1.0
    x1_8 OBJ 7.0
    x1_8 s1 1.0
    x1_8 d8 1.0
    x1_9 OBJ 6.0
    x1_9 s1 1.0
    x1_9 d9 1.0
    x1_10 OBJ 8.0
    x1_10 s1 1.0
    x1_10 d10 1.0
    x1_11 OBJ 8.0
    x1_11 s1 1.0
    x1_11 d11 1.0
    x1_12 OBJ 6.0
    x1_12 s1 1.0
    x1_12 d12 1.0
    x1_13 OBJ 5.0
    x1_13 s1 1.0
    x1_13 d13 1.0
    x1_14 OBJ 4.0
    x1_14 s1 1.0
    x1_14 d14 1.0
    x1_15 OBJ 3.0
    x1_15 s1 1.0
    x1_15 d15 1.0
    x1_16 OBJ 4.0
    x1_16 s1 1.0
    x1_16 d16 1.0
    x1_17 OBJ 2.0
    x1_17 s1 1.0
    x1_17 d17 1.0
    x1_18 OBJ 5.0
    x1_18 s1 1.0
    x1_18 d18 1.0
    x1_19 OBJ 9.0
    x1_19 s1 1.0
    x1_19 d19 1.0
    x1_20 OBJ 8.0
    x1_20 s1 1.0
    x1_20 d20 1.0
    x1_21 OBJ 6.0
    x1_21 s1 1.0
    x1_21 d21 1.0
    x1_22 OBJ 8.0
    x1_22 s1 1.0
    x1_22 d22 1.0
    x1_23 OBJ 5.0
    x1_23 s1 1.0
    x1_23 d23 1.0
    x1_24 OBJ 2.0
    x1_24 s1 1.0
    x1_24 d24 1.0
    x1_25 OBJ 2.0
    x1_25 s1 1.0
    x1_25 d25 1.0
    x1_26 OBJ 9.0
    x1_26 s1 1.0
    x1_26 d26 1.0
    x1_27 OBJ 7.0
    x1_27 s1 1.0
    x1_27 d27 1.0
    x1_28 OBJ 3.0
    x1_28 s1 1.0
    x1_28 d28 1.0
    x1_29 OBJ 6.0
    x1_29 s1 1.0
    x1_29 d29 1.0
    x1_30 OBJ 3.0
    x1_30 s1 1.0
    x1_30 d30 1.0
    x1_31 OBJ 8.0
    x1_31 s1 1.0
    x1_31 d31 1.0
    x1_32 OBJ 7.0
    x1_32 s1 1.0
    x1_32 d32 1.0
    x1_33 OBJ 1.0
    x1_33 s1 1.0
    x1_33 d33 1.0
    x1_34 OBJ 2.0
    x1_34 s1 1.0
    x1_34 d34 1.0
    x1_35 OBJ 9.0
    x1_35 s1 1.0
    x1_35 d35 1.0
    x1_36 OBJ 6.0
    x1_36 s1 1.0
    x1_36 d36 1.0
    x1_37 OBJ 6.0
    x1_37 s1 1.0
    x1_37 d37 1.0
    x1_38 OBJ 6.0
    x1_38 s1 1.0
    x1_38 d38 1.0
    x1_39 OBJ 8.0
    x1_39 s1 1.0
    x1_39 d39 1.0
    x2_0 OBJ 8.0
    x2_0 s2 1.0
    x2_0 d0 1.0
    x2_1 OBJ 2.0
    x2_1 s2 1.0
    x2_1 d1 1.0
    x2_2 OBJ 2.0
    x2_2 s2 1.0
    x2_2 d2 1.0
    x2_3 OBJ 5.0
    x2_3 s2 1.0
    x2_3 d3 1.0
    x2_4 OBJ 8.0
    x2_4 s2 1.0
    x2_4 d4 1.0
    x2_5 OBJ 2.0
    x2_5 s2 1.0
    x2_5 d5 1.0
    x2_6 OBJ 1.0
    x2_6 s2 1.0
    x2_6 d6 1.0
    x2_7 OBJ 5.0
    x2_7 s2 1.0
    x2_7 d7 1.0
    x2_8 OBJ 8.0
    x2_8 s2 1.0
    x2_8 d8 1.0
    x2_9 OBJ 5.0
    x2_9 s2 1.0
    x2_9 d9 1.0
    x2_10 OBJ 7.0
    x2_10 s2 1.0
    x2_10 d10 1.0
    x2_11 OBJ 6.0
    x2_11 s2 1.0
    x2_11 d11 1.0
    x2_12 OBJ 1.0
    x2_12 s2 1.0
    x2_12 d12 1.0
    x2_13 OBJ 8.0
    x2_13 s2 1.0
    x2_13 d13 1.0
    x2_14 OBJ 6.0
    x2_14 s2 1.0
    x2_14 d14 1.0
    x2_15 OBJ 3.0
    x2_15 s2 1.0
    x2_15 d15 1.0
    x2_16 OBJ 2.0
    x2_16 s2 1.0
    x2_16 d16 1.0
    x2_17 OBJ 8.0
    x2_17 s2 1.0
    x2_17 d17 1.0
    x2_18 OBJ 1.0
    x2_18 s2 1.0
    x2_18 d18 1.0
    x2_19 OBJ 4.0
    x2_19 s2 1.0
    x2_19 d19 1.0
    x2_20 OBJ 5.0
    x2_20 s2 1.0
    x2_20 d20 1.0
    x2_21 OBJ 3.0
    x2_21 s2 1.0
    x2_21 d21 1.0
    x2_22 OBJ 4.0
    x2_22 s2 1.0
    x2_22 d22 1.0
    x2_23 OBJ 7.0
    x2_23 s2 1.0
    x2_23 d23 1.0
    x2_24 OBJ 7.0
    x2_24 s2 1.0
    x2_24 d24 1.0
    x2_25 OBJ 8.0
    x2_25 s2 1.0
    x2_25 d25 1.0
    x2_26 OBJ 2.0
    x2_26 s2 1.0
    x2_26 d26 1.0
    x2_27 OBJ 3.0
    x2_27 s2 1.0
    x2_27 d27 1.0
    x2_28 OBJ 8.0
    x2_28 s2 1.0
    x2_28 d28 1.0
    x2_29 OBJ 7.0
    x2_29 s2 1.0
    x2_29 d29 1.0
    x2_30 OBJ 9.0
    x2_30 s2 1.0
    x2_30 d30 1.0
    x2_31 OBJ 5.0
    x2_31 s2 1.0
    x2_31 d31 1.0
    x2_32 OBJ 3.0
    x2_32 s2 1.0
    x2_32 d32 1.0
    x2_33 OBJ 7.0
    x2_33 s2 1.0
    x2_33 d33 1.0
    x2_34 OBJ 9.0
    x2_34 s2 1.0
    x2_34 d34 1.0
    x2_35 OBJ 5.0
    x2_35 s2 1.0
    x2_35 d35 1.0
    x2_36 OBJ 7.0
    x2_36 s2 1.0
    x2_36 d36 1.0
    x2_37 OBJ 6.0
    x2_37 s2 1.0
    x2_37 d37 1.0
    x2_38 OBJ 7.0
    x2_38 s2 1.0
    x2_38 d38 1.0
    x2_39 OBJ 4.0
    x2_39 s2 1.0
    x2_39 d39 1.0
    x3_0 OBJ 3.0
    x3_0 s3 1.0
    x3_0 d0 1.0
    x3_1 OBJ 2.0
    x3_1 s3 1.0
    x3_1 d1 1.0
    x3_2 OBJ 3.0
    x3_2 s3 1.0
    x3_2 d2 1.0
    x3_3 OBJ 3.0
    x3_3 s3 1.0
    x3_3 d3 1.0
    x3_4 OBJ 4.0
    x3_4 s3 1.0
    x3_4 d4 1.0
    x3_5 OBJ 4.0
    x3_5 s3 1.0
    x3_5 d5 1.0
    x3_6 OBJ 1.0
    x3_6 s3 1.0
    x3_6 d6 1.0
    x3_7 OBJ 8.0
    x3_7 s3 1.0
    x3_7 d7 1.0
    x3_8 OBJ 3.0
    x3_8 s3 1.0
    x3_8 d8 1.0
    x3_9 OBJ 5.0
    x3_9 s3 1.0
    x3_9 d9 1.0
    x3_10 OBJ 5.0
    x3_10 s3 1.0
    x3_10 d10 1.0
    x3_11 OBJ 1.0
    x3_11 s3 1.0
    x3_11 d11 1.0
    x3_12 OBJ 3.0
    x3_12 s3 1.0
    x3_12 d12 1.0
    x3_13 OBJ 7.0
    x3_13 s3 1.0
    x3_13 d13 1.0
    x3_14 OBJ 9.0
    x3_14 s3 1.0
    x3_14 d14 1.0
    x3_15 OBJ 6.0
    x3_15 s3 1.0
    x3_15 d15 1.0
    x3_16 OBJ 6.0
    x3_16 s3 1.0
    x3_16 d16 1.0
    x3_17 OBJ 3.0
    x3_17 s3 1.0
    x3_17 d17 1.0
    x3_18 OBJ 9.0
    x3_18 s3 1.0
    x3_18 d18 1.0
    x3_19 OBJ 1.0
    x3_19 s3 1.0
    x3_19 d19 1.0
    x3_20 OBJ 8.0
    x3_20 s3 1.0
    x3_20 d20 1.0
    x3_21 OBJ 9.0
    x3_21 s3 1.0
    x3_21 d21 1.0
    x3_22 OBJ 7.0
    x3_22 s3 1.0
    x3_22 d22 1.0
    x3_23 OBJ 7.0
    x3_23 s3 1.0
    x3_23 d23 1.0
    x3_24 OBJ 7.0
    x3_24 s3 1.0
    x3_24 d24 1.0
    x3_25 OBJ 7.0
    x3_25 s3 1.0
    x3_25 d25 1.0
    x3_26 OBJ 2.0
    x3_26 s3 1.0
    x3_26 d26 1.0
    x3_27 OBJ 8.0
    x3_27 s3 1.0
    x3_27 d27 1.0
    x3_28 OBJ 7.0
    x3_28 s3 1.0
    x3_28 d28 1.0
    x3_29 OBJ 1.0
    x3_29 s3 1.0
    x3_29 d29 1.0
    x3_30 OBJ 4.0
    x3_30 s3 1.0
    x3_30 d30 1.0
    x3_31 OBJ 2.0
    x3_31 s3 1.0
    x3_31 d31 1.0
    x3_32 OBJ 4.0
    x3_32 s3 1.0
    x3_32 d32 1.0
    x3_33 OBJ 8.0
    x3_33 s3 1.0
    x3_33 d33 1.0
    x3_34 OBJ 3.0
    x3_34 s3 1.0
    x3_34 d34 1.0
    x3_35 OBJ 2.0
    x3_35 s3 1.0
    x3_35 d35 1.0
    x3_36 OBJ 6.0
    x3_36 s3 1.0
    x3_36 d36 1.0
    x3_37 OBJ 1.0
    x3_37 s3 1.0
    x3_37 d37 1.0
    x3_38 OBJ 2.0
    x3_38 s3 1.0
    x3_38 d38 1.0
    x3_39 OBJ 1.0
    x3_39 s3 1.0
    x3_39 d39 1.0
    x4_0 OBJ 3.0
    x4_0 s4 1.0
    x4_0 d0 1.0
    x4_1 OBJ 9.0
    x4_1 s4 1.0
    x4_1 d1 1.0
    x4_2 OBJ 2.0
    x4_2 s4 1.0
    x4_2 d2 1.0
    x4_3 OBJ 6.0
    x4_3 s4 1.0
    x4_3 d3 1.0
    x4_4 OBJ 1.0
    x4_4 s4 1.0
    x4_4 d4 1.0
    x4_5 OBJ 2.0
    x4_5 s4 1.0
    x4_5 d5 1.0
    x4_6 OBJ 4.0
    x4_6 s4 1.0
    x4_6 d6 1.0
    x4_7 OBJ 7.0
    x4_7 s4 1.0
    x4_7 d7 1.0
    x4_8 OBJ 3.0
    x4_8 s4 1.0
    x4_8 d8 1.0
    x4_9 OBJ 5.0
    x4_9 s4 1.0
    x4_9 d9 1.0
    x4_10 OBJ 6.0
    x4_10 s4 1.0
    x4_10 d10 1.0
    x4_11 OBJ 6.0
    x4_11 s4 1.0
    x4_11 d11 1.0
    x4_12 OBJ 8.0
    x4_12 s4 1.0
    x4_12 d12 1.0
    x4_13 OBJ 2.0
    x4_13 s4 1.0
    x4_13 d13 1.0
    x4_14 OBJ 2.0
    x4_14 s4 1.0
    x4_14 d14 1.0
    x4_15 OBJ 8.0
    x4_15 s4 1.0
    x4_15 d15 1.0
    x4_16 OBJ 8.0
    x4_16 s4 1.0
    x4_16 d16 1.0
    x4_17 OBJ 8.0
    x4_17 s4 1.0
    x4_17 d17 1.0
    x4_18 OBJ 8.0
    x4_18 s4 1.0
    x4_18 d18 1.0
    x4_19 OBJ 5.0
    x4_19 s4 1.0
    x4_19 d19 1.0
    x4_20 OBJ 2.0
    x4_20 s4 1.0
    x4_20 d20 1.0
    x4_21 OBJ 3.0
    x4_21 s4 1.0
    x4_21 d21 1.0
    x4_22 OBJ 2.0
    x4_22 s4 1.0
    x4_22 d22 1.0
    x4_23 OBJ 6.0
    x4_23 s4 1.0
    x4_23 d23 1.0
    x4_24 OBJ 5.0
    x4_24 s4 1.0
    x4_24 d24 1.0
    x4_25 OBJ 8.0
    x4_25 s4 1.0
    x4_25 d25 1.0
    x4_26 OBJ 3.0
    x4_26 s4 1.0
    x4_26 d26 1.0
    x4_27 OBJ 9.0
    x4_27 s4 1.0
    x4_27 d27 1.0
    x4_28 OBJ 1.0
    x4_28 s4 1.0
    x4_28 d28 1.0
    x4_29 OBJ 4.0
    x4_29 s4 1.0
    x4_29 d29 1.0
    x4_30 OBJ 9.0
    x4_30 s4 1.0
    x4_30 d30 1.0
    x4_31 OBJ 6.0
    x4_31 s4 1.0
    x4_31 d31 1.0
    x4_32 OBJ 3.0
    x4_32 s4 1.0
    x4_32 d32 1.0
    x4_33 OBJ 9.0
    x4_33 s4 1.0
    x4_33 d33 1.0
    x4_34 OBJ 1.0
    x4_34 s4 1.0
    x4_34 d34 1.0
    x4_35 OBJ 9.0
    x4_35 s4 1.0
    x4_35 d35 1.0
    x4_36 OBJ 5.0
    x4_36 s4 1.0
    x4_36 d36 1.0
    x4_37 OBJ 2.0
    x4_37 s4 1.0
    x4_37 d37 1.0
    x4_38 OBJ 5.0
    x4_38 s4 1.0
    x4_38 d38 1.0
    x4_39 OBJ 9.0
    x4_39 s4 1.0
    x4_39 d39 1.0
    x5_0 OBJ 6.0
    x5_0 s5 1.0
    x5_0 d0 1.0
    x5_1 OBJ 3.0
    x5_1 s5 1.0
    x5_1 d1 1.0
    x5_2 OBJ 6.0
    x5_2 s5 1.0
    x5_2 d2 1.0
    x5_3 OBJ 4.0
    x5_3 s5 1.0
    x5_3 d3 1.0
    x5_4 OBJ 9.0
    x5_4 s5 1.0
    x5_4 d4 1.0
    x5_5 OBJ 9.0
    x5_5 s5 1.0
    x5_5 d5 1.0
    x5_6 OBJ 9.0
    x5_6 s5 1.0
    x5_6 d6 1.0
    x5_7 OBJ 6.0
    x5_7 s5 1.0
    x5_7 d7 1.0
    x5_8 OBJ 4.0
    x5_8 s5 1.0
    x5_8 d8 1.0
    x5_9 OBJ 4.0
    x5_9 s5 1.0
    x5_9 d9 1.0
    x5_10 OBJ 4.0
    x5_10 s5 1.0
    x5_10 d10 1.0
    x5_11 OBJ 7.0
    x5_11 s5 1.0
    x5_11 d11 1.0
    x5_12 OBJ 4.0
    x5_12 s5 1.0
    x5_12 d12 1.0
    x5_13 OBJ 4.0
    x5_13 s5 1.0
    x5_13 d13 1.0
    x5_14 OBJ 9.0
    x5_14 s5 1.0
    x5_14 d14 1.0
    x5_15 OBJ 8.0
    x5_15 s5 1.0
    x5_15 d15 1.0
    x5_16 OBJ 6.0
    x5_16 s5 1.0
    x5_16 d16 1.0
    x5_17 OBJ 1.0
    x5_17 s5 1.0
    x5_17 d17 1.0
    x5_18 OBJ 1.0
    x5_18 s5 1.0
    x5_18 d18 1.0
    x5_19 OBJ 5.0
    x5_19 s5 1.0
    x5_19 d19 1.0
    x5_20 OBJ 8.0
    x5_20 s5 1.0
    x5_20 d20 1.0
    x5_21 OBJ 5.0
    x5_21 s5 1.0
    x5_21 d21 1.0
    x5_22 OBJ 4.0
    x5_22 s5 1.0
    x5_22 d22 1.0
    x5_23 OBJ 6.0
    x5_23 s5 1.0
    x5_23 d23 1.0
    x5_24 OBJ 8.0
    x5_24 s5 1.0
    x5_24 d24 1.0
    x5_25 OBJ 6.0
    x5_25 s5 1.0
    x5_25 d25 1.0
    x5_26 OBJ 6.0
    x5_26 s5 1.0
    x5_26 d26 1.0
    x5_27 OBJ 2.0
    x5_27 s5 1.0
    x5_27 d27 1.0
    x5_28 OBJ 4.0
    x5_28 s5 1.0
    x5_28 d28 1.0
    x5_29 OBJ 2.0
    x5_29 s5 1.0
    x5_29 d29 1.0
    x5_30 OBJ 4.0
    x5_30 s5 1.0
    x5_30 d30 1.0
    x5_31 OBJ 8.0
    x5_31 s5 1.0
    x5_31 d31 1.0
    x5_32 OBJ 4.0
    x5_32 s5 1.0
    x5_32 d32 1.0
    x5_33 OBJ 6.0
    x5_33 s5 1.0
    x5_33 d33 1.0
    x5_34 OBJ 4.0
    x5_34 s5 1.0
    x5_34 d34 1.0
    x5_35 OBJ 8.0
    x5_35 s5 1.0
    x5_35 d35 1.0
    x5_36 OBJ 1.0
    x5_36 s5 1.0
    x5_36 d36 1.0
    x5_37 OBJ 8.0
    x5_37 s5 1.0
    x5_37 d37 1.0
    x5_38 OBJ 6.0
    x5_38 s5 1.0
    x5_38 d38 1.0
    x5_39 OBJ 2.0
    x5_39 s5 1.0
    x5_39 d39 1.0
    x6_0 OBJ 2.0
    x6_0 s6 1.0
    x6_0 d0 1.0
    x6_1 OBJ 7.0
    x6_1 s6 1.0
    x6_1 d1 1.0
    x6_2 OBJ 4.0
    x6_2 s6 1.0
    x6_2 d2 1.0
    x6_3 OBJ 8.0
    x6_3 s6 1.0
    x6_3 d3 1.0
    x6_4 OBJ 3.0
    x6_4 s6 1.0
    x6_4 d4 1.0
    x6_5 OBJ 7.0
    x6_5 s6 1.0
    x6_5 d5 1.0
    x6_6 OBJ 6.0
    x6_6 s6 1.0
    x6_6 d6 1.0
    x6_7 OBJ 2.0
    x6_7 s6 1.0
    x6_7 d7 1.0
    x6_8 OBJ 7.0
    x6_8 s6 1.0
    x6_8 d8 1.0
    x6_9 OBJ 8.0
    x6_9 s6 1.0
    x6_9 d9 1.0
    x6_10 OBJ 7.0
    x6_10 s6 1.0
    x6_10 d10 1.0
    x6_11 OBJ 2.0
    x6_11 s6 1.0
    x6_11 d11 1.0
    x6_12 OBJ 3.0
    x6_12 s6 1.0
    x6_12 d12 1.0
    x6_13 OBJ 3.0
    x6_13 s6 1.0
    x6_13 d13 1.0
    x6_14 OBJ 3.0
    x6_14 s6 1.0
    x6_14 d14 1.0
    x6_15 OBJ 1.0
    x6_15 s6 1.0
    x6_15 d15 1.0
    x6_16 OBJ 3.0
    x6_16 s6 1.0
    x6_16 d16 1.0
    x6_17 OBJ 8.0
    x6_17 s6 1.0
    x6_17 d17 1.0
    x6_18 OBJ 3.0
    x6_18 s6 1.0
    x6_18 d18 1.0
    x6_19 OBJ 8.0
    x6_19 s6 1.0
    x6_19 d19 1.0
    x6_20 OBJ 6.0
    x6_20 s6 1.0
    x6_20 d20 1.0
    x6_21 OBJ 3.0
    x6_21 s6 1.0
    x6_21 d21 1.0
    x6_22 OBJ 9.0
    x6_22 s6 1.0
    x6_22 d22 1.0
    x6_23 OBJ 9.0
    x6_23 s6 1.0
    x6_23 d23 1.0
    x6_24 OBJ 3.0
    x6_24 s6 1.0
    x6_24 d24 1.0
    x6_25 OBJ 1.0
    x6_25 s6 1.0
    x6_25 d25 1.0
    x6_26 OBJ 1.0
    x6_26 s6 1.0
    x6_26 d26 1.0
    x6_27 OBJ 2.0
    x6_27 s6 1.0
    x6_27 d27 1.0
    x6_28 OBJ 9.0
    x6_28 s6 1.0
    x6_28 d28 1.0
    x6_29 OBJ 3.0
    x6_29 s6 1.0
    x6_29 d29 1.0
    x6_30 OBJ 7.0
    x6_30 s6 1.0
    x6_30 d30 1.0
    x6_31 OBJ 4.0
    x6_31 s6 1.0
    x6_31 d31 1.0
    x6_32 OBJ 4.0
    x6_32 s6 1.0
    x6_32 d32 1.0
    x6_33 OBJ 1.0
    x6_33 s6 1.0
    x6_33 d33 1.0
    x6_34 OBJ 5.0
    x6_34 s6 1.0
    x6_34 d34 1.0
    x6_35 OBJ 4.0
    x6_35 s6 1.0
    x6_35 d35 1.0
    x6_36 OBJ 5.0
    x6_36 s6 1.0
    x6_36 d36 1.0
    x6_37 OBJ 9.0
    x6_37 s6 1.0
    x6_37 d37 1.0
    x6_38 OBJ 4.0
    x6_38 s6 1.0
    x6_38 d38 1.0
    x6_39 OBJ 6.0
    x6_39 s6 1.0
    x6_39 d39 1.0
    x7_0 OBJ 5.0
    x7_0 s7 1.0
    x7_0 d0 1.0
    x7_1 OBJ 9.0
    x7_1 s7 1.0
    x7_1 d1 1.0
    x7_2 OBJ 7.0
    x7_2 s7 1.0
    x7_2 d2 1.0
    x7_3 OBJ 3.0
    x7_3 s7 1.0
    x7_3 d3 1.0
    x7_4 OBJ 1.0
    x7_4 s7 1.0
    x7_4 d4 1.0
    x7_5 OBJ 6.0
    x7_5 s7 1.0
    x7_5 d5 1.0
    x7_6 OBJ 8.0
    x7_6 s7 1.0
    x7_6 d6 1.0
    x7_7 OBJ 9.0
    x7_7 s7 1.0
    x7_7 d7 1.0
    x7_8 OBJ 7.0
    x7_8 s7 1.0
    x7_8 d8 1.0
    x7_9 OBJ 9.0
    x7_9 s7 1.0
    x7_9 d9 1.0
    x7_10 OBJ 3.0
    x7_10 s7 1.0
    x7_10 d10 1.0
    x7_11 OBJ 9.0
    x7_11 s7 1.0
    x7_11 d11 1.0
    x7_12 OBJ 3.0
    x7_12 s7 1.0
    x7_12 d12 1.0
    x7_13 OBJ 9.0
    x7_13 s7 1.0
    x7_13 d13 1.0
    x7_14 OBJ 9.0
    x7_14 s7 1.0
    x7_14 d14 1.0
    x7_15 OBJ 1.0
    x7_15 s7 1.0
    x7_15 d15 1.0
    x7_16 OBJ 8.0
    x7_16 s7 1.0
    x7_16 d16 1.0
    x7_17 OBJ 3.0
    x7_17 s7 1.0
    x7_17 d17 1.0
    x7_18 OBJ 1.0
    x7_18 s7 1.0
    x7_18 d18 1.0
    x7_19 OBJ 3.0
    x7_19 s7 1.0
    x7_19 d19 1.0
    x7_20 OBJ 3.0
    x7_20 s7 1.0
    x7_20 d20 1.0
    x7_21 OBJ 3.0
    x7_21 s7 1.0
    x7_21 d21 1.0
    x7_22 OBJ 8.0
    x7_22 s7 1.0
    x7_22 d22 1.0
    x7_23 OBJ 2.0
    x7_23 s7 1.0
    x7_23 d23 1.0
    x7_24 OBJ 9.0
    x7_24 s7 1.0
    x7_24 d24 1.0
    x7_25 OBJ 1.0
    x7_25 s7 1.0
    x7_25 d25 1.0
    x7_26 OBJ 6.0
    x7_26 s7 1.0
    x7_26 d26 1.0
    x7_27 OBJ 9.0
    x7_27 s7 1.0
    x7_27 d27 1.0
    x7_28 OBJ 9.0
    x7_28 s7 1.0
    x7_28 d28 1.0
    x7_29 OBJ 9.0
    x7_29 s7 1.0
    x7_29 d29 1.0
    x7_30 OBJ 8.0
    x7_30 s7 1.0
    x7_30 d30 1.0
    x7_31 OBJ 2.0
    x7_31 s7 1.0
    x7_31 d31 1.0
    x7_32 OBJ 9.0
    x7_32 s7 1.0
    x7_32 d32 1.0
    x7_33 OBJ 1.0
    x7_33 s7 1.0
    x7_33 d33 1.0
    x7_34 OBJ 4.0
    x7_34 s7 1.0
    x7_34 d34 1.0
    x7_35 OBJ 4.0
    x7_35 s7 1.0
    x7_35 d35 1.0
    x7_36 OBJ 5.0
    x7_36 s7 1.0
    x7_36 d36 1.0
    x7_37 OBJ 1.0
    x7_37 s7 1.0
    x7_37 d37 1.0
    x7_38 OBJ 2.0
    x7_38 s7 1.0
    x7_38 d38 1.0
    x7_39 OBJ 9.0
    x7_39 s7 1.0
    x7_39 d39 1.0
    x8_0 OBJ 8.0
    x8_0 s8 1.0
    x8_0 d0 1.0
    x8_1 OBJ 9.0
    x8_1 s8 1.0
    x8_1 d1 1.0
    x8_2 OBJ 1.0
    x8_2 s8 1.0
    x8_2 d2 1.0
    x8_3 OBJ 2.0
    x8_3 s8 1.0
    x8_3 d3 1.0
    x8_4 OBJ 8.0
    x8_4 s8 1.0
    x8_4 d4 1.0
    x8_5 OBJ 6.0
    x8_5 s8 1.0
    x8_5 d5 1.0
    x8_6 OBJ 9.0
    x8_6 s8 1.0
    x8_6 d6 1.0
    x8_7 OBJ 9.0
    x8_7 s8 1.0
    x8_7 d7 1.0
    x8_8 OBJ 4.0
    x8_8 s8 1.0
    x8_8 d8 1.0
    x8_9 OBJ 5.0
    x8_9 s8 1.0
    x8_9 d9 1.0
    x8_10 OBJ 8.0
    x8_10 s8 1.0
    x8_10 d10 1.0
    x8_11 OBJ 9.0
    x8_11 s8 1.0
    x8_11 d11 1.0
    x8_12 OBJ 9.0
    x8_12 s8 1.0
    x8_12 d12 1.0
    x8_13 OBJ 8.0
    x8_13 s8 1.0
    x8_13 d13 1.0
    x8_14 OBJ 9.0
    x8_14 s8 1.0
    x8_14 d14 1.0
    x8_15 OBJ 4.0
    x8_15 s8 1.0
    x8_15 d15 1.0
    x8_16 OBJ 9.0
    x8_16 s8 1.0
    x8_16 d16 1.0
    x8_17 OBJ 5.0
    x8_17 s8 1.0
    x8_17 d17 1.0
    x8_18 OBJ 9.0
    x8_18 s8 1.0
    x8_18 d18 1.0
    x8_19 OBJ 4.0
    x8_19 s8 1.0
    x8_19 d19 1.0
    x8_20 OBJ 8.0
    x8_20 s8 1.0
    x8_20 d20 1.0
    x8_21 OBJ 3.0
    x8_21 s8 1.0
    x8_21 d21 1.0
    x8_22 OBJ 7.0
    x8_22 s8 1.0
    x8_22 d22 1.0
    x8_23 OBJ 2.0
    x8_23 s8 1.0
    x8_23 d23 1.0
    x8_24 OBJ 7.0
    x8_24 s8 1.0
    x8_24 d24 1.0
    x8_25 OBJ 8.0
    x8_25 s8 1.0
    x8_25 d25 1.0
    x8_26 OBJ 6.0
    x8_26 s8 1.0
    x8_26 d26 1.0
    x8_27 OBJ 2.0
    x8_27 s8 1.0
    x8_27 d27 1.0
    x8_28 OBJ 4.0
    x8_28 s8 1.0
    x8_28 d28 1.0
    x8_29 OBJ 7.0
    x8_29 s8 1.0
    x8_29 d29 1.0
    x8_30 OBJ 2.0
    x8_30 s8 1.0
    x8_30 d30 1.0
    x8_31 OBJ 4.0
    x8_31 s8 1.0
    x8_31 d31 1.0
    x8_32 OBJ 5.0
    x8_32 s8 1.0
    x8_32 d32 1.0
    x8_33 OBJ 2.0
    x8_33 s8 1.0
    x8_33 d33 1.0
    x8_34 OBJ 3.0
    x8_34 s8 1.0
    x8_34 d34 1.0
    x8_35 OBJ 6.0
    x8_35 s8 1.0
    x8_35 d35 1.0
    x8_36 OBJ 3.0
    x8_36 s8 1.0
    x8_36 d36 1.0
    x8_37 OBJ 5.0
    x8_37 s8 1.0
    x8_37 d37 1.0
    x8_38 OBJ 3.0
    x8_38 s8 1.0
    x8_38 d38 1.0
    x8_39 OBJ 8.0
    x8_39 s8 1.0
    x8_39 d39 1.0
    x9_0 OBJ 4.0
    x9_0 s9 1.0
    x9_0 d0 1.0
    x9_1 OBJ 2.0
    x9_1 s9 1.0
    x9_1 d1 1.0
    x9_2 OBJ 7.0
    x9_2 s9 1.0
    x9_2 d2 1.0
    x9_3 OBJ 8.0
    x9_3 s9 1.0
    x9_3 d3 1.0
    x9_4 OBJ 3.0
    x9_4 s9 1.0
    x9_4 d4 1.0
    x9_5 OBJ 4.0
    x9_5 s9 1.0
    x9_5 d5 1.0
    x9_6 OBJ 3.0
    x9_6 s9 1.0
    x9_6 d6 1.0
    x9_7 OBJ 7.0
    x9_7 s9 1.0
    x9_7 d7 1.0
    x9_8 OBJ 9.0
    x9_8 s9 1.0
    x9_8 d8 1.0
    x9_9 OBJ 7.0
    x9_9 s9 1.0
    x9_9 d9 1.0
    x9_10 OBJ 6.0
    x9_10 s9 1.0
    x9_10 d10 1.0
    x9_11 OBJ 7.0
    x9_11 s9 1.0
    x9_11 d11 1.0
    x9_12 OBJ 4.0
    x9_12 s9 1.0
    x9_12 d12 1.0
    x9_13 OBJ 6.0
    x9_13 s9 1.0
    x9_13 d13 1.0
    x9_14 OBJ 6.0
    x9_14 s9 1.0
    x9_14 d14 1.0
    x9_15 OBJ 2.0
    x9_15 s9 1.0
    x9_15 d15 1.0
    x9_16 OBJ 6.0
    x9_16 s9 1.0
    x9_16 d16 1.0
    x9_17 OBJ 1.0
    x9_17 s9 1.0
    x9_17 d17 1.0
    x9_18 OBJ 6.0
    x9_18 s9 1.0
    x9_18 d18 1.0
    x9_19 OBJ 9.0
    x9_19 s9 1.0
    x9_19 d19 1.0
    x9_20 OBJ 8.0
    x9_20 s9 1.0
    x9_20 d20 1.0
    x9_21 OBJ 8.0
    x9_21 s9 1.0
    x9_21 d21 1.0
    x9_22 OBJ 1.0
    x9_22 s9 1.0
    x9_22 d22 1.0
    x9_23 OBJ 7.0
    x9_23 s9 1.0
    x9_23 d23 1.0
    x9_24 OBJ 6.0
    x9_24 s9 1.0
    x9_24 d24 1.0
    x9_25 OBJ 9.0
    x9_25 s9 1.0
    x9_25 d25 1.0
    x9_26 OBJ 5.0
    x9_26 s9 1.0
    x9_26 d26 1.0
    x9_27 OBJ 9.0
    x9_27 s9 1.0
    x9_27 d27 1.0
    x9_28 OBJ 2.0
    x9_28 s9 1.0
    x9_28 d28 1.0
    x9_29 OBJ 2.0
    x9_29 s9 1.0
    x9_29 d29 1.0
    x9_30 OBJ 4.0
    x9_30 s9 1.0
    x9_30 d30 1.0
    x9_31 OBJ 2.0
    x9_31 s9 1.0
    x9_31 d31 1.0
    x9_32 OBJ 2.0
    x9_32 s9 1.0
    x9_32 d32 1.0
    x9_33 OBJ 5.0
    x9_33 s9 1.0
    x9_33 d33 1.0
    x9_34 OBJ 5.0
    x9_34 s9 1.0
    x9_34 d34 1.0
    x9_35 OBJ 1.0
    x9_35 s9 1.0
    x9_35 d35 1.0
    x9_36 OBJ 3.0
    x9_36 s9 1.0
    x9_36 d36 1.0
    x9_37 OBJ 5.0
    x9_37 s9 1.0
    x9_37 d37 1.0
    x9_38 OBJ 3.0
    x9_38 s9 1.0
    x9_38 d38 1.0
    x9_39 OBJ 7.0
    x9_39 s9 1.0
    x9_39 d39 1.0
    x10_0 OBJ 5.0
    x10_0 s10 1.0
    x10_0 d0 1.0
    x10_1 OBJ 7.0
    x10_1 s10 1.0
    x10_1 d1 1.0
    x10_2 OBJ 3.0
    x10_2 s10 1.0
    x10_2 d2 1.0
    x10_3 OBJ 9.0
    x10_3 s10 1.0
    x10_3 d3 1.0
    x10_4 OBJ 9.0
    x10_4 s10 1.0
    x10_4 d4 1.0
    x10_5 OBJ 8.0
    x10_5 s10 1.0
    x10_5 d5 1.0
    x10_6 OBJ 6.0
    x10_6 s10 1.0
    x10_6 d6 1.0
    x10_7 OBJ 2.0
    x10_7 s10 1.0
    x10_7 d7 1.0
    x10_8 OBJ 5.0
    x10_8 s10 1.0
    x10_8 d8 1.0
    x10_9 OBJ 1.0
    x10_9 s10 1.0
    x10_9 d9 1.0
    x10_10 OBJ 3.0
    x10_10 s10 1.0
    x10_10 d10 1.0
    x10_11 OBJ 7.0
    x10_11 s10 1.0
    x10_11 d11 1.0
    x10_12 OBJ 2.0
    x10_12 s10 1.0
    x10_12 d12 1.0
    x10_13 OBJ 5.0
    x10_13 s10 1.0
    x10_13 d13 1.0
    x10_14 OBJ 1.0
    x10_14 s10 1.0
    x10_14 d14 1.0
    x10_15 OBJ 2.0
    x10_15 s10 1.0
    x10_15 d15 1.0
    x10_16 OBJ 5.0
    x10_16 s10 1.0
    x10_16 d16 1.0
    x10_17 OBJ 2.0
    x10_17 s10 1.0
    x10_17 d17 1.0
    x10_18 OBJ 4.0
    x10_18 s10 1.0
    x10_18 d18 1.0
    x10_19 OBJ 2.0
    x10_19 s10 1.0
    x10_19 d19 1.0
    x10_20 OBJ 5.0
    x10_20 s10 1.0
    x10_20 d20 1.0
    x10_21 OBJ 2.0
    x10_21 s10 1.0
    x10_21 d21 1.0
    x10_22 OBJ 8.0
    x10_22 s10 1.0
    x10_22 d22 1.0
    x10_23 OBJ 1.0
    x10_23 s10 1.0
    x10_23 d23 1.0
    x10_24 OBJ 6.0
    x10_24 s10 1.0
    x10_24 d24 1.0
    x10_25 OBJ 9.0
    x10_25 s10 1.0
    x10_25 d25 1.0
    x10_26 OBJ 7.0
    x10_26 s10 1.0
    x10_26 d26 1.0
    x10_27 OBJ 5.0
    x10_27 s10 1.0
    x10_27 d27 1.0
    x10_28 OBJ 3.0
    x10_28 s10 1.0
    x10_28 d28 1.0
    x10_29 OBJ 1.0
    x10_29 s10 1.0
    x10_29 d29 1.0
    x10_30 OBJ 9.0
    x10_30 s10 1.0
    x10_30 d30 1.0
    x10_31 OBJ 4.0
    x10_31 s10 1.0
    x10_31 d31 1.0
    x10_32 OBJ 2.0
    x10_32 s10 1.0
    x10_32 d32 1.0
    x10_33 OBJ 3.0
    x10_33 s10 1.0
    x10_33 d33 1.0
    x10_34 OBJ 5.0
    x10_34 s10 1.0
    x10_34 d34 1.0
    x10_35 OBJ 1.0
    x10_35 s10 1.0
    x10_35 d35 1.0
    x10_36 OBJ 3.0
    x10_36 s10 1.0
    x10_36 d36 1.0
    x10_37 OBJ 4.0
    x10_37 s10 1.0
    x10_37 d37 1.0
    x10_38 OBJ 5.0
    x10_38 s10 1.0
    x10_38 d38 1.0
    x10_39 OBJ 5.0
    x10_39 s10 1.0
    x10_39 d39 1.0
    x11_0 OBJ 9.0
    x11_0 s11 1.0
    x11_0 d0 1.0
    x11_1 OBJ 4.0
    x11_1 s11 1.0
    x11_1 d1 1.0
    x11_2 OBJ 5.0
    x11_2 s11 1.0
    x11_2 d2 1.0
    x11_3 OBJ 8.0
    x11_3 s11 1.0
    x11_3 d3 1.0
    x11_4 OBJ 9.0
    x11_4 s11 1.0
    x11_4 d4 1.0
    x11_5 OBJ 3.0
    x11_5 s11 1.0
    x11_5 d5 1.0
    x11_6 OBJ 5.0
    x11_6 s11 1.0
    x11_6 d6 1.0
    x11_7 OBJ 6.0
    x11_7 s11 1.0
    x11_7 d7 1.0
    x11_8 OBJ 1.0
    x11_8 s11 1.0
    x11_8 d8 1.0
    x11_9 OBJ 5.0
    x11_9 s11 1.0
    x11_9 d9 1.0
    x11_10 OBJ 1.0
    x11_10 s11 1.0
    x11_10 d10 1.0
    x11_11 OBJ 1.0
    x11_11 s11 1.0
    x11_11 d11 1.0
    x11_12 OBJ 1.0
    x11_12 s11 1.0
    x11_12 d12 1.0
    x11_13 OBJ 9.0
    x11_13 s11 1.0
    x11_13 d13 1.0
    x11_14 OBJ 9.0
    x11_14 s11 1.0
    x11_14 d14 1.0
    x11_15 OBJ 4.0
    x11_15 s11 1.0
    x11_15 d15 1.0
    x11_16 OBJ 9.0
    x11_16 s11 1.0
    x11_16 d16 1.0
    x11_17 OBJ 8.0
    x11_17 s11 1.0
    x11_17 d17 1.0
    x11_18 OBJ 4.0
    x11_18 s11 1.0
    x11_18 d18 1.0
    x11_19 OBJ 8.0
    x11_19 s11 1.0
    x11_19 d19 1.0
    x11_20 OBJ 2.0
    x11_20 s11 1.0
    x11_20 d20 1.0
    x11_21 OBJ 7.0
    x11_21 s11 1.0
    x11_21 d21 1.0
    x11_22 OBJ 8.0
    x11_22 s11 1.0
    x11_22 d22 1.0
    x11_23 OBJ 9.0
    x11_23 s11 1.0
    x11_23 d23 1.0
    x11_24 OBJ 7.0
    x11_24 s11 1.0
    x11_24 d24 1.0
    x11_25 OBJ 9.0
    x11_25 s11 1.0
    x11_25 d25 1.0
    x11_26 OBJ 5.0
    x11_26 s11 1.0
    x11_26 d26 1.0
    x11_27 OBJ 4.0
    x11_27 s11 1.0
    x11_27 d27 1.0
    x11_28 OBJ 4.0
    x11_28 s11 1.0
    x11_28 d28 1.0
    x11_29 OBJ 6.0
    x11_29 s11 1.0
    x11_29 d29 1.0
    x11_30 OBJ 4.0
    x11_30 s11 1.0
    x11_30 d30 1.0
    x11_31 OBJ 3.0
    x11_31 s11 1.0
    x11_31 d31 1.0
    x11_32 OBJ 7.0
    x11_32 s11 1.0
    x11_32 d32 1.0
    x11_33 OBJ 6.0
    x11_33 s11 1.0
    x11_33 d33 1.0
    x11_34 OBJ 1.0
    x11_34 s11 1.0
    x11_34 d34 1.0
    x11_35 OBJ 3.0
    x11_35 s11 1.0
    x11_35 d35 1.0
    x11_36 OBJ 1.0
    x11_36 s11 1.0
    x11_36 d36 1.0
    x11_37 OBJ 2.0
    x11_37 s11 1.0
    x11_37 d37 1.0
    x11_38 OBJ 5.0
    x11_38 s11 1.0
    x11_38 d38 1.0
    x11_39 OBJ 7.0
    x11_39 s11 1.0
    x11_39 d39 1.0
    x12_0 OBJ 3.0
    x12_0 s12 1.0
    x12_0 d0 1.0
    x12_1 OBJ 1.0
    x12_1 s12 1.0
    x12_1 d1 1.0
    x12_2 OBJ 2.0
    x12_2 s12 1.0
    x12_2 d2 1.0
    x12_3 OBJ 7.0
    x12_3 s12 1.0
    x12_3 d3 1.0
    x12_4 OBJ 9.0
    x12_4 s12 1.0
    x12_4 d4 1.0
    x12_5 OBJ 5.0
    x12_5 s12 1.0
    x12_5 d5 1.0
    x12_6 OBJ 4.0
    x12_6 s12 1.0
    x12_6 d6 1.0
    x12_7 OBJ 5.0
    x12_7 s12 1.0
    x12_7 d7 1.0
    x12_8 OBJ 1.0
    x12_8 s12 1.0
    x12_8 d8 1.0
    x12_9 OBJ 8.0
    x12_9 s12 1.0
    x12_9 d9 1.0
    x12_10 OBJ 3.0
    x12_10 s12 1.0
    x12_10 d10 1.0
    x12_11 OBJ 3.0
    x12_11 s12 1.0
    x12_11 d11 1.0
    x12_12 OBJ 5.0
    x12_12 s12 1.0
    x12_12 d12 1.0
    x12_13 OBJ 8.0
    x12_13 s12 1.0
    x12_13 d13 1.0
    x12_14 OBJ 1.0
    x12_14 s12 1.0
    x12_14 d14 1.0
    x12_15 OBJ 5.0
    x12_15 s12 1.0
    x12_15 d15 1.0
    x12_16 OBJ 6.0
    x12_16 s12 1.0
    x12_16 d16 1.0
    x12_17 OBJ 6.0
    x12_17 s12 1.0
    x12_17 d17 1.0
    x12_18 OBJ 9.0
    x12_18 s12 1.0
    x12_18 d18 1.0
    x12_19 OBJ 6.0
    x12_19 s12 1.0
    x12_19 d19 1.0
    x12_20 OBJ 4.0
    x12_20 s12 1.0
    x12_20 d20 1.0
    x12_21 OBJ 1.0
    x12_21 s12 1.0
    x12_21 d21 1.0
    x12_22 OBJ 5.0
    x12_22 s12 1.0
    x12_22 d22 1.0
    x12_23 OBJ 4.0
    x12_23 s12 1.0
    x12_23 d23 1.0
    x12_24 OBJ 6.0
    x12_24 s12 1.0
    x12_24 d24 1.0
    x12_25 OBJ 3.0
    x12_25 s12 1.0
    x12_25 d25 1.0
    x12_26 OBJ 1.0
    x12_26 s12 1.0
    x12_26 d26 1.0
    x12_27 OBJ 6.0
    x12_27 s12 1.0
    x12_27 d27 1.0
    x12_28 OBJ 7.0
    x12_28 s12 1.0
    x12_28 d28 1.0
    x12_29 OBJ 2.0
    x12_29 s12 1.0
    x12_29 d29 1.0
    x12_30 OBJ 8.0
    x12_30 s12 1.0
    x12_30 d30 1.0
    x12_31 OBJ 5.0
    x12_31 s12 1.0
    x12_31 d31 1.0
    x12_32 OBJ 9.0
    x12_32 s12 1.0
    x12_32 d32 1.0
    x12_33 OBJ 4.0
    x12_33 s12 1.0
    x12_33 d33 1.0
    x12_34 OBJ 4.0
    x12_34 s12 1.0
    x12_34 d34 1.0
    x12_35 OBJ 9.0
    x12_35 s12 1.0
    x12_35 d35 1.0
    x12_36 OBJ 1.0
    x12_36 s12 1.0
    x12_36 d36 1.0
    x12_37 OBJ 2.0
    x12_37 s12 1.0
    x12_37 d37 1.0
    x12_38 OBJ 5.0
    x12_38 s12 1.0
    x12_38 d38 1.0
    x12_39 OBJ 2.0
    x12_39 s12 1.0
    x12_39 d39 1.0
    x13_0 OBJ 3.0
    x13_0 s13 1.0
    x13_0 d0 1.0
    x13_1 OBJ 7.0
    x13_1 s13 1.0
    x13_1 d1 1.0
    x13_2 OBJ 1.0
    x13_2 s13 1.0
    x13_2 d2 1.0
    x13_3 OBJ 7.0
    x13_3 s13 1.0
    x13_3 d3 1.0
    x13_4 OBJ 1.0
    x13_4 s13 1.0
    x13_4 d4 1.0
    x13_5 OBJ 5.0
    x13_5 s13 1.0
    x13_5 d5 1.0
    x13_6 OBJ 5.0
    x13_6 s13 1.0
    x13_6 d6 1.0
    x13_7 OBJ 4.0
    x13_7 s13 1.0
    x13_7 d7 1.0
    x13_8 OBJ 2.0
    x13_8 s13 1.0
    x13_8 d8 1.0
    x13_9 OBJ 9.0
    x13_9 s13 1.0
    x13_9 d9 1.0
    x13_10 OBJ 3.0
    x13_10 s13 1.0
    x13_10 d10 1.0
    x13_11 OBJ 7.0
    x13_11 s13 1.0
    x13_11 d11 1.0
    x13_12 OBJ 6.0
    x13_12 s13 1.0
    x13_12 d12 1.0
    x13_13 OBJ 8.0
    x13_13 s13 1.0
    x13_13 d13 1.0
    x13_14 OBJ 3.0
    x13_14 s13 1.0
    x13_14 d14 1.0
    x13_15 OBJ 5.0
    x13_15 s13 1.0
    x13_15 d15 1.0
    x13_16 OBJ 3.0
    x13_16 s13 1.0
    x13_16 d16 1.0
    x13_17 OBJ 1.0
    x13_17 s13 1.0
    x13_17 d17 1.0
    x13_18 OBJ 9.0
    x13_18 s13 1.0
    x13_18 d18 1.0
    x13_19 OBJ 7.0
    x13_19 s13 1.0
    x13_19 d19 1.0
    x13_20 OBJ 9.0
    x13_20 s13 1.0
    x13_20 d20 1.0
    x13_21 OBJ 3.0
    x13_21 s13 1.0
    x13_21 d21 1.0
    x13_22 OBJ 9.0
    x13_22 s13 1.0
    x13_22 d22 1.0
    x13_23 OBJ 9.0
    x13_23 s13 1.0
    x13_23 d23 1.0
    x13_24 OBJ 1.0
    x13_24 s13 1.0
    x13_24 d24 1.0
    x13_25 OBJ 4.0
    x13_25 s13 1.0
    x13_25 d25 1.0
    x13_26 OBJ 2.0
    x13_26 s13 1.0
    x13_26 d26 1.0
    x13_27 OBJ 1.0
    x13_27 s13 1.0
    x13_27 d27 1.0
    x13_28 OBJ 1.0
    x13_28 s13 1.0
    x13_28 d28 1.0
    x13_29 OBJ 3.0
    x13_29 s13 1.0
    x13_29 d29 1.0
    x13_30 OBJ 6.0
    x13_30 s13 1.0
    x13_30 d30 1.0
    x13_31 OBJ 2.0
    x13_31 s13 1.0
    x13_31 d31 1.0
    x13_32 OBJ 7.0
    x13_32 s13 1.0
    x13_32 d32 1.0
    x13_33 OBJ 8.0
    x13_33 s13 1.0
    x13_33 d33 1.0
    x13_34 OBJ 9.0
    x13_34 s13 1.0
    x13_34 d34 1.0
    x13_35 OBJ 1.0
    x13_35 s13 1.0
    x13_35 d35 1.0
    x13_36 OBJ 1.0
    x13_36 s13 1.0
    x13_36 d36 1.0
    x13_37 OBJ 9.0
    x13_37 s13 1.0
    x13_37 d37 1.0
    x13_38 OBJ 4.0
    x13_38 s13 1.0
    x13_38 d38 1.0
    x13_39 OBJ 8.0
    x13_39 s13 1.0
    x13_39 d39 1.0
    x14_0 OBJ 5.0
    x14_0 s14 1.0
    x14_0 d0 1.0
    x14_1 OBJ 1.0
    x14_1 s14 1.0
    x14_1 d1 1.0
    x14_2 OBJ 8.0
    x14_2 s14 1.0
    x14_2 d2 1.0
    x14_3 OBJ 2.0
    x14_3 s14 1.0
    x14_3 d3 1.0
    x14_4 OBJ 9.0
    x14_4 s14 1.0
    x14_4 d4 1.0
    x14_5 OBJ 9.0
    x14_5 s14 1.0
    x14_5 d5 1.0
    x14_6 OBJ 2.0
    x14_6 s14 1.0
    x14_6 d6 1.0
    x14_7 OBJ 9.0
    x14_7 s14 1.0
    x14_7 d7 1.0
    x14_8 OBJ 2.0
    x14_8 s14 1.0
    x14_8 d8 1.0
    x14_9 OBJ 8.0
    x14_9 s14 1.0
    x14_9 d9 1.0
    x14_10 OBJ 5.0
    x14_10 s14 1.0
    x14_10 d10 1.0
    x14_11 OBJ 2.0
    x14_11 s14 1.0
    x14_11 d11 1.0
    x14_12 OBJ 5.0
    x14_12 s14 1.0
    x14_12 d12 1.0
    x14_13 OBJ 4.0
    x14_13 s14 1.0
    x14_13 d13 1.0
    x14_14 OBJ 4.0
    x14_14 s14 1.0
    x14_14 d14 1.0
    x14_15 OBJ 4.0
    x14_15 s14 1.0
    x14_15 d15 1.0
    x14_16 OBJ 8.0
    x14_16 s14 1.0
    x14_16 d16 1.0
    x14_17 OBJ 8.0
    x14_17 s14 1.0
    x14_17 d17 1.0
    x14_18 OBJ 7.0
    x14_18 s14 1.0
    x14_18 d18 1.0
    x14_19 OBJ 2.0
    x14_19 s14 1.0
    x14_19 d19 1.0
    x14_20 OBJ 8.0
    x14_20 s14 1.0
    x14_20 d20 1.0
    x14_21 OBJ 5.0
    x14_21 s14 1.0
    x14_21 d21 1.0
    x14_22 OBJ 1.0
    x14_22 s14 1.0
    x14_22 d22 1.0
    x14_23 OBJ 4.0
    x14_23 s14 1.0
    x14_23 d23 1.0
    x14_24 OBJ 2.0
    x14_24 s14 1.0
    x14_24 d24 1.0
    x14_25 OBJ 3.0
    x14_25 s14 1.0
    x14_25 d25 1.0
    x14_26 OBJ 6.0
    x14_26 s14 1.0
    x14_26 d26 1.0
    x14_27 OBJ 5.0
    x14_27 s14 1.0
    x14_27 d27 1.0
    x14_28 OBJ 5.0
    x14_28 s14 1.0
    x14_28 d28 1.0
    x14_29 OBJ 3.0
    x14_29 s14 1.0
    x14_29 d29 1.0
    x14_30 OBJ 1.0
    x14_30 s14 1.0
    x14_30 d30 1.0
    x14_31 OBJ 8.0
    x14_31 s14 1.0
    x14_31 d31 1.0
    x14_32 OBJ 1.0
    x14_32 s14 1.0
    x14_32 d32 1.0
    x14_33 OBJ 8.0
    x14_33 s14 1.0
    x14_33 d33 1.0
    x14_34 OBJ 5.0
    x14_34 s14 1.0
    x14_34 d34 1.0
    x14_35 OBJ 2.0
    x14_35 s14 1.0
    x14_35 d35 1.0
    x14_36 OBJ 4.0
    x14_36 s14 1.0
    x14_36 d36 1.0
    x14_37 OBJ 8.0
    x14_37 s14 1.0
    x14_37 d37 1.0
    x14_38 OBJ 5.0
    x14_38 s14 1.0
    x14_38 d38 1.0
    x14_39 OBJ 9.0
    x14_39 s14 1.0
    x14_39 d39 1.0
    x15_0 OBJ 5.0
    x15_0 s15 1.0
    x15_0 d0 1.0
    x15_1 OBJ 8.0
    x15_1 s15 1.0
    x15_1 d1 1.0
    x15_2 OBJ 8.0
    x15_2 s15 1.0
    x15_2 d2 1.0
    x15_3 OBJ 8.0
    x15_3 s15 1.0
    x15_3 d3 1.0
    x15_4 OBJ 2.0
    x15_4 s15 1.0
    x15_4 d4 1.0
    x15_5 OBJ 9.0
    x15_5 s15 1.0
    x15_5 d5 1.0
    x15_6 OBJ 4.0
    x15_6 s15 1.0
    x15_6 d6 1.0
    x15_7 OBJ 5.0
    x15_7 s15 1.0
    x15_7 d7 1.0
    x15_8 OBJ 2.0
    x15_8 s15 1.0
    x15_8 d8 1.0
    x15_9 OBJ 8.0
    x15_9 s15 1.0
    x15_9 d9 1.0
    x15_10 OBJ 1.0
    x15_10 s15 1.0
    x15_10 d10 1.0
    x15_11 OBJ 5.0
    x15_11 s15 1.0
    x15_11 d11 1.0
    x15_12 OBJ 8.0
    x15_12 s15 1.0
    x15_12 d12 1.0
    x15_13 OBJ 2.0
    x15_13 s15 1.0
    x15_13 d13 1.0
    x15_14 OBJ 9.0
    x15_14 s15 1.0
    x15_14 d14 1.0
    x15_15 OBJ 8.0
    x15_15 s15 1.0
    x15_15 d15 1.0
    x15_16 OBJ 5.0
    x15_16 s15 1.0
    x15_16 d16 1.0
    x15_17 OBJ 7.0
    x15_17 s15 1.0
    x15_17 d17 1.0
    x15_18 OBJ 4.0
    x15_18 s15 1.0
    x15_18 d18 1.0
    x15_19 OBJ 4.0
    x15_19 s15 1.0
    x15_19 d19 1.0
    x15_20 OBJ 2.0
    x15_20 s15 1.0
    x15_20 d20 1.0
    x15_21 OBJ 2.0
    x15_21 s15 1.0
    x15_21 d21 1.0
    x15_22 OBJ 3.0
    x15_22 s15 1.0
    x15_22 d22 1.0
    x15_23 OBJ 9.0
    x15_23 s15 1.0
    x15_23 d23 1.0
    x15_24 OBJ 5.0
    x15_24 s15 1.0
    x15_24 d24 1.0
    x15_25 OBJ 6.0
    x15_25 s15 1.0
    x15_25 d25 1.0
    x15_26 OBJ 3.0
    x15_26 s15 1.0
    x15_26 d26 1.0
    x15_27 OBJ 9.0
    x15_27 s15 1.0
    x15_27 d27 1.0
    x15_28 OBJ 5.0
    x15_28 s15 1.0
    x15_28 d28 1.0
    x15_29 OBJ 2.0
    x15_29 s15 1.0
    x15_29 d29 1.0
    x15_30 OBJ 6.0
    x15_30 s15 1.0
    x15_30 d30 1.0
    x15_31 OBJ 4.0
    x15_31 s15 1.0
    x15_31 d31 1.0
    x15_32 OBJ 8.0
    x15_32 s15 1.0
    x15_32 d32 1.0
    x15_33 OBJ 8.0
    x15_33 s15 1.0
    x15_33 d33 1.0
    x15_34 OBJ 7.0
    x15_34 s15 1.0
    x15_34 d34 1.0
    x15_35 OBJ 1.0
    x15_35 s15 1.0
    x15_35 d35 1.0
    x15_36 OBJ 3.0
    x15_36 s15 1.0
    x15_36 d36 1.0
    x15_37 OBJ 1.0
    x15_37 s15 1.0
    x15_37 d37 1.0
    x15_38 OBJ 8.0
    x15_38 s15 1.0
    x15_38 d38 1.0
    x15_39 OBJ 8.0
    x15_39 s15 1.0
    x15_39 d39 1.0
    x16_0 OBJ 7.0
    x16_0 s16 1.0
    x16_0 d0 1.0
    x16_1 OBJ 5.0
    x16_1 s16 1.0
    x16_1 d1 1.0
    x16_2 OBJ 3.0
    x16_2 s16 1.0
    x16_2 d2 1.0
    x16_3 OBJ 7.0
    x16_3 s16 1.0
    x16_3 d3 1.0
    x16_4 OBJ 6.0
    x16_4 s16 1.0
    x16_4 d4 1.0
    x16_5 OBJ 7.0
    x16_5 s16 1.0
    x16_5 d5 1.0
    x16_6 OBJ 6.0
    x16_6 s16 1.0
    x16_6 d6 1.0
    x16_7 OBJ 2.0
    x16_7 s16 1.0
    x16_7 d7 1.0
    x16_8 OBJ 6.0
    x16_8 s16 1.0
    x16_8 d8 1.0
    x16_9 OBJ 1.0
    x16_9 s16 1.0
    x16_9 d9 1.0
    x16_10 OBJ 6.0
    x16_10 s16 1.0
    x16_10 d10 1.0
    x16_11 OBJ 6.0
    x16_11 s16 1.0
    x16_11 d11 1.0
    x16_12 OBJ 7.0
    x16_12 s16 1.0
    x16_12 d12 1.0
    x16_13 OBJ 2.0
    x16_13 s16 1.0
    x16_13 d13 1.0
    x16_14 OBJ 4.0
    x16_14 s16 1.0
    x16_14 d14 1.0
    x16_15 OBJ 1.0
    x16_15 s16 1.0
    x16_15 d15 1.0
    x16_16 OBJ 5.0
    x16_16 s16 1.0
    x16_16 d16 1.0
    x16_17 OBJ 5.0
    x16_17 s16 1.0
    x16_17 d17 1.0
    x16_18 OBJ 6.0
    x16_18 s16 1.0
    x16_18 d18 1.0
    x16_19 OBJ 2.0
    x16_19 s16 1.0
    x16_19 d19 1.0
    x16_20 OBJ 7.0
    x16_20 s16 1.0
    x16_20 d20 1.0
    x16_21 OBJ 7.0
    x16_21 s16 1.0
    x16_21 d21 1.0
    x16_22 OBJ 2.0
    x16_22 s16 1.0
    x16_22 d22 1.0
    x16_23 OBJ 6.0
    x16_23 s16 1.0
    x16_23 d23 1.0
    x16_24 OBJ 7.0
    x16_24 s16 1.0
    x16_24 d24 1.0
    x16_25 OBJ 5.0
    x16_25 s16 1.0
    x16_25 d25 1.0
    x16_26 OBJ 1.0
    x16_26 s16 1.0
    x16_26 d26 1.0
    x16_27 OBJ 5.0
    x16_27 s16 1.0
    x16_27 d27 1.0
    x16_28 OBJ 2.0
    x16_28 s16 1.0
    x16_28 d28 1.0
    x16_29 OBJ 1.0
    x16_29 s16 1.0
    x16_29 d29 1.0
    x16_30 OBJ 5.0
    x16_30 s16 1.0
    x16_30 d30 1.0
    x16_31 OBJ 3.0
    x16_31 s16 1.0
    x16_31 d31 1.0
    x16_32 OBJ 4.0
    x16_32 s16 1.0
    x16_32 d32 1.0
    x16_33 OBJ 5.0
    x16_33 s16 1.0
    x16_33 d33 1.0
    x16_34 OBJ 7.0
    x16_34 s16 1.0
    x16_34 d34 1.0
    x16_35 OBJ 9.0
    x16_35 s16 1.0
    x16_35 d35 1.0
    x16_36 OBJ 6.0
    x16_36 s16 1.0
    x16_36 d36 1.0
    x16_37 OBJ 4.0
    x16_37 s16 1.0
    x16_37 d37 1.0
    x16_38 OBJ 6.0
    x16_38 s16 1.0
    x16_38 d38 1.0
    x16_39 OBJ 7.0
    x16_39 s16 1.0
    x16_39 d39 1.0
    x17_0 OBJ 1.0
    x17_0 s17 1.0
    x17_0 d0 1.0
    x17_1 OBJ 7.0
    x17_1 s17 1.0
    x17_1 d1 1.0
    x17_2 OBJ 9.0
    x17_2 s17 1.0
    x17_2 d2 1.0
    x17_3 OBJ 9.0
    x17_3 s17 1.0
    x17_3 d3 1.0
    x17_4 OBJ 4.0
    x17_4 s17 1.0
    x17_4 d4 1.0
    x17_5 OBJ 2.0
    x17_5 s17 1.0
    x17_5 d5 1.0
    x17_6 OBJ 1.0
    x17_6 s17 1.0
    x17_6 d6 1.0
    x17_7 OBJ 7.0
    x17_7 s17 1.0
    x17_7 d7 1.0
    x17_8 OBJ 8.0
    x17_8 s17 1.0
    x17_8 d8 1.0
    x17_9 OBJ 3.0
    x17_9 s17 1.0
    x17_9 d9 1.0
    x17_10 OBJ 5.0
    x17_10 s17 1.0
    x17_10 d10 1.0
    x17_11 OBJ 8.0
    x17_11 s17 1.0
    x17_11 d11 1.0
    x17_12 OBJ 1.0
    x17_12 s17 1.0
    x17_12 d12 1.0
    x17_13 OBJ 9.0
    x17_13 s17 1.0
    x17_13 d13 1.0
    x17_14 OBJ 3.0
    x17_14 s17 1.0
    x17_14 d14 1.0
    x17_15 OBJ 3.0
    x17_15 s17 1.0
    x17_15 d15 1.0
    x17_16 OBJ 8.0
    x17_16 s17 1.0
    x17_16 d16 1.0
    x17_17 OBJ 7.0
    x17_17 s17 1.0
    x17_17 d17 1.0
    x17_18 OBJ 6.0
    x17_18 s17 1.0
    x17_18 d18 1.0
    x17_19 OBJ 5.0
    x17_19 s17 1.0
    x17_19 d19 1.0
    x17_20 OBJ 5.0
    x17_20 s17 1.0
    x17_20 d20 1.0
    x17_21 OBJ 5.0
    x17_21 s17 1.0
    x17_21 d21 1.0
    x17_22 OBJ 5.0
    x17_22 s17 1.0
    x17_22 d22 1.0
    x17_23 OBJ 7.0
    x17_23 s17 1.0
    x17_23 d23 1.0
    x17_24 OBJ 4.0
    x17_24 s17 1.0
    x17_24 d24 1.0
    x17_25 OBJ 5.0
    x17_25 s17 1.0
    x17_25 d25 1.0
    x17_26 OBJ 8.0
    x17_26 s17 1.0
    x17_26 d26 1.0
    x17_27 OBJ 9.0
    x17_27 s17 1.0
    x17_27 d27 1.0
    x17_28 OBJ 7.0
    x17_28 s17 1.0
    x17_28 d28 1.0
    x17_29 OBJ 2.0
    x17_29 s17 1.0
    x17_29 d29 1.0
    x17_30 OBJ 3.0
    x17_30 s17 1.0
    x17_30 d30 1.0
    x17_31 OBJ 3.0
    x17_31 s17 1.0
    x17_31 d31 1.0
    x17_32 OBJ 2.0
    x17_32 s17 1.0
    x17_32 d32 1.0
    x17_33 OBJ 4.0
    x17_33 s17 1.0
    x17_33 d33 1.0
    x17_34 OBJ 9.0
    x17_34 s17 1.0
    x17_34 d34 1.0
    x17_35 OBJ 8.0
    x17_35 s17 1.0
    x17_35 d35 1.0
    x17_36 OBJ 9.0
    x17_36 s17 1.0
    x17_36 d36 1.0
    x17_37 OBJ 4.0
    x17_37 s17 1.0
    x17_37 d37 1.0
    x17_38 OBJ 8.0
    x17_38 s17 1.0
    x17_38 d38 1.0
    x17_39 OBJ 6.0
    x17_39 s17 1.0
    x17_39 d39 1.0
    x18_0 OBJ 8.0
    x18_0 s18 1.0
    x18_0 d0 1.0
    x18_1 OBJ 7.0
    x18_1 s18 1.0
    x18_1 d1 1.0
    x18_2 OBJ 3.0
    x18_2 s18 1.0
    x18_2 d2 1.0
    x18_3 OBJ 9.0
    x18_3 s18 1.0
    x18_3 d3 1.0
    x18_4 OBJ 4.0
    x18_4 s18 1.0
    x18_4 d4 1.0
    x18_5 OBJ 4.0
    x18_5 s18 1.0
    x18_5 d5 1.0
    x18_6 OBJ 2.0
    x18_6 s18 1.0
    x18_6 d6 1.0
    x18_7 OBJ 3.0
    x18_7 s18 1.0
    x18_7 d7 1.0
    x18_8 OBJ 6.0
    x18_8 s18 1.0
    x18_8 d8 1.0
    x18_9 OBJ 9.0
    x18_9 s18 1.0
    x18_9 d9 1.0
    x18_10 OBJ 2.0
    x18_10 s18 1.0
    x18_10 d10 1.0
    x18_11 OBJ 6.0
    x18_11 s18 1.0
    x18_11 d11 1.0
    x18_12 OBJ 4.0
    x18_12 s18 1.0
    x18_12 d12 1.0
    x18_13 OBJ 6.0
    x18_13 s18 1.0
    x18_13 d13 1.0
    x18_14 OBJ 5.0
    x18_14 s18 1.0
    x18_14 d14 1.0
    x18_15 OBJ 4.0
    x18_15 s18 1.0
    x18_15 d15 1.0
    x18_16 OBJ 1.0
    x18_16 s18 1.0
    x18_16 d16 1.0
    x18_17 OBJ 7.0
    x18_17 s18 1.0
    x18_17 d17 1.0
    x18_18 OBJ 7.0
    x18_18 s18 1.0
    x18_18 d18 1.0
    x18_19 OBJ 7.0
    x18_19 s18 1.0
    x18_19 d19 1.0
    x18_20 OBJ 9.0
    x18_20 s18 1.0
    x18_20 d20 1.0
    x18_21 OBJ 4.0
    x18_21 s18 1.0
    x18_21 d21 1.0
    x18_22 OBJ 7.0
    x18_22 s18 1.0
    x18_22 d22 1.0
    x18_23 OBJ 5.0
    x18_23 s18 1.0
    x18_23 d23 1.0
    x18_24 OBJ 6.0
    x18_24 s18 1.0
    x18_24 d24 1.0
    x18_25 OBJ 1.0
    x18_25 s18 1.0
    x18_25 d25 1.0
    x18_26 OBJ 8.0
    x18_26 s18 1.0
    x18_26 d26 1.0
    x18_27 OBJ 5.0
    x18_27 s18 1.0
    x18_27 d27 1.0
    x18_28 OBJ 6.0
    x18_28 s18 1.0
    x18_28 d28 1.0
    x18_29 OBJ 3.0
    x18_29 s18 1.0
    x18_29 d29 1.0
    x18_30 OBJ 9.0
    x18_30 s18 1.0
    x18_30 d30 1.0
    x18_31 OBJ 9.0
    x18_31 s18 1.0
    x18_31 d31 1.0
    x18_32 OBJ 4.0
    x18_32 s18 1.0
    x18_32 d32 1.0
    x18_33 OBJ 2.0
    x18_33 s18 1.0
    x18_33 d33 1.0
    x18_34 OBJ 5.0
    x18_34 s18 1.0
    x18_34 d34 1.0
    x18_35 OBJ 4.0
    x18_35 s18 1.0
    x18_35 d35 1.0
    x18_36 OBJ 7.0
    x18_36 s18 1.0
    x18_36 d36 1.0
    x18_37 OBJ 7.0
    x18_37 s18 1.0
    x18_37 d37 1.0
    x18_38 OBJ 8.0
    x18_38 s18 1.0
    x18_38 d38 1.0
    x18_39 OBJ 7.0
    x18_39 s18 1.0
    x18_39 d39 1.0
    x19_0 OBJ 5.0
    x19_0 s19 1.0
    x19_0 d0 1.0
    x19_1 OBJ 1.0
    x19_1 s19 1.0
    x19_1 d1 1.0
    x19_2 OBJ 3.0
    x19_2 s19 1.0
    x19_2 d2 1.0
    x19_3 OBJ 1.0
    x19_3 s19 1.0
    x19_3 d3 1.0
    x19_4 OBJ 7.0
    x19_4 s19 1.0
    x19_4 d4 1.0
    x19_5 OBJ 8.0
    x19_5 s19 1.0
    x19_5 d5 1.0
    x19_6 OBJ 8.0
    x19_6 s19 1.0
    x19_6 d6 1.0
    x19_7 OBJ 1.0
    x19_7 s19 1.0
    x19_7 d7 1.0
    x19_8 OBJ 2.0
    x19_8 s19 1.0
    x19_8 d8 1.0
    x19_9 OBJ 7.0
    x19_9 s19 1.0
    x19_9 d9 1.0
    x19_10 OBJ 9.0
    x19_10 s19 1.0
    x19_10 d10 1.0
    x19_11 OBJ 8.0
    x19_11 s19 1.0
    x19_11 d11 1.0
    x19_12 OBJ 8.0
    x19_12 s19 1.0
    x19_12 d12 1.0
    x19_13 OBJ 4.0
    x19_13 s19 1.0
    x19_13 d13 1.0
    x19_14 OBJ 2.0
    x19_14 s19 1.0
    x19_14 d14 1.0
    x19_15 OBJ 4.0
    x19_15 s19 1.0
    x19_15 d15 1.0
    x19_16 OBJ 3.0
    x19_16 s19 1.0
    x19_16 d16 1.0
    x19_17 OBJ 3.0
    x19_17 s19 1.0
    x19_17 d17 1.0
    x19_18 OBJ 9.0
    x19_18 s19 1.0
    x19_18 d18 1.0
    x19_19 OBJ 2.0
    x19_19 s19 1.0
    x19_19 d19 1.0
    x19_20 OBJ 8.0
    x19_20 s19 1.0
    x19_20 d20 1.0
    x19_21 OBJ 2.0
    x19_21 s19 1.0
    x19_21 d21 1.0
    x19_22 OBJ 9.0
    x19_22 s19 1.0
    x19_22 d22 1.0
    x19_23 OBJ 1.0
    x19_23 s19 1.0
    x19_23 d23 1.0
    x19_24 OBJ 1.0
    x19_24 s19 1.0
    x19_24 d24 1.0
    x19_25 OBJ 3.0
    x19_25 s19 1.0
    x19_25 d25 1.0
    x19_26 OBJ 4.0
    x19_26 s19 1.0
    x19_26 d26 1.0
    x19_27 OBJ 1.0
    x19_27 s19 1.0
    x19_27 d27 1.0
    x19_28 OBJ 5.0
    x19_28 s19 1.0
    x19_28 d28 1.0
    x19_29 OBJ 3.0
    x19_29 s19 1.0
    x19_29 d29 1.0
    x19_30 OBJ 5.0
    x19_30 s19 1.0
    x19_30 d30 1.0
    x19_31 OBJ 9.0
    x19_31 s19 1.0
    x19_31 d31 1.0
    x19_32 OBJ 7.0
    x19_32 s19 1.0
    x19_32 d32 1.0
    x19_33 OBJ 2.0
    x19_33 s19 1.0
    x19_33 d33 1.0
    x19_34 OBJ 2.0
    x19_34 s19 1.0
    x19_34 d34 1.0
    x19_35 OBJ 2.0
    x19_35 s19 1.0
    x19_35 d35 1.0
    x19_36 OBJ 5.0
    x19_36 s19 1.0
    x19_36 d36 1.0
    x19_37 OBJ 9.0
    x19_37 s19 1.0
    x19_37 d37 1.0
    x19_38 OBJ 4.0
    x19_38 s19 1.0
    x19_38 d38 1.0
    x19_39 OBJ 7.0
    x19_39 s19 1.0
    x19_39 d39 1.0
    x20_0 OBJ 5.0
    x20_0 s20 1.0
    x20_0 d0 1.0
    x20_1 OBJ 4.0
    x20_1 s20 1.0
    x20_1 d1 1.0
    x20_2 OBJ 1.0
    x20_2 s20 1.0
    x20_2 d2 1.0
    x20_3 OBJ 1.0
    x20_3 s20 1.0
    x20_3 d3 1.0
    x20_4 OBJ 9.0
    x20_4 s20 1.0
    x20_4 d4 1.0
    x20_5 OBJ 5.0
    x20_5 s20 1.0
    x20_5 d5 1.0
    x20_6 OBJ 8.0
    x20_6 s20 1.0
    x20_6 d6 1.0
    x20_7 OBJ 5.0
    x20_7 s20 1.0
    x20_7 d7 1.0
    x20_8 OBJ 6.0
    x20_8 s20 1.0
    x20_8 d8 1.0
    x20_9 OBJ 4.0
    x20_9 s20 1.0
    x20_9 d9 1.0
    x20_10 OBJ 8.0
    x20_10 s20 1.0
    x20_10 d10 1.0
    x20_11 OBJ 9.0
    x20_11 s20 1.0
    x20_11 d11 1.0
    x20_12 OBJ 4.0
    x20_12 s20 1.0
    x20_12 d12 1.0
    x20_13 OBJ 9.0
    x20_13 s20 1.0
    x20_13 d13 1.0
    x20_14 OBJ 4.0
    x20_14 s20 1.0
    x20_14 d14 1.0
    x20_15 OBJ 1.0
    x20_15 s20 1.0
    x20_15 d15 1.0
    x20_16 OBJ 7.0
    x20_16 s20 1.0
    x20_16 d16 1.0
    x20_17 OBJ 5.0
    x20_17 s20 1.0
    x20_17 d17 1.0
    x20_18 OBJ 1.0
    x20_18 s20 1.0
    x20_18 d18 1.0
    x20_19 OBJ 1.0
    x20_19 s20 1.0
    x20_19 d19 1.0
    x20_20 OBJ 4.0
    x20_20 s20 1.0
    x20_20 d20 1.0
    x20_21 OBJ 8.0
    x20_21 s20 1.0
    x20_21 d21 1.0
    x20_22 OBJ 7.0
    x20_22 s20 1.0
    x20_22 d22 1.0
    x20_23 OBJ 2.0
    x20_23 s20 1.0
    x20_23 d23 1.0
    x20_24 OBJ 5.0
    x20_24 s20 1.0
    x20_24 d24 1.0
    x20_25 OBJ 4.0
    x20_25 s20 1.0
    x20_25 d25 1.0
    x20_26 OBJ 7.0
    x20_26 s20 1.0
    x20_26 d26 1.0
    x20_27 OBJ 6.0
    x20_27 s20 1.0
    x20_27 d27 1.0
    x20_28 OBJ 4.0
    x20_28 s20 1.0
    x20_28 d28 1.0
    x20_29 OBJ 8.0
    x20_29 s20 1.0
    x20_29 d29 1.0
    x20_30 OBJ 1.0
    x20_30 s20 1.0
    x20_30 d30 1.0
    x20_31 OBJ 6.0
    x20_31 s20 1.0
    x20_31 d31 1.0
    x20_32 OBJ 7.0
    x20_32 s20 1.0
    x20_32 d32 1.0
    x20_33 OBJ 6.0
    x20_33 s20 1.0
    x20_33 d33 1.0
    x20_34 OBJ 7.0
    x20_34 s20 1.0
    x20_34 d34 1.0
    x20_35 OBJ 4.0
    x20_35 s20 1.0
    x20_35 d35 1.0
    x20_36 OBJ 1.0
    x20_36 s20 1.0
    x20_36 d36 1.0
    x20_37 OBJ 5.0
    x20_37 s20 1.0
    x20_37 d37 1.0
    x20_38 OBJ 9.0
    x20_38 s20 1.0
    x20_38 d38 1.0
    x20_39 OBJ 2.0
    x20_39 s20 1.0
    x20_39 d39 1.0
    x21_0 OBJ 4.0
    x21_0 s21 1.0
    x21_0 d0 1.0
    x21_1 OBJ 8.0
    x21_1 s21 1.0
    x21_1 d1 1.0
    x21_2 OBJ 4.0
    x21_2 s21 1.0
    x21_2 d2 1.0
    x21_3 OBJ 5.0
    x21_3 s21 1.0
    x21_3 d3 1.0
    x21_4 OBJ 4.0
    x21_4 s21 1.0
    x21_4 d4 1.0
    x21_5 OBJ 4.0
    x21_5 s21 1.0
    x21_5 d5 1.0
    x21_6 OBJ 8.0
    x21_6 s21 1.0
    x21_6 d6 1.0
    x21_7 OBJ 4.0
    x21_7 s21 1.0
    x21_7 d7 1.0
    x21_8 OBJ 5.0
    x21_8 s21 1.0
    x21_8 d8 1.0
    x21_9 OBJ 5.0
    x21_9 s21 1.0
    x21_9 d9 1.0
    x21_10 OBJ 2.0
    x21_10 s21 1.0
    x21_10 d10 1.0
    x21_11 OBJ 8.0
    x21_11 s21 1.0
    x21_11 d11 1.0
    x21_12 OBJ 3.0
    x21_12 s21 1.0
    x21_12 d12 1.0
    x21_13 OBJ 4.0
    x21_13 s21 1.0
    x21_13 d13 1.0
    x21_14 OBJ 8.0
    x21_14 s21 1.0
    x21_14 d14 1.0
    x21_15 OBJ 7.0
    x21_15 s21 1.0
    x21_15 d15 1.0
    x21_16 OBJ 1.0
    x21_16 s21 1.0
    x21_16 d16 1.0
    x21_17 OBJ 3.0
    x21_17 s21 1.0
    x21_17 d17 1.0
    x21_18 OBJ 7.0
    x21_18 s21 1.0
    x21_18 d18 1.0
    x21_19 OBJ 1.0
    x21_19 s21 1.0
    x21_19 d19 1.0
    x21_20 OBJ 4.0
    x21_20 s21 1.0
    x21_20 d20 1.0
    x21_21 OBJ 1.0
    x21_21 s21 1.0
    x21_21 d21 1.0
    x21_22 OBJ 3.0
    x21_22 s21 1.0
    x21_22 d22 1.0
    x21_23 OBJ 7.0
    x21_23 s21 1.0
    x21_23 d23 1.0
    x21_24 OBJ 1.0
    x21_24 s21 1.0
    x21_24 d24 1.0
    x21_25 OBJ 1.0
    x21_25 s21 1.0
    x21_25 d25 1.0
    x21_26 OBJ 3.0
    x21_26 s21 1.0
    x21_26 d26 1.0
    x21_27 OBJ 7.0
    x21_27 s21 1.0
    x21_27 d27 1.0
    x21_28 OBJ 8.0
    x21_28 s21 1.0
    x21_28 d28 1.0
    x21_29 OBJ 6.0
    x21_29 s21 1.0
    x21_29 d29 1.0
    x21_30 OBJ 2.0
    x21_30 s21 1.0
    x21_30 d30 1.0
    x21_31 OBJ 2.0
    x21_31 s21 1.0
    x21_31 d31 1.0
    x21_32 OBJ 3.0
    x21_32 s21 1.0
    x21_32 d32 1.0
    x21_33 OBJ 6.0
    x21_33 s21 1.0
    x21_33 d33 1.0
    x21_34 OBJ 4.0
    x21_34 s21 1.0
    x21_34 d34 1.0
    x21_35 OBJ 3.0
    x21_35 s21 1.0
    x21_35 d35 1.0
    x21_36 OBJ 9.0
    x21_36 s21 1.0
    x21_36 d36 1.0
    x21_37 OBJ 8.0
    x21_37 s21 1.0
    x21_37 d37 1.0
    x21_38 OBJ 1.0
    x21_38 s21 1.0
    x21_38 d38 1.0
    x21_39 OBJ 5.0
    x21_39 s21 1.0
    x21_39 d39 1.0
    x22_0 OBJ 7.0
    x22_0 s22 1.0
    x22_0 d0 1.0
    x22_1 OBJ 6.0
    x22_1 s22 1.0
    x22_1 d1 1.0
    x22_2 OBJ 6.0
    x22_2 s22 1.0
    x22_2 d2 1.0
    x22_3 OBJ 8.0
    x22_3 s22 1.0
    x22_3 d3 1.0
    x22_4 OBJ 3.0
    x22_4 s22 1.0
    x22_4 d4 1.0
    x22_5 OBJ 2.0
    x22_5 s22 1.0
    x22_5 d5 1.0
    x22_6 OBJ 1.0
    x22_6 s22 1.0
    x22_6 d6 1.0
    x22_7 OBJ 2.0
    x22_7 s22 1.0
    x22_7 d7 1.0
    x22_8 OBJ 5.0
    x22_8 s22 1.0
    x22_8 d8 1.0
    x22_9 OBJ 2.0
    x22_9 s22 1.0
    x22_9 d9 1.0
    x22_10 OBJ 6.0
    x22_10 s22 1.0
    x22_10 d10 1.0
    x22_11 OBJ 7.0
    x22_11 s22 1.0
    x22_11 d11 1.0
    x22_12 OBJ 2.0
    x22_12 s22 1.0
    x22_12 d12 1.0
    x22_13 OBJ 9.0
    x22_13 s22 1.0
    x22_13 d13 1.0
    x22_14 OBJ 4.0
    x22_14 s22 1.0
    x22_14 d14 1.0
    x22_15 OBJ 7.0
    x22_15 s22 1.0
    x22_15 d15 1.0
    x22_16 OBJ 6.0
    x22_16 s22 1.0
    x22_16 d16 1.0
    x22_17 OBJ 5.0
    x22_17 s22 1.0
    x22_17 d17 1.0
    x22_18 OBJ 7.0
    x22_18 s22 1.0
    x22_18 d18 1.0
    x22_19 OBJ 2.0
    x22_19 s22 1.0
    x22_19 d19 1.0
    x22_20 OBJ 1.0
    x22_20 s22 1.0
    x22_20 d20 1.0
    x22_21 OBJ 8.0
    x22_21 s22 1.0
    x22_21 d21 1.0
    x22_22 OBJ 4.0
    x22_22 s22 1.0
    x22_22 d22 1.0
    x22_23 OBJ 6.0
    x22_23 s22 1.0
    x22_23 d23 1.0
    x22_24 OBJ 9.0
    x22_24 s22 1.0
    x22_24 d24 1.0
    x22_25 OBJ 8.0
    x22_25 s22 1.0
    x22_25 d25 1.0
    x22_26 OBJ 4.0
    x22_26 s22 1.0
    x22_26 d26 1.0
    x22_27 OBJ 6.0
    x22_27 s22 1.0
    x22_27 d27 1.0
    x22_28 OBJ 6.0
    x22_28 s22 1.0
    x22_28 d28 1.0
    x22_29 OBJ 8.0
    x22_29 s22 1.0
    x22_29 d29 1.0
    x22_30 OBJ 1.0
    x22_30 s22 1.0
    x22_30 d30 1.0
    x22_31 OBJ 7.0
    x22_31 s22 1.0
    x22_31 d31 1.0
    x22_32 OBJ 4.0
    x22_32 s22 1.0
    x22_32 d32 1.0
    x22_33 OBJ 7.0
    x22_33 s22 1.0
    x22_33 d33 1.0
    x22_34 OBJ 1.0
    x22_34 s22 1.0
    x22_34 d34 1.0
    x22_35 OBJ 7.0
    x22_35 s22 1.0
    x22_35 d35 1.0
    x22_36 OBJ 1.0
    x22_36 s22 1.0
    x22_36 d36 1.0
    x22_37 OBJ 8.0
    x22_37 s22 1.0
    x22_37 d37 1.0
    x22_38 OBJ 2.0
    x22_38 s22 1.0
    x22_38 d38 1.0
    x22_39 OBJ 1.0
    x22_39 s22 1.0
    x22_39 d39 1.0
    x23_0 OBJ 5.0
    x23_0 s23 1.0
    x23_0 d0 1.0
    x23_1 OBJ 4.0
    x23_1 s23 1.0
    x23_1 d1 1.0
    x23_2 OBJ 2.0
    x23_2 s23 1.0
    x23_2 d2 1.0
    x23_3 OBJ 6.0
    x23_3 s23 1.0
    x23_3 d3 1.0
    x23_4 OBJ 6.0
    x23_4 s23 1.0
    x23_4 d4 1.0
    x23_5 OBJ 5.0
    x23_5 s23 1.0
    x23_5 d5 1.0
    x23_6 OBJ 6.0
    x23_6 s23 1.0
    x23_6 d6 1.0
    x23_7 OBJ 1.0
    x23_7 s23 1.0
    x23_7 d7 1.0
    x23_8 OBJ 5.0
    x23_8 s23 1.0
    x23_8 d8 1.0
    x23_9 OBJ 6.0
    x23_9 s23 1.0
    x23_9 d9 1.0
    x23_10 OBJ 5.0
    x23_10 s23 1.0
    x23_10 d10 1.0
    x23_11 OBJ 5.0
    x23_11 s23 1.0
    x23_11 d11 1.0
    x23_12 OBJ 1.0
    x23_12 s23 1.0
    x23_12 d12 1.0
    x23_13 OBJ 2.0
    x23_13 s23 1.0
    x23_13 d13 1.0
    x23_14 OBJ 1.0
    x23_14 s23 1.0
    x23_14 d14 1.0
    x23_15 OBJ 4.0
    x23_15 s23 1.0
    x23_15 d15 1.0
    x23_16 OBJ 2.0
    x23_16 s23 1.0
    x23_16 d16 1.0
    x23_17 OBJ 8.0
    x23_17 s23 1.0
    x23_17 d17 1.0
    x23_18 OBJ 8.0
    x23_18 s23 1.0
    x23_18 d18 1.0
    x23_19 OBJ 7.0
    x23_19 s23 1.0
    x23_19 d19 1.0
    x23_20 OBJ 5.0
    x23_20 s23 1.0
    x23_20 d20 1.0
    x23_21 OBJ 7.0
    x23_21 s23 1.0
    x23_21 d21 1.0
    x23_22 OBJ 8.0
    x23_22 s23 1.0
    x23_22 d22 1.0
    x23_23 OBJ 3.0
    x23_23 s23 1.0
    x23_23 d23 1.0
    x23_24 OBJ 8.0
    x23_24 s23 1.0
    x23_24 d24 1.0
    x23_25 OBJ 3.0
    x23_25 s23 1.0
    x23_25 d25 1.0
    x23_26 OBJ 1.0
    x23_26 s23 1.0
    x23_26 d26 1.0
    x23_27 OBJ 5.0
    x23_27 s23 1.0
    x23_27 d27 1.0
    x23_28 OBJ 3.0
    x23_28 s23 1.0
    x23_28 d28 1.0
    x23_29 OBJ 4.0
    x23_29 s23 1.0
    x23_29 d29 1.0
    x23_30 OBJ 6.0
    x23_30 s23 1.0
    x23_30 d30 1.0
    x23_31 OBJ 6.0
    x23_31 s23 1.0
    x23_31 d31 1.0
    x23_32 OBJ 8.0
    x23_32 s23 1.0
    x23_32 d32 1.0
    x23_33 OBJ 6.0
    x23_33 s23 1.0
    x23_33 d33 1.0
    x23_34 OBJ 2.0
    x23_34 s23 1.0
    x23_34 d34 1.0
    x23_35 OBJ 9.0
    x23_35 s23 1.0
    x23_35 d35 1.0
    x23_36 OBJ 4.0
    x23_36 s23 1.0
    x23_36 d36 1.0
    x23_37 OBJ 7.0
    x23_37 s23 1.0
    x23_37 d37 1.0
    x23_38 OBJ 3.0
    x23_38 s23 1.0
    x23_38 d38 1.0
    x23_39 OBJ 4.0
    x23_39 s23 1.0
    x23_39 d39 1.0
    x24_0 OBJ 7.0
    x24_0 s24 1.0
    x24_0 d0 1.0
    x24_1 OBJ 2.0
    x24_1 s24 1.0
    x24_1 d1 1.0
    x24_2 OBJ 1.0
    x24_2 s24 1.0
    x24_2 d2 1.0
    x24_3 OBJ 8.0
    x24_3 s24 1.0
    x24_3 d3 1.0
    x24_4 OBJ 9.0
    x24_4 s24 1.0
    x24_4 d4 1.0
    x24_5 OBJ 9.0
    x24_5 s24 1.0
    x24_5 d5 1.0
    x24_6 OBJ 6.0
    x24_6 s24 1.0
    x24_6 d6 1.0
    x24_7 OBJ 3.0
    x24_7 s24 1.0
    x24_7 d7 1.0
    x24_8 OBJ 7.0
    x24_8 s24 1.0
    x24_8 d8 1.0
    x24_9 OBJ 2.0
    x24_9 s24 1.0
    x24_9 d9 1.0
    x24_10 OBJ 2.0
    x24_10 s24 1.0
    x24_10 d10 1.0
    x24_11 OBJ 5.0
    x24_11 s24 1.0
    x24_11 d11 1.0
    x24_12 OBJ 2.0
    x24_12 s24 1.0
    x24_12 d12 1.0
    x24_13 OBJ 4.0
    x24_13 s24 1.0
    x24_13 d13 1.0
    x24_14 OBJ 2.0
    x24_14 s24 1.0
    x24_14 d14 1.0
    x24_15 OBJ 7.0
    x24_15 s24 1.0
    x24_15 d15 1.0
    x24_16 OBJ 8.0
    x24_16 s24 1.0
    x24_16 d16 1.0
    x24_17 OBJ 8.0
    x24_17 s24 1.0
    x24_17 d17 1.0
    x24_18 OBJ 3.0
    x24_18 s24 1.0
    x24_18 d18 1.0
    x24_19 OBJ 4.0
    x24_19 s24 1.0
    x24_19 d19 1.0
    x24_20 OBJ 3.0
    x24_20 s24 1.0
    x24_20 d20 1.0
    x24_21 OBJ 7.0
    x24_21 s24 1.0
    x24_21 d21 1.0
    x24_22 OBJ 8.0
    x24_22 s24 1.0
    x24_22 d22 1.0
    x24_23 OBJ 4.0
    x24_23 s24 1.0
    x24_23 d23 1.0
    x24_24 OBJ 9.0
    x24_24 s24 1.0
    x24_24 d24 1.0
    x24_25 OBJ 2.0
    x24_25 s24 1.0
    x24_25 d25 1.0
    x24_26 OBJ 5.0
    x24_26 s24 1.0
    x24_26 d26 1.0
    x24_27 OBJ 5.0
    x24_27 s24 1.0
    x24_27 d27 1.0
    x24_28 OBJ 5.0
    x24_28 s24 1.0
    x24_28 d28 1.0
    x24_29 OBJ 5.0
    x24_29 s24 1.0
    x24_29 d29 1.0
    x24_30 OBJ 6.0
    x24_30 s24 1.0
    x24_30 d30 1.0
    x24_31 OBJ 5.0
    x24_31 s24 1.0
    x24_31 d31 1.0
    x24_32 OBJ 5.0
    x24_32 s24 1.0
    x24_32 d32 1.0
    x24_33 OBJ 4.0
    x24_33 s24 1.0
    x24_33 d33 1.0
    x24_34 OBJ 8.0
    x24_34 s24 1.0
    x24_34 d34 1.0
    x24_35 OBJ 4.0
    x24_35 s24 1.0
    x24_35 d35 1.0
    x24_36 OBJ 3.0
    x24_36 s24 1.0
    x24_36 d36 1.0
    x24_37 OBJ 4.0
    x24_37 s24 1.0
    x24_37 d37 1.0
    x24_38 OBJ 4.0
    x24_38 s24 1.0
    x24_38 d38 1.0
    x24_39 OBJ 3.0
    x24_39 s24 1.0
    x24_39 d39 1.0
    x25_0 OBJ 5.0
    x25_0 s25 1.0
    x25_0 d0 1.0
    x25_1 OBJ 4.0
    x25_1 s25 1.0
    x25_1 d1 1.0
    x25_2 OBJ 6.0
    x25_2 s25 1.0
    x25_2 d2 1.0
    x25_3 OBJ 2.0
    x25_3 s25 1.0
    x25_3 d3 1.0
    x25_4 OBJ 7.0
    x25_4 s25 1.0
    x25_4 d4 1.0
    x25_5 OBJ 5.0
    x25_5 s25 1.0
    x25_5 d5 1.0
    x25_6 OBJ 4.0
    x25_6 s25 1.0
    x25_6 d6 1.0
    x25_7 OBJ 9.0
    x25_7 s25 1.0
    x25_7 d7 1.0
    x25_8 OBJ 9.0
    x25_8 s25 1.0
    x25_8 d8 1.0
    x25_9 OBJ 4.0
    x25_9 s25 1.0
    x25_9 d9 1.0
    x25_10 OBJ 2.0
    x25_10 s25 1.0
    x25_10 d10 1.0
    x25_11 OBJ 8.0
    x25_11 s25 1.0
    x25_11 d11 1.0
    x25_12 OBJ 1.0
    x25_12 s25 1.0
    x25_12 d12 1.0
    x25_13 OBJ 2.0
    x25_13 s25 1.0
    x25_13 d13 1.0
    x25_14 OBJ 1.0
    x25_14 s25 1.0
    x25_14 d14 1.0
    x25_15 OBJ 8.0
    x25_15 s25 1.0
    x25_15 d15 1.0
    x25_16 OBJ 4.0
    x25_16 s25 1.0
    x25_16 d16 1.0
    x25_17 OBJ 8.0
    x25_17 s25 1.0
    x25_17 d17 1.0
    x25_18 OBJ 6.0
    x25_18 s25 1.0
    x25_18 d18 1.0
    x25_19 OBJ 1.0
    x25_19 s25 1.0
    x25_19 d19 1.0
    x25_20 OBJ 5.0
    x25_20 s25 1.0
    x25_20 d20 1.0
    x25_21 OBJ 4.0
    x25_21 s25 1.0
    x25_21 d21 1.0
    x25_22 OBJ 2.0
    x25_22 s25 1.0
    x25_22 d22 1.0
    x25_23 OBJ 1.0
    x25_23 s25 1.0
    x25_23 d23 1.0
    x25_24 OBJ 4.0
    x25_24 s25 1.0
    x25_24 d24 1.0
    x25_25 OBJ 4.0
    x25_25 s25 1.0
    x25_25 d25 1.0
    x25_26 OBJ 2.0
    x25_26 s25 1.0
    x25_26 d26 1.0
    x25_27 OBJ 6.0
    x25_27 s25 1.0
    x25_27 d27 1.0
    x25_28 OBJ 9.0
    x25_28 s25 1.0
    x25_28 d28 1.0
    x25_29 OBJ 3.0
    x25_29 s25 1.0
    x25_29 d29 1.0
    x25_30 OBJ 8.0
    x25_30 s25 1.0
    x25_30 d30 1.0
    x25_31 OBJ 5.0
    x25_31 s25 1.0
    x25_31 d31 1.0
    x25_32 OBJ 1.0
    x25_32 s25 1.0
    x25_32 d32 1.0
    x25_33 OBJ 2.0
    x25_33 s25 1.0
    x25_33 d33 1.0
    x25_34 OBJ 6.0
    x25_34 s25 1.0
    x25_34 d34 1.0
    x25_35 OBJ 4.0
    x25_35 s25 1.0
    x25_35 d35 1.0
    x25_36 OBJ 1.0
    x25_36 s25 1.0
    x25_36 d36 1.0
    x25_37 OBJ 6.0
    x25_37 s25 1.0
    x25_37 d37 1.0
    x25_38 OBJ 6.0
    x25_38 s25 1.0
    x25_38 d38 1.0
    x25_39 OBJ 3.0
    x25_39 s25 1.0
    x25_39 d39 1.0
    x26_0 OBJ 1.0
    x26_0 s26 1.0
    x26_0 d0 1.0
    x26_1 OBJ 4.0
    x26_1 s26 1.0
    x26_1 d1 1.0
    x26_2 OBJ 5.0
    x26_2 s26 1.0
    x26_2 d2 1.0
    x26_3 OBJ 1.0
    x26_3 s26 1.0
    x26_3 d3 1.0
    x26_4 OBJ 4.0
    x26_4 s26 1.0
    x26_4 d4 1.0
    x26_5 OBJ 1.0
    x26_5 s26 1.0
    x26_5 d5 1.0
    x26_6 OBJ 6.0
    x26_6 s26 1.0
    x26_6 d6 1.0
    x26_7 OBJ 7.0
    x26_7 s26 1.0
    x26_7 d7 1.0
    x26_8 OBJ 6.0
    x26_8 s26 1.0
    x26_8 d8 1.0
    x26_9 OBJ 3.0
    x26_9 s26 1.0
    x26_9 d9 1.0
    x26_10 OBJ 5.0
    x26_10 s26 1.0
    x26_10 d10 1.0
    x26_11 OBJ 2.0
    x26_11 s26 1.0
    x26_11 d11 1.0
    x26_12 OBJ 4.0
    x26_12 s26 1.0
    x26_12 d12 1.0
    x26_13 OBJ 1.0
    x26_13 s26 1.0
    x26_13 d13 1.0
    x26_14 OBJ 8.0
    x26_14 s26 1.0
    x26_14 d14 1.0
    x26_15 OBJ 9.0
    x26_15 s26 1.0
    x26_15 d15 1.0
    x26_16 OBJ 8.0
    x26_16 s26 1.0
    x26_16 d16 1.0
    x26_17 OBJ 2.0
    x26_17 s26 1.0
    x26_17 d17 1.0
    x26_18 OBJ 7.0
    x26_18 s26 1.0
    x26_18 d18 1.0
    x26_19 OBJ 2.0
    x26_19 s26 1.0
    x26_19 d19 1.0
    x26_20 OBJ 7.0
    x26_20 s26 1.0
    x26_20 d20 1.0
    x26_21 OBJ 9.0
    x26_21 s26 1.0
    x26_21 d21 1.0
    x26_22 OBJ 3.0
    x26_22 s26 1.0
    x26_22 d22 1.0
    x26_23 OBJ 9.0
    x26_23 s26 1.0
    x26_23 d23 1.0
    x26_24 OBJ 2.0
    x26_24 s26 1.0
    x26_24 d24 1.0
    x26_25 OBJ 3.0
    x26_25 s26 1.0
    x26_25 d25 1.0
    x26_26 OBJ 7.0
    x26_26 s26 1.0
    x26_26 d26 1.0
    x26_27 OBJ 5.0
    x26_27 s26 1.0
    x26_27 d27 1.0
    x26_28 OBJ 7.0
    x26_28 s26 1.0
    x26_28 d28 1.0
    x26_29 OBJ 5.0
    x26_29 s26 1.0
    x26_29 d29 1.0
    x26_30 OBJ 5.0
    x26_30 s26 1.0
    x26_30 d30 1.0
    x26_31 OBJ 7.0
    x26_31 s26 1.0
    x26_31 d31 1.0
    x26_32 OBJ 1.0
    x26_32 s26 1.0
    x26_32 d32 1.0
    x26_33 OBJ 5.0
    x26_33 s26 1.0
    x26_33 d33 1.0
    x26_34 OBJ 6.0
    x26_34 s26 1.0
    x26_34 d34 1.0
    x26_35 OBJ 7.0
    x26_35 s26 1.0
    x26_35 d35 1.0
    x26_36 OBJ 7.0
    x26_36 s26 1.0
    x26_36 d36 1.0
    x26_37 OBJ 1.0
    x26_37 s26 1.0
    x26_37 d37 1.0
    x26_38 OBJ 6.0
    x26_38 s26 1.0
    x26_38 d38 1.0
    x26_39 OBJ 4.0
    x26_39 s26 1.0
    x26_39 d39 1.0
    x27_0 OBJ 7.0
    x27_0 s27 1.0
    x27_0 d0 1.0
    x27_1 OBJ 7.0
    x27_1 s27 1.0
    x27_1 d1 1.0
    x27_2 OBJ 4.0
    x27_2 s27 1.0
    x27_2 d2 1.0
    x27_3 OBJ 1.0
    x27_3 s27 1.0
    x27_3 d3 1.0
    x27_4 OBJ 7.0
    x27_4 s27 1.0
    x27_4 d4 1.0
    x27_5 OBJ 3.0
    x27_5 s27 1.0
    x27_5 d5 1.0
    x27_6 OBJ 7.0
    x27_6 s27 1.0
    x27_6 d6 1.0
    x27_7 OBJ 2.0
    x27_7 s27 1.0
    x27_7 d7 1.0
    x27_8 OBJ 2.0
    x27_8 s27 1.0
    x27_8 d8 1.0
    x27_9 OBJ 7.0
    x27_9 s27 1.0
    x27_9 d9 1.0
    x27_10 OBJ 6.0
    x27_10 s27 1.0
    x27_10 d10 1.0
    x27_11 OBJ 8.0
    x27_11 s27 1.0
    x27_11 d11 1.0
    x27_12 OBJ 3.0
    x27_12 s27 1.0
    x27_12 d12 1.0
    x27_13 OBJ 3.0
    x27_13 s27 1.0
    x27_13 d13 1.0
    x27_14 OBJ 1.0
    x27_14 s27 1.0
    x27_14 d14 1.0
    x27_15 OBJ 1.0
    x27_15 s27 1.0
    x27_15 d15 1.0
    x27_16 OBJ 9.0
    x27_16 s27 1.0
    x27_16 d16 1.0
    x27_17 OBJ 3.0
    x27_17 s27 1.0
    x27_17 d17 1.0
    x27_18 OBJ 7.0
    x27_18 s27 1.0
    x27_18 d18 1.0
    x27_19 OBJ 2.0
    x27_19 s27 1.0
    x27_19 d19 1.0
    x27_20 OBJ 6.0
    x27_20 s27 1.0
    x27_20 d20 1.0
    x27_21 OBJ 9.0
    x27_21 s27 1.0
    x27_21 d21 1.0
    x27_22 OBJ 3.0
    x27_22 s27 1.0
    x27_22 d22 1.0
    x27_23 OBJ 3.0
    x27_23 s27 1.0
    x27_23 d23 1.0
    x27_24 OBJ 6.0
    x27_24 s27 1.0
    x27_24 d24 1.0
    x27_25 OBJ 5.0
    x27_25 s27 1.0
    x27_25 d25 1.0
    x27_26 OBJ 3.0
    x27_26 s27 1.0
    x27_26 d26 1.0
    x27_27 OBJ 9.0
    x27_27 s27 1.0
    x27_27 d27 1.0
    x27_28 OBJ 3.0
    x27_28 s27 1.0
    x27_28 d28 1.0
    x27_29 OBJ 2.0
    x27_29 s27 1.0
    x27_29 d29 1.0
    x27_30 OBJ 2.0
    x27_30 s27 1.0
    x27_30 d30 1.0
    x27_31 OBJ 7.0
    x27_31 s27 1.0
    x27_31 d31 1.0
    x27_32 OBJ 8.0
    x27_32 s27 1.0
    x27_32 d32 1.0
    x27_33 OBJ 4.0
    x27_33 s27 1.0
    x27_33 d33 1.0
    x27_34 OBJ 5.0
    x27_34 s27 1.0
    x27_34 d34 1.0
    x27_35 OBJ 3.0
    x27_35 s27 1.0
    x27_35 d35 1.0
    x27_36 OBJ 1.0
    x27_36 s27 1.0
    x27_36 d36 1.0
    x27_37 OBJ 8.0
    x27_37 s27 1.0
    x27_37 d37 1.0
    x27_38 OBJ 6.0
    x27_38 s27 1.0
    x27_38 d38 1.0
    x27_39 OBJ 1.0
    x27_39 s27 1.0
    x27_39 d39 1.0
    x28_0 OBJ 7.0
    x28_0 s28 1.0
    x28_0 d0 1.0
    x28_1 OBJ 2.0
    x28_1 s28 1.0
    x28_1 d1 1.0
    x28_2 OBJ 3.0
    x28_2 s28 1.0
    x28_2 d2 1.0
    x28_3 OBJ 4.0
    x28_3 s28 1.0
    x28_3 d3 1.0
    x28_4 OBJ 7.0
    x28_4 s28 1.0
    x28_4 d4 1.0
    x28_5 OBJ 4.0
    x28_5 s28 1.0
    x28_5 d5 1.0
    x28_6 OBJ 8.0
    x28_6 s28 1.0
    x28_6 d6 1.0
    x28_7 OBJ 3.0
    x28_7 s28 1.0
    x28_7 d7 1.0
    x28_8 OBJ 4.0
    x28_8 s28 1.0
    x28_8 d8 1.0
    x28_9 OBJ 1.0
    x28_9 s28 1.0
    x28_9 d9 1.0
    x28_10 OBJ 7.0
    x28_10 s28 1.0
    x28_10 d10 1.0
    x28_11 OBJ 9.0
    x28_11 s28 1.0
    x28_11 d11 1.0
    x28_12 OBJ 3.0
    x28_12 s28 1.0
    x28_12 d12 1.0
    x28_13 OBJ 7.0
    x28_13 s28 1.0
    x28_13 d13 1.0
    x28_14 OBJ 6.0
    x28_14 s28 1.0
    x28_14 d14 1.0
    x28_15 OBJ 2.0
    x28_15 s28 1.0
    x28_15 d15 1.0
    x28_16 OBJ 3.0
    x28_16 s28 1.0
    x28_16 d16 1.0
    x28_17 OBJ 4.0
    x28_17 s28 1.0
    x28_17 d17 1.0
    x28_18 OBJ 4.0
    x28_18 s28 1.0
    x28_18 d18 1.0
    x28_19 OBJ 1.0
    x28_19 s28 1.0
    x28_19 d19 1.0
    x28_20 OBJ 9.0
    x28_20 s28 1.0
    x28_20 d20 1.0
    x28_21 OBJ 1.0
    x28_21 s28 1.0
    x28_21 d21 1.0
    x28_22 OBJ 6.0
    x28_22 s28 1.0
    x28_22 d22 1.0
    x28_23 OBJ 2.0
    x28_23 s28 1.0
    x28_23 d23 1.0
    x28_24 OBJ 7.0
    x28_24 s28 1.0
    x28_24 d24 1.0
    x28_25 OBJ 8.0
    x28_25 s28 1.0
    x28_25 d25 1.0
    x28_26 OBJ 9.0
    x28_26 s28 1.0
    x28_26 d26 1.0
    x28_27 OBJ 5.0
    x28_27 s28 1.0
    x28_27 d27 1.0
    x28_28 OBJ 7.0
    x28_28 s28 1.0
    x28_28 d28 1.0
    x28_29 OBJ 5.0
    x28_29 s28 1.0
    x28_29 d29 1.0
    x28_30 OBJ 4.0
    x28_30 s28 1.0
    x28_30 d30 1.0
    x28_31 OBJ 7.0
    x28_31 s28 1.0
    x28_31 d31 1.0
    x28_32 OBJ 7.0
    x28_32 s28 1.0
    x28_32 d32 1.0
    x28_33 OBJ 6.0
    x28_33 s28 1.0
    x28_33 d33 1.0
    x28_34 OBJ 8.0
    x28_34 s28 1.0
    x28_34 d34 1.0
    x28_35 OBJ 9.0
    x28_35 s28 1.0
    x28_35 d35 1.0
    x28_36 OBJ 8.0
    x28_36 s28 1.0
    x28_36 d36 1.0
    x28_37 OBJ 3.0
    x28_37 s28 1.0
    x28_37 d37 1.0
    x28_38 OBJ 1.0
    x28_38 s28 1.0
    x28_38 d38 1.0
    x28_39 OBJ 1.0
    x28_39 s28 1.0
    x28_39 d39 1.0
    x29_0 OBJ 8.0
    x29_0 s29 1.0
    x29_0 d0 1.0
    x29_1 OBJ 8.0
    x29_1 s29 1.0
    x29_1 d1 1.0
    x29_2 OBJ 4.0
    x29_2 s29 1.0
    x29_2 d2 1.0
    x29_3 OBJ 8.0
    x29_3 s29 1.0
    x29_3 d3 1.0
    x29_4 OBJ 8.0
    x29_4 s29 1.0
    x29_4 d4 1.0
    x29_5 OBJ 3.0
    x29_5 s29 1.0
    x29_5 d5 1.0
    x29_6 OBJ 8.0
    x29_6 s29 1.0
    x29_6 d6 1.0
    x29_7 OBJ 7.0
    x29_7 s29 1.0
    x29_7 d7 1.0
    x29_8 OBJ 2.0
    x29_8 s29 1.0
    x29_8 d8 1.0
    x29_9 OBJ 2.0
    x29_9 s29 1.0
    x29_9 d9 1.0
    x29_10 OBJ 3.0
    x29_10 s29 1.0
    x29_10 d10 1.0
    x29_11 OBJ 6.0
    x29_11 s29 1.0
    x29_11 d11 1.0
    x29_12 OBJ 7.0
    x29_12 s29 1.0
    x29_12 d12 1.0
    x29_13 OBJ 6.0
    x29_13 s29 1.0
    x29_13 d13 1.0
    x29_14 OBJ 2.0
    x29_14 s29 1.0
    x29_14 d14 1.0
    x29_15 OBJ 8.0
    x29_15 s29 1.0
    x29_15 d15 1.0
    x29_16 OBJ 9.0
    x29_16 s29 1.0
    x29_16 d16 1.0
    x29_17 OBJ 9.0
    x29_17 s29 1.0
    x29_17 d17 1.0
    x29_18 OBJ 1.0
    x29_18 s29 1.0
    x29_18 d18 1.0
    x29_19 OBJ 1.0
    x29_19 s29 1.0
    x29_19 d19 1.0
    x29_20 OBJ 3.0
    x29_20 s29 1.0
    x29_20 d20 1.0
    x29_21 OBJ 2.0
    x29_21 s29 1.0
    x29_21 d21 1.0
    x29_22 OBJ 6.0
    x29_22 s29 1.0
    x29_22 d22 1.0
    x29_23 OBJ 9.0
    x29_23 s29 1.0
    x29_23 d23 1.0
    x29_24 OBJ 2.0
    x29_24 s29 1.0
    x29_24 d24 1.0
    x29_25 OBJ 1.0
    x29_25 s29 1.0
    x29_25 d25 1.0
    x29_26 OBJ 9.0
    x29_26 s29 1.0
    x29_26 d26 1.0
    x29_27 OBJ 7.0
    x29_27 s29 1.0
    x29_27 d27 1.0
    x29_28 OBJ 3.0
    x29_28 s29 1.0
    x29_28 d28 1.0
    x29_29 OBJ 1.0
    x29_29 s29 1.0
    x29_29 d29 1.0
    x29_30 OBJ 2.0
    x29_30 s29 1.0
    x29_30 d30 1.0
    x29_31 OBJ 2.0
    x29_31 s29 1.0
    x29_31 d31 1.0
    x29_32 OBJ 4.0
    x29_32 s29 1.0
    x29_32 d32 1.0
    x29_33 OBJ 3.0
    x29_33 s29 1.0
    x29_33 d33 1.0
    x29_34 OBJ 8.0
    x29_34 s29 1.0
    x29_34 d34 1.0
    x29_35 OBJ 5.0
    x29_35 s29 1.0
    x29_35 d35 1.0
    x29_36 OBJ 3.0
    x29_36 s29 1.0
    x29_36 d36 1.0
    x29_37 OBJ 4.0
    x29_37 s29 1.0
    x29_37 d37 1.0
    x29_38 OBJ 2.0
    x29_38 s29 1.0
    x29_38 d38 1.0
    x29_39 OBJ 6.0
    x29_39 s29 1.0
    x29_39 d39 1.0
    x30_0 OBJ 5.0
    x30_0 s30 1.0
    x30_0 d0 1.0
    x30_1 OBJ 3.0
    x30_1 s30 1.0
    x30_1 d1 1.0
    x30_2 OBJ 6.0
    x30_2 s30 1.0
    x30_2 d2 1.0
    x30_3 OBJ 5.0
    x30_3 s30 1.0
    x30_3 d3 1.0
    x30_4 OBJ 8.0
    x30_4 s30 1.0
    x30_4 d4 1.0
    x30_5 OBJ 3.0
    x30_5 s30 1.0
    x30_5 d5 1.0
    x30_6 OBJ 5.0
    x30_6 s30 1.0
    x30_6 d6 1.0
    x30_7 OBJ 9.0
    x30_7 s30 1.0
    x30_7 d7 1.0
    x30_8 OBJ 8.0
    x30_8 s30 1.0
    x30_8 d8 1.0
    x30_9 OBJ 4.0
    x30_9 s30 1.0
    x30_9 d9 1.0
    x30_10 OBJ 5.0
    x30_10 s30 1.0
    x30_10 d10 1.0
    x30_11 OBJ 9.0
    x30_11 s30 1.0
    x30_11 d11 1.0
    x30_12 OBJ 4.0
    x30_12 s30 1.0
    x30_12 d12 1.0
    x30_13 OBJ 6.0
    x30_13 s30 1.0
    x30_13 d13 1.0
    x30_14 OBJ 6.0
    x30_14 s30 1.0
    x30_14 d14 1.0
    x30_15 OBJ 1.0
    x30_15 s30 1.0
    x30_15 d15 1.0
    x30_16 OBJ 4.0
    x30_16 s30 1.0
    x30_16 d16 1.0
    x30_17 OBJ 3.0
    x30_17 s30 1.0
    x30_17 d17 1.0
    x30_18 OBJ 7.0
    x30_18 s30 1.0
    x30_18 d18 1.0
    x30_19 OBJ 3.0
    x30_19 s30 1.0
    x30_19 d19 1.0
    x30_20 OBJ 5.0
    x30_20 s30 1.0
    x30_20 d20 1.0
    x30_21 OBJ 6.0
    x30_21 s30 1.0
    x30_21 d21 1.0
    x30_22 OBJ 7.0
    x30_22 s30 1.0
    x30_22 d22 1.0
    x30_23 OBJ 3.0
    x30_23 s30 1.0
    x30_23 d23 1.0
    x30_24 OBJ 5.0
    x30_24 s30 1.0
    x30_24 d24 1.0
    x30_25 OBJ 2.0
    x30_25 s30 1.0
    x30_25 d25 1.0
    x30_26 OBJ 9.0
    x30_26 s30 1.0
    x30_26 d26 1.0
    x30_27 OBJ 1.0
    x30_27 s30 1.0
    x30_27 d27 1.0
    x30_28 OBJ 6.0
    x30_28 s30 1.0
    x30_28 d28 1.0
    x30_29 OBJ 8.0
    x30_29 s30 1.0
    x30_29 d29 1.0
    x30_30 OBJ 9.0
    x30_30 s30 1.0
    x30_30 d30 1.0
    x30_31 OBJ 9.0
    x30_31 s30 1.0
    x30_31 d31 1.0
    x30_32 OBJ 2.0
    x30_32 s30 1.0
    x30_32 d32 1.0
    x30_33 OBJ 5.0
    x30_33 s30 1.0
    x30_33 d33 1.0
    x30_34 OBJ 9.0
    x30_34 s30 1.0
    x30_34 d34 1.0
    x30_35 OBJ 7.0
    x30_35 s30 1.0
    x30_35 d35 1.0
    x30_36 OBJ 6.0
    x30_36 s30 1.0
    x30_36 d36 1.0
    x30_37 OBJ 5.0
    x30_37 s30 1.0
    x30_37 d37 1.0
    x30_38 OBJ 7.0
    x30_38 s30 1.0
    x30_38 d38 1.0
    x30_39 OBJ 6.0
    x30_39 s30 1.0
    x30_39 d39 1.0
    x31_0 OBJ 3.0
    x31_0 s31 1.0
    x31_0 d0 1.0
    x31_1 OBJ 6.0
    x31_1 s31 1.0
    x31_1 d1 1.0
    x31_2 OBJ 6.0
    x31_2 s31 1.0
    x31_2 d2 1.0
    x31_3 OBJ 2.0
    x31_3 s31 1.0
    x31_3 d3 1.0
    x31_4 OBJ 8.0
    x31_4 s31 1.0
    x31_4 d4 1.0
    x31_5 OBJ 4.0
    x31_5 s31 1.0
    x31_5 d5 1.0
    x31_6 OBJ 3.0
    x31_6 s31 1.0
    x31_6 d6 1.0
    x31_7 OBJ 1.0
    x31_7 s31 1.0
    x31_7 d7 1.0
    x31_8 OBJ 5.0
    x31_8 s31 1.0
    x31_8 d8 1.0
    x31_9 OBJ 9.0
    x31_9 s31 1.0
    x31_9 d9 1.0
    x31_10 OBJ 5.0
    x31_10 s31 1.0
    x31_10 d10 1.0
    x31_11 OBJ 5.0
    x31_11 s31 1.0
    x31_11 d11 1.0
    x31_12 OBJ 6.0
    x31_12 s31 1.0
    x31_12 d12 1.0
    x31_13 OBJ 1.0
    x31_13 s31 1.0
    x31_13 d13 1.0
    x31_14 OBJ 1.0
    x31_14 s31 1.0
    x31_14 d14 1.0
    x31_15 OBJ 4.0
    x31_15 s31 1.0
    x31_15 d15 1.0
    x31_16 OBJ 3.0
    x31_16 s31 1.0
    x31_16 d16 1.0
    x31_17 OBJ 5.0
    x31_17 s31 1.0
    x31_17 d17 1.0
    x31_18 OBJ 7.0
    x31_18 s31 1.0
    x31_18 d18 1.0
    x31_19 OBJ 7.0
    x31_19 s31 1.0
    x31_19 d19 1.0
    x31_20 OBJ 9.0
    x31_20 s31 1.0
    x31_20 d20 1.0
    x31_21 OBJ 6.0
    x31_21 s31 1.0
    x31_21 d21 1.0
    x31_22 OBJ 1.0
    x31_22 s31 1.0
    x31_22 d22 1.0
    x31_23 OBJ 3.0
    x31_23 s31 1.0
    x31_23 d23 1.0
    x31_24 OBJ 8.0
    x31_24 s31 1.0
    x31_24 d24 1.0
    x31_25 OBJ 4.0
    x31_25 s31 1.0
    x31_25 d25 1.0
    x31_26 OBJ 1.0
    x31_26 s31 1.0
    x31_26 d26 1.0
    x31_27 OBJ 1.0
    x31_27 s31 1.0
    x31_27 d27 1.0
    x31_28 OBJ 1.0
    x31_28 s31 1.0
    x31_28 d28 1.0
    x31_29 OBJ 1.0
    x31_29 s31 1.0
    x31_29 d29 1.0
    x31_30 OBJ 6.0
    x31_30 s31 1.0
    x31_30 d30 1.0
    x31_31 OBJ 5.0
    x31_31 s31 1.0
    x31_31 d31 1.0
    x31_32 OBJ 2.0
    x31_32 s31 1.0
    x31_32 d32 1.0
    x31_33 OBJ 9.0
    x31_33 s31 1.0
    x31_33 d33 1.0
    x31_34 OBJ 6.0
    x31_34 s31 1.0
    x31_34 d34 1.0
    x31_35 OBJ 9.0
    x31_35 s31 1.0
    x31_35 d35 1.0
    x31_36 OBJ 4.0
    x31_36 s31 1.0
    x31_36 d36 1.0
    x31_37 OBJ 7.0
    x31_37 s31 1.0
    x31_37 d37 1.0
    x31_38 OBJ 5.0
    x31_38 s31 1.0
    x31_38 d38 1.0
    x31_39 OBJ 3.0
    x31_39 s31 1.0
    x31_39 d39 1.0
    x32_0 OBJ 4.0
    x32_0 s32 1.0
    x32_0 d0 1.0
    x32_1 OBJ 6.0
    x32_1 s32 1.0
    x32_1 d1 1.0
    x32_2 OBJ 8.0
    x32_2 s32 1.0
    x32_2 d2 1.0
    x32_3 OBJ 3.0
    x32_3 s32 1.0
    x32_3 d3 1.0
    x32_4 OBJ 3.0
    x32_4 s32 1.0
    x32_4 d4 1.0
    x32_5 OBJ 1.0
    x32_5 s32 1.0
    x32_5 d5 1.0
    x32_6 OBJ 4.0
    x32_6 s32 1.0
    x32_6 d6 1.0
    x32_7 OBJ 3.0
    x32_7 s32 1.0
    x32_7 d7 1.0
    x32_8 OBJ 8.0
    x32_8 s32 1.0
    x32_8 d8 1.0
    x32_9 OBJ 2.0
    x32_9 s32 1.0
    x32_9 d9 1.0
    x32_10 OBJ 2.0
    x32_10 s32 1.0
    x32_10 d10 1.0
    x32_11 OBJ 3.0
    x32_11 s32 1.0
    x32_11 d11 1.0
    x32_12 OBJ 5.0
    x32_12 s32 1.0
    x32_12 d12 1.0
    x32_13 OBJ 7.0
    x32_13 s32 1.0
    x32_13 d13 1.0
    x32_14 OBJ 5.0
    x32_14 s32 1.0
    x32_14 d14 1.0
    x32_15 OBJ 1.0
    x32_15 s32 1.0
    x32_15 d15 1.0
    x32_16 OBJ 1.0
    x32_16 s32 1.0
    x32_16 d16 1.0
    x32_17 OBJ 9.0
    x32_17 s32 1.0
    x32_17 d17 1.0
    x32_18 OBJ 6.0
    x32_18 s32 1.0
    x32_18 d18 1.0
    x32_19 OBJ 8.0
    x32_19 s32 1.0
    x32_19 d19 1.0
    x32_20 OBJ 9.0
    x32_20 s32 1.0
    x32_20 d20 1.0
    x32_21 OBJ 8.0
    x32_21 s32 1.0
    x32_21 d21 1.0
    x32_22 OBJ 4.0
    x32_22 s32 1.0
    x32_22 d22 1.0
    x32_23 OBJ 3.0
    x32_23 s32 1.0
    x32_23 d23 1.0
    x32_24 OBJ 1.0
    x32_24 s32 1.0
    x32_24 d24 1.0
    x32_25 OBJ 1.0
    x32_25 s32 1.0
    x32_25 d25 1.0
    x32_26 OBJ 1.0
    x32_26 s32 1.0
    x32_26 d26 1.0
    x32_27 OBJ 9.0
    x32_27 s32 1.0
    x32_27 d27 1.0
    x32_28 OBJ 1.0
    x32_28 s32 1.0
    x32_28 d28 1.0
    x32_29 OBJ 7.0
    x32_29 s32 1.0
    x32_29 d29 1.0
    x32_30 OBJ 3.0
    x32_30 s32 1.0
    x32_30 d30 1.0
    x32_31 OBJ 4.0
    x32_31 s32 1.0
    x32_31 d31 1.0
    x32_32 OBJ 3.0
    x32_32 s32 1.0
    x32_32 d32 1.0
    x32_33 OBJ 1.0
    x32_33 s32 1.0
    x32_33 d33 1.0
    x32_34 OBJ 2.0
    x32_34 s32 1.0
    x32_34 d34 1.0
    x32_35 OBJ 1.0
    x32_35 s32 1.0
    x32_35 d35 1.0
    x32_36 OBJ 9.0
    x32_36 s32 1.0
    x32_36 d36 1.0
    x32_37 OBJ 4.0
    x32_37 s32 1.0
    x32_37 d37 1.0
    x32_38 OBJ 3.0
    x32_38 s32 1.0
    x32_38 d38 1.0
    x32_39 OBJ 7.0
    x32_39 s32 1.0
    x32_39 d39 1.0
    x33_0 OBJ 4.0
    x33_0 s33 1.0
    x33_0 d0 1.0
    x33_1 OBJ 9.0
    x33_1 s33 1.0
    x33_1 d1 1.0
    x33_2 OBJ 9.0
    x33_2 s33 1.0
    x33_2 d2 1.0
    x33_3 OBJ 7.0
    x33_3 s33 1.0
    x33_3 d3 1.0
    x33_4 OBJ 3.0
    x33_4 s33 1.0
    x33_4 d4 1.0
    x33_5 OBJ 9.0
    x33_5 s33 1.0
    x33_5 d5 1.0
    x33_6 OBJ 5.0
    x33_6 s33 1.0
    x33_6 d6 1.0
    x33_7 OBJ 2.0
    x33_7 s33 1.0
    x33_7 d7 1.0
    x33_8 OBJ 5.0
    x33_8 s33 1.0
    x33_8 d8 1.0
    x33_9 OBJ 1.0
    x33_9 s33 1.0
    x33_9 d9 1.0
    x33_10 OBJ 8.0
    x33_10 s33 1.0
    x33_10 d10 1.0
    x33_11 OBJ 9.0
    x33_11 s33 1.0
    x33_11 d11 1.0
    x33_12 OBJ 1.0
    x33_12 s33 1.0
    x33_12 d12 1.0
    x33_13 OBJ 7.0
    x33_13 s33 1.0
    x33_13 d13 1.0
    x33_14 OBJ 7.0
    x33_14 s33 1.0
    x33_14 d14 1.0
    x33_15 OBJ 8.0
    x33_15 s33 1.0
    x33_15 d15 1.0
    x33_16 OBJ 2.0
    x33_16 s33 1.0
    x33_16 d16 1.0
    x33_17 OBJ 8.0
    x33_17 s33 1.0
    x33_17 d17 1.0
    x33_18 OBJ 3.0
    x33_18 s33 1.0
    x33_18 d18 1.0
    x33_19 OBJ 4.0
    x33_19 s33 1.0
    x33_19 d19 1.0
    x33_20 OBJ 2.0
    x33_20 s33 1.0
    x33_20 d20 1.0
    x33_21 OBJ 5.0
    x33_21 s33 1.0
    x33_21 d21 1.0
    x33_22 OBJ 4.0
    x33_22 s33 1.0
    x33_22 d22 1.0
    x33_23 OBJ 1.0
    x33_23 s33 1.0
    x33_23 d23 1.0
    x33_24 OBJ 2.0
    x33_24 s33 1.0
    x33_24 d24 1.0
    x33_25 OBJ 6.0
    x33_25 s33 1.0
    x33_25 d25 1.0
    x33_26 OBJ 5.0
    x33_26 s33 1.0
    x33_26 d26 1.0
    x33_27 OBJ 1.0
    x33_27 s33 1.0
    x33_27 d27 1.0
    x33_28 OBJ 5.0
    x33_28 s33 1.0
    x33_28 d28 1.0
    x33_29 OBJ 9.0
    x33_29 s33 1.0
    x33_29 d29 1.0
    x33_30 OBJ 7.0
    x33_30 s33 1.0
    x33_30 d30 1.0
    x33_31 OBJ 9.0
    x33_31 s33 1.0
    x33_31 d31 1.0
    x33_32 OBJ 5.0
    x33_32 s33 1.0
    x33_32 d32 1.0
    x33_33 OBJ 5.0
    x33_33 s33 1.0
    x33_33 d33 1.0
    x33_34 OBJ 4.0
    x33_34 s33 1.0
    x33_34 d34 1.0
    x33_35 OBJ 2.0
    x33_35 s33 1.0
    x33_35 d35 1.0
    x33_36 OBJ 9.0
    x33_36 s33 1.0
    x33_36 d36 1.0
    x33_37 OBJ 1.0
    x33_37 s33 1.0
    x33_37 d37 1.0
    x33_38 OBJ 3.0
    x33_38 s33 1.0
    x33_38 d38 1.0
    x33_39 OBJ 5.0
    x33_39 s33 1.0
    x33_39 d39 1.0
    x34_0 OBJ 4.0
    x34_0 s34 1.0
    x34_0 d0 1.0
    x34_1 OBJ 4.0
    x34_1 s34 1.0
    x34_1 d1 1.0
    x34_2 OBJ 3.0
    x34_2 s34 1.0
    x34_2 d2 1.0
    x34_3 OBJ 6.0
    x34_3 s34 1.0
    x34_3 d3 1.0
    x34_4 OBJ 4.0
    x34_4 s34 1.0
    x34_4 d4 1.0
    x34_5 OBJ 7.0
    x34_5 s34 1.0
    x34_5 d5 1.0
    x34_6 OBJ 6.0
    x34_6 s34 1.0
    x34_6 d6 1.0
    x34_7 OBJ 4.0
    x34_7 s34 1.0
    x34_7 d7 1.0
    x34_8 OBJ 7.0
    x34_8 s34 1.0
    x34_8 d8 1.0
    x34_9 OBJ 9.0
    x34_9 s34 1.0
    x34_9 d9 1.0
    x34_10 OBJ 8.0
    x34_10 s34 1.0
    x34_10 d10 1.0
    x34_11 OBJ 8.0
    x34_11 s34 1.0
    x34_11 d11 1.0
    x34_12 OBJ 9.0
    x34_12 s34 1.0
    x34_12 d12 1.0
    x34_13 OBJ 1.0
    x34_13 s34 1.0
    x34_13 d13 1.0
    x34_14 OBJ 1.0
    x34_14 s34 1.0
    x34_14 d14 1.0
    x34_15 OBJ 7.0
    x34_15 s34 1.0
    x34_15 d15 1.0
    x34_16 OBJ 4.0
    x34_16 s34 1.0
    x34_16 d16 1.0
    x34_17 OBJ 5.0
    x34_17 s34 1.0
    x34_17 d17 1.0
    x34_18 OBJ 4.0
    x34_18 s34 1.0
    x34_18 d18 1.0
    x34_19 OBJ 7.0
    x34_19 s34 1.0
    x34_19 d19 1.0
    x34_20 OBJ 2.0
    x34_20 s34 1.0
    x34_20 d20 1.0
    x34_21 OBJ 3.0
    x34_21 s34 1.0
    x34_21 d21 1.0
    x34_22 OBJ 3.0
    x34_22 s34 1.0
    x34_22 d22 1.0
    x34_23 OBJ 1.0
    x34_23 s34 1.0
    x34_23 d23 1.0
    x34_24 OBJ 1.0
    x34_24 s34 1.0
    x34_24 d24 1.0
    x34_25 OBJ 2.0
    x34_25 s34 1.0
    x34_25 d25 1.0
    x34_26 OBJ 2.0
    x34_26 s34 1.0
    x34_26 d26 1.0
    x34_27 OBJ 3.0
    x34_27 s34 1.0
    x34_27 d27 1.0
    x34_28 OBJ 6.0
    x34_28 s34 1.0
    x34_28 d28 1.0
    x34_29 OBJ 3.0
    x34_29 s34 1.0
    x34_29 d29 1.0
    x34_30 OBJ 1.0
    x34_30 s34 1.0
    x34_30 d30 1.0
    x34_31 OBJ 1.0
    x34_31 s34 1.0
    x34_31 d31 1.0
    x34_32 OBJ 1.0
    x34_32 s34 1.0
    x34_32 d32 1.0
    x34_33 OBJ 3.0
    x34_33 s34 1.0
    x34_33 d33 1.0
    x34_34 OBJ 1.0
    x34_34 s34 1.0
    x34_34 d34 1.0
    x34_35 OBJ 2.0
    x34_35 s34 1.0
    x34_35 d35 1.0
    x34_36 OBJ 1.0
    x34_36 s34 1.0
    x34_36 d36 1.0
    x34_37 OBJ 2.0
    x34_37 s34 1.0
    x34_37 d37 1.0
    x34_38 OBJ 6.0
    x34_38 s34 1.0
    x34_38 d38 1.0
    x34_39 OBJ 4.0
    x34_39 s34 1.0
    x34_39 d39 1.0
    x35_0 OBJ 9.0
    x35_0 s35 1.0
    x35_0 d0 1.0
    x35_1 OBJ 2.0
    x35_1 s35 1.0
    x35_1 d1 1.0
    x35_2 OBJ 7.0
    x35_2 s35 1.0
    x35_2 d2 1.0
    x35_3 OBJ 2.0
    x35_3 s35 1.0
    x35_3 d3 1.0
    x35_4 OBJ 4.0
    x35_4 s35 1.0
    x35_4 d4 1.0
    x35_5 OBJ 4.0
    x35_5 s35 1.0
    x35_5 d5 1.0
    x35_6 OBJ 4.0
    x35_6 s35 1.0
    x35_6 d6 1.0
    x35_7 OBJ 2.0
    x35_7 s35 1.0
    x35_7 d7 1.0
    x35_8 OBJ 1.0
    x35_8 s35 1.0
    x35_8 d8 1.0
    x35_9 OBJ 1.0
    x35_9 s35 1.0
    x35_9 d9 1.0
    x35_10 OBJ 2.0
    x35_10 s35 1.0
    x35_10 d10 1.0
    x35_11 OBJ 5.0
    x35_11 s35 1.0
    x35_11 d11 1.0
    x35_12 OBJ 8.0
    x35_12 s35 1.0
    x35_12 d12 1.0
    x35_13 OBJ 2.0
    x35_13 s35 1.0
    x35_13 d13 1.0
    x35_14 OBJ 3.0
    x35_14 s35 1.0
    x35_14 d14 1.0
    x35_15 OBJ 2.0
    x35_15 s35 1.0
    x35_15 d15 1.0
    x35_16 OBJ 4.0
    x35_16 s35 1.0
    x35_16 d16 1.0
    x35_17 OBJ 5.0
    x35_17 s35 1.0
    x35_17 d17 1.0
    x35_18 OBJ 6.0
    x35_18 s35 1.0
    x35_18 d18 1.0
    x35_19 OBJ 6.0
    x35_19 s35 1.0
    x35_19 d19 1.0
    x35_20 OBJ 7.0
    x35_20 s35 1.0
    x35_20 d20 1.0
    x35_21 OBJ 5.0
    x35_21 s35 1.0
    x35_21 d21 1.0
    x35_22 OBJ 1.0
    x35_22 s35 1.0
    x35_22 d22 1.0
    x35_23 OBJ 6.0
    x35_23 s35 1.0
    x35_23 d23 1.0
    x35_24 OBJ 5.0
    x35_24 s35 1.0
    x35_24 d24 1.0
    x35_25 OBJ 5.0
    x35_25 s35 1.0
    x35_25 d25 1.0
    x35_26 OBJ 1.0
    x35_26 s35 1.0
    x35_26 d26 1.0
    x35_27 OBJ 6.0
    x35_27 s35 1.0
    x35_27 d27 1.0
    x35_28 OBJ 6.0
    x35_28 s35 1.0
    x35_28 d28 1.0
    x35_29 OBJ 9.0
    x35_29 s35 1.0
    x35_29 d29 1.0
    x35_30 OBJ 8.0
    x35_30 s35 1.0
    x35_30 d30 1.0
    x35_31 OBJ 5.0
    x35_31 s35 1.0
    x35_31 d31 1.0
    x35_32 OBJ 1.0
    x35_32 s35 1.0
    x35_32 d32 1.0
    x35_33 OBJ 7.0
    x35_33 s35 1.0
    x35_33 d33 1.0
    x35_34 OBJ 1.0
    x35_34 s35 1.0
    x35_34 d34 1.0
    x35_35 OBJ 7.0
    x35_35 s35 1.0
    x35_35 d35 1.0
    x35_36 OBJ 9.0
    x35_36 s35 1.0
    x35_36 d36 1.0
    x35_37 OBJ 2.0
    x35_37 s35 1.0
    x35_37 d37 1.0
    x35_38 OBJ 6.0
    x35_38 s35 1.0
    x35_38 d38 1.0
    x35_39 OBJ 8.0
    x35_39 s35 1.0
    x35_39 d39 1.0
    x36_0 OBJ 1.0
    x36_0 s36 1.0
    x36_0 d0 1.0
    x36_1 OBJ 9.0
    x36_1 s36 1.0
    x36_1 d1 1.0
    x36_2 OBJ 4.0
    x36_2 s36 1.0
    x36_2 d2 1.0
    x36_3 OBJ 2.0
    x36_3 s36 1.0
    x36_3 d3 1.0
    x36_4 OBJ 5.0
    x36_4 s36 1.0
    x36_4 d4 1.0
    x36_5 OBJ 3.0
    x36_5 s36 1.0
    x36_5 d5 1.0
    x36_6 OBJ 7.0
    x36_6 s36 1.0
    x36_6 d6 1.0
    x36_7 OBJ 1.0
    x36_7 s36 1.0
    x36_7 d7 1.0
    x36_8 OBJ 9.0
    x36_8 s36 1.0
    x36_8 d8 1.0
    x36_9 OBJ 4.0
    x36_9 s36 1.0
    x36_9 d9 1.0
    x36_10 OBJ 5.0
    x36_10 s36 1.0
    x36_10 d10 1.0
    x36_11 OBJ 1.0
    x36_11 s36 1.0
    x36_11 d11 1.0
    x36_12 OBJ 1.0
    x36_12 s36 1.0
    x36_12 d12 1.0
    x36_13 OBJ 6.0
    x36_13 s36 1.0
    x36_13 d13 1.0
    x36_14 OBJ 8.0
    x36_14 s36 1.0
    x36_14 d14 1.0
    x36_15 OBJ 2.0
    x36_15 s36 1.0
    x36_15 d15 1.0
    x36_16 OBJ 8.0
    x36_16 s36 1.0
    x36_16 d16 1.0
    x36_17 OBJ 3.0
    x36_17 s36 1.0
    x36_17 d17 1.0
    x36_18 OBJ 8.0
    x36_18 s36 1.0
    x36_18 d18 1.0
    x36_19 OBJ 6.0
    x36_19 s36 1.0
    x36_19 d19 1.0
    x36_20 OBJ 9.0
    x36_20 s36 1.0
    x36_20 d20 1.0
    x36_21 OBJ 5.0
    x36_21 s36 1.0
    x36_21 d21 1.0
    x36_22 OBJ 3.0
    x36_22 s36 1.0
    x36_22 d22 1.0
    x36_23 OBJ 5.0
    x36_23 s36 1.0
    x36_23 d23 1.0
    x36_24 OBJ 4.0
    x36_24 s36 1.0
    x36_24 d24 1.0
    x36_25 OBJ 4.0
    x36_25 s36 1.0
    x36_25 d25 1.0
    x36_26 OBJ 8.0
    x36_26 s36 1.0
    x36_26 d26 1.0
    x36_27 OBJ 3.0
    x36_27 s36 1.0
    x36_27 d27 1.0
    x36_28 OBJ 2.0
    x36_28 s36 1.0
    x36_28 d28 1.0
    x36_29 OBJ 2.0
    x36_29 s36 1.0
    x36_29 d29 1.0
    x36_30 OBJ 8.0
    x36_30 s36 1.0
    x36_30 d30 1.0
    x36_31 OBJ 9.0
    x36_31 s36 1.0
    x36_31 d31 1.0
    x36_32 OBJ 2.0
    x36_32 s36 1.0
    x36_32 d32 1.0
    x36_33 OBJ 6.0
    x36_33 s36 1.0
    x36_33 d33 1.0
    x36_34 OBJ 6.0
    x36_34 s36 1.0
    x36_34 d34 1.0
    x36_35 OBJ 2.0
    x36_35 s36 1.0
    x36_35 d35 1.0
    x36_36 OBJ 7.0
    x36_36 s36 1.0
    x36_36 d36 1.0
    x36_37 OBJ 7.0
    x36_37 s36 1.0
    x36_37 d37 1.0
    x36_38 OBJ 2.0
    x36_38 s36 1.0
    x36_38 d38 1.0
    x36_39 OBJ 7.0
    x36_39 s36 1.0
    x36_39 d39 1.0
    x37_0 OBJ 1.0
    x37_0 s37 1.0
    x37_0 d0 1.0
    x37_1 OBJ 6.0
    x37_1 s37 1.0
    x37_1 d1 1.0
    x37_2 OBJ 4.0
    x37_2 s37 1.0
    x37_2 d2 1.0
    x37_3 OBJ 5.0
    x37_3 s37 1.0
    x37_3 d3 1.0
    x37_4 OBJ 5.0
    x37_4 s37 1.0
    x37_4 d4 1.0
    x37_5 OBJ 7.0
    x37_5 s37 1.0
    x37_5 d5 1.0
    x37_6 OBJ 9.0
    x37_6 s37 1.0
    x37_6 d6 1.0
    x37_7 OBJ 9.0
    x37_7 s37 1.0
    x37_7 d7 1.0
    x37_8 OBJ 3.0
    x37_8 s37 1.0
    x37_8 d8 1.0
    x37_9 OBJ 7.0
    x37_9 s37 1.0
    x37_9 d9 1.0
    x37_10 OBJ 4.0
    x37_10 s37 1.0
    x37_10 d10 1.0
    x37_11 OBJ 8.0
    x37_11 s37 1.0
    x37_11 d11 1.0
    x37_12 OBJ 3.0
    x37_12 s37 1.0
    x37_12 d12 1.0
    x37_13 OBJ 9.0
    x37_13 s37 1.0
    x37_13 d13 1.0
    x37_14 OBJ 1.0
    x37_14 s37 1.0
    x37_14 d14 1.0
    x37_15 OBJ 6.0
    x37_15 s37 1.0
    x37_15 d15 1.0
    x37_16 OBJ 6.0
    x37_16 s37 1.0
    x37_16 d16 1.0
    x37_17 OBJ 9.0
    x37_17 s37 1.0
    x37_17 d17 1.0
    x37_18 OBJ 3.0
    x37_18 s37 1.0
    x37_18 d18 1.0
    x37_19 OBJ 8.0
    x37_19 s37 1.0
    x37_19 d19 1.0
    x37_20 OBJ 9.0
    x37_20 s37 1.0
    x37_20 d20 1.0
    x37_21 OBJ 6.0
    x37_21 s37 1.0
    x37_21 d21 1.0
    x37_22 OBJ 3.0
    x37_22 s37 1.0
    x37_22 d22 1.0
    x37_23 OBJ 8.0
    x37_23 s37 1.0
    x37_23 d23 1.0
    x37_24 OBJ 8.0
    x37_24 s37 1.0
    x37_24 d24 1.0
    x37_25 OBJ 5.0
    x37_25 s37 1.0
    x37_25 d25 1.0
    x37_26 OBJ 4.0
    x37_26 s37 1.0
    x37_26 d26 1.0
    x37_27 OBJ 3.0
    x37_27 s37 1.0
    x37_27 d27 1.0
    x37_28 OBJ 6.0
    x37_28 s37 1.0
    x37_28 d28 1.0
    x37_29 OBJ 8.0
    x37_29 s37 1.0
    x37_29 d29 1.0
    x37_30 OBJ 4.0
    x37_30 s37 1.0
    x37_30 d30 1.0
    x37_31 OBJ 9.0
    x37_31 s37 1.0
    x37_31 d31 1.0
    x37_32 OBJ 4.0
    x37_32 s37 1.0
    x37_32 d32 1.0
    x37_33 OBJ 5.0
    x37_33 s37 1.0
    x37_33 d33 1.0
    x37_34 OBJ 5.0
    x37_34 s37 1.0
    x37_34 d34 1.0
    x37_35 OBJ 3.0
    x37_35 s37 1.0
    x37_35 d35 1.0
    x37_36 OBJ 3.0
    x37_36 s37 1.0
    x37_36 d36 1.0
    x37_37 OBJ 4.0
    x37_37 s37 1.0
    x37_37 d37 1.0
    x37_38 OBJ 6.0
    x37_38 s37 1.0
    x37_38 d38 1.0
    x37_39 OBJ 9.0
    x37_39 s37 1.0
    x37_39 d39 1.0
    x38_0 OBJ 6.0
    x38_0 s38 1.0
    x38_0 d0 1.0
    x38_1 OBJ 3.0
    x38_1 s38 1.0
    x38_1 d1 1.0
    x38_2 OBJ 4.0
    x38_2 s38 1.0
    x38_2 d2 1.0
    x38_3 OBJ 6.0
    x38_3 s38 1.0
    x38_3 d3 1.0
    x38_4 OBJ 4.0
    x38_4 s38 1.0
    x38_4 d4 1.0
    x38_5 OBJ 5.0
    x38_5 s38 1.0
    x38_5 d5 1.0
    x38_6 OBJ 2.0
    x38_6 s38 1.0
    x38_6 d6 1.0
    x38_7 OBJ 3.0
    x38_7 s38 1.0
    x38_7 d7 1.0
    x38_8 OBJ 2.0
    x38_8 s38 1.0
    x38_8 d8 1.0
    x38_9 OBJ 4.0
    x38_9 s38 1.0
    x38_9 d9 1.0
    x38_10 OBJ 7.0
    x38_10 s38 1.0
    x38_10 d10 1.0
    x38_11 OBJ 3.0
    x38_11 s38 1.0
    x38_11 d11 1.0
    x38_12 OBJ 3.0
    x38_12 s38 1.0
    x38_12 d12 1.0
    x38_13 OBJ 5.0
    x38_13 s38 1.0
    x38_13 d13 1.0
    x38_14 OBJ 5.0
    x38_14 s38 1.0
    x38_14 d14 1.0
    x38_15 OBJ 7.0
    x38_15 s38 1.0
    x38_15 d15 1.0
    x38_16 OBJ 5.0
    x38_16 s38 1.0
    x38_16 d16 1.0
    x38_17 OBJ 4.0
    x38_17 s38 1.0
    x38_17 d17 1.0
    x38_18 OBJ 2.0
    x38_18 s38 1.0
    x38_18 d18 1.0
    x38_19 OBJ 2.0
    x38_19 s38 1.0
    x38_19 d19 1.0
    x38_20 OBJ 5.0
    x38_20 s38 1.0
    x38_20 d20 1.0
    x38_21 OBJ 4.0
    x38_21 s38 1.0
    x38_21 d21 1.0
    x38_22 OBJ 7.0
    x38_22 s38 1.0
    x38_22 d22 1.0
    x38_23 OBJ 8.0
    x38_23 s38 1.0
    x38_23 d23 1.0
    x38_24 OBJ 1.0
    x38_24 s38 1.0
    x38_24 d24 1.0
    x38_25 OBJ 1.0
    x38_25 s38 1.0
    x38_25 d25 1.0
    x38_26 OBJ 7.0
    x38_26 s38 1.0
    x38_26 d26 1.0
    x38_27 OBJ 7.0
    x38_27 s38 1.0
    x38_27 d27 1.0
    x38_28 OBJ 4.0
    x38_28 s38 1.0
    x38_28 d28 1.0
    x38_29 OBJ 9.0
    x38_29 s38 1.0
    x38_29 d29 1.0
    x38_30 OBJ 5.0
    x38_30 s38 1.0
    x38_30 d30 1.0
    x38_31 OBJ 8.0
    x38_31 s38 1.0
    x38_31 d31 1.0
    x38_32 OBJ 1.0
    x38_32 s38 1.0
    x38_32 d32 1.0
    x38_33 OBJ 3.0
    x38_33 s38 1.0
    x38_33 d33 1.0
    x38_34 OBJ 5.0
    x38_34 s38 1.0
    x38_34 d34 1.0
    x38_35 OBJ 7.0
    x38_35 s38 1.0
    x38_35 d35 1.0
    x38_36 OBJ 1.0
    x38_36 s38 1.0
    x38_36 d36 1.0
    x38_37 OBJ 4.0
    x38_37 s38 1.0
    x38_37 d37 1.0
    x38_38 OBJ 7.0
    x38_38 s38 1.0
    x38_38 d38 1.0
    x38_39 OBJ 7.0
    x38_39 s38 1.0
    x38_39 d39 1.0
    x39_0 OBJ 4.0
    x39_0 s39 1.0
    x39_0 d0 1.0
    x39_1 OBJ 4.0
    x39_1 s39 1.0
    x39_1 d1 1.0
    x39_2 OBJ 3.0
    x39_2 s39 1.0
    x39_2 d2 1.0
    x39_3 OBJ 2.0
    x39_3 s39 1.0
    x39_3 d3 1.0
    x39_4 OBJ 8.0
    x39_4 s39 1.0
    x39_4 d4 1.0
    x39_5 OBJ 7.0
    x39_5 s39 1.0
    x39_5 d5 1.0
    x39_6 OBJ 6.0
    x39_6 s39 1.0
    x39_6 d6 1.0
    x39_7 OBJ 5.0
    x39_7 s39 1.0
    x39_7 d7 1.0
    x39_8 OBJ 2.0
    x39_8 s39 1.0
    x39_8 d8 1.0
    x39_9 OBJ 7.0
    x39_9 s39 1.0
    x39_9 d9 1.0
    x39_10 OBJ 4.0
    x39_10 s39 1.0
    x39_10 d10 1.0
    x39_11 OBJ 7.0
    x39_11 s39 1.0
    x39_11 d11 1.0
    x39_12 OBJ 3.0
    x39_12 s39 1.0
    x39_12 d12 1.0
    x39_13 OBJ 5.0
    x39_13 s39 1.0
    x39_13 d13 1.0
    x39_14 OBJ 7.0
    x39_14 s39 1.0
    x39_14 d14 1.0
    x39_15 OBJ 8.0
    x39_15 s39 1.0
    x39_15 d15 1.0
    x39_16 OBJ 8.0
    x39_16 s39 1.0
    x39_16 d16 1.0
    x39_17 OBJ 1.0
    x39_17 s39 1.0
    x39_17 d17 1.0
    x39_18 OBJ 7.0
    x39_18 s39 1.0
    x39_18 d18 1.0
    x39_19 OBJ 9.0
    x39_19 s39 1.0
    x39_19 d19 1.0
    x39_20 OBJ 3.0
    x39_20 s39 1.0
    x39_20 d20 1.0
    x39_21 OBJ 6.0
    x39_21 s39 1.0
    x39_21 d21 1.0
    x39_22 OBJ 1.0
    x39_22 s39 1.0
    x39_22 d22 1.0
    x39_23 OBJ 7.0
    x39_23 s39 1.0
    x39_23 d23 1.0
    x39_24 OBJ 8.0
    x39_24 s39 1.0
    x39_24 d24 1.0
    x39_25 OBJ 2.0
    x39_25 s39 1.0
    x39_25 d25 1.0
    x39_26 OBJ 1.0
    x39_26 s39 1.0
    x39_26 d26 1.0
    x39_27 OBJ 5.0
    x39_27 s39 1.0
    x39_27 d27 1.0
    x39_28 OBJ 9.0
    x39_28 s39 1.0
    x39_28 d28 1.0
    x39_29 OBJ 4.0
    x39_29 s39 1.0
    x39_29 d29 1.0
    x39_30 OBJ 3.0
    x39_30 s39 1.0
    x39_30 d30 1.0
    x39_31 OBJ 4.0
    x39_31 s39 1.0
    x39_31 d31 1.0
    x39_32 OBJ 9.0
    x39_32 s39 1.0
    x39_32 d32 1.0
    x39_33 OBJ 6.0
    x39_33 s39 1.0
    x39_33 d33 1.0
    x39_34 OBJ 2.0
    x39_34 s39 1.0
    x39_34 d34 1.0
    x39_35 OBJ 8.0
    x39_35 s39 1.0
    x39_35 d35 1.0
    x39_36 OBJ 9.0
    x39_36 s39 1.0
    x39_36 d36 1.0
    x39_37 OBJ 4.0
    x39_37 s39 1.0
    x39_37 d37 1.0
    x39_38 OBJ 8.0
    x39_38 s39 1.0
    x39_38 d38 1.0
    x39_39 OBJ 9.0
    x39_39 s39 1.0
    x39_39 d39 1.0
RHS
    RHS s0 10.0
    RHS s1 10.0
    RHS s2 10.0
    RHS s3 10.0
    RHS s4 10.0
    RHS s5 10.0
    RHS s6 10.0
    RHS s7 10.0
    RHS s8 10.0
    RHS s9 10.0
    RHS s10 10.0
    RHS s11 10.0
    RHS s12 10.0
    RHS s13 10.0
    RHS s14 10.0
    RHS s15 10.0
    RHS s16 10.0
    RHS s17 10.0
    RHS s18 10.0
    RHS s19 10.0
    RHS s20 10.0
    RHS s21 10.0
    RHS s22 10.0
    RHS s23 10.0
    RHS s24 10.0
    RHS s25 10.0
    RHS s26 10.0
    RHS s27 10.0
    RHS s28 10.0
    RHS s29 10.0
    RHS s30 10.0
    RHS s31 10.0
    RHS s32 10.0
    RHS s33 10.0
    RHS s34 10.0
    RHS s35 10.0
    RHS s36 10.0
    RHS s37 10.0
    RHS s38 10.0
    RHS s39 10.0
    RHS d0 10.0
    RHS d1 10.0
    RHS d2 10.0
    RHS d3 10.0
    RHS d4 10.0
    RHS d5 10.0
    RHS d6 10.0
    RHS d7 10.0
    RHS d8 10.0
    RHS d9 10.0
    RHS d10 10.0
    RHS d11 10.0
    RHS d12 10.0
    RHS d13 10.0
    RHS d14 10.0
    RHS d15 10.0
    RHS d16 10.0
    RHS d17 10.0
    RHS d18 10.0
    RHS d19 10.0
    RHS d20 10.0
    RHS d21 10.0
    RHS d22 10.0
    RHS d23 10.0
    RHS d24 10.0
    RHS d25 10.0
    RHS d26 10.0
    RHS d27 10.0
    RHS d28 10.0
    RHS d29 10.0
    RHS d30 10.0
    RHS d31 10.0
    RHS d32 10.0
    RHS d33 10.0
    RHS d34 10.0
    RHS d35 10.0
    RHS d36 10.0
    RHS d37 10.0
    RHS d38 10.0
    RHS d39 10.0
BOUNDS
ENDATA
